
#######################################################################
#
#                 Cambridge Crystallographic Data Centre
#                                CCDC 
#
#######################################################################
#
# If this CIF has been generated directly or indirectly from an entry in the 
# Cambridge Structural Database, then it will include bibliographic, chemical, 
# crystal, experimental, refinement or atomic coordinate data resulting from 
# the CCDC's data processing and validation procedures. Files generated from 
# CSD entries are Copyright 2015 Cambridge Crystallographic Data Centre. They 
# may be used in bona fide research applications only, and may not be copied or 
# further disseminated in any form, whether machine-readable or not, except for 
# the purposes of generating routine backup copies on your local computer 
# system.
# 
# Files arising from any other source may also contain material that is the 
# copyright of third parties, including the originator, and you should check 
# with the originator concerning the permitted uses of the information 
# contained in this CIF.
#
# For further information on the CCDC and the free tools enCIFer and Mercury
# for validating and visualising CIF files, please visit www.ccdc.cam.ac.uk
#
#######################################################################

data_LEKGIS
_audit_creation_date             2006-11-23
_database_code_depnum_ccdc_archive 'CCDC 177810'
_chemical_formula_moiety         'C36 H56 N8 2+,2(O4 Re1 1-),3(H2 O1)'
_chemical_name_systematic        
'1,11,14,17,29,36-hexa-aza-di-azoniapentacyclo(12.12.12.2^6,9^.2^19,22^.2^31,34^)tetratetraconta-6,8,19,21,31,33,39,41,43-nonaene bis(tetraoxo-rhenium) trihydrate'
_journal_coden_Cambridge         955
_journal_year                    2004
_journal_page_first              151
_journal_name_full               'Fund.Applications Anion Sep.'
loop_
_publ_author_name
H.Stephan
K.Gloe
W.Kraus
H.Spies
B.Johannsen
K.Wichmann
G.Reck
D.K.Chand
P.K.Bharadwaj
U.Muller
W.M.Muller
F.Vogtle
_chemical_absolute_configuration unk
_diffrn_ambient_temperature      293
_exptl_crystal_density_meas      1.716
_exptl_crystal_density_diffrn    1.729
#These two values have been output from a single CSD field.
_refine_ls_R_factor_gt           0.0979
_refine_ls_wR_factor_gt          0.0979
_diffrn_radiation_probe          x-ray
_symmetry_cell_setting           monoclinic
_symmetry_space_group_name_H-M   'P 21'
_symmetry_Int_Tables_number      4
loop_
_symmetry_equiv_pos_site_id
_symmetry_equiv_pos_as_xyz
1 x,y,z
2 -x,1/2+y,-z
_cell_length_a                   15.05(3)
_cell_length_b                   17.42(3)
_cell_length_c                   16.97(3)
_cell_angle_alpha                90
_cell_angle_beta                 93.77(4)
_cell_angle_gamma                90
_cell_volume                     4439.41
_exptl_crystal_colour            white
_cell_formula_units_Z            4
loop_
_atom_site_label
_atom_site_type_symbol
_atom_site_fract_x
_atom_site_fract_y
_atom_site_fract_z
Re1 Re 0.33726(12) 0.0646(4) 0.88467(10)
O1 O 0.3276(16) 0.1187(18) 0.9661(15)
O2 O 0.4196(18) 0.0013(17) 0.9059(14)
O3 O 0.3733(15) 0.1262(16) 0.8173(17)
O4 O 0.2339(14) 0.0375(17) 0.8533(14)
Re2 Re 0.04929(11) -0.0474(4) 0.98415(9)
O13 O -0.0414(13) -0.0668(17) 1.0316(15)
O14 O 0.030(2) 0.0358(13) 0.9362(15)
O15 O 0.055(2) -0.1159(14) 0.9154(14)
O16 O 0.1379(14) -0.057(2) 1.0469(13)
Re3 Re 0.53708(12) 0.4564(4) 0.51013(9)
O5 O 0.4356(13) 0.4416(19) 0.4596(13)
O6 O 0.6215(14) 0.4527(18) 0.4466(14)
O7 O 0.531(2) 0.5472(11) 0.5507(14)
O8 O 0.553(2) 0.3896(13) 0.5850(14)
Re4 Re 0.84301(12) 0.5683(4) 0.61871(10)
O9 O 0.860(2) 0.6147(13) 0.5337(13)
O10 O 0.8845(18) 0.6210(16) 0.6965(13)
O11 O 0.7343(13) 0.5511(15) 0.6269(18)
O12 O 0.9037(17) 0.4876(13) 0.6265(18)
O17 O 0.4001(19) 0.463(2) 1.0743(16)
O18 O 0.7040(19) 0.0437(18) 0.5233(16)
O19 O 0.7546(19) 0.0433(16) 0.9972(15)
O20 O 1.077(2) 0.433(2) 0.600(2)
O21 O 0.771(2) 0.015(2) 0.3862(19)
O22 O 0.848(3) 0.092(2) 0.870(2)
N1 N 0.891(2) 0.1452(16) 1.1823(16)
N2 N 0.7961(18) 0.2966(17) 1.1672(16)
H1 H 0.8092 0.2875 1.1196
N3 N 0.7543(18) 0.0336(18) 1.2222(18)
H2 H 0.7376 0.0765 1.2414
N4 N 0.8099(15) 0.1942(15) 1.0366(13)
H3 H 0.7733 0.1737 1.0672
N5 N 0.3292(18) 0.2057(17) 1.2672(17)
H4 H 0.3056 0.1644 1.2478
N6 N 0.2959(17) 0.1109(15) 1.1244(14)
H5 H 0.3344 0.1443 1.1116
N7 N 0.3608(16) 0.3226(16) 1.0118(15)
H6 H 0.3882 0.3281 1.0575
N8 N 0.229(2) 0.2630(16) 1.1208(15)
C1 C 0.926(2) 0.221(2) 1.221(3)
H7 H 0.9607 0.2105 1.2701
H8 H 0.9622 0.2489 1.1859
C2 C 0.845(2) 0.263(2) 1.2358(19)
H9 H 0.8052 0.2291 1.2616
H10 H 0.8611 0.3044 1.2726
C3 C 0.723(2) 0.3469(19) 1.186(2)
H11 H 0.6999 0.3722 1.1380
H12 H 0.7457 0.3863 1.2223
C4 C 0.6474(16) 0.3056(15) 1.2223(16)
C5 C 0.6153(18) 0.2345(16) 1.1950(15)
H13 H 0.6440 0.2084 1.1561
C6 C 0.5399(19) 0.2024(16) 1.2260(17)
H14 H 0.5185 0.1551 1.2078
C7 C 0.4965(17) 0.2415(17) 1.2844(17)
C8 C 0.5287(19) 0.3127(17) 1.3117(16)
H15 H 0.4999 0.3387 1.3506
C9 C 0.6041(19) 0.3447(16) 1.2807(17)
H16 H 0.6255 0.3920 1.2989
C10 C 0.4129(19) 0.208(3) 1.316(2)
H17 H 0.4266 0.1562 1.3321
H18 H 0.4015 0.2369 1.3631
C11 C 0.291(2) 0.2820(18) 1.256(2)
H19 H 0.3322 0.3154 1.2311
H20 H 0.2781 0.3040 1.3065
C12 C 0.209(2) 0.274(3) 1.206(2)
H21 H 0.1725 0.3200 1.2101
H22 H 0.1748 0.2307 1.2230
C13 C 0.899(3) 0.079(2) 1.242(2)
H23 H 0.9609 0.0637 1.2514
H24 H 0.8776 0.0954 1.2921
C14 C 0.847(2) 0.013(2) 1.213(2)
H25 H 0.8562 0.0034 1.1574
H26 H 0.8627 -0.0330 1.2427
C15 C 0.6940(16) -0.0276(19) 1.195(2)
H27 H 0.7027 -0.0710 1.2305
H28 H 0.7099 -0.0441 1.1432
C16 C 0.5965(14) -0.0063(14) 1.1899(14)
C17 C 0.5620(15) 0.0223(13) 1.1184(13)
H29 H 0.5993 0.0313 1.0778
C18 C 0.4719(15) 0.0375(14) 1.1073(13)
H30 H 0.4487 0.0567 1.0592
C19 C 0.4164(14) 0.0242(16) 1.1674(15)
C20 C 0.4510(16) -0.0044(18) 1.2389(15)
H31 H 0.4137 -0.0133 1.2796
C21 C 0.5409(16) -0.0195(17) 1.2500(14)
H32 H 0.5642 -0.0387 1.2981
C22 C 0.3168(17) 0.0346(16) 1.156(2)
H33 H 0.2920 -0.0041 1.1198
H34 H 0.2903 0.0282 1.2062
C23 C 0.1996(19) 0.122(2) 1.118(2)
H35 H 0.1764 0.1194 1.1699
H36 H 0.1716 0.0813 1.0857
C24 C 0.180(4) 0.196(2) 1.082(3)
H37 H 0.1170 0.2060 1.0824
H38 H 0.1950 0.1943 1.0271
C25 C 0.933(3) 0.127(2) 1.104(2)
H39 H 0.9976 0.1271 1.1123
H40 H 0.9148 0.0763 1.0860
C26 C 0.9062(15) 0.1834(17) 1.0430(16)
H41 H 0.9349 0.2321 1.0557
H42 H 0.9257 0.1663 0.9925
C27 C 0.7847(16) 0.2449(18) 0.9705(16)
H43 H 0.7977 0.2200 0.9215
H44 H 0.8198 0.2916 0.9753
C28 C 0.6870(14) 0.2649(14) 0.9683(13)
C29 C 0.6308(15) 0.2034(13) 0.9607(14)
H45 H 0.6538 0.1539 0.9606
C30 C 0.5408(15) 0.2146(15) 0.9531(15)
H46 H 0.5026 0.1727 0.9480
C31 C 0.5068(15) 0.2874(16) 0.9531(15)
C32 C 0.5631(17) 0.3489(15) 0.9608(16)
H47 H 0.5401 0.3984 0.9609
C33 C 0.6532(15) 0.3378(15) 0.9683(15)
H48 H 0.6914 0.3797 0.9735
C34 C 0.4086(17) 0.305(3) 0.9419(18)
H49 H 0.4015 0.3488 0.9063
H50 H 0.3795 0.2618 0.9155
C35 C 0.2643(18) 0.330(3) 1.000(2)
H51 H 0.2401 0.2852 0.9728
H52 H 0.2497 0.3748 0.9682
C36 C 0.224(3) 0.338(2) 1.076(2)
H53 H 0.1616 0.3523 1.0666
H54 H 0.2538 0.3775 1.1072
N9 N 1.259(2) 0.2542(16) 0.6107(14)
N10 N 1.1911(16) 0.1015(14) 0.6218(13)
H55 H 1.1496 0.1347 0.6119
N11 N 1.1086(16) 0.3090(17) 0.5070(15)
H56 H 1.0896 0.3070 0.5536
N12 N 1.1779(18) 0.1951(18) 0.7606(17)
H57 H 1.1996 0.1532 0.7434
N13 N 0.7601(18) 0.0482(18) 0.7218(16)
H58 H 0.7843 0.0929 0.7251
N14 N 0.6633(14) 0.1967(14) 0.5467(13)
H59 H 0.7039 0.1768 0.5783
N15 N 0.7029(18) 0.3070(17) 0.6750(16)
H60 H 0.6782 0.2961 0.6292
N16 N 0.614(2) 0.1589(17) 0.6986(15)
C37 C 1.307(3) 0.1930(18) 0.578(2)
H61 H 1.3707 0.2034 0.5852
H62 H 1.2919 0.1896 0.5215
C38 C 1.2869(18) 0.119(2) 0.616(2)
H63 H 1.3155 0.1194 0.6689
H64 H 1.3133 0.0783 0.5869
C39 C 1.1734(17) 0.0221(17) 0.646(2)
H65 H 1.2086 0.0107 0.6947
H66 H 1.1913 -0.0130 0.6058
C40 C 1.0780(12) 0.0106(12) 0.6585(12)
C41 C 1.0532(13) -0.0132(11) 0.7311(12)
H67 H 1.0963 -0.0228 0.7717
C42 C 0.9646(14) -0.0229(13) 0.7437(12)
H68 H 0.9478 -0.0390 0.7928
C43 C 0.9008(13) -0.0089(15) 0.6837(13)
C44 C 0.9256(13) 0.0150(15) 0.6111(13)
H69 H 0.8825 0.0246 0.5706
C45 C 1.0143(14) 0.0246(14) 0.5985(12)
H70 H 1.0310 0.0407 0.5494
C46 C 0.8068(17) -0.0220(19) 0.700(2)
H71 H 0.7758 -0.0440 0.6534
H72 H 0.8044 -0.0589 0.7426
C47 C 0.666(2) 0.032(2) 0.738(2)
H73 H 0.6352 0.0119 0.6902
H74 H 0.6644 -0.0064 0.7786
C48 C 0.619(3) 0.102(2) 0.763(2)
H75 H 0.5599 0.0885 0.7765
H76 H 0.6512 0.1237 0.8089
C49 C 1.257(3) 0.325(3) 0.568(2)
H77 H 1.3172 0.3390 0.5580
H78 H 1.2328 0.3645 0.6005
C50 C 1.2032(18) 0.322(2) 0.4918(18)
H79 H 1.2243 0.2810 0.4594
H80 H 1.2092 0.3701 0.4637
C51 C 1.0503(15) 0.300(2) 0.4347(15)
H81 H 1.0721 0.2576 0.4042
H82 H 1.0532 0.3460 0.4031
C52 C 0.9565(13) 0.2850(13) 0.4503(12)
C53 C 0.8983(14) 0.3448(13) 0.4642(14)
H83 H 0.9194 0.3949 0.4682
C54 C 0.8086(14) 0.3296(14) 0.4723(14)
H84 H 0.7697 0.3697 0.4816
C55 C 0.7769(13) 0.2547(14) 0.4665(13)
C56 C 0.8351(15) 0.1949(13) 0.4524(14)
H85 H 0.8140 0.1448 0.4484
C57 C 0.9247(14) 0.2101(13) 0.4445(13)
H86 H 0.9636 0.1700 0.4353
C58 C 0.6813(17) 0.241(2) 0.4756(17)
H87 H 0.6511 0.2900 0.4775
H88 H 0.6564 0.2136 0.4295
C59 C 0.5664(16) 0.191(2) 0.5571(17)
H89 H 0.5413 0.2409 0.5673
H90 H 0.5352 0.1691 0.5105
C60 C 0.560(3) 0.140(2) 0.6260(18)
H91 H 0.4983 0.1377 0.6387
H92 H 0.5766 0.0883 0.6101
C61 C 1.289(2) 0.266(2) 0.6914(17)
H93 H 1.3240 0.3124 0.6953
H94 H 1.3271 0.2234 0.7083
C62 C 1.216(2) 0.2719(19) 0.746(2)
H95 H 1.1695 0.3053 0.7227
H96 H 1.2386 0.2944 0.7952
C63 C 1.0994(16) 0.198(2) 0.8077(18)
H97 H 1.1190 0.2208 0.8580
H98 H 1.0840 0.1451 0.8187
C64 C 1.0156(16) 0.2368(15) 0.7811(16)
C65 C 0.9853(18) 0.3018(16) 0.8169(15)
H99 H 1.0151 0.3204 0.8626
C66 C 0.9110(18) 0.3391(16) 0.7849(16)
H100 H 0.8905 0.3830 0.8091
C67 C 0.8667(17) 0.3117(15) 0.7172(16)
C68 C 0.8971(16) 0.2467(15) 0.6814(14)
H101 H 0.8672 0.2281 0.6356
C69 C 0.9714(16) 0.2094(14) 0.7134(15)
H102 H 0.9919 0.1655 0.6891
C70 C 0.7852(18) 0.352(2) 0.687(3)
H103 H 0.7740 0.3931 0.7236
H104 H 0.7971 0.3754 0.6371
C71 C 0.667(3) 0.282(3) 0.7502(19)
H105 H 0.7124 0.2542 0.7817
H106 H 0.6504 0.3268 0.7801
C72 C 0.589(3) 0.233(2) 0.732(3)
H107 H 0.5590 0.2237 0.7806
H108 H 0.5472 0.2589 0.6954

#END

