
#######################################################################
#
#                 Cambridge Crystallographic Data Centre
#                                CCDC 
#
#######################################################################
#
# If this CIF has been generated directly or indirectly from an entry in the 
# Cambridge Structural Database, then it will include bibliographic, chemical, 
# crystal, experimental, refinement or atomic coordinate data resulting from 
# the CCDC's data processing and validation procedures. Files generated from 
# CSD entries are Copyright 2015 Cambridge Crystallographic Data Centre. They 
# may be used in bona fide research applications only, and may not be copied or 
# further disseminated in any form, whether machine-readable or not, except for 
# the purposes of generating routine backup copies on your local computer 
# system.
# 
# Files arising from any other source may also contain material that is the 
# copyright of third parties, including the originator, and you should check 
# with the originator concerning the permitted uses of the information 
# contained in this CIF.
#
# For further information on the CCDC and the free tools enCIFer and Mercury
# for validating and visualising CIF files, please visit www.ccdc.cam.ac.uk
#
#######################################################################

data_PAJDUZ
_audit_creation_date             1994-01-28
_database_code_depnum_ccdc_fiz   'CSD 56305'
_database_code_NBS               637743
_chemical_formula_moiety         
'C90 H60 N6 O6,3(C1 H2 Cl2),3(C1 H4 O1),1.3(H2 O1)'
_chemical_name_systematic        
'5,24,32,51,56,75-Hexaoxa-96,97,99,100,101,102-hexa-azanonadecacyclo(26.26.22.2^6,9^.2^13,16^.2^20,23^.2^33,36^.2^40,43^.2^47,50^.2^57,60^.2^64,67^.2^71,74^.1^3,53^.1^10,14^.1^15,19^.1^26,30^.1^37,41^.1^42,46^.1^61,65^.1^66,70^)dohecta-pentatetracontaene dichloromethane clathrate methanol solvate hydrate'
_journal_coden_Cambridge         48
_journal_volume                  125
_journal_year                    1992
_journal_page_first              1873
_journal_name_full               Chem.Ber.
loop_
_publ_author_name
I.Luer
K.Rissanen
F.Vogtle
_chemical_absolute_configuration unk
_diffrn_ambient_temperature      295
_exptl_crystal_density_meas      1.246
_exptl_crystal_density_diffrn    1.25
#These two values have been output from a single CSD field.
_refine_ls_R_factor_gt           0.104
_refine_ls_wR_factor_gt          0.104
_diffrn_radiation_probe          x-ray
_symmetry_cell_setting           triclinic
_symmetry_space_group_name_H-M   'P -1'
_symmetry_Int_Tables_number      2
loop_
_symmetry_equiv_pos_site_id
_symmetry_equiv_pos_as_xyz
1 x,y,z
2 -x,-y,-z
_cell_length_a                   13.762(3)
_cell_length_b                   18.030(2)
_cell_length_c                   18.811(2)
_cell_angle_alpha                93.84(1)
_cell_angle_beta                 103.06(1)
_cell_angle_gamma                95.82(1)
_cell_volume                     4503.89
_exptl_crystal_colour            yellowish
_chemical_melting_point          '282-285 deg.C'
_cell_formula_units_Z            2
loop_
_atom_site_label
_atom_site_type_symbol
_atom_site_fract_x
_atom_site_fract_y
_atom_site_fract_z
C1 C 0.7669(5) 0.2720(5) 0.0155(4)
C2 C 0.8216(6) 0.2866(5) 0.0875(4)
C3 C 0.8861(5) 0.3516(4) 0.1132(4)
C4 C 0.9432(6) 0.3635(5) 0.1906(4)
O1 O 0.8710(4) 0.3594(4) 0.2350(3)
C5 C 0.9027(6) 0.3467(5) 0.3070(4)
C6 C 1.0017(5) 0.3531(5) 0.3455(4)
C7 C 1.0234(5) 0.3364(5) 0.4168(4)
C8 C 0.9498(6) 0.3137(5) 0.4510(4)
C9 C 0.9709(6) 0.2913(5) 0.5289(4)
C10 C 1.0670(7) 0.2727(7) 0.5631(5)
C11 C 1.0823(7) 0.2512(6) 0.6313(5)
C12 C 1.0043(7) 0.2450(6) 0.6677(5)
C13 C 0.9107(6) 0.2663(5) 0.6291(4)
C14 C 0.8290(7) 0.2624(5) 0.6657(4)
C15 C 0.8424(7) 0.2383(5) 0.7353(4)
C16 C 0.7589(7) 0.2352(5) 0.7678(4)
C17 C 0.6686(7) 0.2525(6) 0.7296(5)
C18 C 0.6594(6) 0.2735(5) 0.6571(4)
C19 C 0.5633(6) 0.2904(5) 0.6110(4)
C20 C 0.4740(7) 0.2845(6) 0.6336(5)
C21 C 0.3863(7) 0.3016(7) 0.5886(5)
C22 C 0.3843(6) 0.3230(6) 0.5214(4)
O2 O 0.2927(4) 0.3364(4) 0.4818(3)
C23 C 0.2899(6) 0.3698(6) 0.4140(5)
C24 C 0.2913(6) 0.3146(5) 0.3497(4)
C25 C 0.2946(8) 0.2390(6) 0.3551(5)
C26 C 0.3015(9) 0.1911(6) 0.2948(5)
C27 C 0.3051(9) 0.2194(6) 0.2305(5)
C28 C 0.3001(6) 0.2946(5) 0.2232(4)
C29 C 0.3063(6) 0.3261(5) 0.1529(4)
O3 O 0.2047(4) 0.3192(3) 0.1074(3)
C30 C 0.1918(5) 0.3428(4) 0.0389(4)
C31 C 0.2673(5) 0.3751(4) 0.0106(4)
C32 C 0.2436(5) 0.3972(5) -0.0602(4)
C33 C 0.1455(5) 0.3883(4) -0.1037(4)
C34 C 0.1246(5) 0.4119(4) -0.1782(4)
C35 C 0.0239(5) 0.4191(5) -0.2162(4)
C36 C 0.0078(5) 0.4383(5) -0.2857(4)
C37 C 0.0872(5) 0.4521(5) -0.3204(4)
C38 C 0.1854(5) 0.4461(4) -0.2781(4)
C39 C 0.2693(5) 0.4633(4) -0.3111(4)
C40 C 0.2515(6) 0.4854(5) -0.3821(4)
C41 C 0.3351(7) 0.5050(6) -0.4099(4)
C42 C 0.4293(5) 0.5005(5) -0.3690(4)
C43 C 0.4405(5) 0.4751(4) -0.2998(4)
C44 C 0.5427(5) 0.4645(4) -0.2552(4)
C45 C 0.6229(6) 0.4569(5) -0.2861(4)
C46 C 0.7153(5) 0.4461(5) -0.2451(4)
C47 C 0.7294(5) 0.4441(4) -0.1704(4)
O4 O 0.8243(3) 0.4306(3) -0.1339(2)
C48 C 0.8550(5) 0.4532(5) -0.0575(4)
C49 C 0.8411(5) 0.3919(4) -0.0092(4)
C50 C 0.7771(5) 0.3258(4) -0.0335(4)
C51 C 0.6899(6) 0.2026(5) -0.0051(4)
O5 O 0.6701(4) 0.1784(3) -0.0801(3)
C52 C 0.5915(6) 0.1219(5) -0.1045(5)
C53 C 0.5396(7) 0.0871(5) -0.0610(5)
C54 C 0.4573(7) 0.0351(5) -0.0914(5)
C55 C 0.4256(7) 0.0163(5) -0.1651(5)
C56 C 0.3298(7) -0.0336(5) -0.1972(6)
C57 C 0.306(1) -0.0674(8) -0.2695(7)
C58 C 0.214(1) -0.1065(9) -0.2952(7)
C59 C 0.1480(8) -0.1204(6) -0.2503(6)
C60 C 0.1792(7) -0.0876(5) -0.1772(6)
C61 C 0.1164(7) -0.1005(5) -0.1278(6)
C62 C 0.0227(7) -0.1438(5) -0.1544(6)
C63 C -0.0373(8) -0.1584(6) -0.1030(7)
C64 C -0.0033(8) -0.1290(6) -0.0322(7)
C65 C 0.0888(7) -0.0817(5) -0.0115(6)
C66 C 0.1274(7) -0.0447(5) 0.0643(6)
C67 C 0.2226(7) -0.0092(5) 0.0880(6)
C68 C 0.2596(8) 0.0270(6) 0.1581(6)
C69 C 0.198(1) 0.0275(6) 0.2053(6)
O6 O 0.2229(9) 0.0617(5) 0.2752(5)
C70 C 0.310(1) 0.1054(8) 0.3021(7)
C71 C 0.8264(6) 0.3254(6) 0.3411(4)
C72 C 0.8499(6) 0.3100(6) 0.4116(4)
C73 C 1.0152(8) 0.2232(6) 0.7402(5)
C74 C 0.9263(8) 0.2195(6) 0.7716(4)
C75 C 0.5599(6) 0.3128(5) 0.5425(4)
C76 C 0.4720(6) 0.3299(6) 0.4969(4)
C77 C 0.0934(5) 0.3325(4) -0.0028(4)
C78 C 0.0717(5) 0.3551(4) -0.0718(4)
C79 C 0.0729(6) 0.4722(5) -0.3926(4)
C80 C 0.1509(6) 0.4877(5) -0.4233(4)
C81 C 0.5587(5) 0.4626(4) -0.1802(4)
C82 C 0.6511(5) 0.4525(4) -0.1374(4)
C83 C 0.5649(7) 0.1034(6) -0.1792(5)
C84 C 0.4833(8) 0.0503(6) -0.2094(5)
C85 C 0.0524(9) -0.1635(7) -0.2737(7)
C86 C -0.0084(8) -0.1746(6) -0.2290(7)
C87 C 0.0654(8) -0.0441(6) 0.1152(7)
C88 C 0.101(1) -0.0073(7) 0.1847(7)
C89 C 0.8933(5) 0.4042(5) 0.0641(4)
N1 N 0.8959(4) 0.2891(4) 0.5615(3)
N2 N 0.7371(5) 0.2791(4) 0.6271(3)
C90 C 0.2939(6) 0.3410(5) 0.2829(4)
N3 N 0.2013(4) 0.4256(3) -0.2088(3)
N4 N 0.3627(4) 0.4570(3) -0.2712(3)
N5 N 0.2699(6) -0.0452(4) -0.1513(4)
N6 N 0.1463(5) -0.0688(4) -0.0581(4)
Cl1 Cl 0.4666(3) 0.2914(2) -0.1144(2)
Cl2 Cl 0.3253(3) 0.2114(2) -0.2392(2)
C91 C 0.3531(6) 0.2963(4) -0.1807(4)
Cl3 Cl 0.1822(3) 0.1767(2) -0.0905(2)
Cl4 Cl 0.3501(4) 0.1596(3) 0.0281(2)
C92 C 0.2719(9) 0.1157(5) -0.0558(5)
Cl5 Cl 0.5668(3) 0.4181(4) 0.0504(2)
Cl6 Cl 0.5821(4) 0.3387(5) 0.1789(5)
C93 C 0.6440(7) 0.4102(7) 0.1385(4)
O7 O 0.2141(5) 0.5724(4) 0.4281(4)
C95 C 0.631(2) 0.070(2) 0.609(2)
O9 O 0.525(2) 0.071(3) 0.599(3)
C96 C 0.085(3) 0.090(3) 0.443(2)
O11 O 0.186(3) 0.112(2) 0.483(2)
C97 C 0.676(5) 0.111(8) 0.483(7)
O12 O 0.575(3) 0.097(3) 0.441(2)
C98 C 0.894(4) 0.038(3) 0.597(2)
O13 O 0.863(3) 0.078(3) 0.535(2)
C100 C 1.077(3) 0.042(2) 0.670(2)
O15 O 0.982(3) 0.016(2) 0.623(2)
C101 C 0.561(3) 0.275(2) 0.333(2)
O16 O 0.581(2) 0.211(1) 0.370(1)
O17 O 0.524(3) 0.172(2) 0.213(2)
C94? C 0.645(4) 0.138(3) 0.464(3)
O8? O 0.585(2) 0.167(2) 0.403(2)
O10? O 0.730(2) 0.071(2) 0.600(2)
C99? C 0.348(4) 0.094(4) 0.566(4)
O14? O 0.252(4) 0.119(3) 0.544(3)

#END

