
#######################################################################
#
#                 Cambridge Crystallographic Data Centre
#                                CCDC 
#
#######################################################################
#
# If this CIF has been generated directly or indirectly from an entry in the 
# Cambridge Structural Database, then it will include bibliographic, chemical, 
# crystal, experimental, refinement or atomic coordinate data resulting from 
# the CCDC's data processing and validation procedures. Files generated from 
# CSD entries are Copyright 2015 Cambridge Crystallographic Data Centre. They 
# may be used in bona fide research applications only, and may not be copied or 
# further disseminated in any form, whether machine-readable or not, except for 
# the purposes of generating routine backup copies on your local computer 
# system.
# 
# Files arising from any other source may also contain material that is the 
# copyright of third parties, including the originator, and you should check 
# with the originator concerning the permitted uses of the information 
# contained in this CIF.
#
# For further information on the CCDC and the free tools enCIFer and Mercury
# for validating and visualising CIF files, please visit www.ccdc.cam.ac.uk
#
#######################################################################

data_REFVUT01
_audit_creation_date             2004-12-09
_database_code_depnum_ccdc_archive 'CCDC 245008'
_chemical_formula_moiety         'C58 H66 O6'
_chemical_name_systematic        
out,out-1,18-Dimethyl-6,13,23,30,39,46-hexaoxaoctacyclo(16.16.16.2^2,5^.2^14,17^.2^19,22^.2^31,34^.2^35,38^.2^42,50^)dohexaconta-2,4,14,16,19,21,31,33,35,37,47,49,51,53,55,57,59,61-octadecaene
_journal_coden_Cambridge         1078
_journal_year                    2004
_journal_name_full               'Private Communication'
loop_
_publ_author_name
M.Nieger
I.Michel
F.Vogtle
_chemical_absolute_configuration unk
_diffrn_ambient_temperature      293
_exptl_crystal_density_meas      1.15
_exptl_crystal_density_diffrn    1.15
#These two values have been output from a single CSD field.
_refine_ls_R_factor_gt           0.0366
_refine_ls_wR_factor_gt          0.0366
_diffrn_radiation_probe          x-ray
_symmetry_cell_setting           rhombohedral
_symmetry_space_group_name_H-M   'R -3 c'
_symmetry_Int_Tables_number      167
loop_
_symmetry_equiv_pos_site_id
_symmetry_equiv_pos_as_xyz
1 x,y,z
2 -y,x-y,z
3 -x+y,-x,z
4 y,x,1/2-z
5 2/3+x,1/3+y,1/3+z
6 2/3-y,1/3+x-y,1/3+z
7 2/3-x+y,1/3-x,1/3+z
8 2/3+y,1/3+x,5/6-z
9 1/3+x,2/3+y,2/3+z
10 1/3+y,2/3+x,1/6-z
11 -x+y,y,1/2+z
12 x,x-y,1/2+z
13 2/3+y,1/3-x+y,1/3-z
14 2/3+x-y,1/3+x,1/3-z
15 2/3-x+y,1/3+y,5/6+z
16 2/3+x,1/3+x-y,5/6+z
17 1/3-x+y,2/3+y,1/6+z
18 1/3+x,2/3+x-y,1/6+z
19 -x,-y,-z
20 y,-x+y,-z
21 x-y,x,-z
22 -y,-x,1/2+z
23 1/3-x,2/3-y,2/3-z
24 1/3+y,2/3-x+y,2/3-z
25 1/3+x-y,2/3+x,2/3-z
26 1/3-y,2/3-x,1/6+z
27 2/3-x,1/3-y,1/3-z
28 2/3-y,1/3-x,5/6+z
29 x-y,-y,1/2-z
30 -x,-x+y,1/2-z
31 1/3-y,2/3+x-y,2/3+z
32 1/3-x+y,2/3-x,2/3+z
33 1/3+x-y,2/3-y,1/6-z
34 1/3-x,2/3-x+y,1/6-z
35 2/3+x-y,1/3-y,5/6-z
36 2/3-x,1/3-x+y,5/6-z
_cell_length_a                   14.012(1)
_cell_length_b                   14.012(1)
_cell_length_c                   43.791(5)
_cell_angle_alpha                90
_cell_angle_beta                 90
_cell_angle_gamma                120.00
_cell_volume                     7445.88
_exptl_crystal_colour            colorless
_exptl_crystal_description       plates
_cell_formula_units_Z            6
loop_
_atom_site_label
_atom_site_type_symbol
_atom_site_fract_x
_atom_site_fract_y
_atom_site_fract_z
C1 C 0.6667 0.3333 0.00439(7)
C2 C 0.55135(13) 0.30285(14) 0.01584(4)
C3 C 0.49297(16) 0.34810(16) 0.00279(5)
H1 H 0.5243 0.3965 -0.0135
C4 C 0.38983(16) 0.32419(18) 0.01306(5)
H2 H 0.3528 0.3557 0.0036
C5 C 0.34245(15) 0.25344(15) 0.03738(5)
C6 C 0.39990(15) 0.20941(17) 0.05129(5)
H3 H 0.3695 0.1629 0.0680
C7 C 0.50211(15) 0.23377(16) 0.04060(5)
H4 H 0.5393 0.2029 0.0503
O1 O 0.24045(11) 0.22182(12) 0.04920(4)
C8 C 0.17123(17) 0.2518(2) 0.03301(5)
H5 H 0.1510 0.2150 0.0134
H6 H 0.2093 0.3308 0.0296
C9 C 0.06956(18) 0.2170(2) 0.05228(6)
H7 H 0.0314 0.1377 0.0549
H8 H 0.0203 0.2355 0.0416
C10 C 0.09568(16) 0.27132(16) 0.08345(5)
H9 H 0.0270 0.2463 0.0944
H10 H 0.1386 0.2463 0.0948
C11 C 0.6667 0.3333 -0.03106(7)
H11 H 0.6580 0.3932 -0.0384
H12 H 0.6068 0.2649 -0.0384
H13 H 0.7351 0.3420 -0.0384
C10FA C 0.157693 0.395347 0.0832167
C9FA C 0.185893 0.449667 0.114387
C8FA C 0.252763 0.414867 0.133657
O1FA O 0.351963 0.444847 0.117467
C5FA C 0.422343 0.413227 0.129287
C4FA C 0.398973 0.342477 0.153607
C3FA C 0.478203 0.318567 0.163877
C2FA C 0.581833 0.363817 0.150827
C1FA C 0.666733 0.333367 0.162277
C2GA C 0.781983 0.418167 0.150827
C3GA C 0.840363 0.521797 0.163877
H1GA H 0.809033 0.538867 0.180167
C4GA C 0.943503 0.601027 0.153607
H2GA H 0.980533 0.669567 0.163067
C5GA C 0.990883 0.577657 0.129287
C6GA C 0.933433 0.476177 0.115377
H3GA H 0.963833 0.460067 0.0986667
C7GA C 0.831223 0.398327 0.126067
H4GA H 0.794033 0.330267 0.116367
O1GA O 1.09288 0.648037 0.117467
C8GA C 1.1621 0.747237 0.133657
H5GA H 1.18233 0.730667 0.153267
H6GA H 1.12403 0.788167 0.137067
C9GA C 1.26377 0.814107 0.114387
H7GA H 1.30193 0.772967 0.111767
H8GA H 1.31303 0.881867 0.125067
C10GA C 1.23765 0.842307 0.0832167
C10B C 1.17564 0.90432 0.08345
C9B C 1.14744 0.93044 0.05228
C8B C 1.08057 0.82877 0.03301
O1B O 0.98137 0.75955 0.0492
C5B C 0.91099 0.65755 0.03738
C4B C 0.93436 0.61017 0.01306
C3B C 0.85513 0.50703 0.00279
C2B C 0.7515 0.44865 0.01584
C2A C 0.69715 0.2485 0.01584
C3A C 0.6519 0.14487 0.00279
H1A H 0.6035 0.1278 -0.0135
C4A C 0.67581 0.06564 0.01306
H2A H 0.6443 -0.0029 0.0036
C5A C 0.74656 0.08901 0.03738
C6A C 0.79059 0.19049 0.05129
H3A H 0.8371 0.2066 0.068
C7A C 0.76623 0.26834 0.0406
H4A H 0.7971 0.3364 0.0503
O1A O 0.77818 0.01863 0.0492
C8A C 0.7482 -0.08057 0.03301
H5A H 0.785 -0.064 0.0134
H6A H 0.6692 -0.1215 0.0296
C9A C 0.783 -0.14744 0.05228
H7A H 0.8623 -0.1063 0.0549
H8A H 0.7645 -0.2152 0.0416
C10A C 0.72868 -0.17564 0.08345
C10I C 0.604653 -0.237653 0.0832167
C9I C 0.550333 -0.263773 0.114387
C8I C 0.585133 -0.162103 0.133657
O1I O 0.555153 -0.0928833 0.117467
C5I C 0.586773 0.00911667 0.129287
C4I C 0.657523 0.0564967 0.153607
C3I C 0.681433 0.159637 0.163877
C2I C 0.636183 0.218017 0.150827
C11FA C 0.666733 0.333367 0.197727
H11FA H 0.598133 0.273467 0.205067
H11GA H 0.675333 0.401867 0.205067
H11I H 0.726533 0.324667 0.205067
C7I C 0.567103 0.168777 0.126067
C6I C 0.542743 0.0665667 0.115377
H3I H 0.496233 0.0361667 0.0986667
H4I H 0.536233 0.205967 0.116367
H1I H 0.729833 0.190967 0.180167
H2I H 0.689033 0.0194667 0.163067
H5I H 0.548333 -0.182333 0.153267
H6I H 0.664133 -0.124033 0.137067
H7I H 0.471033 -0.301933 0.111767
H8I H 0.568833 -0.313033 0.125067
H9I H 0.579633 -0.306333 0.0722667
H10I H 0.579633 -0.194733 0.0718667
H9A H 0.7537 -0.2193 0.0944
H10A H 0.7537 -0.1077 0.0948
C7B C 0.73166 0.49789 0.0406
C6B C 0.80951 0.6001 0.05129
H3B H 0.7934 0.6305 0.068
H4B H 0.6636 0.4607 0.0503
H1B H 0.8722 0.4757 -0.0135
H2B H 1.0029 0.6472 0.0036
H5B H 1.064 0.849 0.0134
H6B H 1.1215 0.7907 0.0296
H7B H 1.1063 0.9686 0.0549
H8B H 1.2152 0.9797 0.0416
H9B H 1.2193 0.973 0.0944
H10B H 1.1077 0.8614 0.0948
H9GA H 1.30633 0.885967 0.0722667
H10GA H 1.19473 0.774367 0.0718667
C7FA C 0.601673 0.432897 0.126067
C6FA C 0.523823 0.457257 0.115377
H3FA H 0.539933 0.503767 0.0986667
H4FA H 0.669733 0.463767 0.116367
H1FA H 0.461133 0.270167 0.180167
H2FA H 0.330433 0.310967 0.163067
H5FA H 0.269333 0.451667 0.153267
H6FA H 0.211833 0.335867 0.137067
H7FA H 0.227033 0.528967 0.111767
H8FA H 0.118133 0.431167 0.125067
H9FA H 0.114033 0.420367 0.0722667
H10FA H 0.225633 0.420367 0.0718667

#END

