
#######################################################################
#
#                 Cambridge Crystallographic Data Centre
#                                CCDC 
#
#######################################################################
#
# If this CIF has been generated directly or indirectly from an entry in the 
# Cambridge Structural Database, then it will include bibliographic, chemical, 
# crystal, experimental, refinement or atomic coordinate data resulting from 
# the CCDC's data processing and validation procedures. Files generated from 
# CSD entries are Copyright 2015 Cambridge Crystallographic Data Centre. They 
# may be used in bona fide research applications only, and may not be copied or 
# further disseminated in any form, whether machine-readable or not, except for 
# the purposes of generating routine backup copies on your local computer 
# system.
# 
# Files arising from any other source may also contain material that is the 
# copyright of third parties, including the originator, and you should check 
# with the originator concerning the permitted uses of the information 
# contained in this CIF.
#
# For further information on the CCDC and the free tools enCIFer and Mercury
# for validating and visualising CIF files, please visit www.ccdc.cam.ac.uk
#
#######################################################################

data_REFWAA
_audit_creation_date             1997-09-01
_database_code_depnum_ccdc_fiz   'CSD 405532'
_database_code_NBS               676693
_chemical_formula_moiety         'C56 H62 O6'
_chemical_name_systematic        
'out,out-6,13,23,30,39,46-Hexaoxaoctacyclo(16.16.16.2^2,5^.2^14,17^.2^19,22^.2^31,34^.2^35,38^.2^42,50^) dohexaconta-2,4,14,16,19,21,31,33,35,37,47,49,51,53,55,57,59,61-octadecaene'
_journal_coden_Cambridge         167
_journal_year                    1996
_journal_page_first              1697
_journal_name_full               'Liebigs Ann.'
loop_
_publ_author_name
F.Vogtle
I.Michel
R.Berscheid
M.Nieger
K.Rissanen
S.Kotila
K.Airola
N.Armaroli
M.Maestri
V.Balzani
_chemical_absolute_configuration unk
_diffrn_ambient_temperature      200
_exptl_crystal_density_meas      1.208
_exptl_crystal_density_diffrn    1.208
#These two values have been output from a single CSD field.
_refine_ls_R_factor_gt           0.0706
_refine_ls_wR_factor_gt          0.0706
_diffrn_radiation_probe          x-ray
_symmetry_cell_setting           triclinic
_symmetry_space_group_name_H-M   'P -1'
_symmetry_Int_Tables_number      2
loop_
_symmetry_equiv_pos_site_id
_symmetry_equiv_pos_as_xyz
1 x,y,z
2 -x,-y,-z
_cell_length_a                   11.316(2)
_cell_length_b                   13.000(1)
_cell_length_c                   16.517(2)
_cell_angle_alpha                94.42(1)
_cell_angle_beta                 105.60(1)
_cell_angle_gamma                99.94(1)
_cell_volume                     2285.54
_exptl_crystal_colour            colorless
_cell_formula_units_Z            2
loop_
_atom_site_label
_atom_site_type_symbol
_atom_site_fract_x
_atom_site_fract_y
_atom_site_fract_z
C1 C 0.0922(3) 0.5870(3) 0.3415(2)
H1 H 0.0386(3) 0.5218(3) 0.3506(2)
C2 C 0.4028(4) 0.9233(3) 0.0890(2)
H2 H 0.4786(4) 0.9702(3) 0.0825(2)
C3 C 0.2207(3) 0.5609(3) 0.3491(2)
C4 C 0.3039(3) 0.6124(3) 0.3101(2)
H3 H 0.2799(3) 0.6654(3) 0.2762(2)
C5 C 0.4203(3) 0.5888(3) 0.3194(2)
H4 H 0.4755(3) 0.6251(3) 0.2919(2)
C6 C 0.4570(3) 0.5119(2) 0.3689(2)
C7 C 0.3757(3) 0.4587(3) 0.4076(2)
H5 H 0.3997(3) 0.4052(3) 0.4409(2)
C8 C 0.2590(3) 0.4836(3) 0.3978(2)
H6 H 0.2037(3) 0.4469(3) 0.4251(2)
O1 O 0.5758(2) 0.4949(2) 0.37584(14)
C9 C 0.5972(3) 0.3912(3) 0.3909(2)
H7 H 0.5286(3) 0.3372(3) 0.3521(2)
H8 H 0.5999(3) 0.3804(3) 0.4500(2)
C10 C 0.7200(3) 0.3816(3) 0.3755(2)
H9 H 0.7305(3) 0.3079(3) 0.3787(2)
H10 H 0.7884(3) 0.4267(3) 0.4216(2)
C11 C 0.7344(3) 0.4120(3) 0.2908(2)
H11 H 0.7403(3) 0.4890(3) 0.2918(2)
H12 H 0.8140(3) 0.3960(3) 0.2843(2)
C12 C 0.6283(3) 0.3566(3) 0.2144(2)
H13 H 0.5489(3) 0.3741(3) 0.2201(2)
H14 H 0.6209(3) 0.2795(3) 0.2141(2)
C13 C 0.6451(3) 0.3854(3) 0.1297(2)
H15 H 0.7262(3) 0.3708(3) 0.1251(2)
H16 H 0.5779(3) 0.3397(3) 0.0832(2)
C14 C 0.6419(3) 0.4995(3) 0.1182(2)
H17 H 0.7050(3) 0.5466(3) 0.1661(2)
H18 H 0.6612(3) 0.5153(3) 0.0650(2)
O2 O 0.5191(2) 0.5156(2) 0.11525(15)
C15 C 0.4972(3) 0.6151(3) 0.1080(2)
C16 C 0.3736(3) 0.6257(3) 0.0946(2)
H19 H 0.3101(3) 0.5657(3) 0.0906(2)
C17 C 0.3429(4) 0.7237(3) 0.0870(2)
H20 H 0.2582(4) 0.7302(3) 0.0783(2)
C18 C 0.4336(3) 0.8129(3) 0.0919(2)
C19 C 0.5553(4) 0.8003(3) 0.1047(2)
H21 H 0.6186(4) 0.8603(3) 0.1083(2)
C20 C 0.5887(3) 0.7024(3) 0.1127(2)
H22 H 0.6734(3) 0.6959(3) 0.1212(2)
C21 C 0.0301(3) 0.6090(3) 0.2512(2)
C22 C 0.0027(3) 0.5280(3) 0.1855(2)
H23 H 0.0229(3) 0.4619(3) 0.1976(2)
C23 C -0.0535(3) 0.5408(3) 0.1025(2)
H24 H -0.0722(3) 0.4838(3) 0.0585(2)
C24 C -0.0825(3) 0.6375(3) 0.0839(2)
C25 C -0.0536(3) 0.7196(3) 0.1479(2)
H25 H -0.0721(3) 0.7863(3) 0.1355(2)
C26 C 0.0031(3) 0.7048(3) 0.2314(2)
H26 H 0.0235(3) 0.7621(3) 0.2753(2)
O3 O -0.1454(3) 0.6390(2) 0.0003(2)
C27 C -0.1864(4) 0.7341(3) -0.0233(2)
H27 H -0.1144(4) 0.7886(3) -0.0248(2)
H28 H -0.2262(4) 0.7618(3) 0.0180(2)
C28 C -0.2789(4) 0.7060(3) -0.1095(2)
H29 H -0.3492(4) 0.6510(3) -0.1061(2)
H30 H -0.3134(4) 0.7689(3) -0.1256(2)
C29 C -0.2289(4) 0.6678(4) -0.1767(3)
H31 H -0.2995(4) 0.6525(4) -0.2294(3)
H32 H -0.2077(4) 0.5992(4) -0.1631(3)
C30 C -0.1193(6) 0.7281(5) -0.1991(4)
H35 H -0.0877(6) 0.6807(5) -0.2345(4)
H36 H -0.0507(6) 0.7579(5) -0.1470(4)
C31 C -0.1618(6) 0.8164(5) -0.2478(5)
H37 H -0.1964(6) 0.8614(5) -0.2128(5)
H38 H -0.2293(6) 0.7856(5) -0.3003(5)
C34 C -0.0512(6) 0.8856(4) -0.2714(3)
H43 H 0.0064(6) 0.8409(4) -0.2830(3)
H44 H -0.0847(6) 0.9171(4) -0.3234(3)
O4 O 0.0151(3) 0.9667(2) -0.2041(2)
C35 C 0.1073(4) 0.9491(3) -0.1358(3)
C36 C 0.1956(5) 0.8896(3) -0.1411(3)
H47 H 0.1931(5) 0.8546(3) -0.1943(3)
C37 C 0.2884(4) 0.8808(3) -0.0683(3)
H48 H 0.3489(4) 0.8402(3) -0.0734(3)
C38 C 0.2956(4) 0.9293(3) 0.0115(2)
C39 C 0.2062(4) 0.9887(3) 0.0143(3)
H49 H 0.2083(4) 1.0246(3) 0.0672(3)
C40 C 0.1129(4) 0.9974(3) -0.0583(3)
H50 H 0.0521(4) 1.0377(3) -0.0536(3)
C41 C 0.0936(3) 0.6728(3) 0.4098(2)
C42 C 0.1815(3) 0.7672(3) 0.4305(2)
H51 H 0.2458(3) 0.7770(3) 0.4032(2)
C43 C 0.1778(4) 0.8465(3) 0.4891(2)
H52 H 0.2385(4) 0.9102(3) 0.5013(2)
C44 C 0.0869(4) 0.8339(3) 0.5302(3)
C45 C 0.0005(4) 0.7396(3) 0.5129(3)
H53 H -0.0613(4) 0.7290(3) 0.5422(3)
C46 C 0.0042(3) 0.6613(3) 0.4530(2)
H54 H -0.0564(3) 0.5976(3) 0.4411(2)
O5 O 0.0724(4) 0.9078(2) 0.5886(2)
C47 C 0.1198(5) 1.0187(4) 0.5877(4)
H55 H 0.0569(5) 1.0593(4) 0.5965(4)
H56 H 0.1306(5) 1.0286(4) 0.5311(4)
C48 C 0.2385(5) 1.0610(4) 0.6518(3)
H57 H 0.3000(5) 1.0174(4) 0.6457(3)
H58 H 0.2264(5) 1.0562(4) 0.7087(3)
C49 C 0.2913(4) 1.1748(3) 0.6456(3)
H59 H 0.3664(4) 1.2011(3) 0.6946(3)
H60 H 0.2283(4) 1.2177(3) 0.6499(3)
C50 C 0.3275(4) 1.1918(3) 0.5640(3)
H61 H 0.2550(4) 1.1602(3) 0.5145(3)
H62 H 0.3482(4) 1.2683(3) 0.5609(3)
C51 C 0.4374(4) 1.1439(3) 0.5593(3)
H63 H 0.4234(4) 1.0713(3) 0.5741(3)
H64 H 0.5134(4) 1.1849(3) 0.6021(3)
C52 C 0.4612(4) 1.1399(3) 0.4729(3)
H65 H 0.4617(4) 1.2097(3) 0.4527(3)
H66 H 0.5436(4) 1.1213(3) 0.4769(3)
O6 O 0.3635(2) 1.0621(2) 0.41481(15)
C53 C 0.3769(3) 1.0352(2) 0.3360(2)
C54 C 0.4716(3) 1.0831(3) 0.3059(2)
H67 H 0.5335(3) 1.1404(3) 0.3397(2)
C55 C 0.4758(3) 1.0468(3) 0.2254(2)
H68 H 0.5417(3) 1.0805(3) 0.2051(2)
C56 C 0.3889(3) 0.9644(3) 0.1741(2)
C57 C 0.2920(3) 0.9193(3) 0.2054(2)
H69 H 0.2286(3) 0.8633(3) 0.1711(2)
C58 C 0.2859(3) 0.9540(3) 0.2850(2)
H70 H 0.2189(3) 0.9218(3) 0.3047(2)
H33? H -0.2952(4) 0.6237(4) -0.2246(3)
H34? H -0.1617(4) 0.6286(4) -0.1552(3)
C32? C -0.1769(16) 0.7770(10) -0.2010(12)
H39? H -0.2472(16) 0.8021(10) -0.2386(12)
H40? H -0.1426(16) 0.8282(10) -0.1488(12)
C33? C -0.0755(14) 0.7752(8) -0.2454(9)
H41? H -0.1046(14) 0.7208(8) -0.2957(9)
H42? H 0.0014(14) 0.7606(8) -0.2065(9)
H45? H -0.0034(6) 0.8843(4) -0.3135(3)
H46? H -0.1328(6) 0.9032(4) -0.2997(3)

#END

