
#######################################################################
#
#                 Cambridge Crystallographic Data Centre
#                                CCDC 
#
#######################################################################
#
# If this CIF has been generated directly or indirectly from an entry in the 
# Cambridge Structural Database, then it will include bibliographic, chemical, 
# crystal, experimental, refinement or atomic coordinate data resulting from 
# the CCDC's data processing and validation procedures. Files generated from 
# CSD entries are Copyright 2015 Cambridge Crystallographic Data Centre. They 
# may be used in bona fide research applications only, and may not be copied or 
# further disseminated in any form, whether machine-readable or not, except for 
# the purposes of generating routine backup copies on your local computer 
# system.
# 
# Files arising from any other source may also contain material that is the 
# copyright of third parties, including the originator, and you should check 
# with the originator concerning the permitted uses of the information 
# contained in this CIF.
#
# For further information on the CCDC and the free tools enCIFer and Mercury
# for validating and visualising CIF files, please visit www.ccdc.cam.ac.uk
#
#######################################################################

data_SOMSIW
_audit_creation_date             1992-05-19
_database_code_NBS               609223
_chemical_formula_moiety         '2(C51 H48 N6 O9 S3),0.5(C2 H6 O1),H2 O1'
_chemical_name_systematic        
'bis(15,21,26-Tri-p-tosyl-4,10,33-trioxa-15,18,21,23,26,29-hexa-azaheptacyclo(11.9.7.6^6,17^.1^3,24^.1^8,31^.1^11,28^.1^19,34^) nonatriaconta-1,3(36),6,8,(37),11,13(29),17,19(39),23,30,28(38),34-dodecaene) ethanol solvate monohydrate'
_journal_coden_Cambridge         48
_journal_volume                  124
_journal_year                    1991
_journal_page_first              2323
_journal_name_full               Chem.Ber.
loop_
_publ_author_name
J.Breitenbach
K.Rissanen
U.U.Wolf
F.Vogtle
_chemical_absolute_configuration unk
_diffrn_ambient_temperature      295
_exptl_crystal_density_diffrn    1.297
#These two values have been output from a single CSD field.
_refine_ls_R_factor_gt           0.0728
_refine_ls_wR_factor_gt          0.0728
_diffrn_radiation_probe          x-ray
_symmetry_cell_setting           triclinic
_symmetry_space_group_name_H-M   'P -1'
_symmetry_Int_Tables_number      2
loop_
_symmetry_equiv_pos_site_id
_symmetry_equiv_pos_as_xyz
1 x,y,z
2 -x,-y,-z
_cell_length_a                   15.322(6)
_cell_length_b                   26.076(4)
_cell_length_c                   15.171(10)
_cell_angle_alpha                105.86(3)
_cell_angle_beta                 116.79(4)
_cell_angle_gamma                75.73(3)
_cell_volume                     5150.84
_exptl_crystal_colour            colorless
_chemical_melting_point          'above 300deg.C'
_cell_formula_units_Z            2
loop_
_atom_site_label
_atom_site_type_symbol
_atom_site_fract_x
_atom_site_fract_y
_atom_site_fract_z
C1 C -0.2988(4) 0.8308(2) -0.5460(4)
C2 C -0.3422(4) 0.8839(2) -0.5508(4)
C3 C -0.3073(3) 0.9134(2) -0.5888(4)
N1 N -0.2342(3) 0.8942(2) -0.6183(3)
C4 C -0.1937(3) 0.8421(2) -0.6123(4)
C5 C -0.1140(4) 0.8216(2) -0.6493(4)
N2 N -0.0138(3) 0.8211(2) -0.5664(3)
S1 S 0.07233(9) 0.77844(5) -0.59559(9)
O1 O 0.0427(3) 0.7263(1) -0.6238(3)
O2 O 0.1645(2) 0.7885(1) -0.5141(2)
C6 C 0.0661(3) 0.7957(2) -0.7024(3)
C7 C 0.1221(4) 0.8335(2) -0.6901(4)
C8 C 0.1127(4) 0.8503(2) -0.7740(4)
C9 C 0.0482(5) 0.8302(3) -0.8687(4)
C10 C -0.0084(5) 0.7932(3) -0.8794(4)
C11 C 0.0003(4) 0.7753(2) -0.7969(4)
C12 C 0.0375(7) 0.8490(4) -0.9595(5)
C13 C 0.0134(4) 0.8755(2) -0.5119(3)
C14 C 0.0720(3) 0.8782(2) -0.4003(3)
C15 C 0.0576(4) 0.8477(2) -0.3486(4)
C16 C 0.1110(4) 0.8535(2) -0.2458(4)
C17 C 0.1761(4) 0.8911(2) -0.1995(4)
C18 C 0.1848(4) 0.9209(2) -0.2566(4)
C19 C 0.2515(4) 0.9638(2) -0.2082(4)
N3 N 0.2030(3) 1.0133(2) -0.1650(3)
S2 S 0.2693(1) 1.04803(5) -0.05944(9)
O3 O 0.3385(3) 1.0110(2) 0.0019(3)
O4 O 0.2020(3) 1.0860(2) -0.0243(3)
C20 C 0.3350(4) 1.0833(2) -0.0866(4)
C21 C 0.2986(4) 1.1365(3) -0.0990(5)
C22 C 0.3496(5) 1.1630(3) -0.1211(6)
C23 C 0.4331(6) 1.1400(3) -0.1344(5)
C24 C 0.4694(5) 1.0867(3) -0.1216(5)
C25 C 0.4209(4) 1.0578(2) -0.0978(4)
C26 C 0.4876(8) 1.1710(5) -0.1595(8)
C27 C 0.1181(4) 1.0416(2) -0.2381(4)
C28 C 0.0201(4) 1.0256(2) -0.2614(4)
N4 N -0.0476(3) 1.0270(2) -0.3561(3)
C29 C -0.1352(3) 1.0137(2) -0.3789(4)
C30 C -0.1597(4) 1.0000(2) -0.3123(4)
C31 C -0.0892(4) 1.0004(2) -0.2154(4)
O5 O -0.1031(3) 0.9917(2) -0.1377(3)
C32 C -0.1844(5) 0.9661(3) -0.1617(4)
C33 C -0.1761(5) 0.9105(3) -0.2164(4)
C34 C -0.0843(5) 0.8788(2) -0.1974(4)
C35 C -0.0753(5) 0.8277(3) -0.2485(5)
C36 C -0.1653(5) 0.8054(2) -0.3246(4)
C37 C -0.2532(5) 0.8393(3) -0.3394(5)
C38 C -0.3450(5) 0.8156(3) -0.4275(6)
O6 O -0.3313(3) 0.7970(2) -0.5156(3)
C39 C -0.3556(4) 0.9704(2) -0.6029(4)
N5 N -0.3094(3) 1.0107(2) -0.5129(3)
S3 S -0.38021(9) 1.06820(5) -0.5026(1)
O7 O -0.3237(3) 1.1017(1) -0.4138(3)
O8 O -0.4707(3) 1.0556(2) -0.5138(3)
C40 C -0.4068(3) 1.0969(2) -0.6062(4)
C41 C -0.3519(4) 1.1346(2) -0.5952(4)
C42 C -0.3714(4) 1.1561(2) -0.6771(4)
C43 C -0.4454(4) 1.1413(2) -0.7706(4)
C44 C -0.4992(4) 1.1030(2) -0.7798(5)
C45 C -0.4809(4) 1.0813(2) -0.6985(5)
C46 C -0.4650(6) 1.1652(3) -0.8576(5)
C47 C -0.2063(3) 1.0149(2) -0.4885(4)
O9 O 0.1055(3) 0.8252(2) -0.1855(3)
C48 C 0.0223(6) 0.7940(2) -0.2290(5)
C49 C -0.2239(4) 0.8103(2) -0.5760(4)
N6 N 0.1341(3) 0.9147(2) -0.3567(3)
C50 C 0.0026(4) 1.0137(2) -0.1891(4)
C51 C -0.2613(5) 0.8894(3) -0.2904(5)
C52 C 0.5600(4) 0.6660(2) 0.4427(4)
C53 C 0.6125(4) 0.6709(2) 0.3938(4)
C54 C 0.6405(4) 0.6270(2) 0.3342(4)
N7 N 0.6172(3) 0.5778(2) 0.3209(3)
C55 C 0.5671(3) 0.5734(2) 0.3701(3)
C56 C 0.5518(4) 0.5166(2) 0.3614(3)
N8 N 0.4554(3) 0.5033(2) 0.2809(3)
S4 S 0.4139(1) 0.45535(5) 0.29555(9)
O10 O 0.4123(3) 0.4712(2) 0.3928(3)
O11 O 0.3252(3) 0.4459(1) 0.2082(3)
C57 C 0.5038(4) 0.3973(2) 0.2970(4)
C58 C 0.5888(4) 0.3923(3) 0.3852(4)
C59 C 0.6625(5) 0.3496(3) 0.3823(5)
C60 C 0.6539(5) 0.3127(3) 0.2950(6)
C61 C 0.5675(5) 0.3185(2) 0.2089(5)
C62 C 0.4926(4) 0.3606(2) 0.2094(4)
C63 C 0.7377(6) 0.2694(3) 0.2923(7)
C64 C 0.4461(3) 0.4996(2) 0.1777(3)
C65 C 0.3508(3) 0.5294(2) 0.1118(3)
C66 C 0.2863(3) 0.5643(2) 0.1479(3)
C67 C 0.2025(4) 0.5896(2) 0.0812(4)
C68 C 0.1879(4) 0.5797(2) -0.0187(4)
C69 C 0.2568(4) 0.5449(2) -0.0479(4)
C70 C 0.2443(4) 0.5304(3) -0.1558(4)
N9 N 0.2061(3) 0.5762(2) -0.2070(3)
S5 S 0.1040(1) 0.57418(8) -0.3078(1)
O12 O 0.0376(3) 0.5558(2) -0.2842(4)
O13 O 0.0792(4) 0.6257(2) -0.3361(4)
C71 C 0.1298(4) 0.5254(3) -0.4015(4)
C72 C 0.1145(5) 0.4731(4) -0.4174(5)
C73 C 0.1394(5) 0.4346(3) -0.4888(5)
C74 C 0.1790(5) 0.4476(4) -0.5432(5)
C75 C 0.1927(5) 0.4994(5) -0.5270(5)
C76 C 0.1689(5) 0.5380(4) -0.4578(5)
C77 C 0.2051(6) 0.4040(5) -0.6210(7)
C78 C 0.2828(4) 0.6035(3) -0.2015(5)
C79 C 0.3334(4) 0.6339(3) -0.0972(4)
N10 N 0.4248(3) 0.6133(2) -0.0441(3)
C80 C 0.4710(3) 0.6394(2) 0.0512(4)
C81 C 0.4281(4) 0.6856(2) 0.0957(4)
C82 C 0.3333(4) 0.7070(2) 0.0375(5)
O14 O 0.2822(3) 0.7530(2) 0.0684(4)
C83 C 0.3175(6) 0.7764(3) 0.1724(7)
C84 C 0.3087(5) 0.7445(2) 0.2366(6)
C85 C 0.2351(5) 0.7112(2) 0.1945(5)
C86 C 0.2282(5) 0.6815(2) 0.2539(5)
C87 C 0.2931(5) 0.6860(2) 0.3546(5)
C88 C 0.3646(5) 0.7194(2) 0.3972(6)
C89 C 0.4413(7) 0.7201(3) 0.5033(6)
O15 O 0.5391(4) 0.7104(2) 0.5059(3)
C90 C 0.7007(4) 0.6301(2) 0.2815(4)
N11 N 0.6402(3) 0.6489(2) 0.1851(3)
S6 S 0.7006(1) 0.67549(5) 0.1464(1)
O16 O 0.7380(3) 0.7206(1) 0.2230(3)
O17 O 0.6350(3) 0.6836(2) 0.0467(3)
C91 C 0.8022(4) 0.6279(2) 0.1440(4)
C92 C 0.8891(4) 0.6264(3) 0.2304(4)
C93 C 0.9651(5) 0.5864(3) 0.2312(5)
C94 C 0.9574(5) 0.5461(3) 0.1471(6)
C95 C 0.8711(5) 0.5491(3) 0.0618(5)
C96 C 0.7937(4) 0.5885(3) 0.0590(4)
C97 C 1.0416(7) 0.5014(4) 0.1524(8)
C98 C 0.5730(4) 0.6112(2) 0.1071(4)
O18 O 0.1288(3) 0.6233(1) 0.1041(3)
C99 C 0.1514(5) 0.6449(2) 0.2077(5)
C100 C 0.5356(4) 0.6160(2) 0.4299(4)
N12 N 0.3374(3) 0.5190(2) 0.0156(3)
C101 C 0.2852(4) 0.6808(3) -0.0598(5)
C102 C 0.3702(6) 0.7485(2) 0.3371(6)
O19 O -0.0368(6) 0.6929(3) -0.4960(6)
C103 C 0.246(1) 0.3001(6) 0.139(1)
C104 C 0.234(1) 0.2430(6) 0.131(2)
O20 O 0.153(1) 0.3292(6) 0.090(2)

#END

