
#######################################################################
#
#                 Cambridge Crystallographic Data Centre
#                                CCDC 
#
#######################################################################
#
# If this CIF has been generated directly or indirectly from an entry in the 
# Cambridge Structural Database, then it will include bibliographic, chemical, 
# crystal, experimental, refinement or atomic coordinate data resulting from 
# the CCDC's data processing and validation procedures. Files generated from 
# CSD entries are Copyright 2015 Cambridge Crystallographic Data Centre. They 
# may be used in bona fide research applications only, and may not be copied or 
# further disseminated in any form, whether machine-readable or not, except for 
# the purposes of generating routine backup copies on your local computer 
# system.
# 
# Files arising from any other source may also contain material that is the 
# copyright of third parties, including the originator, and you should check 
# with the originator concerning the permitted uses of the information 
# contained in this CIF.
#
# For further information on the CCDC and the free tools enCIFer and Mercury
# for validating and visualising CIF files, please visit www.ccdc.cam.ac.uk
#
#######################################################################

data_JODMOE
_audit_creation_date             1992-05-28
_database_code_NBS               606934
_chemical_formula_moiety         'C30 H18 O6,C2 H3 N1'
_chemical_name_systematic        
'4,11,17,24,27,34-Hexaoxapentacyclo(12.12.8.1^3,25^.1^12,16^)hexatriaconta-1,3(35),12,14,16(36),25-hexaene-6,8,19,21,29,31-hexayne acetonitrile clathrate'
_journal_coden_Cambridge         182
_journal_year                    1991
_journal_page_first              1364
_journal_name_full               Chem.Commun.
loop_
_publ_author_name
R.Berscheid
M.Nieger
F.Vogtle
_chemical_absolute_configuration unk
_diffrn_ambient_temperature      295
_exptl_crystal_density_meas      1.316
_exptl_crystal_density_diffrn    1.318
#These two values have been output from a single CSD field.
_refine_ls_R_factor_gt           0.063
_refine_ls_wR_factor_gt          0.063
_diffrn_radiation_probe          x-ray
_symmetry_cell_setting           monoclinic
_symmetry_space_group_name_H-M   'P 21/c'
_symmetry_Int_Tables_number      14
loop_
_symmetry_equiv_pos_site_id
_symmetry_equiv_pos_as_xyz
1 x,y,z
2 -x,1/2+y,1/2-z
3 -x,-y,-z
4 x,1/2-y,1/2+z
_cell_length_a                   10.553(2)
_cell_length_b                   17.548(1)
_cell_length_c                   14.680(1)
_cell_angle_alpha                90
_cell_angle_beta                 107.12(2)
_cell_angle_gamma                90
_cell_volume                     2598.05
_exptl_crystal_colour            colorless
_chemical_melting_point          'above 250deg.C'
_cell_formula_units_Z            4
loop_
_atom_site_label
_atom_site_type_symbol
_atom_site_fract_x
_atom_site_fract_y
_atom_site_fract_z
C1 C 1.0534(2) 0.2085(2) 0.2556(2)
C2 C 1.0182(3) 0.2144(2) 0.1579(2)
C3 C 1.0078(3) 0.2856(2) 0.1178(2)
C4 C 1.0305(3) 0.3509(2) 0.1727(2)
C5 C 1.0643(2) 0.3436(1) 0.2722(2)
C6 C 1.0748(2) 0.2728(1) 0.3142(2)
C7 C 0.3417(2) 0.2303(1) 0.1634(2)
C8 C 0.3282(2) 0.2916(1) 0.1016(2)
C9 C 0.3465(2) 0.3638(1) 0.1397(2)
C10 C 0.3822(2) 0.3755(2) 0.2383(2)
C11 C 0.3956(2) 0.3136(2) 0.2966(2)
C12 C 0.3769(2) 0.2400(2) 0.2607(2)
O1 O 1.0757(2) 0.1400(1) 0.3030(1)
C13 C 1.0144(3) 0.0733(2) 0.2535(3)
C14 C 0.8701(3) 0.0766(2) 0.2338(2)
C15 C 0.7542(3) 0.0803(2) 0.2228(2)
C16 C 0.6193(3) 0.0844(2) 0.2089(2)
C17 C 0.5027(3) 0.0869(2) 0.1970(2)
C18 C 0.3592(3) 0.0939(2) 0.1756(2)
O2 O 0.3135(2) 0.1602(1) 0.1189(1)
O3 O 0.9816(3) 0.2846(2) 0.0209(2)
C19 C 0.9226(4) 0.3413(3) -0.0328(3)
C20 C 0.7875(4) 0.3581(2) -0.0341(2)
C21 C 0.6756(4) 0.3698(2) -0.0364(2)
C22 C 0.5490(3) 0.3869(2) -0.0335(2)
C23 C 0.4432(3) 0.4029(2) -0.0269(2)
C24 C 0.3186(3) 0.4246(2) -0.0117(2)
O4 O 0.3289(2) 0.4299(1) 0.0873(1)
O5 O 1.0894(2) 0.4106(1) 0.3207(1)
C25 C 1.0967(3) 0.4115(2) 0.4196(2)
C26 C 0.9671(3) 0.4076(2) 0.4336(2)
C27 C 0.8563(3) 0.4053(2) 0.4396(2)
C28 C 0.7280(3) 0.4002(2) 0.4432(2)
C29 C 0.6143(3) 0.3956(2) 0.4423(2)
C30 C 0.4767(3) 0.3857(2) 0.4414(2)
O6 O 0.4221(2) 0.3171(1) 0.3941(1)
H1 H 0.9998 0.1697 0.1184
H2 H 1.0227 0.4002 0.1434
H3 H 1.0965 0.2677 0.3822
H4 H 0.3078 0.2839 0.0340
H5 H 0.3968 0.4260 0.2643
H6 H 0.3896 0.1969 0.3027
H7 H 1.0488 0.0288 0.2905
H8 H 1.0349 0.0697 0.1941
H9 H 0.3361 0.0979 0.2340
H10 H 0.3166 0.0495 0.1421
H11 H 0.9271 0.3344 -0.0967
H12 H 0.9728 0.3861 -0.0071
H13 H 0.2522 0.3876 -0.0412
H14 H 0.2911 0.4729 -0.0416
H15 H 1.1413 0.4570 0.4486
H16 H 1.1480 0.3685 0.4503
H17 H 0.4258 0.4281 0.4085
H18 H 0.4714 0.3855 0.5056

#END

