
#######################################################################
#
#                 Cambridge Crystallographic Data Centre
#                                CCDC 
#
#######################################################################
#
# If this CIF has been generated directly or indirectly from an entry in the 
# Cambridge Structural Database, then it will include bibliographic, chemical, 
# crystal, experimental, refinement or atomic coordinate data resulting from 
# the CCDC's data processing and validation procedures. Files generated from 
# CSD entries are Copyright 2015 Cambridge Crystallographic Data Centre. They 
# may be used in bona fide research applications only, and may not be copied or 
# further disseminated in any form, whether machine-readable or not, except for 
# the purposes of generating routine backup copies on your local computer 
# system.
# 
# Files arising from any other source may also contain material that is the 
# copyright of third parties, including the originator, and you should check 
# with the originator concerning the permitted uses of the information 
# contained in this CIF.
#
# For further information on the CCDC and the free tools enCIFer and Mercury
# for validating and visualising CIF files, please visit www.ccdc.cam.ac.uk
#
#######################################################################

data_KUGKIG
_audit_creation_date             1993-02-02
_database_code_depnum_ccdc_fiz   'CSD 56254'
_database_code_NBS               615034
_chemical_formula_moiety         'C56 H38 O6,3(C8 H7 N1)'
_chemical_name_systematic        
'out,out-6,13,23,30,39,46-Hexaoxaoctacyclo(16.16.16.2^2,5^.2^14,17^.2^19,22^.2^31,34^.2^35,38^.2^47,50^)dohexaconta-2,4,14,16,19,21,31,33,35,37,47,49,51,53,55,57,59,61-octadecaen-8,10,25,27,41,43-hexayne tris(benzylnitrile) clathrate'
_journal_coden_Cambridge         48
_journal_volume                  125
_journal_year                    1992
_journal_page_first              1687
_journal_name_full               Chem.Ber.
loop_
_publ_author_name
R.Berscheid
M.Nieger
F.Vogtle
_chemical_absolute_configuration unk
_diffrn_ambient_temperature      193
_exptl_crystal_density_meas      1.235
_exptl_crystal_density_diffrn    1.235
#These two values have been output from a single CSD field.
_refine_ls_R_factor_gt           0.097
_refine_ls_wR_factor_gt          0.097
_diffrn_radiation_probe          x-ray
_symmetry_cell_setting           monoclinic
_symmetry_space_group_name_H-M   'P 21/n'
_symmetry_Int_Tables_number      14
loop_
_symmetry_equiv_pos_site_id
_symmetry_equiv_pos_as_xyz
1 x,y,z
2 1/2-x,1/2+y,1/2-z
3 -x,-y,-z
4 1/2+x,1/2-y,1/2+z
_cell_length_a                   12.946(3)
_cell_length_b                   17.340(5)
_cell_length_c                   27.763(6)
_cell_angle_alpha                90
_cell_angle_beta                 91.27(2)
_cell_angle_gamma                90
_cell_volume                     6230.81
_exptl_crystal_colour            colorless
_chemical_melting_point          'above 270deg.C(dec.)'
_cell_formula_units_Z            4
loop_
_atom_site_label
_atom_site_type_symbol
_atom_site_fract_x
_atom_site_fract_y
_atom_site_fract_z
C1 C 0.3084(7) 0.3130(5) 0.3439(3)
C2 C 0.2298(7) 0.2505(6) 0.3544(3)
C3 C 0.1492(8) 0.2674(6) 0.3849(3)
C4 C 0.0743(7) 0.2124(6) 0.3954(3)
C5 C 0.0793(7) 0.1396(6) 0.3745(3)
C6 C 0.1585(6) 0.1217(5) 0.3441(3)
C7 C 0.2327(7) 0.1782(6) 0.3340(3)
O1 O 0.0032(5) 0.0907(4) 0.3891(2)
C8 C 0.0107(8) 0.0120(6) 0.3730(3)
C9 C -0.0189(7) 0.0029(6) 0.3225(4)
C10 C -0.0460(7) -0.0017(6) 0.2819(4)
C11 C -0.0813(8) -0.0076(7) 0.2342(4)
C12 C -0.1115(8) -0.0132(8) 0.1943(4)
C13 C -0.1555(9) -0.0226(11) 0.1453(5)
O2 O -0.1076(7) -0.0524(8) 0.1153(3)
C14 C -0.0162(9) -0.0273(10) 0.0951(4)
C15 C 0.0305(9) -0.0798(8) 0.0667(4)
C16 C 0.1214(8) -0.0623(7) 0.0470(4)
C17 C 0.1702(7) 0.0072(7) 0.0524(3)
C18 C 0.1205(8) 0.0621(7) 0.0800(4)
C19 C 0.0247(8) 0.0455(8) 0.1026(4)
C20 C 0.2736(7) 0.0219(6) 0.0301(3)
C21 C 0.2877(7) 0.1051(5) 0.0149(3)
C22 C 0.3486(8) 0.1596(6) 0.0395(3)
C23 C 0.3604(7) 0.2331(6) 0.0212(3)
C24 C 0.3091(8) 0.2543(6) -0.0210(3)
C25 C 0.2478(7) 0.2022(6) -0.0459(4)
C26 C 0.2389(7) 0.1287(7) -0.0283(3)
O3 O 0.3141(5) 0.3267(4) -0.0422(2)
C27 C 0.3624(8) 0.3862(6) -0.0154(4)
C28 C 0.3043(8) 0.4068(6) 0.0278(4)
C29 C 0.2540(8) 0.4244(6) 0.0610(4)
C30 C 0.1929(8) 0.4489(6) 0.0993(4)
C31 C 0.1414(8) 0.4755(6) 0.1305(4)
C32 C 0.0803(8) 0.5096(6) 0.1681(4)
O4 O 0.1436(5) 0.5314(4) 0.2091(2)
C33 C 0.1843(7) 0.4729(6) 0.2378(3)
C34 C 0.1509(7) 0.3972(6) 0.2363(3)
C35 C 0.1941(7) 0.3455(6) 0.2687(3)
C36 C 0.2658(7) 0.3673(6) 0.3044(3)
C37 C 0.2990(7) 0.4434(6) 0.3037(4)
C38 C 0.2597(7) 0.4958(6) 0.2712(4)
C39 C 0.4174(7) 0.2834(5) 0.3341(3)
C40 C 0.4630(8) 0.2344(5) 0.3674(3)
C41 C 0.5641(8) 0.2094(6) 0.3625(4)
C42 C 0.6195(7) 0.2345(6) 0.3248(4)
C43 C 0.5734(8) 0.2817(7) 0.2907(4)
C44 C 0.4731(8) 0.3065(6) 0.2951(4)
O5 O 0.7238(5) 0.2187(4) 0.3183(3)
C45 C 0.7595(8) 0.1433(6) 0.3345(4)
C46 C 0.7151(8) 0.0826(7) 0.3034(4)
C47 C 0.6796(8) 0.0344(7) 0.2775(4)
C48 C 0.6442(8) -0.0241(7) 0.2481(4)
C49 C 0.6131(8) -0.0735(7) 0.2228(4)
C50 C 0.5844(8) -0.1392(5) 0.1897(3)
O6 O 0.5978(5) -0.1192(4) 0.1401(2)
C51 C 0.5179(7) -0.0806(5) 0.1161(4)
C52 C 0.4454(7) -0.0361(6) 0.1388(3)
C53 C 0.3665(7) -0.0023(5) 0.1107(3)
C54 C 0.3610(7) -0.0111(5) 0.0613(3)
C55 C 0.4366(7) -0.0569(5) 0.0401(4)
C56 C 0.5140(7) -0.0913(5) 0.0672(3)
H1 H 0.3139 0.3435 0.3727
H2 H 0.1463 0.3179 0.3988
H3 H 0.0193 0.2250 0.4166
H4 H 0.1614 0.0712 0.3300
H5 H 0.2869 0.1663 0.3121
H6 H -0.0337 -0.0198 0.3919
H7 H 0.0805 -0.0055 0.3779
H8 H -0.1709 0.0286 0.1342
H9 H -0.2199 -0.0498 0.1475
H10 H -0.0013 -0.1290 0.0611
H11 H 0.1552 -0.0999 0.0274
H12 H 0.1518 0.1117 0.0850
H13 H -0.0117 0.0831 0.1210
H14 H 0.2727 -0.0080 0.0010
H15 H 0.3834 0.1444 0.0689
H16 H 0.4033 0.2705 0.0376
H17 H 0.2119 0.2172 -0.0751
H18 H 0.1983 0.0911 -0.0457
H19 H 0.3678 0.4309 -0.0355
H20 H 0.4308 0.3700 -0.0059
H21 H 0.0292 0.4732 0.1781
H22 H 0.0453 0.5544 0.1557
H23 H 0.0996 0.3814 0.2128
H24 H 0.1739 0.2923 0.2673
H25 H 0.3516 0.4591 0.3267
H26 H 0.2832 0.5483 0.2709
H27 H 0.4237 0.2177 0.3944
H28 H 0.5960 0.1756 0.3859
H29 H 0.6130 0.2975 0.2635
H30 H 0.4408 0.3396 0.2715
H31 H 0.7370 0.1350 0.3668
H32 H 0.8336 0.1413 0.3344
H33 H 0.5138 -0.1535 0.1945
H34 H 0.6275 -0.1827 0.1974
H35 H 0.4500 -0.0284 0.1731
H36 H 0.3142 0.0276 0.1260
H37 H 0.4332 -0.0640 0.0058
H38 H 0.5649 -0.1225 0.0518

#END

