
#######################################################################
#
#                 Cambridge Crystallographic Data Centre
#                                CCDC 
#
#######################################################################
#
# If this CIF has been generated directly or indirectly from an entry in the 
# Cambridge Structural Database, then it will include bibliographic, chemical, 
# crystal, experimental, refinement or atomic coordinate data resulting from 
# the CCDC's data processing and validation procedures. Files generated from 
# CSD entries are Copyright 2015 Cambridge Crystallographic Data Centre. They 
# may be used in bona fide research applications only, and may not be copied or 
# further disseminated in any form, whether machine-readable or not, except for 
# the purposes of generating routine backup copies on your local computer 
# system.
# 
# Files arising from any other source may also contain material that is the 
# copyright of third parties, including the originator, and you should check 
# with the originator concerning the permitted uses of the information 
# contained in this CIF.
#
# For further information on the CCDC and the free tools enCIFer and Mercury
# for validating and visualising CIF files, please visit www.ccdc.cam.ac.uk
#
#######################################################################

data_LEKGAK
_audit_creation_date             2006-11-23
_database_code_depnum_ccdc_archive 'CCDC 177808'
_chemical_formula_moiety         'C33 H46 N5 O3 1+,O4 Re1 1-,H2 O1'
_chemical_name_systematic        
'4,26,31-Trioxa-1,15,18,39-tetra-aza-12-azoniapentacyclo(13.13.13.0^5,10^.0^20,25^.0^32,37^)hentetraconta-5,7,9,20,22,24,32,34,36-nonaene tetraoxo-rhenium monohydrate'
_journal_coden_Cambridge         955
_journal_year                    2004
_journal_page_first              151
_journal_name_full               'Fund.Applications Anion Sep.'
loop_
_publ_author_name
H.Stephan
K.Gloe
W.Kraus
H.Spies
B.Johannsen
K.Wichmann
G.Reck
D.K.Chand
P.K.Bharadwaj
U.Muller
W.M.Muller
F.Vogtle
_chemical_absolute_configuration unk
_diffrn_ambient_temperature      293
_exptl_crystal_density_meas      1.621
_exptl_crystal_density_diffrn    1.627
#These two values have been output from a single CSD field.
_refine_ls_R_factor_gt           0.1478
_refine_ls_wR_factor_gt          0.1478
_diffrn_radiation_probe          x-ray
_symmetry_cell_setting           triclinic
_symmetry_space_group_name_H-M   'P -1'
_symmetry_Int_Tables_number      2
loop_
_symmetry_equiv_pos_site_id
_symmetry_equiv_pos_as_xyz
1 x,y,z
2 -x,-y,-z
_cell_length_a                   10.535(10)
_cell_length_b                   12.661(11)
_cell_length_c                   13.870(12)
_cell_angle_alpha                74.19(2)
_cell_angle_beta                 75.19(2)
_cell_angle_gamma                76.11(3)
_cell_volume                     1691.78
_exptl_crystal_colour            white
_cell_formula_units_Z            2
loop_
_atom_site_label
_atom_site_type_symbol
_atom_site_fract_x
_atom_site_fract_y
_atom_site_fract_z
O1 O 0.501(4) 0.050(3) 0.145(3)
O2 O 0.289(3) 0.308(3) 0.420(2)
O3 O 0.510(3) 0.395(3) 0.136(3)
N1 N 0.302(3) 0.251(2) 0.222(2)
N2 N 0.653(4) -0.092(3) 0.336(3)
H1 H 0.5917 -0.0535 0.3732
N3 N 0.543(4) 0.183(3) 0.501(3)
H2 H 0.4774 0.1535 0.5003
N4 N 0.777(4) 0.196(3) 0.166(3)
H3 H 0.7304 0.1447 0.1827
N5 N 0.789(4) 0.067(3) 0.380(3)
C1 C 0.290(5) 0.172(4) 0.163(4)
H4 H 0.2690 0.1020 0.2077
H5 H 0.2247 0.2044 0.1201
C2 C 0.192(5) 0.247(4) 0.315(3)
H6 H 0.1093 0.2564 0.2927
H7 H 0.2068 0.1720 0.3573
C3 C 0.293(5) 0.366(3) 0.153(4)
H8 H 0.3238 0.3585 0.0830
H9 H 0.2003 0.4024 0.1615
C4 C 0.427(4) 0.158(4) 0.102(4)
H10 H 0.4249 0.1622 0.0318
H11 H 0.4703 0.2164 0.1038
C5 C 0.168(5) 0.324(4) 0.383(4)
H12 H 0.1461 0.4005 0.3458
H13 H 0.0940 0.3081 0.4398
C6 C 0.370(4) 0.438(4) 0.171(4)
H14 H 0.3466 0.5144 0.1338
H15 H 0.3526 0.4377 0.2437
C7 C 0.625(6) -0.140(4) 0.258(3)
H16 H 0.5294 -0.1309 0.2651
H17 H 0.6615 -0.2197 0.2702
C8 C 0.540(5) 0.306(3) 0.466(4)
H18 H 0.5526 0.3285 0.3915
H19 H 0.6108 0.3264 0.4862
C9 C 0.773(6) 0.292(4) 0.074(4)
H20 H 0.7136 0.2810 0.0353
H21 H 0.8614 0.2874 0.0306
C10 C 0.786(5) -0.115(4) 0.345(4)
H22 H 0.8410 -0.0942 0.2772
H23 H 0.8126 -0.1942 0.3705
C11 C 0.656(4) 0.119(4) 0.535(4)
H24 H 0.6423 0.0426 0.5603
H25 H 0.6629 0.1444 0.5936
C12 C 0.869(5) 0.204(4) 0.219(4)
H26 H 0.8334 0.2663 0.2516
H27 H 0.9509 0.2180 0.1709
C13 C 0.811(6) -0.054(3) 0.413(4)
H28 H 0.7533 -0.0742 0.4792
H29 H 0.9022 -0.0811 0.4214
C14 C 0.785(5) 0.119(5) 0.463(4)
H30 H 0.7997 0.1949 0.4352
H31 H 0.8561 0.0781 0.4994
C15 C 0.898(5) 0.102(4) 0.297(4)
H32 H 0.9347 0.0407 0.2619
H33 H 0.9672 0.1104 0.3266
C16 C 0.622(3) 0.012(3) 0.095(3)
C17 C 0.677(4) 0.062(3) 0.000(3)
H34 H 0.6301 0.1265 -0.0351
C18 C 0.799(4) 0.017(3) -0.044(3)
H35 H 0.8373 0.0516 -0.1103
C19 C 0.866(3) -0.076(3) 0.006(3)
H36 H 0.9515 -0.1066 -0.0252
C20 C 0.811(4) -0.125(3) 0.101(3)
H37 H 0.8582 -0.1902 0.1355
C21 C 0.689(3) -0.081(3) 0.145(3)
C22 C 0.282(4) 0.370(3) 0.492(2)
C23 C 0.400(4) 0.364(3) 0.517(3)
C24 C 0.405(4) 0.416(3) 0.589(3)
H38 H 0.4860 0.4122 0.6057
C25 C 0.291(4) 0.473(3) 0.636(2)
H39 H 0.2946 0.5091 0.6857
C26 C 0.173(4) 0.479(3) 0.612(3)
H40 H 0.0955 0.5183 0.6443
C27 C 0.169(4) 0.427(3) 0.540(3)
H41 H 0.0875 0.4307 0.5228
C28 C 0.599(4) 0.458(3) 0.125(3)
C29 C 0.568(3) 0.562(3) 0.140(2)
H42 H 0.4799 0.5938 0.1611
C30 C 0.666(4) 0.620(3) 0.123(3)
H43 H 0.6445 0.6924 0.1332
C31 C 0.793(4) 0.574(3) 0.092(3)
H44 H 0.8604 0.6144 0.0808
C32 C 0.823(4) 0.470(3) 0.078(3)
H45 H 0.9118 0.4377 0.0567
C33 C 0.726(4) 0.412(3) 0.095(3)

#END

