
#######################################################################
#
#                 Cambridge Crystallographic Data Centre
#                                CCDC 
#
#######################################################################
#
# If this CIF has been generated directly or indirectly from an entry in the 
# Cambridge Structural Database, then it will include bibliographic, chemical, 
# crystal, experimental, refinement or atomic coordinate data resulting from 
# the CCDC's data processing and validation procedures. Files generated from 
# CSD entries are Copyright 2015 Cambridge Crystallographic Data Centre. They 
# may be used in bona fide research applications only, and may not be copied or 
# further disseminated in any form, whether machine-readable or not, except for 
# the purposes of generating routine backup copies on your local computer 
# system.
# 
# Files arising from any other source may also contain material that is the 
# copyright of third parties, including the originator, and you should check 
# with the originator concerning the permitted uses of the information 
# contained in this CIF.
#
# For further information on the CCDC and the free tools enCIFer and Mercury
# for validating and visualising CIF files, please visit www.ccdc.cam.ac.uk
#
#######################################################################

data_LEKGEO
_audit_creation_date             2006-11-23
_database_code_depnum_ccdc_archive 'CCDC 177809'
_chemical_formula_moiety         'C33 H47 N5 O3 2+,2(O4 Re1 1-),3(H2 O1)'
_chemical_name_systematic        
'4,24,29-Trioxa-1,11,14-triaza-17,36-diazonia-pentacyclo(12.12.12.1^5,9^.1^19,23^.1^30,34^)hentetraconta-5(39),6,8,19(40),20,22,30(41),31,33-nonaene bis(tetraoxo-rhenium) trihydrate'
_journal_coden_Cambridge         955
_journal_year                    2004
_journal_page_first              151
_journal_name_full               'Fund.Applications Anion Sep.'
loop_
_publ_author_name
H.Stephan
K.Gloe
W.Kraus
H.Spies
B.Johannsen
K.Wichmann
G.Reck
D.K.Chand
P.K.Bharadwaj
U.Muller
W.M.Muller
F.Vogtle
_chemical_absolute_configuration unk
_diffrn_ambient_temperature      293
_exptl_crystal_density_meas      1.806
_exptl_crystal_density_diffrn    1.806
#These two values have been output from a single CSD field.
_refine_ls_R_factor_gt           0.0427
_refine_ls_wR_factor_gt          0.0427
_diffrn_radiation_probe          x-ray
_symmetry_cell_setting           monoclinic
_symmetry_space_group_name_H-M   'P 21/n'
_symmetry_Int_Tables_number      14
loop_
_symmetry_equiv_pos_site_id
_symmetry_equiv_pos_as_xyz
1 x,y,z
2 1/2-x,1/2+y,1/2-z
3 -x,-y,-z
4 1/2+x,1/2-y,1/2+z
_cell_length_a                   11.583(4)
_cell_length_b                   28.744(9)
_cell_length_c                   12.337(4)
_cell_angle_alpha                90
_cell_angle_beta                 92.003(6)
_cell_angle_gamma                90
_cell_volume                     4104.99
_exptl_crystal_colour            white
_cell_formula_units_Z            4
loop_
_atom_site_label
_atom_site_type_symbol
_atom_site_fract_x
_atom_site_fract_y
_atom_site_fract_z
N1 N 0.8463(10) 0.5612(4) 0.2067(9)
N2 N 0.6296(9) 0.3116(3) 0.1831(8)
H1 H 0.6966 0.3179 0.1590
N3 N 0.8022(10) 0.3263(3) 0.4965(8)
H2 H 0.821(7) 0.335(4) 0.420(3)
N4 N 1.0016(10) 0.3024(4) 0.2229(9)
H3 H 0.925(4) 0.316(4) 0.237(7)
N5 N 0.7977(9) 0.2529(3) 0.3234(8)
O1 O 0.6477(8) 0.5022(3) 0.1307(7)
O2 O 0.8530(8) 0.5155(3) 0.4216(8)
O3 O 1.0098(9) 0.4904(4) 0.1409(8)
C1 C 0.7439(14) 0.5753(5) 0.1466(12)
H4 H 0.7603 0.6036 0.1070
H5 H 0.6840 0.5824 0.1971
C2 C 0.8562(13) 0.5835(4) 0.3134(12)
H6 H 0.8278 0.6152 0.3076
H7 H 0.9371 0.5848 0.3365
C3 C 0.9477(14) 0.5684(5) 0.1451(12)
H8 H 0.9733 0.6003 0.1546
H9 H 0.9279 0.5639 0.0688
C4 C 0.6987(13) 0.5386(5) 0.0667(11)
H10 H 0.6413 0.5520 0.0167
H11 H 0.7613 0.5262 0.0252
C5 C 0.7897(13) 0.5580(5) 0.3983(11)
H12 H 0.7845 0.5767 0.4632
H13 H 0.7121 0.5509 0.3710
C6 C 1.0448(14) 0.5364(6) 0.1772(13)
H14 H 1.1152 0.5458 0.1429
H15 H 1.0583 0.5368 0.2552
C7 C 0.5282(12) 0.3426(5) 0.1688(12)
H16 H 0.4637 0.3252 0.1373
H17 H 0.5060 0.3542 0.2389
C8 C 0.8680(12) 0.3603(5) 0.5654(10)
H18 H 0.9463 0.3627 0.5405
H19 H 0.8719 0.3492 0.6397
C9 C 1.0599(14) 0.3230(5) 0.1338(13)
H20 H 1.0062 0.3259 0.0722
H21 H 1.1223 0.3027 0.1130
C10 C 0.6033(11) 0.2690(5) 0.2429(10)
H22 H 0.5387 0.2533 0.2066
H23 H 0.5802 0.2773 0.3153
C11 C 0.8411(12) 0.2768(4) 0.5136(10)
H24 H 0.8288 0.2676 0.5879
H25 H 0.9229 0.2743 0.5006
C12 C 0.9632(13) 0.2537(5) 0.2001(12)
H26 H 0.9082 0.2538 0.1389
H27 H 1.0293 0.2353 0.1799
C13 C 0.7062(12) 0.2357(4) 0.2518(11)
H28 H 0.6801 0.2058 0.2783
H29 H 0.7361 0.2308 0.1802
C14 C 0.7740(13) 0.2451(4) 0.4373(10)
H30 H 0.7925 0.2131 0.4556
H31 H 0.6921 0.2496 0.4475
C15 C 0.9086(13) 0.2314(4) 0.2947(11)
H32 H 0.8956 0.1987 0.2785
H33 H 0.9619 0.2332 0.3570
C16 C 0.6174(12) 0.4625(5) 0.0761(14)
C17 C 0.5837(12) 0.4252(5) 0.1420(11)
H34 H 0.5805 0.4293 0.2166
C18 C 0.5553(12) 0.3826(5) 0.0968(13)
C19 C 0.5566(13) 0.3785(5) -0.0131(15)
H35 H 0.5381 0.3499 -0.0443
C20 C 0.5841(15) 0.4147(7) -0.0798(12)
H36 H 0.5818 0.4111 -0.1547
C21 C 0.6154(12) 0.4568(5) -0.0330(14)
H37 H 0.6354 0.4815 -0.0771
C22 C 0.7990(15) 0.4835(6) 0.4882(12)
C23 C 0.6994(13) 0.4907(5) 0.5413(12)
H38 H 0.6601 0.5188 0.5329
C24 C 0.6569(14) 0.4572(6) 0.6065(13)
H39 H 0.5894 0.4621 0.6434
C25 C 0.7160(14) 0.4156(5) 0.6167(12)
H40 H 0.6889 0.3927 0.6626
C26 C 0.8120(13) 0.4076(5) 0.5614(11)
C27 C 0.8554(12) 0.4415(5) 0.4965(11)
H41 H 0.9221 0.4362 0.4585
C28 C 1.0852(16) 0.4539(6) 0.1685(11)
C29 C 1.1923(16) 0.4592(6) 0.2186(13)
H42 H 1.2204 0.4884 0.2384
C30 C 1.2557(15) 0.4200(8) 0.2379(14)
H43 H 1.3290 0.4227 0.2703
C31 C 1.2135(17) 0.3752(7) 0.2103(13)
H44 H 1.2590 0.3492 0.2258
C32 C 1.1079(16) 0.3696(6) 0.1615(12)
C33 C 1.0446(14) 0.4085(6) 0.1414(11)
H45 H 0.9715 0.4054 0.1084
H48 H 1.050(6) 0.302(3) 0.292(4)
H49 H 0.7162(17) 0.325(4) 0.502(7)

#END

