
#######################################################################
#
#                 Cambridge Crystallographic Data Centre
#                                CCDC 
#
#######################################################################
#
# If this CIF has been generated directly or indirectly from an entry in the 
# Cambridge Structural Database, then it will include bibliographic, chemical, 
# crystal, experimental, refinement or atomic coordinate data resulting from 
# the CCDC's data processing and validation procedures. Files generated from 
# CSD entries are Copyright 2015 Cambridge Crystallographic Data Centre. They 
# may be used in bona fide research applications only, and may not be copied or 
# further disseminated in any form, whether machine-readable or not, except for 
# the purposes of generating routine backup copies on your local computer 
# system.
# 
# Files arising from any other source may also contain material that is the 
# copyright of third parties, including the originator, and you should check 
# with the originator concerning the permitted uses of the information 
# contained in this CIF.
#
# For further information on the CCDC and the free tools enCIFer and Mercury
# for validating and visualising CIF files, please visit www.ccdc.cam.ac.uk
#
#######################################################################

data_REFWII
_audit_creation_date             1997-09-01
_database_code_depnum_ccdc_fiz   'CSD 405534'
_database_code_NBS               676695
_chemical_formula_moiety         'C66 H66 O6,0.5(C8 H10)'
_chemical_name_systematic        
'8,15,29,36,47,54-Hexaoxadecacyclo(20.20.16.2^4,7^.2^16,19^.2^25,28^.2^37,40^.2^43,46^.2^55.58^.1^1,41^.1^20,24)^doheptaconta-1,3(59),4,6,16,18,20,22,24(64),25,27,37,39,41,43,45,55,57,60,62,65,67,69,71-tetracosaene toluene solvate'
_journal_coden_Cambridge         167
_journal_year                    1996
_journal_page_first              1697
_journal_name_full               'Liebigs Ann.'
loop_
_publ_author_name
F.Vogtle
I.Michel
R.Berscheid
M.Nieger
K.Rissanen
S.Kotila
K.Airola
N.Armaroli
M.Maestri
V.Balzani
_chemical_absolute_configuration unk
_diffrn_ambient_temperature      295
_exptl_crystal_density_meas      1.195
_exptl_crystal_density_diffrn    1.203
#These two values have been output from a single CSD field.
_refine_ls_R_factor_gt           0.083
_refine_ls_wR_factor_gt          0.083
_diffrn_radiation_probe          x-ray
_symmetry_cell_setting           triclinic
_symmetry_space_group_name_H-M   'P -1'
_symmetry_Int_Tables_number      2
loop_
_symmetry_equiv_pos_site_id
_symmetry_equiv_pos_as_xyz
1 x,y,z
2 -x,-y,-z
_cell_length_a                   9.294(1)
_cell_length_b                   24.261(3)
_cell_length_c                   25.385(4)
_cell_angle_alpha                99.98(1)
_cell_angle_beta                 90.29(1)
_cell_angle_gamma                98.93(1)
_cell_volume                     5565.91
_exptl_crystal_colour            colorless
_cell_formula_units_Z            4
loop_
_atom_site_label
_atom_site_type_symbol
_atom_site_fract_x
_atom_site_fract_y
_atom_site_fract_z
C1 C 0.5673(10) 0.2436(4) -0.2350(4)
C2 C 0.6411(10) 0.2498(4) -0.1864(4)
H1 H 0.6874(10) 0.2857(4) -0.1708(4)
C3 C 0.6495(10) 0.2050(4) -0.1596(4)
C4 C 0.5813(10) 0.1513(4) -0.1859(4)
H2 H 0.5869(10) 0.1201(4) -0.1697(4)
C5 C 0.5062(10) 0.1427(4) -0.2347(4)
C6 C 0.4974(10) 0.1894(4) -0.2591(3)
H3 H 0.4452(10) 0.1846(4) -0.2913(3)
C7 C 1.0794(9) 0.3502(4) -0.2902(4)
C8 C 1.1287(10) 0.3601(4) -0.2366(4)
H4 H 1.1594(10) 0.3974(4) -0.2198(4)
C9 C 1.1340(10) 0.3176(4) -0.2077(4)
C10 C 1.0877(10) 0.2613(4) -0.2339(4)
H5 H 1.0873(10) 0.2317(4) -0.2149(4)
C11 C 1.0428(9) 0.2492(4) -0.2876(4)
C12 C 1.0403(9) 0.2940(4) -0.3149(4)
H6 H 1.0115(9) 0.2862(4) -0.3509(4)
C13 C 0.5707(11) 0.2931(4) -0.2623(4)
C14 C 0.4473(10) 0.3036(4) -0.2873(4)
H7 H 0.3609(10) 0.2784(4) -0.2872(4)
C15 C 0.4472(10) 0.3497(4) -0.3122(4)
H8 H 0.3628(10) 0.3554(4) -0.3289(4)
C16 C 0.5770(12) 0.3879(4) -0.3118(4)
C17 C 0.7002(12) 0.3776(4) -0.2874(4)
H9 H 0.7866(12) 0.4027(4) -0.2877(4)
C18 C 0.6998(11) 0.3321(4) -0.2629(4)
H10 H 0.7849(11) 0.3266(4) -0.2465(4)
O1 O 0.5910(8) 0.4350(3) -0.3342(3)
C19 C 0.4679(11) 0.4501(4) -0.3576(5)
H11 H 0.4037(11) 0.4635(4) -0.3299(5)
H12 H 0.4143(11) 0.4173(4) -0.3809(5)
C20 C 0.5196(18) 0.4971(7) -0.3899(8)
H15 H 0.4368(18) 0.5039(7) -0.4099(8)
H16 H 0.5558(18) 0.5317(7) -0.3653(8)
C21 C 0.6344(23) 0.4838(6) -0.4276(8)
H17 H 0.5924(23) 0.4516(6) -0.4542(8)
H18 H 0.7095(23) 0.4715(6) -0.4078(8)
C22 C 0.7082(21) 0.5284(8) -0.4569(6)
H19 H 0.7556(21) 0.5096(8) -0.4873(6)
H20 H 0.6335(21) 0.5463(8) -0.4709(6)
C23 C 0.8180(16) 0.5737(6) -0.4262(9)
H21 H 0.7671(16) 0.6032(6) -0.4080(9)
H22 H 0.8813(16) 0.5902(6) -0.4515(9)
C24 C 0.9115(18) 0.5568(8) -0.3857(6)
H23 H 0.9617(18) 0.5909(8) -0.3631(6)
H24 H 0.8493(18) 0.5357(8) -0.3630(6)
O2 O 1.0128(10) 0.5247(4) -0.4070(4)
C30 C 1.0381(12) 0.4832(5) -0.3768(5)
C31 C 1.0557(11) 0.4955(4) -0.3230(5)
H35 H 1.0550(11) 0.5322(4) -0.3048(5)
C32 C 1.0750(10) 0.4524(4) -0.2948(4)
H36 H 1.0877(10) 0.4611(4) -0.2578(4)
C33 C 1.0758(9) 0.3966(4) -0.3204(4)
C34 C 1.0638(11) 0.3884(4) -0.3745(5)
H37 H 1.0690(11) 0.3522(4) -0.3930(5)
C35 C 1.0449(12) 0.4287(5) -0.4041(5)
H38 H 1.0367(12) 0.4201(5) -0.4412(5)
C36 C 0.7238(10) 0.2119(4) -0.1075(4)
C37 C 0.8326(13) 0.2584(4) -0.0907(5)
H39 H 0.8578(13) 0.2847(4) -0.1130(5)
C38 C 0.9019(15) 0.2657(4) -0.0423(5)
H40 H 0.9694(15) 0.2982(4) -0.0310(5)
C39 C 0.8742(13) 0.2256(4) -0.0091(4)
C40 C 0.7748(12) 0.1779(4) -0.0263(4)
H41 H 0.7564(12) 0.1496(4) -0.0056(4)
C41 C 0.7031(12) 0.1728(4) -0.0744(4)
H42 H 0.6351(12) 0.1404(4) -0.0854(4)
O3 O 0.9578(8) 0.2354(3) 0.0377(3)
C42 C 0.9812(9) 0.1879(4) 0.0606(4)
H43 H 1.0072(9) 0.1585(4) 0.0329(4)
H44 H 0.8924(9) 0.1726(4) 0.0764(4)
C43 C 1.1025(10) 0.2059(4) 0.1030(3)
H45 H 1.0820(10) 0.2392(4) 0.1272(3)
H46 H 1.1029(10) 0.1758(4) 0.1237(3)
C44 C 1.2501(10) 0.2191(4) 0.0815(4)
H47 H 1.2627(10) 0.1886(4) 0.0526(4)
H48 H 1.3218(10) 0.2196(4) 0.1095(4)
C45 C 1.2827(11) 0.2748(4) 0.0608(5)
H49 H 1.2088(11) 0.2752(4) 0.0337(5)
H50 H 1.2752(11) 0.3056(4) 0.0900(5)
C46 C 1.4298(11) 0.2855(4) 0.0371(5)
H51 H 1.5020(11) 0.2782(4) 0.0617(5)
H52 H 1.4309(11) 0.2584(4) 0.0042(5)
C47 C 1.4748(12) 0.3439(5) 0.0251(5)
H53 H 1.5139(12) 0.3689(5) 0.0577(5)
H54 H 1.5520(12) 0.3430(5) -0.0004(5)
O4 O 1.3627(13) 0.3658(3) 0.0048(3)
C48 C 1.3106(17) 0.3509(5) -0.0466(5)
C49 C 1.3516(12) 0.3078(4) -0.0851(5)
H55 H 1.4190(12) 0.2862(4) -0.0759(5)
C50 C 1.2919(12) 0.2973(4) -0.1368(4)
H56 H 1.3207(12) 0.2686(4) -0.1618(4)
C51 C 1.1923(12) 0.3279(4) -0.1523(4)
C52 C 1.1485(13) 0.3705(4) -0.1143(5)
H57 H 1.0799(13) 0.3917(4) -0.1232(5)
C53 C 1.2098(16) 0.3803(5) -0.0629(5)
H58 H 1.1802(16) 0.4089(5) -0.0380(5)
C54 C 0.4392(11) 0.0848(4) -0.2613(4)
C55 C 0.5076(11) 0.0391(4) -0.2565(3)
H59 H 0.5924(11) 0.0455(4) -0.2352(3)
C56 C 0.4542(11) -0.0169(4) -0.2825(4)
H60 H 0.5041(11) -0.0467(4) -0.2793(4)
C57 C 0.3262(12) -0.0262(4) -0.3127(4)
C58 C 0.2579(11) 0.0190(4) -0.3185(4)
H61 H 0.1743(11) 0.0131(4) -0.3403(4)
C59 C 0.3124(12) 0.0730(4) -0.2922(4)
H62 H 0.2617(12) 0.1025(4) -0.2954(4)
O5 O 0.2616(6) -0.0782(3) -0.3403(2)
C60 C 0.3263(9) -0.1281(3) -0.3419(3)
H63 H 0.2556(9) -0.1581(3) -0.3320(3)
H64 H 0.4083(9) -0.1205(3) -0.3165(3)
C61 C 0.3774(9) -0.1469(3) -0.3978(4)
H65 H 0.4014(9) -0.1847(3) -0.4003(4)
H66 H 0.2976(9) -0.1490(3) -0.4232(4)
C62 C 0.5062(8) -0.1091(4) -0.4134(3)
H67 H 0.4910(8) -0.0702(4) -0.4027(3)
H68 H 0.5104(8) -0.1164(4) -0.4521(3)
C63 C 0.6528(9) -0.1150(3) -0.3902(4)
H69 H 0.6476(9) -0.1099(3) -0.3516(4)
H70 H 0.6718(9) -0.1532(3) -0.4029(4)
C64 C 0.7788(9) -0.0736(3) -0.4044(4)
H71 H 0.7715(9) -0.0723(3) -0.4423(4)
H72 H 0.8692(9) -0.0870(3) -0.3978(4)
C65 C 0.7843(10) -0.0142(3) -0.3729(4)
H73 H 0.6929(10) -0.0009(3) -0.3779(4)
H74 H 0.7986(10) -0.0144(3) -0.3350(4)
O6 O 0.8993(7) 0.0221(2) -0.3905(3)
C66 C 0.9224(11) 0.0773(4) -0.3642(4)
C67 C 1.0355(11) 0.1108(4) -0.3840(4)
H75 H 1.0858(11) 0.0957(4) -0.4132(4)
C68 C 1.0741(10) 0.1674(4) -0.3601(4)
H76 H 1.1494(10) 0.1902(4) -0.3737(4)
C69 C 1.0007(10) 0.1900(4) -0.3159(4)
C70 C 0.8850(10) 0.1554(4) -0.2977(4)
H77 H 0.8320(10) 0.1700(4) -0.2691(4)
C71 C 0.8487(10) 0.0995(4) -0.3221(4)
H78 H 0.7720(10) 0.0766(4) -0.3093(4)
C72 C 0.6761(11) 0.2256(4) 0.1901(5)
C73 C 0.7330(11) 0.2691(4) 0.1621(4)
H79 H 0.7565(11) 0.2599(4) 0.1264(4)
C74 C 0.7542(11) 0.3257(4) 0.1873(5)
C75 C 0.7174(11) 0.3378(4) 0.2395(5)
H80 H 0.7319(11) 0.3756(4) 0.2560(5)
C76 C 0.6584(11) 0.2965(4) 0.2703(4)
C77 C 0.6432(10) 0.2408(4) 0.2434(4)
H81 H 0.6090(10) 0.2120(4) 0.2622(4)
C78 C 1.1294(10) 0.1701(4) 0.2717(4)
C79 C 1.1738(10) 0.2171(4) 0.2476(4)
H82 H 1.2136(10) 0.2117(4) 0.2139(4)
C80 C 1.1605(10) 0.2713(4) 0.2721(4)
C81 C 1.1036(10) 0.2790(4) 0.3233(4)
H83 H 1.0962(10) 0.3155(4) 0.3405(4)
C82 C 1.0576(9) 0.2334(4) 0.3495(4)
C83 C 1.0724(10) 0.1796(4) 0.3217(4)
H84 H 1.0418(10) 0.1485(4) 0.3380(4)
C84 C 0.6609(12) 0.1667(4) 0.1638(5)
C85 C 0.7026(12) 0.1252(4) 0.1869(4)
H85 H 0.7418(12) 0.1351(4) 0.2216(4)
C86 C 0.6908(12) 0.0691(4) 0.1624(4)
H86 H 0.7274(12) 0.0430(4) 0.1795(4)
C87 C 0.6244(11) 0.0525(4) 0.1127(4)
C88 C 0.5747(10) 0.0920(5) 0.0875(4)
H87 H 0.5303(10) 0.0815(5) 0.0535(4)
C89 C 0.5921(11) 0.1479(4) 0.1136(5)
H88 H 0.5559(11) 0.1742(4) 0.0967(5)
O7 O 0.6065(7) -0.0025(2) 0.0842(2)
C90 C 0.6685(11) -0.0439(3) 0.1065(3)
H89 H 0.6059(11) -0.0573(3) 0.1336(3)
H90 H 0.7629(11) -0.0272(3) 0.1232(3)
C91 C 0.6851(10) -0.0930(3) 0.0625(3)
H91 H 0.5945(10) -0.1039(3) 0.0414(3)
H92 H 0.7604(10) -0.0802(3) 0.0390(3)
C92 C 0.7228(9) -0.1438(3) 0.0815(4)
H93 H 0.7711(9) -0.1651(3) 0.0528(4)
H94 H 0.6326(9) -0.1676(3) 0.0875(4)
C93 C 0.8185(11) -0.1341(5) 0.1317(5)
H97 H 0.7760(11) -0.1104(5) 0.1603(5)
H98 H 0.8227(11) -0.1702(5) 0.1428(5)
C94 C 0.9710(12) -0.1060(7) 0.1228(5)
H99 H 0.9676(12) -0.0695(7) 0.1125(5)
H100 H 1.0136(12) -0.1293(7) 0.0939(5)
C95 C 1.0659(18) -0.0978(8) 0.1745(8)
H101 H 1.0080(18) -0.0898(8) 0.2058(8)
H102 H 1.1075(18) -0.1317(8) 0.1764(8)
O8 O 1.1744(8) -0.0527(3) 0.1721(3)
C99 C 1.1541(14) -0.0002(4) 0.1958(4)
C100 C 1.2633(13) 0.0429(5) 0.1894(4)
H109 H 1.3431(13) 0.0353(5) 0.1690(4)
C101 C 1.2538(12) 0.0974(4) 0.2133(4)
H110 H 1.3275(12) 0.1264(4) 0.2082(4)
C102 C 1.1393(12) 0.1107(4) 0.2446(4)
C103 C 1.0293(11) 0.0660(4) 0.2500(4)
H111 H 0.9485(11) 0.0734(4) 0.2699(4)
C104 C 1.0383(12) 0.0109(4) 0.2263(4)
H112 H 0.9655(12) -0.0185(4) 0.2311(4)
C105 C 0.8229(13) 0.3712(4) 0.1585(4)
C106 C 0.9221(15) 0.3616(5) 0.1199(5)
H113 H 0.9457(15) 0.3254(5) 0.1112(5)
C107 C 0.9898(13) 0.4033(5) 0.0928(4)
H114 H 1.0557(13) 0.3952(5) 0.0662(4)
C108 C 0.9550(15) 0.4576(4) 0.1072(5)
C109 C 0.8525(15) 0.4681(5) 0.1436(5)
H115 H 0.8258(15) 0.5039(5) 0.1512(5)
C110 C 0.7871(13) 0.4254(4) 0.1698(4)
H116 H 0.7181(13) 0.4332(4) 0.1953(4)
O9 O 1.0177(10) 0.5035(3) 0.0854(3)
C111 C 1.1336(12) 0.4965(4) 0.0504(4)
H117 H 1.0953(12) 0.4796(4) 0.0146(4)
H118 H 1.1938(12) 0.4716(4) 0.0624(4)
C112 C 1.2254(12) 0.5546(4) 0.0494(4)
H119 H 1.2930(12) 0.5511(4) 0.0204(4)
H120 H 1.1618(12) 0.5809(4) 0.0424(4)
C113 C 1.3091(13) 0.5781(4) 0.1011(5)
H121 H 1.2427(13) 0.5762(4) 0.1303(5)
H122 H 1.3471(13) 0.6177(4) 0.1015(5)
C114 C 1.4358(12) 0.5474(5) 0.1110(5)
H123 H 1.4103(12) 0.5077(5) 0.0950(5)
H124 H 1.5205(12) 0.5630(5) 0.0931(5)
C115 C 1.4754(12) 0.5516(4) 0.1688(5)
H125 H 1.4745(12) 0.5902(4) 0.1870(5)
H126 H 1.5738(12) 0.5435(4) 0.1719(5)
C116 C 1.3723(15) 0.5111(4) 0.1966(4)
H127 H 1.3983(15) 0.5176(4) 0.2344(4)
H128 H 1.2731(15) 0.5181(4) 0.1928(4)
O10 O 1.3808(10) 0.4566(3) 0.1746(3)
C117 C 1.3212(15) 0.4141(5) 0.2009(5)
C118 C 1.1972(15) 0.4147(4) 0.2288(5)
H129 H 1.1488(15) 0.4459(4) 0.2329(5)
C119 C 1.1439(13) 0.3668(4) 0.2511(4)
H130 H 1.0587(13) 0.3669(4) 0.2702(4)
C120 C 1.2099(12) 0.3210(4) 0.2461(4)
C121 C 1.3335(13) 0.3218(5) 0.2148(4)
H131 H 1.3812(13) 0.2904(5) 0.2102(4)
C122 C 1.3864(13) 0.3657(5) 0.1908(5)
H132 H 1.4644(13) 0.3637(5) 0.1681(5)
C123 C 0.6120(13) 0.3109(4) 0.3247(4)
C124 C 0.6773(11) 0.3582(4) 0.3604(5)
H133 H 0.7548(11) 0.3822(4) 0.3493(5)
C125 C 0.6305(13) 0.3704(4) 0.4114(5)
H134 H 0.6794(13) 0.4014(4) 0.4348(5)
C126 C 0.5113(14) 0.3371(4) 0.4287(5)
C127 C 0.4438(11) 0.2913(4) 0.3941(5)
H135 H 0.3645(11) 0.2682(4) 0.4052(5)
C128 C 0.4905(12) 0.2785(4) 0.3430(5)
H136 H 0.4404(12) 0.2475(4) 0.3198(5)
O11 O 0.4733(9) 0.3535(3) 0.4804(3)
C129 C 0.3432(10) 0.3272(4) 0.5002(4)
H138 H 0.3164(10) 0.3519(4) 0.5317(4)
H139 H 0.2903(10) 0.2997(4) 0.4717(4)
C130 C 0.3582(12) 0.2707(5) 0.5146(6)
H142 H 0.3654(12) 0.2441(5) 0.4819(6)
C131 C 0.4842(16) 0.2712(6) 0.5501(8)
H143 H 0.4855(16) 0.3023(6) 0.5798(8)
H144 H 0.5720(16) 0.2792(6) 0.5304(8)
H146 H 0.2865(24) 0.2740(10) 0.5530(9)
C134 C 0.4919(11) 0.2179(4) 0.5729(4)
H149 H 0.4108(11) 0.2119(4) 0.5963(4)
H150 H 0.4815(11) 0.1857(4) 0.5438(4)
C135 C 0.6314(11) 0.2201(5) 0.6038(4)
H153 H 0.6167(11) 0.1912(5) 0.6262(4)
H154 H 0.6525(11) 0.2566(5) 0.6273(4)
C136 C 0.7619(11) 0.2116(4) 0.5706(4)
H155 H 0.8337(11) 0.1987(4) 0.5913(4)
H156 H 0.7330(11) 0.1826(4) 0.5394(4)
O12 O 0.8237(8) 0.2613(3) 0.5542(3)
C137 C 0.8861(11) 0.2539(5) 0.5057(4)
C138 C 0.9683(11) 0.2110(4) 0.4891(4)
H157 H 0.9860(11) 0.1865(4) 0.5119(4)
C139 C 1.0234(10) 0.2056(4) 0.4383(4)
H158 H 1.0762(10) 0.1763(4) 0.4272(4)
C140 C 1.0042(10) 0.2409(4) 0.4036(4)
C141 C 0.9230(11) 0.2843(4) 0.4218(4)
H159 H 0.9069(11) 0.3093(4) 0.3993(4)
C142 C 0.8673(11) 0.2907(4) 0.4717(5)
H160 H 0.8159(11) 0.3204(4) 0.4829(5)

#END

