
#######################################################################
#
#                 Cambridge Crystallographic Data Centre
#                                CCDC 
#
#######################################################################
#
# If this CIF has been generated directly or indirectly from an entry in the 
# Cambridge Structural Database, then it will include bibliographic, chemical, 
# crystal, experimental, refinement or atomic coordinate data resulting from 
# the CCDC's data processing and validation procedures. Files generated from 
# CSD entries are Copyright 2015 Cambridge Crystallographic Data Centre. They 
# may be used in bona fide research applications only, and may not be copied or 
# further disseminated in any form, whether machine-readable or not, except for 
# the purposes of generating routine backup copies on your local computer 
# system.
# 
# Files arising from any other source may also contain material that is the 
# copyright of third parties, including the originator, and you should check 
# with the originator concerning the permitted uses of the information 
# contained in this CIF.
#
# For further information on the CCDC and the free tools enCIFer and Mercury
# for validating and visualising CIF files, please visit www.ccdc.cam.ac.uk
#
#######################################################################

data_TIWLUG
_audit_creation_date             1997-04-03
_database_code_depnum_ccdc_archive 'CCDC 114576'
_database_code_depnum_ccdc_journal 1220/36.
_database_code_NBS               671779
_chemical_formula_moiety         'C60 H60'
_chemical_name_systematic        
Decacyclo(19.19.8.2^6,9^.2^14,28^.2^33,36^.2^43,46^.1^3,39^.1^12,16^.1^19,23^.1^26,30^)hexaconta-1,3(57),6,8,12,14,16(58),19,21,23(59),26,28,30(60),33,5,39,43,45,49,53,55-henicosaene
_journal_coden_Cambridge         1220
_journal_volume                  2
_journal_year                    1996
_journal_page_first              1585
_journal_name_full               Chem.-Eur.J.
loop_
_publ_author_name
J.Gross
G.Harder
A.Siepen
J.Harren
F.Vogtle
H.Stephan
K.Gloe
B.Ahlers
K.Cammann
K.Rissanen
_chemical_absolute_configuration unk
_diffrn_ambient_temperature      295
_exptl_crystal_density_meas      1.146
_exptl_crystal_density_diffrn    1.145
#These two values have been output from a single CSD field.
_refine_ls_R_factor_gt           0.119
_refine_ls_wR_factor_gt          0.119
_diffrn_radiation_probe          x-ray
_symmetry_cell_setting           monoclinic
_symmetry_space_group_name_H-M   'P 21/n'
_symmetry_Int_Tables_number      14
loop_
_symmetry_equiv_pos_site_id
_symmetry_equiv_pos_as_xyz
1 x,y,z
2 1/2-x,1/2+y,1/2-z
3 -x,-y,-z
4 1/2+x,1/2-y,1/2+z
_cell_length_a                   15.485(2)
_cell_length_b                   9.316(1)
_cell_length_c                   31.418(5)
_cell_angle_alpha                90
_cell_angle_beta                 92.02(1)
_cell_angle_gamma                90
_cell_volume                     4529.49
_exptl_crystal_colour            colorless
_chemical_melting_point          'above 340deg.C'
_cell_formula_units_Z            4
loop_
_atom_site_label
_atom_site_type_symbol
_atom_site_fract_x
_atom_site_fract_y
_atom_site_fract_z
C1 C -0.5258(7) 1.214(1) 0.0905(3)
C2 C -0.5340(7) 1.066(1) 0.0869(3)
C3 C -0.5346(7) 0.9807(8) 0.1234(3)
C4 C -0.5447(9) 0.822(1) 0.1198(5)
C5 C -0.4704(7) 0.732(1) 0.1364(5)
C6 C -0.3806(7) 0.777(1) 0.1282(3)
C7 C -0.3383(8) 0.731(2) 0.0928(4)
C8 C -0.2528(8) 0.769(2) 0.0865(5)
C9 C -0.2075(7) 0.845(1) 0.1172(3)
C10 C -0.1161(7) 0.889(1) 0.1106(4)
C11 C -0.0501(7) 0.775(1) 0.1240(4)
C12 C 0.0407(6) 0.829(1) 0.1240(3)
C13 C 0.0858(8) 0.854(1) 0.1621(3)
C14 C 0.1708(7) 0.896(1) 0.1617(3)
C15 C 0.2103(7) 0.922(1) 0.1236(4)
C16 C 0.1663(7) 0.898(1) 0.0865(3)
C17 C 0.210(1) 0.915(2) 0.0457(4)
C18 C 0.216(1) 1.053(2) 0.0217(5)
C19 C 0.1743(7) 1.181(1) 0.0397(4)
C20 C 0.0894(8) 1.211(1) 0.0284(3)
C21 C 0.0512(6) 1.330(1) 0.0427(3)
C22 C 0.1007(8) 1.428(1) 0.0663(4)
C23 C 0.1873(7) 1.396(1) 0.0762(3)
C24 C 0.242(1) 1.501(2) 0.0999(4)
C25 C 0.235(1) 1.510(1) 0.1473(4)
C26 C 0.1888(7) 1.401(1) 0.1725(3)
C27 C 0.2284(6) 1.276(1) 0.1847(4)
C28 C 0.1897(7) 1.182(1) 0.2084(3)
C29 C 0.1051(8) 1.207(1) 0.2221(3)
C30 C 0.0630(6) 1.334(1) 0.2091(3)
C31 C -0.0290(6) 1.358(1) 0.2187(4)
C32 C -0.0922(6) 1.265(1) 0.1927(4)
C33 C -0.1858(6) 1.286(1) 0.1994(3)
C34 C -0.2289(8) 1.212(2) 0.2306(4)
C35 C -0.3163(9) 1.236(2) 0.2365(4)
C36 C -0.3601(6) 1.340(1) 0.2141(3)
C37 C -0.4522(7) 1.370(1) 0.2217(4)
C38 C -0.5192(8) 1.258(1) 0.2099(3)
C39 C -0.5211(7) 1.191(1) 0.1670(2)
C40 C -0.5203(7) 1.2759(9) 0.1308(3)
C41 C -0.5277(7) 1.302(1) 0.0513(3)
C42 C -0.4613(6) 1.267(2) 0.0185(3)
C43 C -0.3694(6) 1.293(1) 0.0319(3)
C44 C -0.3232(8) 1.403(1) 0.0150(4)
C45 C -0.2351(8) 1.426(1) 0.0263(4)
C46 C -0.1956(6) 1.336(1) 0.0554(3)
C47 C -0.1029(7) 1.354(2) 0.0684(4)
C48 C -0.0414(7) 1.356(2) 0.0321(4)
C49 C -0.3365(8) 0.853(2) 0.1568(4)
C50 C -0.2490(8) 0.888(1) 0.1518(5)
C51 C 0.221(1) 0.911(2) 0.2021(4)
C52 C 0.2369(9) 1.052(1) 0.2233(5)
C53 C -0.2316(7) 1.391(2) 0.1780(4)
C54 C -0.3192(7) 1.415(2) 0.1846(5)
C55 C -0.3273(7) 1.204(1) 0.0603(4)
C56 C -0.2407(7) 1.230(1) 0.0720(4)
C57 C -0.5289(7) 1.045(1) 0.1630(3)
C58 C 0.0800(8) 0.852(1) 0.0870(4)
C59 C 0.2222(8) 1.274(2) 0.0628(4)
C60 C 0.1049(7) 1.427(1) 0.1843(4)

#END

