
#######################################################################
#
#                 Cambridge Crystallographic Data Centre
#                                CCDC 
#
#######################################################################
#
# If this CIF has been generated directly or indirectly from an entry in the 
# Cambridge Structural Database, then it will include bibliographic, chemical, 
# crystal, experimental, refinement or atomic coordinate data resulting from 
# the CCDC's data processing and validation procedures. Files generated from 
# CSD entries are Copyright 2014 Cambridge Crystallographic Data Centre. They 
# may be used in bona fide research applications only, and may not be copied or 
# further disseminated in any form, whether machine-readable or not, except for 
# the purposes of generating routine backup copies on your local computer 
# system.
# 
# Files arising from any other source may also contain material that is the 
# copyright of third parties, including the originator, and you should check 
# with the originator concerning the permitted uses of the information 
# contained in this CIF.
#
# For further information on the CCDC and the free tools enCIFer and Mercury
# for validating and visualising CIF files, please visit www.ccdc.cam.ac.uk
#
#######################################################################

data_REYMAL
_audit_creation_date             2013-05-19
_database_code_depnum_ccdc_archive 'CCDC 909668'
_chemical_formula_moiety         'C192 H240 N24 O12,12(H2 O1)'
_chemical_name_systematic        
'4^5^,10^5^,16^5^,22^5^,28^5^,34^5^,40^5^,46^5^-Octa-t-butyl-4^2^,10^2^,16^2^,22^2^,28^2^,34^2^,40^2^,46^2^-octahydroxy-1^5^,31^5^:7^5^,25^5^:13^5^,43^5^:19^5^,37^5^-tetrakis(5-t-butyl-2-hydroxy-1,3-phenylenedimethylenediamino)-2,6,8,12,14,18,20,24,26,30,32,36,38,42,44,48-hexadeca-aza-4,10,16,22,28,34,40,46(1,3)-octabenzena-1,7,13,19,25,31,37,43(1,3,5)-octacyclohexanaoctatetracontaphane-2,5,8,11,14,17,20,23,26,29,32,35,38,41,44,47-hexadecaene dodecahydrate unknown solvate'
_journal_coden_Cambridge         182
_journal_volume                  49
_journal_year                    2013
_journal_page_first              2524
_journal_name_full               Chem.Commun.
loop_
_publ_author_name
P.Skowronek
B.Warzajtis
U.Rychlewska
J.Gawronnski
_chemical_absolute_configuration unk
_diffrn_ambient_temperature      100
_exptl_crystal_density_meas      0.64
_exptl_crystal_density_diffrn    0.64
#These two values have been output from a single CSD field.
_refine_ls_R_factor_gt           0.076
_refine_ls_wR_factor_gt          0.076
_diffrn_radiation_probe          x-ray
_symmetry_cell_setting           tetragonal
_symmetry_space_group_name_H-M   'P -4 21 c'
_symmetry_Int_Tables_number      114
loop_
_symmetry_equiv_pos_site_id
_symmetry_equiv_pos_as_xyz
1 x,y,z
2 -x,-y,z
3 y,-x,-z
4 -y,x,-z
5 1/2-x,1/2+y,1/2-z
6 1/2+x,1/2-y,1/2-z
7 1/2-y,1/2-x,1/2+z
8 1/2+y,1/2+x,1/2+z
_cell_length_a                   25.7826(5)
_cell_length_b                   25.7826(5)
_cell_length_c                   25.6888(7)
_cell_angle_alpha                90
_cell_angle_beta                 90
_cell_angle_gamma                90
_cell_volume                     17076.4
_exptl_crystal_colour            yellow
_exptl_crystal_description       prism
_cell_formula_units_Z            2
loop_
_atom_site_label
_atom_site_type_symbol
_atom_site_fract_x
_atom_site_fract_y
_atom_site_fract_z
C1 C 0.2124(3) 0.6044(3) 0.7474(3)
H1 H 0.1840 0.6121 0.7220
C2 C 0.2311(3) 0.5509(2) 0.7372(3)
H2 H 0.2413 0.5485 0.7001
H3 H 0.2627 0.5450 0.7583
C3 C 0.1947(3) 0.5099(3) 0.7482(3)
H4 H 0.1648 0.5128 0.7236
C4 C 0.1748(3) 0.5121(3) 0.8025(4)
H5 H 0.2035 0.5039 0.8268
H6 H 0.1477 0.4853 0.8069
C5 C 0.1504(3) 0.5692(3) 0.8177(4)
H7 H 0.1178 0.5746 0.7973
C6 C 0.1907(3) 0.6118(3) 0.8018(3)
H8 H 0.1738 0.6463 0.8039
H9 H 0.2197 0.6115 0.8271
C7 C 0.2466(3) 0.6776(3) 0.7092(3)
H10 H 0.2143 0.6807 0.6916
C8 C 0.28771(16) 0.71734(19) 0.6991(2)
C9 C 0.33461(18) 0.7158(2) 0.72578(18)
C10 C 0.37218(15) 0.7533(2) 0.71623(19)
C11 C 0.36287(19) 0.79228(19) 0.6800(2)
H11 H 0.3886 0.8179 0.6735
C12 C 0.3160(2) 0.79378(18) 0.65337(18)
C13 C 0.27840(16) 0.7563(2) 0.66293(19)
H12 H 0.2463 0.7573 0.6447
C14 C 0.3056(3) 0.8398(3) 0.6112(3)
C15 C 0.3255(3) 0.8873(3) 0.6346(4)
H13 H 0.3621 0.8826 0.6437
H14 H 0.3056 0.8953 0.6661
H15 H 0.3222 0.9159 0.6098
C16 C 0.3401(3) 0.8173(3) 0.5620(3)
H16 H 0.3250 0.7846 0.5499
H17 H 0.3758 0.8114 0.5734
H18 H 0.3398 0.8426 0.5335
C17 C 0.2494(3) 0.8382(4) 0.5966(4)
H19 H 0.2408 0.8037 0.5831
H20 H 0.2425 0.8643 0.5697
H21 H 0.2281 0.8455 0.6273
C18 C 0.4203(3) 0.7534(3) 0.7456(3)
H22 H 0.4242 0.7253 0.7692
C19 C 0.4996(3) 0.7725(4) 0.7756(3)
H23 H 0.4939 0.7428 0.7999
C20 C 0.5491(3) 0.7638(3) 0.7441(3)
H24 H 0.5440 0.7343 0.7200
H25 H 0.5567 0.7951 0.7230
C21 C 0.5944(2) 0.7526(3) 0.7801(3)
H26 H 0.5871 0.7212 0.8018
C22 C 0.6032(3) 0.8001(3) 0.8150(3)
H27 H 0.6336 0.7942 0.8378
H28 H 0.6103 0.8309 0.7932
C23 C 0.5578(3) 0.8091(3) 0.8463(3)
H29 H 0.5488 0.7772 0.8665
C24 C 0.5094(3) 0.8261(4) 0.8092(3)
H30 H 0.5189 0.8554 0.7862
H31 H 0.4785 0.8356 0.8300
C25 C 0.5642(3) 0.8470(4) 0.9329(4)
H32 H 0.5608 0.8129 0.9465
C26 C 0.5697(2) 0.8909(2) 0.9679(3)
C27 C 0.5716(2) 0.87893(19) 1.0206(3)
C28 C 0.5805(2) 0.9179(3) 1.0569(2)
C29 C 0.5873(3) 0.9688(2) 1.0405(3)
H33 H 0.5934 0.9954 1.0654
C30 C 0.5854(2) 0.98076(18) 0.9878(3)
C31 C 0.5766(2) 0.9418(3) 0.9515(2)
H34 H 0.5752 0.9500 0.9155
C32 C 0.5919(5) 1.0362(4) 0.9667(5)
C33 C 0.5809(8) 1.0547(5) 0.9146(6)
H35 H 0.5883 1.0919 0.9126
H36 H 0.5443 1.0486 0.9065
H37 H 0.6027 1.0361 0.8896
C34 C 0.6547(4) 1.0490(4) 0.9815(5)
H38 H 0.6635 1.0841 0.9700
H39 H 0.6772 1.0239 0.9638
H40 H 0.6597 1.0463 1.0192
C35 C 0.5657(4) 1.0767(3) 1.0097(5)
H41 H 0.5688 1.1124 0.9969
H42 H 0.5838 1.0735 1.0430
H43 H 0.5289 1.0681 1.0145
C36 C 0.6676(3) 0.7027(3) 0.7544(3)
H44 H 0.6561 0.6797 0.7809
C37 C 0.71222(17) 0.6876(2) 0.7231(2)
C38 C 0.7347(2) 0.63921(19) 0.7310(2)
C39 C 0.7778(2) 0.62449(16) 0.7020(2)
C40 C 0.79832(19) 0.6581(2) 0.6651(2)
H45 H 0.8277 0.6481 0.6452
C41 C 0.7758(2) 0.70648(19) 0.65718(18)
C42 C 0.7328(2) 0.72121(16) 0.6862(2)
H46 H 0.7174 0.7543 0.6808
C43 C 0.7990(4) 0.7429(3) 0.6129(4)
C44 C 0.7618(5) 0.7928(3) 0.6122(3)
H47 H 0.7261 0.7819 0.6052
H48 H 0.7733 0.8168 0.5849
H49 H 0.7634 0.8103 0.6461
C45 C 0.8559(4) 0.7519(4) 0.6209(4)
H50 H 0.8740 0.7184 0.6218
H51 H 0.8614 0.7701 0.6539
H52 H 0.8695 0.7729 0.5922
C46 C 0.7935(5) 0.7177(3) 0.5632(3)
H53 H 0.7568 0.7105 0.5566
H54 H 0.8130 0.6851 0.5634
H55 H 0.8071 0.7404 0.5358
C47 C 0.0916(4) 0.5786(3) 0.8853(4)
H56 H 0.0648 0.5843 0.8606
C48 C 0.1950(3) 0.4221(3) 0.7080(3)
H57 H 0.1643 0.4295 0.6890
N1 N 0.25317(19) 0.6415(2) 0.7391(3)
N2 N 0.1377(3) 0.5689(2) 0.8722(3)
N3 N 0.2164(2) 0.4574(2) 0.7444(3)
N4 N 0.4533(3) 0.7813(3) 0.7448(3)
N5 N 0.6434(2) 0.7447(3) 0.7482(2)
N6 N 0.5639(3) 0.8546(3) 0.8825(4)
O1 O 0.34615(16) 0.67687(19) 0.7593(2)
H58 H 0.3210 0.6561 0.7595
O2 O 0.56376(19) 0.82674(19) 1.0338(2)
H59 H 0.5472 0.8247 1.0618
O3 O 0.71379(17) 0.60955(18) 0.76917(19)
H60 H 0.7321 0.5827 0.7712
C1A C 0.7876 0.3956 0.7474
H1A H 0.816 0.3879 0.722
C2A C 0.7689 0.4491 0.7372
H2A H 0.7587 0.4515 0.7001
H3A H 0.7373 0.455 0.7583
C3A C 0.8053 0.4901 0.7482
H4A H 0.8352 0.4872 0.7236
C4A C 0.8252 0.4879 0.8025
H5A H 0.7965 0.4961 0.8268
H6A H 0.8523 0.5147 0.8069
C5A C 0.8496 0.4308 0.8177
H7A H 0.8822 0.4254 0.7973
C6A C 0.8093 0.3882 0.8018
H8A H 0.8262 0.3537 0.8039
H9A H 0.7803 0.3885 0.8271
C7A C 0.7534 0.3224 0.7092
H10A H 0.7857 0.3193 0.6916
C8A C 0.71229 0.28266 0.6991
C9A C 0.66539 0.2842 0.72578
C10A C 0.62782 0.2467 0.71623
C11A C 0.63713 0.20772 0.68
H11A H 0.6114 0.1821 0.6735
C12A C 0.684 0.20622 0.65337
C13A C 0.7216 0.2437 0.66293
H12A H 0.7537 0.2427 0.6447
C14A C 0.6944 0.1602 0.6112
C15A C 0.6745 0.1127 0.6346
H13A H 0.6379 0.1174 0.6437
H14A H 0.6944 0.1047 0.6661
H15A H 0.6778 0.0841 0.6098
C16A C 0.6599 0.1827 0.562
H16A H 0.675 0.2154 0.5499
H17A H 0.6242 0.1886 0.5734
H18A H 0.6602 0.1574 0.5335
C17A C 0.7506 0.1618 0.5966
H19A H 0.7592 0.1963 0.5831
H20A H 0.7575 0.1357 0.5697
H21A H 0.7719 0.1545 0.6273
C18A C 0.5797 0.2466 0.7456
H22A H 0.5758 0.2747 0.7692
C19A C 0.5004 0.2275 0.7756
H23A H 0.5061 0.2572 0.7999
C20A C 0.4509 0.2362 0.7441
H24A H 0.456 0.2657 0.72
H25A H 0.4433 0.2049 0.723
C21A C 0.4056 0.2474 0.7801
H26A H 0.4129 0.2788 0.8018
C22A C 0.3968 0.1999 0.815
H27A H 0.3664 0.2058 0.8378
H28A H 0.3897 0.1691 0.7932
C23A C 0.4422 0.1909 0.8463
H29A H 0.4512 0.2228 0.8665
C24A C 0.4906 0.1739 0.8092
H30A H 0.4811 0.1446 0.7862
H31A H 0.5215 0.1644 0.83
C25A C 0.4358 0.153 0.9329
H32A H 0.4392 0.1871 0.9465
C26A C 0.4303 0.1091 0.9679
C27A C 0.4284 0.12107 1.0206
C28A C 0.4195 0.0821 1.0569
C29A C 0.4127 0.0312 1.0405
H33A H 0.4066 0.0046 1.0654
C30A C 0.4146 0.01924 0.9878
C31A C 0.4234 0.0582 0.9515
H34A H 0.4248 0.05 0.9155
C32A C 0.4081 -0.0362 0.9667
C33A C 0.4191 -0.0547 0.9146
H35A H 0.4117 -0.0919 0.9126
H36A H 0.4557 -0.0486 0.9065
H37A H 0.3973 -0.0361 0.8896
C34A C 0.3453 -0.049 0.9815
H38A H 0.3365 -0.0841 0.97
H39A H 0.3228 -0.0239 0.9638
H40A H 0.3403 -0.0463 1.0192
C35A C 0.4343 -0.0767 1.0097
H41A H 0.4312 -0.1124 0.9969
H42A H 0.4162 -0.0735 1.043
H43A H 0.4711 -0.0681 1.0145
C36A C 0.3324 0.2973 0.7544
H44A H 0.3439 0.3203 0.7809
C37A C 0.28778 0.3124 0.7231
C38A C 0.2653 0.36079 0.731
C39A C 0.2222 0.37551 0.702
C40A C 0.20168 0.3419 0.6651
H45A H 0.1723 0.3519 0.6452
C41A C 0.2242 0.29352 0.65718
C42A C 0.2672 0.27879 0.6862
H46A H 0.2826 0.2457 0.6808
C43A C 0.201 0.2571 0.6129
C44A C 0.2382 0.2072 0.6122
H47A H 0.2739 0.2181 0.6052
H48A H 0.2267 0.1832 0.5849
H49A H 0.2366 0.1897 0.6461
C45A C 0.1441 0.2481 0.6209
H50A H 0.126 0.2816 0.6218
H51A H 0.1386 0.2299 0.6539
H52A H 0.1305 0.2271 0.5922
C46A C 0.2065 0.2823 0.5632
H53A H 0.2432 0.2895 0.5566
H54A H 0.187 0.3149 0.5634
H55A H 0.1929 0.2596 0.5358
C47A C 0.9084 0.4214 0.8853
H56A H 0.9352 0.4157 0.8606
C48A C 0.805 0.5779 0.708
H57A H 0.8357 0.5705 0.689
N1A N 0.74683 0.3585 0.7391
N2A N 0.8623 0.4311 0.8722
N3A N 0.7836 0.5426 0.7444
N4A N 0.5467 0.2187 0.7448
N5A N 0.3566 0.2553 0.7482
N6A N 0.4361 0.1454 0.8825
O1A O 0.65385 0.32313 0.7593
H58A H 0.679 0.3439 0.7595
O2A O 0.43624 0.17326 1.0338
H59A H 0.4528 0.1753 1.0618
O3A O 0.28621 0.39045 0.76917
H60A H 0.2679 0.4173 0.7712
C1B C 0.6044 0.7876 1.2526
H1B H 0.6121 0.816 1.278
C2B C 0.5509 0.7689 1.2628
H2B H 0.5485 0.7587 1.2999
H3B H 0.545 0.7373 1.2417
C3B C 0.5099 0.8053 1.2518
H4B H 0.5128 0.8352 1.2764
C4B C 0.5121 0.8252 1.1975
H5B H 0.5039 0.7965 1.1732
H6B H 0.4853 0.8523 1.1931
C5B C 0.5692 0.8496 1.1823
H7B H 0.5746 0.8822 1.2027
C6B C 0.6118 0.8093 1.1982
H8B H 0.6463 0.8262 1.1961
H9B H 0.6115 0.7803 1.1729
C7B C 0.6776 0.7534 1.2908
H10B H 0.6807 0.7857 1.3084
C8B C 0.71734 0.71229 1.3009
C9B C 0.7158 0.66539 1.27422
C10B C 0.7533 0.62782 1.28377
C11B C 0.79228 0.63713 1.32
H11B H 0.8179 0.6114 1.3265
C12B C 0.79378 0.684 1.34663
C13B C 0.7563 0.7216 1.33707
H12B H 0.7573 0.7537 1.3553
C14B C 0.8398 0.6944 1.3888
C15B C 0.8873 0.6745 1.3654
H13B H 0.8826 0.6379 1.3563
H14B H 0.8953 0.6944 1.3339
H15B H 0.9159 0.6778 1.3902
C16B C 0.8173 0.6599 1.438
H16B H 0.7846 0.675 1.4501
H17B H 0.8114 0.6242 1.4266
H18B H 0.8426 0.6602 1.4665
C17B C 0.8382 0.7506 1.4034
H19B H 0.8037 0.7592 1.4169
H20B H 0.8643 0.7575 1.4303
H21B H 0.8455 0.7719 1.3727
C18B C 0.7534 0.5797 1.2544
H22B H 0.7253 0.5758 1.2308
C19B C 0.7725 0.5004 1.2244
H23B H 0.7428 0.5061 1.2001
C20B C 0.7638 0.4509 1.2559
H24B H 0.7343 0.456 1.28
H25B H 0.7951 0.4433 1.277
C21B C 0.7526 0.4056 1.2199
H26B H 0.7212 0.4129 1.1982
C22B C 0.8001 0.3968 1.185
H27B H 0.7942 0.3664 1.1622
H28B H 0.8309 0.3897 1.2068
C23B C 0.8091 0.4422 1.1537
H29B H 0.7772 0.4512 1.1335
C24B C 0.8261 0.4906 1.1908
H30B H 0.8554 0.4811 1.2138
H31B H 0.8356 0.5215 1.17
C25B C 0.847 0.4358 1.0671
H32B H 0.8129 0.4392 1.0535
C26B C 0.8909 0.4303 1.0321
C27B C 0.87893 0.4284 0.9794
C28B C 0.9179 0.4195 0.9431
C29B C 0.9688 0.4127 0.9595
H33B H 0.9954 0.4066 0.9346
C30B C 0.98076 0.4146 1.0122
C31B C 0.9418 0.4234 1.0485
H34B H 0.95 0.4248 1.0845
C32B C 1.0362 0.4081 1.0333
C33B C 1.0547 0.4191 1.0854
H35B H 1.0919 0.4117 1.0874
H36B H 1.0486 0.4557 1.0935
H37B H 1.0361 0.3973 1.1104
C34B C 1.049 0.3453 1.0185
H38B H 1.0841 0.3365 1.03
H39B H 1.0239 0.3228 1.0362
H40B H 1.0463 0.3403 0.9808
C35B C 1.0767 0.4343 0.9903
H41B H 1.1124 0.4312 1.0031
H42B H 1.0735 0.4162 0.957
H43B H 1.0681 0.4711 0.9855
C36B C 0.7027 0.3324 1.2456
H44B H 0.6797 0.3439 1.2191
C37B C 0.6876 0.28778 1.2769
C38B C 0.63921 0.2653 1.269
C39B C 0.62449 0.2222 1.298
C40B C 0.6581 0.20168 1.3349
H45B H 0.6481 0.1723 1.3548
C41B C 0.70648 0.2242 1.34282
C42B C 0.72121 0.2672 1.3138
H46B H 0.7543 0.2826 1.3192
C43B C 0.7429 0.201 1.3871
C44B C 0.7928 0.2382 1.3878
H47B H 0.7819 0.2739 1.3948
H48B H 0.8168 0.2267 1.4151
H49B H 0.8103 0.2366 1.3539
C45B C 0.7519 0.1441 1.3791
H50B H 0.7184 0.126 1.3782
H51B H 0.7701 0.1386 1.3461
H52B H 0.7729 0.1305 1.4078
C46B C 0.7177 0.2065 1.4368
H53B H 0.7105 0.2432 1.4434
H54B H 0.6851 0.187 1.4366
H55B H 0.7404 0.1929 1.4642
C47B C 0.5786 0.9084 1.1147
H56B H 0.5843 0.9352 1.1394
C48B C 0.4221 0.805 1.292
H57B H 0.4295 0.8357 1.311
N1B N 0.6415 0.74683 1.2609
N2B N 0.5689 0.8623 1.1278
N3B N 0.4574 0.7836 1.2556
N4B N 0.7813 0.5467 1.2552
N5B N 0.7447 0.3566 1.2518
N6B N 0.8546 0.4361 1.1175
O1B O 0.67687 0.65385 1.2407
H58B H 0.6561 0.679 1.2405
O2B O 0.82674 0.43624 0.9662
H59B H 0.8247 0.4528 0.9382
O3B O 0.60955 0.28621 1.23083
H60B H 0.5827 0.2679 1.2288
C1C C 0.3956 0.2124 1.2526
H1C H 0.3879 0.184 1.278
C2C C 0.4491 0.2311 1.2628
H2C H 0.4515 0.2413 1.2999
H3C H 0.455 0.2627 1.2417
C3C C 0.4901 0.1947 1.2518
H4C H 0.4872 0.1648 1.2764
C4C C 0.4879 0.1748 1.1975
H5C H 0.4961 0.2035 1.1732
H6C H 0.5147 0.1477 1.1931
C5C C 0.4308 0.1504 1.1823
H7C H 0.4254 0.1178 1.2027
C6C C 0.3882 0.1907 1.1982
H8C H 0.3537 0.1738 1.1961
H9C H 0.3885 0.2197 1.1729
C7C C 0.3224 0.2466 1.2908
H10C H 0.3193 0.2143 1.3084
C8C C 0.28266 0.28771 1.3009
C9C C 0.2842 0.33461 1.27422
C10C C 0.2467 0.37218 1.28377
C11C C 0.20772 0.36287 1.32
H11C H 0.1821 0.3886 1.3265
C12C C 0.20622 0.316 1.34663
C13C C 0.2437 0.2784 1.33707
H12C H 0.2427 0.2463 1.3553
C14C C 0.1602 0.3056 1.3888
C15C C 0.1127 0.3255 1.3654
H13C H 0.1174 0.3621 1.3563
H14C H 0.1047 0.3056 1.3339
H15C H 0.0841 0.3222 1.3902
C16C C 0.1827 0.3401 1.438
H16C H 0.2154 0.325 1.4501
H17C H 0.1886 0.3758 1.4266
H18C H 0.1574 0.3398 1.4665
C17C C 0.1618 0.2494 1.4034
H19C H 0.1963 0.2408 1.4169
H20C H 0.1357 0.2425 1.4303
H21C H 0.1545 0.2281 1.3727
C18C C 0.2466 0.4203 1.2544
H22C H 0.2747 0.4242 1.2308
C19C C 0.2275 0.4996 1.2244
H23C H 0.2572 0.4939 1.2001
C20C C 0.2362 0.5491 1.2559
H24C H 0.2657 0.544 1.28
H25C H 0.2049 0.5567 1.277
C21C C 0.2474 0.5944 1.2199
H26C H 0.2788 0.5871 1.1982
C22C C 0.1999 0.6032 1.185
H27C H 0.2058 0.6336 1.1622
H28C H 0.1691 0.6103 1.2068
C23C C 0.1909 0.5578 1.1537
H29C H 0.2228 0.5488 1.1335
C24C C 0.1739 0.5094 1.1908
H30C H 0.1446 0.5189 1.2138
H31C H 0.1644 0.4785 1.17
C25C C 0.153 0.5642 1.0671
H32C H 0.1871 0.5608 1.0535
C26C C 0.1091 0.5697 1.0321
C27C C 0.12107 0.5716 0.9794
C28C C 0.0821 0.5805 0.9431
C29C C 0.0312 0.5873 0.9595
H33C H 0.0046 0.5934 0.9346
C30C C 0.01924 0.5854 1.0122
C31C C 0.0582 0.5766 1.0485
H34C H 0.05 0.5752 1.0845
C32C C -0.0362 0.5919 1.0333
C33C C -0.0547 0.5809 1.0854
H35C H -0.0919 0.5883 1.0874
H36C H -0.0486 0.5443 1.0935
H37C H -0.0361 0.6027 1.1104
C34C C -0.049 0.6547 1.0185
H38C H -0.0841 0.6635 1.03
H39C H -0.0239 0.6772 1.0362
H40C H -0.0463 0.6597 0.9808
C35C C -0.0767 0.5657 0.9903
H41C H -0.1124 0.5688 1.0031
H42C H -0.0735 0.5838 0.957
H43C H -0.0681 0.5289 0.9855
C36C C 0.2973 0.6676 1.2456
H44C H 0.3203 0.6561 1.2191
C37C C 0.3124 0.71222 1.2769
C38C C 0.36079 0.7347 1.269
C39C C 0.37551 0.7778 1.298
C40C C 0.3419 0.79832 1.3349
H45C H 0.3519 0.8277 1.3548
C41C C 0.29352 0.7758 1.34282
C42C C 0.27879 0.7328 1.3138
H46C H 0.2457 0.7174 1.3192
C43C C 0.2571 0.799 1.3871
C44C C 0.2072 0.7618 1.3878
H47C H 0.2181 0.7261 1.3948
H48C H 0.1832 0.7733 1.4151
H49C H 0.1897 0.7634 1.3539
C45C C 0.2481 0.8559 1.3791
H50C H 0.2816 0.874 1.3782
H51C H 0.2299 0.8614 1.3461
H52C H 0.2271 0.8695 1.4078
C46C C 0.2823 0.7935 1.4368
H53C H 0.2895 0.7568 1.4434
H54C H 0.3149 0.813 1.4366
H55C H 0.2596 0.8071 1.4642
C47C C 0.4214 0.0916 1.1147
H56C H 0.4157 0.0648 1.1394
C48C C 0.5779 0.195 1.292
H57C H 0.5705 0.1643 1.311
N1C N 0.3585 0.25317 1.2609
N2C N 0.4311 0.1377 1.1278
N3C N 0.5426 0.2164 1.2556
N4C N 0.2187 0.4533 1.2552
N5C N 0.2553 0.6434 1.2518
N6C N 0.1454 0.5639 1.1175
O1C O 0.32313 0.34615 1.2407
H58C H 0.3439 0.321 1.2405
O2C O 0.17326 0.56376 0.9662
H59C H 0.1753 0.5472 0.9382
O3C O 0.39045 0.71379 1.23083
H60C H 0.4173 0.7321 1.2288
O4 O 0.3542(3) 0.5827(2) 0.8423(3)
O5 O 0.6740(3) 0.52644(19) 0.8566(4)
O6 O 0.5433(5) 0.7107(3) 1.0857(4)

#END

