
#######################################################################
#
#                 Cambridge Crystallographic Data Centre
#                                CCDC 
#
#######################################################################
#
# If this CIF has been generated directly or indirectly from an entry in the 
# Cambridge Structural Database, then it will include bibliographic, chemical, 
# crystal, experimental, refinement or atomic coordinate data resulting from 
# the CCDC's data processing and validation procedures. Files generated from 
# CSD entries are Copyright 2015 Cambridge Crystallographic Data Centre. They 
# may be used in bona fide research applications only, and may not be copied or 
# further disseminated in any form, whether machine-readable or not, except for 
# the purposes of generating routine backup copies on your local computer 
# system.
# 
# Files arising from any other source may also contain material that is the 
# copyright of third parties, including the originator, and you should check 
# with the originator concerning the permitted uses of the information 
# contained in this CIF.
#
# For further information on the CCDC and the free tools enCIFer and Mercury
# for validating and visualising CIF files, please visit www.ccdc.cam.ac.uk
#
#######################################################################

data_NITYUM
_audit_creation_date             2014-02-05
_database_code_depnum_ccdc_archive 'CCDC 977102'
_chemical_formula_moiety         
'C36 H48 N6 O6,2(C27 H30 N3 O3 3+),6(F6 P1 1-),2.1(C2 H3 N1),1.8(H2 O1)'
_chemical_name_systematic        
"bis(4,4',4''-benzene-1,3,5-triyltris(1-(2-hydroxyethyl)pyridinium)) hexakis(hexafluorophosphate) 8,11,25,28,39,42-hexaoxa-5,14,22,31,36,45-hexaazatetracyclo[16.16.12.1^3,33^.1^16,20^]octatetraconta-1,3(47),4,14,16(48),17,19,21,31,33,35,45-dodecaene acetonitrile solvate hydrate"
_journal_volume                  1
_journal_year                    2014
_journal_page_first              167
loop_
_publ_author_name
'Andrew Pun'
K.Gagnon
S.Teat
'Liana Klivansky'
'Zhan-Ting Li'
'Yi Liu'
_chemical_absolute_configuration unk
_diffrn_ambient_temperature      100
_exptl_crystal_density_meas      1.527
_exptl_crystal_density_diffrn    1.533
#These two values have been output from a single CSD field.
_refine_ls_R_factor_gt           0.1088
_refine_ls_wR_factor_gt          0.1088
_diffrn_radiation_probe          x-ray
_diffrn_source                   'synchrotron radiation'
_symmetry_cell_setting           monoclinic
_symmetry_space_group_name_H-M   'P 21/n'
_symmetry_Int_Tables_number      14
loop_
_symmetry_equiv_pos_site_id
_symmetry_equiv_pos_as_xyz
1 x,y,z
2 1/2-x,1/2+y,1/2-z
3 -x,-y,-z
4 1/2+x,1/2-y,1/2+z
_cell_length_a                   13.9167(6)
_cell_length_b                   25.8857(9)
_cell_length_c                   30.7364(11)
_cell_angle_alpha                90
_cell_angle_beta                 96.611(3)
_cell_angle_gamma                90
_cell_volume                     10999
_exptl_crystal_colour            yellow
_exptl_crystal_description       needle
_cell_formula_units_Z            4
_exptl_crystal_recrystallization_method 
'Acetonitrile, Chloroform, diethyl ether'
loop_
_atom_site_label
_atom_site_type_symbol
_atom_site_fract_x
_atom_site_fract_y
_atom_site_fract_z
C1 C 0.5005(6) 0.8347(5) 0.3824(4)
C2 C 0.5286(6) 0.8153(5) 0.4235(3)
H1 H 0.5475 0.8380 0.4473
C3 C 0.5290(6) 0.7620(4) 0.4299(3)
C4 C 0.5026(6) 0.7300(5) 0.3939(3)
H2 H 0.5033 0.6937 0.3982
C5 C 0.4753(7) 0.7494(6) 0.3520(4)
C6 C 0.4756(6) 0.8018(6) 0.3474(4)
H3 H 0.4581 0.8162 0.3191
C7 C 0.4964(8) 0.8892(6) 0.3722(5)
H4 H 0.4810 0.8995 0.3425
N1 N 0.5130(6) 0.9244(5) 0.4018(4)
C8 C 0.5018(10) 0.9779(6) 0.3879(5)
H5 H 0.4532 0.9947 0.4043
H6 H 0.4770 0.9788 0.3564
C9 C 0.5937(12) 1.0075(4) 0.3949(4)
H7 H 0.5808 1.0446 0.3890
H8 H 0.6228 1.0039 0.4257
O1 O 0.6581(5) 0.9884(3) 0.3664(2)
C10 C 0.7204(12) 1.0318(6) 0.3661(5)
H9 H 0.7632 1.0347 0.3940
H10 H 0.6829 1.0642 0.3610
C11 C 0.7796(8) 1.0203(4) 0.3273(4)
H11 H 0.7362 1.0083 0.3015
H12 H 0.8135 1.0518 0.3191
O2 O 0.8482(4) 0.9807(2) 0.34181(19)
C12 C 0.9325(8) 0.9855(5) 0.3217(4)
H13 H 0.9519 1.0223 0.3210
H14 H 0.9210 0.9728 0.2911
C13 C 1.0111(8) 0.9547(5) 0.3467(5)
H15 H 1.0734 0.9633 0.3358
H16 H 1.0160 0.9648 0.3779
N2 N 0.9966(6) 0.8991(4) 0.3435(3)
C14 C 1.0094(6) 0.8734(5) 0.3781(4)
H17 H 1.0250 0.8916 0.4049
C15 C 0.5622(6) 0.7378(4) 0.4717(3)
H18 H 0.5743 0.7017 0.4720
N3 N 0.5759(5) 0.7616(3) 0.5074(3)
C16 C 0.6151(6) 0.7312(4) 0.5461(3)
H19 H 0.6220 0.6946 0.5376
H20 H 0.5698 0.7328 0.5686
C17 C 0.7109(6) 0.7521(3) 0.5643(2)
H21 H 0.7046 0.7886 0.5732
H22 H 0.7375 0.7319 0.5902
O3 O 0.7733(4) 0.7483(2) 0.53036(16)
C18 C 0.8729(7) 0.7572(4) 0.5445(3)
H23 H 0.8787 0.7834 0.5681
H24 H 0.9047 0.7711 0.5198
C19 C 0.9239(7) 0.7088(4) 0.5611(3)
H25 H 0.9936 0.7159 0.5693
H26 H 0.8963 0.6960 0.5873
O4 O 0.9117(4) 0.6717(2) 0.52744(18)
C20 C 0.9828(6) 0.6314(4) 0.5314(3)
H27 H 0.9572 0.6010 0.5143
H28 H 0.9959 0.6208 0.5625
C21 C 1.0758(7) 0.6487(4) 0.5152(3)
H29 H 1.1043 0.6775 0.5336
H30 H 1.1227 0.6198 0.5174
N4 N 1.0568(6) 0.6655(4) 0.4702(3)
C22 C 1.0500(6) 0.7132(5) 0.4643(3)
H31 H 1.0629 0.7347 0.4892
C23 C 0.4505(7) 0.7157(7) 0.3134(4)
H32 H 0.4290 0.7313 0.2860
N5 N 0.4566(7) 0.6684(6) 0.3155(3)
C24 C 0.4313(10) 0.6441(7) 0.2731(4)
H33 H 0.3817 0.6171 0.2752
H34 H 0.4048 0.6701 0.2513
C25 C 0.5142(14) 0.6227(4) 0.2607(5)
H35 H 0.4978 0.6034 0.2330
H36 H 0.5407 0.5978 0.2833
O5 O 0.5882(5) 0.6607(3) 0.2543(2)
C26 C 0.5733(14) 0.7009(7) 0.2166(6)
H37 H 0.5048 0.6998 0.2037
H38 H 0.5859 0.7358 0.2291
C27 C 0.6376(12) 0.6930(8) 0.1797(6)
H39 H 0.6331 0.6565 0.1700
H40 H 0.6131 0.7148 0.1544
O6 O 0.7356(8) 0.7053(5) 0.1927(4)
C28 C 0.7972(12) 0.6653(7) 0.2116(6)
H41 H 0.8002 0.6370 0.1901
H42 H 0.7704 0.6510 0.2375
C29 C 0.9087(11) 0.6882(6) 0.2265(4)
H43 H 0.9524 0.6582 0.2322
H44 H 0.9294 0.7068 0.2010
N6 N 0.9260(9) 0.7243(5) 0.2663(4)
C30 C 0.9547(6) 0.7053(5) 0.3032(4)
H45 H 0.9633 0.6689 0.3048
C31 C 1.0020(7) 0.8178(5) 0.3799(4)
C32 C 1.0242(6) 0.7918(5) 0.4194(4)
H46 H 1.0400 0.8113 0.4454
C33 C 1.0238(7) 0.7386(5) 0.4218(4)
C34 C 0.9999(6) 0.7101(5) 0.3830(4)
H47 H 1.0006 0.6734 0.3843
C35 C 0.9756(7) 0.7341(5) 0.3431(4)
C36 C 0.9773(7) 0.7881(5) 0.3423(4)
H48 H 0.9609 0.8053 0.3152
C43 C 0.7636(5) 0.7881(3) 0.4163(2)
H61 H 0.7718 0.7762 0.4457
C44 C 0.7670(5) 0.8404(3) 0.4082(2)
C45 C 0.7556(5) 0.8580(3) 0.3658(2)
H62 H 0.7572 0.8940 0.3602
C46 C 0.7416(5) 0.8234(3) 0.3307(2)
C47 C 0.7384(5) 0.7703(3) 0.3394(3)
H63 H 0.7292 0.7465 0.3158
N8 N 0.7142(6) 0.5948(2) 0.4106(3)
C48 C 0.7484(5) 0.7522(3) 0.3822(2)
C49 C 0.6785(8) 0.6141(4) 0.3718(4)
H64 H 0.6443 0.5921 0.3507
C50 C 0.6900(7) 0.6640(3) 0.3623(3)
H65 H 0.6628 0.6769 0.3347
C51 C 0.7408(5) 0.6973(3) 0.3918(3)
C52 C 0.7793(6) 0.6760(3) 0.4315(3)
H66 H 0.8154 0.6972 0.4527
C53 C 0.7662(6) 0.6256(3) 0.4404(3)
H67 H 0.7935 0.6116 0.4676
C54 C 0.6908(8) 0.5411(3) 0.4230(4)
H68 H 0.6893 0.5178 0.3974
H69 H 0.7396 0.5281 0.4464
C55 C 0.5998(11) 0.5436(5) 0.4378(5)
H70 H 0.5770 0.5085 0.4441
H71 H 0.5526 0.5594 0.4151
O8 O 0.6079(10) 0.5736(5) 0.4760(5)
H72 H 0.5536 0.5757 0.4853
N9 N 0.8112(4) 0.9468(2) 0.5138(2)
C56 C 0.7782(6) 0.8993(3) 0.5207(3)
H73 H 0.7659 0.8896 0.5493
C57 C 0.7620(6) 0.8647(3) 0.4871(2)
H74 H 0.7374 0.8313 0.4924
C58 C 0.7814(5) 0.8782(3) 0.4449(2)
C59 C 0.8148(5) 0.9277(3) 0.4390(2)
H75 H 0.8285 0.9385 0.4109
C60 C 0.8281(5) 0.9609(3) 0.4734(3)
H76 H 0.8499 0.9950 0.4686
C61 C 0.8239(6) 0.9840(3) 0.5500(3)
H77 H 0.8617 1.0140 0.5414
H78 H 0.8605 0.9676 0.5759
C62 C 0.7263(7) 1.0025(3) 0.5618(3)
H79 H 0.6895 0.9727 0.5715
H80 H 0.7364 1.0274 0.5864
O9 O 0.6733(4) 1.02611(19) 0.52584(19)
H81 H 0.6261 1.0073 0.5167
C63 C 0.7335(6) 0.8423(3) 0.2854(2)
N10 N 0.7378(11) 0.8863(6) 0.2032(4)
C64 C 0.7686(12) 0.8399(6) 0.2126(5)
H82 H 0.7935 0.8197 0.1906
C65 C 0.7663(12) 0.8197(6) 0.2526(5)
H83 H 0.7909 0.7857 0.2573
C66 C 0.6993(12) 0.8973(6) 0.2747(5)
H84 H 0.6746 0.9185 0.2961
C67 C 0.7055(13) 0.9151(7) 0.2336(5)
H85 H 0.6858 0.9495 0.2265
C68 C 0.7413(12) 0.9083(6) 0.1578(4)
H86 H 0.7504 0.9462 0.1598
H87 H 0.7969 0.8934 0.1448
C69 C 0.6512(12) 0.8967(6) 0.1296(5)
H88 H 0.5963 0.9139 0.1415
H89 H 0.6555 0.9103 0.0998
O10 O 0.6341(9) 0.8416(4) 0.1272(4)
H90 H 0.6804 0.8270 0.1170
P1 P 0.5962(4) 1.0487(2) 0.1822(3)
F1 F 0.6731(8) 1.0207(5) 0.1564(5)
F2 F 0.6684(8) 1.0936(4) 0.1969(5)
F3 F 0.6391(10) 1.0183(5) 0.2247(4)
F4 F 0.5222(8) 1.0043(4) 0.1695(5)
F5 F 0.5592(11) 1.0798(5) 0.1402(4)
F6 F 0.5201(7) 1.0752(5) 0.2094(4)
O13 O 0.7798(8) 0.7596(4) 0.1159(3)
O14 O 0.924(3) 0.4924(15) 0.4592(12)
C81 C 0.2561(5) 0.7380(3) 0.4004(2)
C82 C 0.2278(5) 0.7608(3) 0.3596(2)
H105 H 0.2228 0.7974 0.3574
C83 C 0.2072(5) 0.7309(3) 0.3222(2)
C84 C 0.2121(5) 0.6778(3) 0.3256(2)
H106 H 0.1952 0.6573 0.3002
C85 C 0.2413(5) 0.6536(3) 0.3653(2)
C86 C 0.2622(5) 0.6847(3) 0.4028(2)
H107 H 0.2810 0.6688 0.4303
C87 C 0.3196(5) 0.8514(3) 0.4747(3)
H108 H 0.3322 0.8873 0.4726
C88 C 0.2953(5) 0.8233(3) 0.4374(2)
H109 H 0.2899 0.8399 0.4097
C89 C 0.2784(5) 0.7704(3) 0.4399(2)
C90 C 0.2845(6) 0.7492(3) 0.4816(2)
H110 H 0.2720 0.7135 0.4849
C91 C 0.3079(6) 0.7788(3) 0.5176(3)
H111 H 0.3116 0.7634 0.5458
N14 N 0.3259(5) 0.8290(2) 0.5142(2)
C92 C 0.3574(7) 0.8595(3) 0.5541(3)
H112 H 0.3158 0.8513 0.5773
H113 H 0.3514 0.8969 0.5475
C93 C 0.4618(6) 0.8463(3) 0.5698(3)
H114 H 0.4837 0.8669 0.5963
H115 H 0.4667 0.8093 0.5778
O15 O 0.5219(5) 0.8568(2) 0.5367(2)
H116 H 0.5521 0.8299 0.5313
C94 C 0.1161(6) 0.8298(3) 0.2381(2)
H117 H 0.0916 0.8640 0.2369
C95 C 0.1414(5) 0.8070(3) 0.2775(2)
H118 H 0.1345 0.8255 0.3037
C96 C 0.1777(5) 0.7562(3) 0.2798(2)
C97 C 0.1845(6) 0.7319(3) 0.2404(2)
H119 H 0.2076 0.6974 0.2402
C98 C 0.1589(6) 0.7565(3) 0.2017(2)
H120 H 0.1651 0.7391 0.1749
N15 N 0.1254(5) 0.8043(2) 0.20109(19)
C99 C 0.0947(7) 0.8304(3) 0.1585(2)
H121 H 0.1093 0.8678 0.1613
H122 H 0.1317 0.8161 0.1356
C100 C -0.0090(7) 0.8232(3) 0.1455(3)
H123 H -0.0460 0.8348 0.1694
H124 H -0.0297 0.8442 0.1192
O16 O -0.0273(5) 0.7716(2) 0.1365(2)
H125 H -0.0872 0.7662 0.1345
C101 C 0.2092(6) 0.5108(3) 0.3499(3)
H126 H 0.1684 0.4880 0.3320
C102 C 0.2015(6) 0.5621(3) 0.3432(3)
H127 H 0.1580 0.5745 0.3194
C103 C 0.2536(6) 0.5969(3) 0.3692(2)
C104 C 0.3236(6) 0.5760(3) 0.4002(3)
H128 H 0.3668 0.5985 0.4172
C105 C 0.3319(6) 0.5235(3) 0.4067(3)
H129 H 0.3784 0.5100 0.4288
N16 N 0.2729(5) 0.4916(2) 0.3812(2)
C106 C 0.2793(7) 0.4355(3) 0.3912(3)
H130 H 0.2651 0.4154 0.3639
H131 H 0.3458 0.4269 0.4042
C107 C 0.2105(10) 0.4217(4) 0.4218(3)
H132 H 0.1445 0.4319 0.4093
H133 H 0.2109 0.3837 0.4259
O17 O 0.2334(8) 0.4462(3) 0.4634(2)
H134 H 0.2020 0.4739 0.4639
P3 P 0.50206(16) 0.52203(8) 0.68887(7)
F13 F 0.5356(4) 0.4974(2) 0.73515(16)
F14 F 0.4006(4) 0.4966(2) 0.6902(2)
F15 F 0.4695(4) 0.57246(18) 0.71247(18)
F16 F 0.6077(4) 0.5481(2) 0.68927(18)
F17 F 0.5362(5) 0.4720(2) 0.66591(19)
F18 F 0.4735(6) 0.5473(2) 0.64377(19)
P4 P 0.2153(2) 0.61111(9) 0.16319(8)
F19 F 0.1221(5) 0.6465(2) 0.1638(2)
F20 F 0.2804(5) 0.6613(2) 0.1720(2)
F21 F 0.2184(5) 0.6039(2) 0.21399(16)
F22 F 0.1504(6) 0.5614(2) 0.1547(2)
F23 F 0.2091(9) 0.6191(3) 0.11255(19)
F24 F 0.3064(6) 0.5759(3) 0.1639(3)
P5 P 0.92800(18) 1.11401(9) 0.45681(10)
F25 F 0.8580(5) 1.1120(4) 0.4130(3)
F26 F 0.8924(4) 1.1711(2) 0.4630(3)
F27 F 0.8438(5) 1.0951(2) 0.4817(3)
F28 F 0.9632(5) 1.0570(2) 0.4519(3)
F29 F 1.0122(5) 1.1321(3) 0.4308(3)
F30 F 1.0013(5) 1.1208(4) 0.4999(3)
P6 P 0.3956(2) 0.84675(10) 0.20097(9)
F31 F 0.3134(5) 0.8865(3) 0.2060(2)
F32 F 0.3227(5) 0.8230(3) 0.16252(18)
F33 F 0.4341(6) 0.8813(5) 0.1665(3)
F34 F 0.4646(5) 0.8706(3) 0.2382(2)
F35 F 0.3556(9) 0.8126(4) 0.2340(3)
F36 F 0.4675(11) 0.8046(5) 0.1943(5)
P7 P 0.3903(3) 0.61156(10) 0.52406(9)
F37 F 0.4345(5) 0.6420(2) 0.4843(2)
F38 F 0.2882(5) 0.6164(2) 0.49818(18)
F39 F 0.4090(6) 0.5586(2) 0.49989(19)
F40 F 0.4932(7) 0.6055(3) 0.5510(3)
F41 F 0.3795(9) 0.6647(2) 0.5472(2)
F42 F 0.3451(8) 0.5811(3) 0.5620(2)
N17 N 0.2577(6) 0.8996(3) 0.3437(3)
C108 C 0.2629(6) 0.9280(3) 0.3166(3)
C109 C 0.2724(8) 0.9662(4) 0.2794(3)
O18 O 0.5644(5) 0.9444(2) 0.4948(3)
C43B C 1.2364 0.2119 0.5837
H61B H 1.2282 0.2238 0.5543
C44B C 1.233 0.1596 0.5918
C45B C 1.2444 0.142 0.6342
H62B H 1.2428 0.106 0.6398
C46B C 1.2584 0.1766 0.6693
C47B C 1.2616 0.2297 0.6606
H63B H 1.2708 0.2535 0.6842
N8B N 1.2858 0.4052 0.5894
C48B C 1.2516 0.2478 0.6178
C49B C 1.3215 0.3859 0.6282
H64B H 1.3557 0.4079 0.6493
C50B C 1.31 0.336 0.6377
H65B H 1.3372 0.3231 0.6653
C51B C 1.2592 0.3027 0.6082
C52B C 1.2207 0.324 0.5685
H66B H 1.1846 0.3028 0.5473
C53B C 1.2338 0.3744 0.5596
H67B H 1.2065 0.3884 0.5324
C54B C 1.3092 0.4589 0.577
H68B H 1.3107 0.4822 0.6026
H69B H 1.2604 0.4719 0.5536
C55B C 1.4002 0.4564 0.5622
H70B H 1.423 0.4915 0.5559
H71B H 1.4474 0.4406 0.5849
O8B O 1.3921 0.4264 0.524
H72B H 1.4464 0.4243 0.5147
N9B N 1.1888 0.0532 0.4862
C56B C 1.2218 0.1007 0.4793
H73B H 1.2341 0.1104 0.4507
C57B C 1.238 0.1353 0.5129
H74B H 1.2626 0.1687 0.5076
C58B C 1.2186 0.1218 0.5551
C59B C 1.1852 0.0723 0.561
H75B H 1.1715 0.0615 0.5891
C60B C 1.1719 0.0391 0.5266
H76B H 1.1501 0.005 0.5314
C61B C 1.1761 0.016 0.45
H77B H 1.1383 -0.014 0.4586
H78B H 1.1395 0.0324 0.4241
C62B C 1.2737 -0.0025 0.4382
H79B H 1.3105 0.0273 0.4285
H80B H 1.2636 -0.0274 0.4136
O9B O 1.3267 -0.02611 0.47416
H81B H 1.3739 -0.0073 0.4833
C63B C 1.2665 0.1577 0.7146
N10B N 1.2622 0.1137 0.7968
C64B C 1.2314 0.1601 0.7874
H82B H 1.2065 0.1803 0.8094
C65B C 1.2337 0.1803 0.7474
H83B H 1.2091 0.2143 0.7427
C66B C 1.3007 0.1027 0.7253
H84B H 1.3254 0.0815 0.7039
C67B C 1.2945 0.0849 0.7664
H85B H 1.3142 0.0505 0.7735
C68B C 1.2587 0.0917 0.8422
H86B H 1.2496 0.0538 0.8402
H87B H 1.2031 0.1066 0.8552
C69B C 1.3488 0.1033 0.8704
H88B H 1.4037 0.0861 0.8585
H89B H 1.3445 0.0897 0.9002
O10B O 1.3659 0.1584 0.8728
H90B H 1.3196 0.173 0.883
P1B P 1.4038 -0.0487 0.8178
F1B F 1.3269 -0.0207 0.8436
F2B F 1.3316 -0.0936 0.8031
F3B F 1.3609 -0.0183 0.7753
F4B F 1.4778 -0.0043 0.8305
F5B F 1.4408 -0.0798 0.8598
F6B F 1.4799 -0.0752 0.7906
O13B O 1.2202 0.2404 0.8841
O14B O 1.076 0.5076 0.5408
C37? C 0.6765(17) 0.9938(9) 0.3268(8)
H49? H 0.6264 1.0157 0.3104
H50? H 0.6765 0.9597 0.3123
H51? H 0.7897 1.0325 0.2977
H52? H 0.7857 1.0500 0.3477
C38? C 0.6634(14) 0.6247(8) 0.2525(6)
H53? H 0.6368 0.5912 0.2411
H54? H 0.6976 0.6190 0.2822
C39? C 0.7309(15) 0.6455(7) 0.2233(6)
H55? H 0.7915 0.6252 0.2263
H56? H 0.7015 0.6437 0.1925
O7? O 0.7503(8) 0.6971(4) 0.2355(4)
C40? C 0.8180(13) 0.7195(8) 0.2085(7)
H57? H 0.7991 0.7130 0.1769
H58? H 0.8268 0.7570 0.2137
H59? H 0.9611 0.6893 0.2073
H60? H 0.8942 0.6521 0.2343
N7? N 0.6186(15) 0.7393(8) 0.1299(6)
C41? C 0.5569(16) 0.7156(8) 0.1429(7)
C42? C 0.4776(19) 0.6854(10) 0.1557(8)
H91? H 0.6656 0.5421 0.4518
H92? H 0.6381 0.5280 0.4014
C70? C 0.771(2) 0.5043(12) 0.4256(16)
H93? H 0.7467 0.4711 0.4360
H94? H 0.7869 0.4986 0.3955
O11? O 0.858(2) 0.517(2) 0.4525(16)
H95? H 0.8459 0.5223 0.4782
N11? N 0.6943(16) 0.8691(9) 0.1991(5)
C71? C 0.6596(17) 0.8284(9) 0.2121(7)
H96? H 0.6208 0.8084 0.1909
C72? C 0.6719(16) 0.8100(9) 0.2532(6)
H97? H 0.6432 0.7787 0.2613
C73? C 0.7837(17) 0.8785(9) 0.2708(7)
H98? H 0.8341 0.8939 0.2900
C74? C 0.767(2) 0.8954(10) 0.2292(8)
H99? H 0.8029 0.9237 0.2196
C75? C 0.6819(18) 0.8842(10) 0.1518(6)
H100? H 0.6191 0.8708 0.1380
H101? H 0.6797 0.9224 0.1497
C76? C 0.7601(18) 0.8649(8) 0.1266(7)
H102? H 0.7474 0.8774 0.0960
H103? H 0.8225 0.8798 0.1394
O12? O 0.7688(16) 0.8087(8) 0.1260(7)
H104? H 0.7171 0.7958 0.1140
P2? P 0.5768(8) 1.0289(4) 0.1917(4)
F7? F 0.6685(12) 1.0346(8) 0.1667(7)
F8? F 0.6266(12) 1.0657(6) 0.2285(6)
F9? F 0.6247(12) 0.9806(6) 0.2170(6)
F10? F 0.5284(13) 0.9923(7) 0.1547(5)
F11? F 0.5250(13) 1.0764(6) 0.1667(6)
F12? F 0.4873(10) 1.0224(7) 0.2181(6)
N12? N 1.014(3) 0.4370(16) 0.5725(13)
C77? C 1.002(4) 0.4756(17) 0.5539(15)
C78? C 0.942(4) 0.497(2) 0.5119(15)
N13? N 0.929(3) 0.4234(15) 0.5746(12)
C79? C 0.926(4) 0.4616(16) 0.5568(13)
C80? C 0.886(4) 0.487(2) 0.5125(15)

#END

