
#######################################################################
#
#                 Cambridge Crystallographic Data Centre
#                                CCDC 
#
#######################################################################
#
# If this CIF has been generated directly or indirectly from an entry in the 
# Cambridge Structural Database, then it will include bibliographic, chemical, 
# crystal, experimental, refinement or atomic coordinate data resulting from 
# the CCDC's data processing and validation procedures. Files generated from 
# CSD entries are Copyright 2015 Cambridge Crystallographic Data Centre. They 
# may be used in bona fide research applications only, and may not be copied or 
# further disseminated in any form, whether machine-readable or not, except for 
# the purposes of generating routine backup copies on your local computer 
# system.
# 
# Files arising from any other source may also contain material that is the 
# copyright of third parties, including the originator, and you should check 
# with the originator concerning the permitted uses of the information 
# contained in this CIF.
#
# For further information on the CCDC and the free tools enCIFer and Mercury
# for validating and visualising CIF files, please visit www.ccdc.cam.ac.uk
#
#######################################################################

data_PETTIT
_audit_creation_date             2013-05-19
_database_code_depnum_ccdc_archive 'CCDC 906913'
_chemical_formula_moiety         
'C36 H48 N6 O6,2(C27 H30 N3 O3 3+),6(F6 P1 1-),3(C2 H3 N1),2(H2 O1)'
_chemical_name_systematic        
'[2]-(1,3,5-tris(1-(2-Hydroxyethyl)pyridin-1-ium-4-yl)benzene)-(8,11,25,28,39,42-hexaoxa-5,14,22,31,36,45-hexaazatetracyclo[16.16.12.1^3,33^.1^16,20^]octatetraconta-1,3(47),4,14,16(48),17,19,21,31,33,35,45-dodecaene)-rotaxane 1,3,5-tris(1-(2-hydroxyethyl)pyridin-1-ium-4-yl)benzene hexakis(hexafluorophosphate) acetonitrile solvate dihydrate'
_journal_coden_Cambridge         179
_journal_volume                  51
_journal_year                    2012
_journal_page_first              13119
_journal_name_full               Angew.Chem.,Int.Ed.
loop_
_publ_author_name
A.Pun
D.A.Hanifi
G.Kiel
E.O'Brien
'Yi Liu'
_chemical_absolute_configuration unk
_diffrn_ambient_temperature      100
_exptl_crystal_density_meas      1.533
_exptl_crystal_density_diffrn    1.535
#These two values have been output from a single CSD field.
_refine_ls_R_factor_gt           0.1559
_refine_ls_wR_factor_gt          0.1559
_diffrn_radiation_probe          x-ray
_symmetry_cell_setting           monoclinic
_symmetry_space_group_name_H-M   'P 21/n'
_symmetry_Int_Tables_number      14
loop_
_symmetry_equiv_pos_site_id
_symmetry_equiv_pos_as_xyz
1 x,y,z
2 1/2-x,1/2+y,1/2-z
3 -x,-y,-z
4 1/2+x,1/2-y,1/2+z
_cell_length_a                   14.0293(3)
_cell_length_b                   25.9179(7)
_cell_length_c                   30.8792(7)
_cell_angle_alpha                90
_cell_angle_beta                 96.498(2)
_cell_angle_gamma                90
_cell_volume                     11155.9
_exptl_crystal_colour            colorless
_exptl_crystal_description       needle
_cell_formula_units_Z            4
loop_
_atom_site_label
_atom_site_type_symbol
_atom_site_fract_x
_atom_site_fract_y
_atom_site_fract_z
C28 C 0.2664(7) 0.6592(4) 0.4083(3)
C29 C 0.2629(7) 0.7115(4) 0.4155(3)
H31 H 0.2725 0.7238 0.4447
C30 C 0.2460(7) 0.7467(4) 0.3823(3)
C31 C 0.2351(7) 0.7289(4) 0.3387(3)
H32 H 0.2244 0.7527 0.3153
C32 C 0.2401(8) 0.6764(4) 0.3304(3)
C33 C 0.2542(7) 0.6408(4) 0.3652(3)
H33 H 0.2554 0.6048 0.3596
C34 C 0.2808(7) 0.6215(4) 0.4454(3)
C35 C 0.3146(7) 0.5724(4) 0.4387(3)
H34 H 0.3287 0.5620 0.4106
C36 C 0.3277(7) 0.5387(4) 0.4735(3)
H35 H 0.3491 0.5046 0.4689
C37 C 0.2773(8) 0.6012(4) 0.5201(3)
H36 H 0.2657 0.6113 0.5486
C38 C 0.2602(7) 0.6348(4) 0.4865(3)
H37 H 0.2339 0.6678 0.4913
C39 C 0.3243(8) 0.5159(5) 0.5501(4)
H38 H 0.3596 0.5327 0.5759
H39 H 0.3627 0.4861 0.5420
C40 C 0.2273(9) 0.4971(5) 0.5615(4)
H40 H 0.2372 0.4716 0.5855
H41 H 0.1911 0.5266 0.5718
C41 C 0.2392(7) 0.8026(4) 0.3912(3)
C42 C 0.2797(8) 0.8245(4) 0.4299(3)
H42 H 0.3162 0.8035 0.4508
C43 C 0.2683(8) 0.8748(4) 0.4385(4)
H43 H 0.2996 0.8894 0.4645
C44 C 0.1733(10) 0.8855(5) 0.3722(4)
H44 H 0.1370 0.9072 0.3518
C45 C 0.1854(8) 0.8352(5) 0.3629(4)
H45 H 0.1558 0.8219 0.3360
C46 C 0.1902(9) 0.9588(5) 0.4221(4)
H46 H 0.2410 0.9725 0.4440
H47 H 0.1855 0.9813 0.3961
C47 C 0.0976(11) 0.9567(6) 0.4403(5)
H48 H 0.0766 0.9919 0.4473
H49 H 0.0479 0.9411 0.4189
C48 C 0.2295(8) 0.6559(4) 0.2848(4)
C49 C 0.1674(17) 0.6854(9) 0.2540(7)
H50 H 0.1358 0.7158 0.2620
C50 C 0.1565(19) 0.6661(10) 0.2113(8)
H51 H 0.1163 0.6831 0.1889
C51 C 0.265(2) 0.6000(11) 0.2286(8)
H52 H 0.3005 0.5703 0.2219
C52 C 0.2813(17) 0.6198(9) 0.2694(7)
H53 H 0.3340 0.6066 0.2881
C53 C 0.222(2) 0.5880(9) 0.1610(6)
H54 H 0.2844 0.5697 0.1632
H55 H 0.1697 0.5625 0.1548
C54 C 0.217(3) 0.6274(16) 0.1276(13)
H56 H 0.2752 0.6492 0.1322
H57 H 0.2163 0.6107 0.0987
N4 N 0.3108(6) 0.5531(3) 0.5133(3)
N5 N 0.2126(7) 0.9044(4) 0.4102(3)
N6 N 0.2113(11) 0.6170(6) 0.2016(5)
O4 O 0.1730(6) 0.4741(3) 0.5251(2)
H58 H 0.1173 0.4864 0.5223
O5 O 0.1108(10) 0.9254(6) 0.4797(4)
H59 H 0.1611 0.9347 0.4951
O6 O 0.134(2) 0.6594(10) 0.1273(12)
H60 H 0.1515 0.6895 0.1348
C55 C -0.0242(10) 0.2056(6) 0.0790(5)
H61 H -0.0399 0.1858 0.0533
C56 C -0.0003(12) 0.1809(6) 0.1200(5)
C57 C 0.0256(11) 0.2095(6) 0.1562(5)
H62 H 0.0441 0.1924 0.1830
C58 C 0.0261(10) 0.2629(6) 0.1554(5)
C59 C 0.0027(10) 0.2877(6) 0.1155(4)
H63 H 0.0047 0.3242 0.1139
C60 C -0.0242(9) 0.2585(5) 0.0774(4)
C61 C -0.0105(11) 0.1228(6) 0.1199(5)
H64 H -0.0269 0.1047 0.0933
C62 C -0.0108(16) 0.0441(8) 0.1529(7)
H65 H -0.0156 0.0332 0.1220
H66 H -0.0722 0.0355 0.1641
C63 C 0.0692(11) 0.0145(7) 0.1785(5)
H67 H 0.0796 0.0280 0.2087
H68 H 0.0513 -0.0223 0.1799
C64 C 0.2188(12) -0.0220(7) 0.1716(5)
H69 H 0.1832 -0.0532 0.1790
H70 H 0.2639 -0.0120 0.1972
C65 C 0.274(2) -0.0324(11) 0.1309(9)
H71 H 0.3078 -0.0660 0.1333
H72 H 0.2303 -0.0316 0.1035
C66 C 0.4043(12) -0.0079(6) 0.1040(5)
H73 H 0.4161 -0.0451 0.1094
H74 H 0.3738 -0.0037 0.0737
C67 C 0.4911(16) 0.0188(8) 0.1095(7)
H75 H 0.5360 0.0017 0.0915
H76 H 0.5186 0.0156 0.1403
C68 C 0.5034(11) 0.1065(6) 0.1238(5)
H77 H 0.5213 0.0953 0.1529
C69 C 0.0455(11) 0.2935(7) 0.1946(5)
H78 H 0.0389 0.3299 0.1926
C70 C 0.0850(17) 0.3047(10) 0.2686(8)
H79 H 0.0341 0.2985 0.2877
H80 H 0.0836 0.3415 0.2600
C71 C 0.190(3) 0.2895(16) 0.2939(13)
H81 H 0.2042 0.3097 0.3210
H82 H 0.1937 0.2523 0.3009
C72 C 0.254(2) 0.3502(12) 0.2786(10)
H83 H 0.2734 0.3518 0.3104
H84 H 0.1921 0.3682 0.2714
C73 C 0.3391(18) 0.3739(10) 0.2504(8)
H85 H 0.3085 0.3826 0.2208
H86 H 0.3623 0.4066 0.2644
C74 C 0.4978(12) 0.3781(7) 0.2373(6)
H87 H 0.4732 0.4023 0.2138
H88 H 0.5163 0.3987 0.2639
C75 C 0.5752(12) 0.3549(7) 0.2258(5)
H89 H 0.6011 0.3305 0.2488
H90 H 0.6254 0.3808 0.2217
C76 C 0.5536(11) 0.2825(6) 0.1857(5)
H91 H 0.5765 0.2668 0.2126
C77 C -0.0488(11) 0.2837(6) 0.0337(5)
H92 H -0.0608 0.2624 0.0086
C78 C -0.0716(11) 0.3489(6) -0.0157(5)
H93 H -0.1204 0.3766 -0.0183
H94 H -0.0967 0.3196 -0.0343
C79 C 0.0195(9) 0.3684(5) -0.0308(4)
H95 H 0.0072 0.3796 -0.0616
H96 H 0.0430 0.3985 -0.0131
C80 C 0.0802(10) 0.2918(5) -0.0605(4)
H97 H 0.1082 0.3051 -0.0864
H98 H 0.0114 0.2846 -0.0692
C81 C 0.1308(10) 0.2423(5) -0.0450(4)
H99 H 0.0985 0.2270 -0.0212
H100 H 0.1271 0.2171 -0.0693
C82 C 0.2913(8) 0.2476(5) -0.0634(4)
H101 H 0.2656 0.2679 -0.0893
H102 H 0.2969 0.2111 -0.0720
C83 C 0.3878(8) 0.2686(5) -0.0442(4)
H103 H 0.4332 0.2678 -0.0665
H104 H 0.3806 0.3049 -0.0350
C84 C 0.4393(9) 0.2611(5) 0.0287(4)
H105 H 0.4270 0.2971 0.0288
C85 C 0.4734(10) 0.1820(5) 0.0759(4)
H106 H 0.4550 0.1604 0.0515
C86 C 0.5005(10) 0.1610(6) 0.1168(4)
C87 C 0.5283(11) 0.1944(6) 0.1513(5)
H107 H 0.5486 0.1798 0.1791
C88 C 0.5280(10) 0.2477(6) 0.1476(4)
C89 C 0.5019(9) 0.2689(5) 0.1065(4)
H108 H 0.5033 0.3052 0.1024
C90 C 0.4740(10) 0.2367(5) 0.0715(4)
N7 N 0.0033(11) 0.0991(6) 0.1553(5)
N8 N 0.4864(9) 0.0744(5) 0.0979(4)
N9 N 0.0713(13) 0.2734(7) 0.2319(6)
N10 N 0.5477(10) 0.3273(5) 0.1851(4)
N11 N -0.0540(9) 0.3321(5) 0.0292(4)
N12 N 0.4250(7) 0.2383(4) -0.0074(3)
O7 O 0.1542(6) 0.0192(3) 0.1588(2)
O8 O 0.3431(8) 0.0109(4) 0.1330(4)
O9 O 0.2513(12) 0.3023(7) 0.2640(6)
O10 O 0.4203(7) 0.3429(4) 0.2456(3)
O11 O 0.0899(6) 0.3293(3) -0.0270(3)
O12 O 0.2308(5) 0.2525(3) -0.0296(2)
C91 C 0.7357(12) 0.0348(6) 0.2199(5)
H109 H 0.6691 0.0314 0.2263
H110 H 0.7757 0.0469 0.2459
H111 H 0.7591 0.0012 0.2111
C92 C 0.7404(9) 0.0730(5) 0.1834(4)
N13 N 0.7435(8) 0.1001(4) 0.1566(3)
C93 C 0.529(2) 0.3119(12) 0.3424(10)
H112 H 0.5866 0.2905 0.3472
H113 H 0.5389 0.3440 0.3591
H114 H 0.5154 0.3201 0.3113
C94 C 0.443(2) 0.2825(11) 0.3574(9)
N14 N 0.381(2) 0.2567(11) 0.3692(9)
C95 C 0.930(2) 0.4578(12) 0.0569(10)
H115 H 0.8882 0.4611 0.0293
H116 H 0.8943 0.4691 0.0809
H117 H 0.9488 0.4216 0.0614
C96 C 1.042(4) 0.500(2) 0.0554(18)
N15 N 1.096(4) 0.504(2) 0.0353(18)
O13 O 0.0639(8) 0.5551(4) 0.4954(3)
O14 O 0.2758(12) 0.7392(7) 0.1132(5)
F1 F 0.1057(7) 0.8300(3) 0.0367(4)
F2 F 0.1390(8) 0.8893(6) 0.0862(4)
F3 F -0.0154(8) 0.8689(4) 0.0673(4)
F4 F 0.0348(7) 0.9438(3) 0.0482(4)
F5 F -0.0012(9) 0.8816(6) 0.0013(4)
F6 F 0.1546(7) 0.9061(3) 0.0193(4)
P1 P 0.0707(3) 0.88713(13) 0.04388(14)
F7 F 0.3496(9) 0.5809(4) 0.0609(3)
F8 F 0.4923(8) 0.6064(4) 0.0485(3)
F9 F 0.3740(9) 0.6644(3) 0.0470(3)
F10 F 0.4307(6) 0.6424(3) -0.0165(3)
F11 F 0.2854(7) 0.6161(3) -0.0030(3)
F12 F 0.4087(7) 0.5593(3) -0.0016(2)
P2 P 0.3885(3) 0.61181(13) 0.02311(11)
F13 F 0.5313(6) 0.4978(3) 0.2338(2)
F14 F 0.6054(6) 0.5484(3) 0.1886(2)
F15 F 0.4675(6) 0.5728(3) 0.2104(3)
F16 F 0.4706(8) 0.5483(3) 0.1424(3)
F17 F 0.3985(6) 0.4971(3) 0.1886(3)
F18 F 0.5331(8) 0.4722(3) 0.1649(3)
P3 P 0.4998(2) 0.52246(11) 0.18747(9)
F19 F 0.6214(9) 0.8556(4) 0.1632(4)
F20 F 0.7791(8) 0.8370(3) 0.1722(3)
F21 F 0.7211(7) 0.8955(3) 0.2129(2)
F22 F 0.8105(12) 0.9215(4) 0.1643(5)
F23 F 0.6606(10) 0.9402(3) 0.1545(3)
F24 F 0.7099(15) 0.8808(4) 0.1125(3)
P4 P 0.7172(4) 0.88907(13) 0.16219(11)
F25 F 0.9567(9) 0.6298(5) 0.2385(3)
F26 F 0.8421(10) 0.6841(6) 0.2359(4)
F27 F 0.8165(7) 0.6767(4) 0.1626(3)
F28 F 0.8079(7) 0.6124(4) 0.2058(3)
F29 F 0.9291(8) 0.6188(7) 0.1674(4)
F30 F 0.9607(15) 0.6958(8) 0.1979(6)
P5 P 0.8883(3) 0.65327(16) 0.20176(13)
F31 F 0.1582(15) 0.4005(10) 0.1853(15)
F32 F 0.1479(16) 0.4792(18) 0.2188(7)
F33 F 0.0264(8) 0.4974(4) 0.1665(5)
F34 F 0.1685(11) 0.4722(5) 0.1541(8)
F35 F 0.024(3) 0.4488(17) 0.2195(9)
F36 F 0.0261(15) 0.4185(5) 0.1597(16)
P6 P 0.0929(4) 0.4528(3) 0.1812(3)
C1 C 0.2012(7) 0.7302(4) -0.1783(3)
C2 C 0.2085(7) 0.6776(4) -0.1749(3)
H1 H 0.1923 0.6571 -0.2001
C3 C 0.2388(7) 0.6537(4) -0.1357(3)
C4 C 0.2578(7) 0.6848(4) -0.0982(3)
H2 H 0.2745 0.6687 -0.0708
C5 C 0.2527(7) 0.7385(4) -0.1003(3)
C6 C 0.2250(7) 0.7614(4) -0.1413(3)
H3 H 0.2225 0.7979 -0.1439
C7 C 0.1727(7) 0.7562(4) -0.2205(3)
C8 C 0.1389(7) 0.8063(4) -0.2230(3)
H4 H 0.1332 0.8251 -0.1970
C9 C 0.1136(7) 0.8288(4) -0.2623(3)
H5 H 0.0891 0.8630 -0.2634
C10 C 0.1524(8) 0.7549(4) -0.2989(4)
H6 H 0.1533 0.7363 -0.3254
C11 C 0.1815(8) 0.7319(4) -0.2600(3)
H7 H 0.2086 0.6983 -0.2598
C12 C 0.0914(8) 0.8297(5) -0.3419(4)
H8 H 0.1060 0.8670 -0.3394
H9 H 0.1280 0.8151 -0.3646
C13 C -0.0122(9) 0.8226(5) -0.3550(4)
H10 H -0.0491 0.8336 -0.3312
H11 H -0.0328 0.8438 -0.3811
C14 C 0.2518(8) 0.5965(4) -0.1312(3)
C15 C 0.1994(8) 0.5621(4) -0.1573(4)
H12 H 0.1553 0.5741 -0.1807
C16 C 0.2097(8) 0.5104(4) -0.1499(3)
H13 H 0.1694 0.4873 -0.1673
C17 C 0.3315(9) 0.5241(4) -0.0942(4)
H14 H 0.3780 0.5108 -0.0723
C18 C 0.3219(8) 0.5759(4) -0.1007(3)
H15 H 0.3645 0.5986 -0.0839
C19 C 0.2808(9) 0.4350(5) -0.1098(4)
H16 H 0.2655 0.4150 -0.1370
H17 H 0.3474 0.4267 -0.0977
C20 C 0.2148(11) 0.4202(6) -0.0784(4)
H18 H 0.1483 0.4274 -0.0912
H19 H 0.2204 0.3826 -0.0731
C21 C 0.2761(7) 0.7700(4) -0.0609(3)
C22 C 0.2809(8) 0.7497(4) -0.0195(3)
H20 H 0.2680 0.7140 -0.0162
C23 C 0.3037(8) 0.7791(4) 0.0167(3)
H21 H 0.3059 0.7638 0.0447
C24 C 0.3165(8) 0.8510(4) -0.0264(3)
H22 H 0.3289 0.8869 -0.0286
C25 C 0.2925(7) 0.8229(4) -0.0634(3)
H23 H 0.2870 0.8395 -0.0910
C26 C 0.3561(9) 0.8604(5) 0.0531(4)
H24 H 0.3529 0.8976 0.0455
H25 H 0.3138 0.8542 0.0761
C27 C 0.4568(9) 0.8461(5) 0.0694(4)
H26 H 0.4783 0.8660 0.0961
H27 H 0.4602 0.8089 0.0768
N1 N 0.1225(7) 0.8040(4) -0.2994(3)
N2 N 0.2730(7) 0.4916(4) -0.1198(3)
N3 N 0.3228(7) 0.8286(4) 0.0133(3)
O1 O -0.0291(7) 0.7707(4) -0.3643(3)
H28 H -0.0857 0.7632 -0.3602
O2 O 0.2319(8) 0.4465(4) -0.0374(3)
H29 H 0.1862 0.4667 -0.0346
O3 O 0.5184(6) 0.8571(3) 0.0361(3)
H30 H 0.5533 0.8313 0.0328
C97? C 0.2644(18) 0.6795(10) 0.2537(8)
H118? H 0.2923 0.7125 0.2598
C98? C 0.265(2) 0.6611(12) 0.2129(9)
H119? H 0.3001 0.6778 0.1925
C99? C 0.198(2) 0.5825(12) 0.2352(9)
H120? H 0.1904 0.5465 0.2302
C100? C 0.1958(18) 0.6040(10) 0.2760(8)
H121? H 0.1720 0.5844 0.2985

#END

