
#######################################################################
#
#                 Cambridge Crystallographic Data Centre
#                                CCDC 
#
#######################################################################
#
# If this CIF has been generated directly or indirectly from an entry in the 
# Cambridge Structural Database, then it will include bibliographic, chemical, 
# crystal, experimental, refinement or atomic coordinate data resulting from 
# the CCDC's data processing and validation procedures. Files generated from 
# CSD entries are Copyright 2015 Cambridge Crystallographic Data Centre. They 
# may be used in bona fide research applications only, and may not be copied or 
# further disseminated in any form, whether machine-readable or not, except for 
# the purposes of generating routine backup copies on your local computer 
# system.
# 
# Files arising from any other source may also contain material that is the 
# copyright of third parties, including the originator, and you should check 
# with the originator concerning the permitted uses of the information 
# contained in this CIF.
#
# For further information on the CCDC and the free tools enCIFer and Mercury
# for validating and visualising CIF files, please visit www.ccdc.cam.ac.uk
#
#######################################################################

data_NITYOG
_audit_creation_date             2014-02-05
_database_code_depnum_ccdc_archive 'CCDC 977101'
_chemical_formula_moiety         
'C36 H48 N6 O6,C14 H18 N2 O2 2+,C2 H3 N1,0.8(C1 H4 O1),0.5(H2 O1),2(F6 P1 1-)'
_chemical_name_systematic        
"1,1'-bis(2-hydroxyethyl)-4,4'-bipyridinium bis(hexafluorophosphate) 8,11,25,28,39,42-hexaoxa-5,14,22,31,36,45-hexaazatetracyclo[16.16.12.1^3,33^.1^16,20^]octatetraconta-1,3(47),4,14,16(48),17,19,21,31,33,35,45-dodecaene acetonitrile methanol solvate hydrate"
_journal_volume                  1
_journal_year                    2014
_journal_page_first              167
loop_
_publ_author_name
'Andrew Pun'
K.Gagnon
S.Teat
'Liana Klivansky'
'Zhan-Ting Li'
'Yi Liu'
_chemical_absolute_configuration unk
_diffrn_ambient_temperature      100
_exptl_crystal_density_meas      1.412
_exptl_crystal_density_diffrn    1.411
#These two values have been output from a single CSD field.
_refine_ls_R_factor_gt           0.0747
_refine_ls_wR_factor_gt          0.0747
_diffrn_radiation_probe          x-ray
_diffrn_source                   'synchrotron radiation'
_symmetry_cell_setting           monoclinic
_symmetry_space_group_name_H-M   'P 21/c'
_symmetry_Int_Tables_number      14
loop_
_symmetry_equiv_pos_site_id
_symmetry_equiv_pos_as_xyz
1 x,y,z
2 -x,1/2+y,1/2-z
3 -x,-y,-z
4 x,1/2-y,1/2+z
_cell_length_a                   31.9644(12)
_cell_length_b                   18.8421(7)
_cell_length_c                   19.9426(8)
_cell_angle_alpha                90
_cell_angle_beta                 93.865(3)
_cell_angle_gamma                90
_cell_volume                     11983.6
_exptl_crystal_colour            colorless
_exptl_crystal_description       Lath
_cell_formula_units_Z            8
_exptl_crystal_recrystallization_method 'acetonitrile/chloroform/diethyl ether'
loop_
_atom_site_label
_atom_site_type_symbol
_atom_site_fract_x
_atom_site_fract_y
_atom_site_fract_z
C1 C 0.12483(16) 0.3471(3) 0.5117(2)
C2 C 0.12840(17) 0.2736(3) 0.5103(2)
H1 H 0.1554 0.2525 0.5122
C3 C 0.09289(17) 0.2303(3) 0.5060(2)
C4 C 0.05368(16) 0.2617(3) 0.5030(2)
H2 H 0.0294 0.2326 0.5006
C5 C 0.04927(16) 0.3355(3) 0.5033(2)
C6 C 0.08479(15) 0.3777(3) 0.5074(2)
H3 H 0.0820 0.4279 0.5073
C7 C 0.16310(17) 0.3908(3) 0.5145(2)
H4 H 0.1890 0.3679 0.5079
N1 N 0.16362(15) 0.4561(3) 0.5250(3)
C8 C 0.20419(19) 0.4933(4) 0.5268(3)
H5 H 0.2251 0.4625 0.5068
H6 H 0.2140 0.5026 0.5741
C9 C 0.2012(2) 0.5617(4) 0.4894(3)
H7 H 0.1769 0.5890 0.5038
H8 H 0.2268 0.5901 0.5005
O1 O 0.19653(14) 0.55084(19) 0.4193(2)
C10 C 0.1908(2) 0.6161(3) 0.3847(4)
H9 H 0.2059 0.6543 0.4104
H10 H 0.1607 0.6283 0.3802
C11 C 0.2074(3) 0.6098(5) 0.3168(4)
H11 H 0.2082 0.6573 0.2958
H12 H 0.2364 0.5911 0.3213
O2 O 0.18311(15) 0.5660(2) 0.2767(2)
C12 C 0.18854(17) 0.5725(3) 0.2070(3)
H13 H 0.2136 0.5452 0.1959
H14 H 0.1935 0.6229 0.1961
C13 C 0.15148(17) 0.5463(3) 0.1654(3)
H15 H 0.1259 0.5694 0.1804
H16 H 0.1543 0.5597 0.1179
N2 N 0.14677(13) 0.4689(2) 0.16995(19)
C14 C 0.11033(15) 0.4444(2) 0.1698(2)
H17 H 0.0873 0.4764 0.1688
C15 C 0.0964(2) 0.1527(3) 0.5008(2)
H18 H 0.0719 0.1242 0.4998
N3 N 0.13185(18) 0.1234(3) 0.4977(2)
C16 C 0.1317(3) 0.0460(3) 0.4888(3)
H19 H 0.1025 0.0285 0.4826
H20 H 0.1453 0.0229 0.5292
C17 C 0.1549(3) 0.0277(4) 0.4285(3)
H21 H 0.1840 0.0459 0.4340
H22 H 0.1560 -0.0244 0.4227
O3 O 0.13331(13) 0.05947(18) 0.37167(17)
C18 C 0.1444(2) 0.0329(3) 0.3093(3)
H23 H 0.1266 0.0560 0.2731
H24 H 0.1385 -0.0186 0.3074
C19 C 0.1904(2) 0.0450(3) 0.2962(3)
H25 H 0.2085 0.0175 0.3289
H26 H 0.1957 0.0283 0.2505
O4 O 0.20026(14) 0.11937(19) 0.30232(19)
C20 C 0.23811(19) 0.1384(3) 0.2733(3)
H27 H 0.2586 0.0992 0.2798
H28 H 0.2502 0.1810 0.2964
C21 C 0.23038(17) 0.1537(3) 0.1997(3)
H29 H 0.2570 0.1670 0.1803
H30 H 0.2191 0.1109 0.1760
N4 N 0.19997(13) 0.2124(2) 0.1914(2)
C22 C 0.16232(15) 0.1947(2) 0.1791(2)
H31 H 0.1560 0.1459 0.1719
C23 C 0.00742(16) 0.3690(3) 0.4955(2)
H32 H 0.0057 0.4193 0.4939
N5 N -0.02630(13) 0.3331(2) 0.49073(19)
C24 C -0.06516(16) 0.3734(3) 0.4855(3)
H33 H -0.0608 0.4181 0.4608
H34 H -0.0732 0.3858 0.5311
C25 C -0.10006(17) 0.3319(3) 0.4495(3)
H35 H -0.1018 0.2843 0.4700
H36 H -0.1271 0.3565 0.4543
O5 O -0.09291(10) 0.32509(19) 0.38083(17)
C26 C -0.12859(16) 0.2956(4) 0.3432(3)
H37 H -0.1546 0.3164 0.3590
H38 H -0.1295 0.2436 0.3504
C27 C -0.12599(16) 0.3108(3) 0.2706(3)
H39 H -0.1529 0.2981 0.2462
H40 H -0.1214 0.3623 0.2644
O6 O -0.09308(10) 0.27258(18) 0.24288(17)
C28 C -0.09647(16) 0.2807(3) 0.1716(3)
H41 H -0.0946 0.3316 0.1600
H42 H -0.1241 0.2627 0.1534
C29 C -0.06239(15) 0.2409(3) 0.1408(3)
H43 H -0.0598 0.1931 0.1613
H44 H -0.0699 0.2347 0.0921
N6 N -0.02189(12) 0.2774(2) 0.14974(19)
C30 C 0.01058(15) 0.2401(3) 0.1637(2)
H45 H 0.0070 0.1907 0.1711
C31 C 0.10208(14) 0.3673(2) 0.17111(19)
C32 C 0.13526(14) 0.3188(2) 0.17369(19)
H46 H 0.1633 0.3356 0.1744
C33 C 0.12771(14) 0.2464(2) 0.17519(19)
C34 C 0.08651(14) 0.2221(2) 0.17276(19)
H47 H 0.0814 0.1725 0.1737
C35 C 0.05280(14) 0.2685(2) 0.16895(19)
C36 C 0.06135(14) 0.3425(2) 0.16914(19)
H48 H 0.0388 0.3753 0.1679
C52 C 0.51086(12) 0.21948(19) 0.84566(17)
C53 C 0.53989(12) 0.27478(19) 0.84624(17)
H71 H 0.5301 0.3224 0.8451
C54 C 0.58275(12) 0.26212(18) 0.84846(17)
C55 C 0.59721(12) 0.19204(19) 0.85033(17)
H72 H 0.6265 0.1826 0.8525
C56 C 0.56846(12) 0.13547(18) 0.84908(17)
C57 C 0.52600(12) 0.14961(19) 0.84613(18)
H73 H 0.5067 0.1113 0.8444
C58 C 0.46629(13) 0.2371(2) 0.84857(19)
H74 H 0.4587 0.2858 0.8497
N9 N 0.43759(11) 0.19151(18) 0.84962(17)
C59 C 0.39530(14) 0.2187(3) 0.8559(2)
H75 H 0.3964 0.2711 0.8601
H76 H 0.3842 0.1995 0.8973
C60 C 0.36632(14) 0.1990(2) 0.7966(2)
H77 H 0.3672 0.1471 0.7891
H78 H 0.3372 0.2125 0.8050
O9 O 0.37913(10) 0.23492(19) 0.73963(16)
C61 C 0.35268(18) 0.2278(4) 0.6799(3)
H79 H 0.3549 0.2713 0.6527
H80 H 0.3233 0.2239 0.6922
C62 C 0.36214(17) 0.1675(3) 0.6394(3)
H81 H 0.3522 0.1244 0.6620
H82 H 0.3454 0.1718 0.5960
O10 O 0.40316(11) 0.1563(2) 0.62565(19)
C63 C 0.41045(14) 0.0984(2) 0.5811(2)
H83 H 0.3848 0.0690 0.5755
H84 H 0.4332 0.0682 0.6016
C64 C 0.42220(14) 0.1230(2) 0.5134(2)
H85 H 0.4254 0.0813 0.4839
H86 H 0.3995 0.1531 0.4926
N10 N 0.46131(11) 0.16330(17) 0.51834(17)
C65 C 0.49402(14) 0.1314(2) 0.50345(18)
H87 H 0.4920 0.0834 0.4888
C66 C 0.61105(13) 0.32393(19) 0.84991(18)
H88 H 0.5989 0.3698 0.8520
N11 N 0.65040(11) 0.31999(17) 0.84860(16)
C67 C 0.67391(14) 0.3867(2) 0.8477(2)
H89 H 0.7005 0.3819 0.8757
H90 H 0.6573 0.4253 0.8666
C68 C 0.68308(13) 0.4046(2) 0.7761(2)
H91 H 0.7014 0.4469 0.7762
H92 H 0.6982 0.3646 0.7566
O11 O 0.64536(9) 0.41836(13) 0.73556(14)
C69 C 0.63290(15) 0.4910(2) 0.7370(2)
H93 H 0.6535 0.5206 0.7147
H94 H 0.6323 0.5071 0.7843
C70 C 0.59047(14) 0.5001(2) 0.7020(2)
H95 H 0.5697 0.4716 0.7249
H96 H 0.5819 0.5506 0.7034
O12 O 0.59182(9) 0.47751(14) 0.63405(14)
C71 C 0.55709(13) 0.5028(2) 0.5914(2)
H97 H 0.5582 0.5552 0.5878
H98 H 0.5303 0.4895 0.6104
C72 C 0.55982(14) 0.4699(2) 0.5238(2)
H99 H 0.5394 0.4932 0.4913
H100 H 0.5883 0.4776 0.5083
N12 N 0.55105(11) 0.39343(16) 0.52533(16)
C73 C 0.58083(13) 0.3521(2) 0.51396(18)
H101 H 0.6072 0.3722 0.5054
C74 C 0.58305(13) 0.06121(19) 0.85253(18)
H102 H 0.5630 0.0244 0.8447
N13 N 0.62091(11) 0.04435(16) 0.86541(17)
C75 C 0.63062(14) -0.0317(2) 0.8679(2)
H103 H 0.6071 -0.0585 0.8450
H104 H 0.6336 -0.0474 0.9154
C76 C 0.67041(14) -0.0479(2) 0.8348(2)
H105 H 0.6937 -0.0206 0.8576
H106 H 0.6770 -0.0990 0.8407
O13 O 0.66828(10) -0.03173(15) 0.76536(15)
C77 C 0.64725(15) -0.0835(2) 0.7232(2)
H107 H 0.6182 -0.0900 0.7366
H108 H 0.6620 -0.1296 0.7282
C78 C 0.64643(17) -0.0594(3) 0.6514(3)
H109 H 0.6338 -0.0971 0.6219
H110 H 0.6286 -0.0166 0.6456
O14 O 0.68613(10) -0.04427(16) 0.63249(15)
C79 C 0.69298(15) -0.0525(2) 0.5635(2)
H111 H 0.6709 -0.0835 0.5422
H112 H 0.7203 -0.0761 0.5593
C80 C 0.69274(15) 0.0179(2) 0.5265(2)
H113 H 0.7130 0.0505 0.5502
H114 H 0.7019 0.0101 0.4807
N14 N 0.65135(12) 0.05073(19) 0.52181(18)
C81 C 0.65023(14) 0.1181(2) 0.52188(19)
H115 H 0.6760 0.1433 0.5259
C82 C 0.53556(13) 0.1666(2) 0.50813(18)
C83 C 0.53821(13) 0.2407(2) 0.50937(17)
H116 H 0.5133 0.2683 0.5075
C84 C 0.57680(13) 0.2743(2) 0.51327(17)
C85 C 0.61330(13) 0.2331(2) 0.51602(18)
H117 H 0.6399 0.2559 0.5179
C86 C 0.61125(13) 0.1588(2) 0.51611(18)
C87 C 0.57204(13) 0.1265(2) 0.51117(18)
H118 H 0.5702 0.0762 0.5099

#END

