
#######################################################################
#
#                 Cambridge Crystallographic Data Centre
#                                CCDC 
#
#######################################################################
#
# If this CIF has been generated directly or indirectly from an entry in the 
# Cambridge Structural Database, then it will include bibliographic, chemical, 
# crystal, experimental, refinement or atomic coordinate data resulting from 
# the CCDC's data processing and validation procedures. Files generated from 
# CSD entries are Copyright 2015 Cambridge Crystallographic Data Centre. They 
# may be used in bona fide research applications only, and may not be copied or 
# further disseminated in any form, whether machine-readable or not, except for 
# the purposes of generating routine backup copies on your local computer 
# system.
# 
# Files arising from any other source may also contain material that is the 
# copyright of third parties, including the originator, and you should check 
# with the originator concerning the permitted uses of the information 
# contained in this CIF.
#
# For further information on the CCDC and the free tools enCIFer and Mercury
# for validating and visualising CIF files, please visit www.ccdc.cam.ac.uk
#
#######################################################################

data_NITYUM
_audit_creation_date             2014-02-05
_database_code_depnum_ccdc_archive 'CCDC 977102'
_chemical_formula_moiety         
'C36 H48 N6 O6,2(C27 H30 N3 O3 3+),6(F6 P1 1-),2.1(C2 H3 N1),1.8(H2 O1)'
_chemical_name_systematic        
"bis(4,4',4''-benzene-1,3,5-triyltris(1-(2-hydroxyethyl)pyridinium)) hexakis(hexafluorophosphate) 8,11,25,28,39,42-hexaoxa-5,14,22,31,36,45-hexaazatetracyclo[16.16.12.1^3,33^.1^16,20^]octatetraconta-1,3(47),4,14,16(48),17,19,21,31,33,35,45-dodecaene acetonitrile solvate hydrate"
_journal_volume                  1
_journal_year                    2014
_journal_page_first              167
loop_
_publ_author_name
'Andrew Pun'
K.Gagnon
S.Teat
'Liana Klivansky'
'Zhan-Ting Li'
'Yi Liu'
_chemical_absolute_configuration unk
_diffrn_ambient_temperature      100
_exptl_crystal_density_meas      1.527
_exptl_crystal_density_diffrn    1.533
#These two values have been output from a single CSD field.
_refine_ls_R_factor_gt           0.1088
_refine_ls_wR_factor_gt          0.1088
_diffrn_radiation_probe          x-ray
_diffrn_source                   'synchrotron radiation'
_symmetry_cell_setting           monoclinic
_symmetry_space_group_name_H-M   'P 21/n'
_symmetry_Int_Tables_number      14
loop_
_symmetry_equiv_pos_site_id
_symmetry_equiv_pos_as_xyz
1 x,y,z
2 1/2-x,1/2+y,1/2-z
3 -x,-y,-z
4 1/2+x,1/2-y,1/2+z
_cell_length_a                   13.9167(6)
_cell_length_b                   25.8857(9)
_cell_length_c                   30.7364(11)
_cell_angle_alpha                90
_cell_angle_beta                 96.611(3)
_cell_angle_gamma                90
_cell_volume                     10999
_exptl_crystal_colour            yellow
_exptl_crystal_description       needle
_cell_formula_units_Z            4
_exptl_crystal_recrystallization_method 
'Acetonitrile, Chloroform, diethyl ether'
loop_
_atom_site_label
_atom_site_type_symbol
_atom_site_fract_x
_atom_site_fract_y
_atom_site_fract_z
C1 C 0.5005(6) 0.8347(5) 0.3824(4)
C2 C 0.5286(6) 0.8153(5) 0.4235(3)
H1 H 0.5475 0.8380 0.4473
C3 C 0.5290(6) 0.7620(4) 0.4299(3)
C4 C 0.5026(6) 0.7300(5) 0.3939(3)
H2 H 0.5033 0.6937 0.3982
C5 C 0.4753(7) 0.7494(6) 0.3520(4)
C6 C 0.4756(6) 0.8018(6) 0.3474(4)
H3 H 0.4581 0.8162 0.3191
C7 C 0.4964(8) 0.8892(6) 0.3722(5)
H4 H 0.4810 0.8995 0.3425
N1 N 0.5130(6) 0.9244(5) 0.4018(4)
C8 C 0.5018(10) 0.9779(6) 0.3879(5)
H5 H 0.4532 0.9947 0.4043
H6 H 0.4770 0.9788 0.3564
C9 C 0.5937(12) 1.0075(4) 0.3949(4)
H7 H 0.5808 1.0446 0.3890
H8 H 0.6228 1.0039 0.4257
O1 O 0.6581(5) 0.9884(3) 0.3664(2)
C10 C 0.7204(12) 1.0318(6) 0.3661(5)
H9 H 0.7632 1.0347 0.3940
H10 H 0.6829 1.0642 0.3610
C11 C 0.7796(8) 1.0203(4) 0.3273(4)
H11 H 0.7362 1.0083 0.3015
H12 H 0.8135 1.0518 0.3191
O2 O 0.8482(4) 0.9807(2) 0.34181(19)
C12 C 0.9325(8) 0.9855(5) 0.3217(4)
H13 H 0.9519 1.0223 0.3210
H14 H 0.9210 0.9728 0.2911
C13 C 1.0111(8) 0.9547(5) 0.3467(5)
H15 H 1.0734 0.9633 0.3358
H16 H 1.0160 0.9648 0.3779
N2 N 0.9966(6) 0.8991(4) 0.3435(3)
C14 C 1.0094(6) 0.8734(5) 0.3781(4)
H17 H 1.0250 0.8916 0.4049
C15 C 0.5622(6) 0.7378(4) 0.4717(3)
H18 H 0.5743 0.7017 0.4720
N3 N 0.5759(5) 0.7616(3) 0.5074(3)
C16 C 0.6151(6) 0.7312(4) 0.5461(3)
H19 H 0.6220 0.6946 0.5376
H20 H 0.5698 0.7328 0.5686
C17 C 0.7109(6) 0.7521(3) 0.5643(2)
H21 H 0.7046 0.7886 0.5732
H22 H 0.7375 0.7319 0.5902
O3 O 0.7733(4) 0.7483(2) 0.53036(16)
C18 C 0.8729(7) 0.7572(4) 0.5445(3)
H23 H 0.8787 0.7834 0.5681
H24 H 0.9047 0.7711 0.5198
C19 C 0.9239(7) 0.7088(4) 0.5611(3)
H25 H 0.9936 0.7159 0.5693
H26 H 0.8963 0.6960 0.5873
O4 O 0.9117(4) 0.6717(2) 0.52744(18)
C20 C 0.9828(6) 0.6314(4) 0.5314(3)
H27 H 0.9572 0.6010 0.5143
H28 H 0.9959 0.6208 0.5625
C21 C 1.0758(7) 0.6487(4) 0.5152(3)
H29 H 1.1043 0.6775 0.5336
H30 H 1.1227 0.6198 0.5174
N4 N 1.0568(6) 0.6655(4) 0.4702(3)
C22 C 1.0500(6) 0.7132(5) 0.4643(3)
H31 H 1.0629 0.7347 0.4892
C23 C 0.4505(7) 0.7157(7) 0.3134(4)
H32 H 0.4290 0.7313 0.2860
N5 N 0.4566(7) 0.6684(6) 0.3155(3)
C24 C 0.4313(10) 0.6441(7) 0.2731(4)
H33 H 0.3817 0.6171 0.2752
H34 H 0.4048 0.6701 0.2513
C25 C 0.5142(14) 0.6227(4) 0.2607(5)
H35 H 0.4978 0.6034 0.2330
H36 H 0.5407 0.5978 0.2833
O5 O 0.5882(5) 0.6607(3) 0.2543(2)
C26 C 0.5733(14) 0.7009(7) 0.2166(6)
H37 H 0.5048 0.6998 0.2037
H38 H 0.5859 0.7358 0.2291
C27 C 0.6376(12) 0.6930(8) 0.1797(6)
H39 H 0.6331 0.6565 0.1700
H40 H 0.6131 0.7148 0.1544
O6 O 0.7356(8) 0.7053(5) 0.1927(4)
C28 C 0.7972(12) 0.6653(7) 0.2116(6)
H41 H 0.8002 0.6370 0.1901
H42 H 0.7704 0.6510 0.2375
C29 C 0.9087(11) 0.6882(6) 0.2265(4)
H43 H 0.9524 0.6582 0.2322
H44 H 0.9294 0.7068 0.2010
N6 N 0.9260(9) 0.7243(5) 0.2663(4)
C30 C 0.9547(6) 0.7053(5) 0.3032(4)
H45 H 0.9633 0.6689 0.3048
C31 C 1.0020(7) 0.8178(5) 0.3799(4)
C32 C 1.0242(6) 0.7918(5) 0.4194(4)
H46 H 1.0400 0.8113 0.4454
C33 C 1.0238(7) 0.7386(5) 0.4218(4)
C34 C 0.9999(6) 0.7101(5) 0.3830(4)
H47 H 1.0006 0.6734 0.3843
C35 C 0.9756(7) 0.7341(5) 0.3431(4)
C36 C 0.9773(7) 0.7881(5) 0.3423(4)
H48 H 0.9609 0.8053 0.3152

#END

