
#######################################################################
#
#                 Cambridge Crystallographic Data Centre
#                                CCDC 
#
#######################################################################
#
# If this CIF has been generated directly or indirectly from an entry in the 
# Cambridge Structural Database, then it will include bibliographic, chemical, 
# crystal, experimental, refinement or atomic coordinate data resulting from 
# the CCDC's data processing and validation procedures. Files generated from 
# CSD entries are Copyright 2015 Cambridge Crystallographic Data Centre. They 
# may be used in bona fide research applications only, and may not be copied or 
# further disseminated in any form, whether machine-readable or not, except for 
# the purposes of generating routine backup copies on your local computer 
# system.
# 
# Files arising from any other source may also contain material that is the 
# copyright of third parties, including the originator, and you should check 
# with the originator concerning the permitted uses of the information 
# contained in this CIF.
#
# For further information on the CCDC and the free tools enCIFer and Mercury
# for validating and visualising CIF files, please visit www.ccdc.cam.ac.uk
#
#######################################################################

data_PETTIT
_audit_creation_date             2013-05-19
_database_code_depnum_ccdc_archive 'CCDC 906913'
_chemical_formula_moiety         
'C36 H48 N6 O6,2(C27 H30 N3 O3 3+),6(F6 P1 1-),3(C2 H3 N1),2(H2 O1)'
_chemical_name_systematic        
'[2]-(1,3,5-tris(1-(2-Hydroxyethyl)pyridin-1-ium-4-yl)benzene)-(8,11,25,28,39,42-hexaoxa-5,14,22,31,36,45-hexaazatetracyclo[16.16.12.1^3,33^.1^16,20^]octatetraconta-1,3(47),4,14,16(48),17,19,21,31,33,35,45-dodecaene)-rotaxane 1,3,5-tris(1-(2-hydroxyethyl)pyridin-1-ium-4-yl)benzene hexakis(hexafluorophosphate) acetonitrile solvate dihydrate'
_journal_coden_Cambridge         179
_journal_volume                  51
_journal_year                    2012
_journal_page_first              13119
_journal_name_full               Angew.Chem.,Int.Ed.
loop_
_publ_author_name
A.Pun
D.A.Hanifi
G.Kiel
E.O'Brien
'Yi Liu'
_chemical_absolute_configuration unk
_diffrn_ambient_temperature      100
_exptl_crystal_density_meas      1.533
_exptl_crystal_density_diffrn    1.535
#These two values have been output from a single CSD field.
_refine_ls_R_factor_gt           0.1559
_refine_ls_wR_factor_gt          0.1559
_diffrn_radiation_probe          x-ray
_symmetry_cell_setting           monoclinic
_symmetry_space_group_name_H-M   'P 21/n'
_symmetry_Int_Tables_number      14
loop_
_symmetry_equiv_pos_site_id
_symmetry_equiv_pos_as_xyz
1 x,y,z
2 1/2-x,1/2+y,1/2-z
3 -x,-y,-z
4 1/2+x,1/2-y,1/2+z
_cell_length_a                   14.0293(3)
_cell_length_b                   25.9179(7)
_cell_length_c                   30.8792(7)
_cell_angle_alpha                90
_cell_angle_beta                 96.498(2)
_cell_angle_gamma                90
_cell_volume                     11155.9
_exptl_crystal_colour            colorless
_exptl_crystal_description       needle
_cell_formula_units_Z            4
loop_
_atom_site_label
_atom_site_type_symbol
_atom_site_fract_x
_atom_site_fract_y
_atom_site_fract_z
C55 C -0.0242(10) 0.2056(6) 0.0790(5)
H61 H -0.0399 0.1858 0.0533
C56 C -0.0003(12) 0.1809(6) 0.1200(5)
C57 C 0.0256(11) 0.2095(6) 0.1562(5)
H62 H 0.0441 0.1924 0.1830
C58 C 0.0261(10) 0.2629(6) 0.1554(5)
C59 C 0.0027(10) 0.2877(6) 0.1155(4)
H63 H 0.0047 0.3242 0.1139
C60 C -0.0242(9) 0.2585(5) 0.0774(4)
C61 C -0.0105(11) 0.1228(6) 0.1199(5)
H64 H -0.0269 0.1047 0.0933
C62 C -0.0108(16) 0.0441(8) 0.1529(7)
H65 H -0.0156 0.0332 0.1220
H66 H -0.0722 0.0355 0.1641
C63 C 0.0692(11) 0.0145(7) 0.1785(5)
H67 H 0.0796 0.0280 0.2087
H68 H 0.0513 -0.0223 0.1799
C64 C 0.2188(12) -0.0220(7) 0.1716(5)
H69 H 0.1832 -0.0532 0.1790
H70 H 0.2639 -0.0120 0.1972
C65 C 0.274(2) -0.0324(11) 0.1309(9)
H71 H 0.3078 -0.0660 0.1333
H72 H 0.2303 -0.0316 0.1035
C66 C 0.4043(12) -0.0079(6) 0.1040(5)
H73 H 0.4161 -0.0451 0.1094
H74 H 0.3738 -0.0037 0.0737
C67 C 0.4911(16) 0.0188(8) 0.1095(7)
H75 H 0.5360 0.0017 0.0915
H76 H 0.5186 0.0156 0.1403
C68 C 0.5034(11) 0.1065(6) 0.1238(5)
H77 H 0.5213 0.0953 0.1529
C69 C 0.0455(11) 0.2935(7) 0.1946(5)
H78 H 0.0389 0.3299 0.1926
C70 C 0.0850(17) 0.3047(10) 0.2686(8)
H79 H 0.0341 0.2985 0.2877
H80 H 0.0836 0.3415 0.2600
C71 C 0.190(3) 0.2895(16) 0.2939(13)
H81 H 0.2042 0.3097 0.3210
H82 H 0.1937 0.2523 0.3009
C72 C 0.254(2) 0.3502(12) 0.2786(10)
H83 H 0.2734 0.3518 0.3104
H84 H 0.1921 0.3682 0.2714
C73 C 0.3391(18) 0.3739(10) 0.2504(8)
H85 H 0.3085 0.3826 0.2208
H86 H 0.3623 0.4066 0.2644
C74 C 0.4978(12) 0.3781(7) 0.2373(6)
H87 H 0.4732 0.4023 0.2138
H88 H 0.5163 0.3987 0.2639
C75 C 0.5752(12) 0.3549(7) 0.2258(5)
H89 H 0.6011 0.3305 0.2488
H90 H 0.6254 0.3808 0.2217
C76 C 0.5536(11) 0.2825(6) 0.1857(5)
H91 H 0.5765 0.2668 0.2126
C77 C -0.0488(11) 0.2837(6) 0.0337(5)
H92 H -0.0608 0.2624 0.0086
C78 C -0.0716(11) 0.3489(6) -0.0157(5)
H93 H -0.1204 0.3766 -0.0183
H94 H -0.0967 0.3196 -0.0343
C79 C 0.0195(9) 0.3684(5) -0.0308(4)
H95 H 0.0072 0.3796 -0.0616
H96 H 0.0430 0.3985 -0.0131
C80 C 0.0802(10) 0.2918(5) -0.0605(4)
H97 H 0.1082 0.3051 -0.0864
H98 H 0.0114 0.2846 -0.0692
C81 C 0.1308(10) 0.2423(5) -0.0450(4)
H99 H 0.0985 0.2270 -0.0212
H100 H 0.1271 0.2171 -0.0693
C82 C 0.2913(8) 0.2476(5) -0.0634(4)
H101 H 0.2656 0.2679 -0.0893
H102 H 0.2969 0.2111 -0.0720
C83 C 0.3878(8) 0.2686(5) -0.0442(4)
H103 H 0.4332 0.2678 -0.0665
H104 H 0.3806 0.3049 -0.0350
C84 C 0.4393(9) 0.2611(5) 0.0287(4)
H105 H 0.4270 0.2971 0.0288
C85 C 0.4734(10) 0.1820(5) 0.0759(4)
H106 H 0.4550 0.1604 0.0515
C86 C 0.5005(10) 0.1610(6) 0.1168(4)
C87 C 0.5283(11) 0.1944(6) 0.1513(5)
H107 H 0.5486 0.1798 0.1791
C88 C 0.5280(10) 0.2477(6) 0.1476(4)
C89 C 0.5019(9) 0.2689(5) 0.1065(4)
H108 H 0.5033 0.3052 0.1024
C90 C 0.4740(10) 0.2367(5) 0.0715(4)
N7 N 0.0033(11) 0.0991(6) 0.1553(5)
N8 N 0.4864(9) 0.0744(5) 0.0979(4)
N9 N 0.0713(13) 0.2734(7) 0.2319(6)
N10 N 0.5477(10) 0.3273(5) 0.1851(4)
N11 N -0.0540(9) 0.3321(5) 0.0292(4)
N12 N 0.4250(7) 0.2383(4) -0.0074(3)
O7 O 0.1542(6) 0.0192(3) 0.1588(2)
O8 O 0.3431(8) 0.0109(4) 0.1330(4)
O9 O 0.2513(12) 0.3023(7) 0.2640(6)
O10 O 0.4203(7) 0.3429(4) 0.2456(3)
O11 O 0.0899(6) 0.3293(3) -0.0270(3)
O12 O 0.2308(5) 0.2525(3) -0.0296(2)

#END

