
#######################################################################
#
#                 Cambridge Crystallographic Data Centre
#                                CCDC 
#
#######################################################################
#
# If this CIF has been generated directly or indirectly from an entry in the 
# Cambridge Structural Database, then it will include bibliographic, chemical, 
# crystal, experimental, refinement or atomic coordinate data resulting from 
# the CCDC's data processing and validation procedures. Files generated from 
# CSD entries are Copyright 2015 Cambridge Crystallographic Data Centre. They 
# may be used in bona fide research applications only, and may not be copied or 
# further disseminated in any form, whether machine-readable or not, except for 
# the purposes of generating routine backup copies on your local computer 
# system.
# 
# Files arising from any other source may also contain material that is the 
# copyright of third parties, including the originator, and you should check 
# with the originator concerning the permitted uses of the information 
# contained in this CIF.
#
# For further information on the CCDC and the free tools enCIFer and Mercury
# for validating and visualising CIF files, please visit www.ccdc.cam.ac.uk
#
#######################################################################

data_PEPGIB
_audit_creation_date             2007-01-23
_database_code_depnum_ccdc_archive 'CCDC 611171'
_chemical_formula_moiety         'C48 H69 N9,2(C1 H1 Cl3),3(C3 H8 O1)'
_chemical_name_systematic        
'2,15,17,30,40,42-hexaethyl-5,12,20,27,32,37,39,41,43-nonaazaheptacyclo[14.14.8.1^3,29^.1^7,10^.1^14,18^.1^22,25^.1^33,36^] tritetraconta-1,3(40),7,9,14(42),15,17,22,24,29,33,35-dodecaene isopropanol clathrate chloroform solvate'
_journal_coden_Cambridge         179
_journal_volume                  45
_journal_year                    2006
_journal_page_first              6693
_journal_name_full               Angew.Chem.,Int.Ed.
loop_
_publ_author_name
O.Francesconi
A.Ienco
G.Moneti
C.Nativi
S.Roelens
_chemical_absolute_configuration unk
_diffrn_ambient_temperature      100
_exptl_crystal_density_meas      1.193
_exptl_crystal_density_diffrn    1.193
#These two values have been output from a single CSD field.
_refine_ls_R_factor_gt           0.066
_refine_ls_wR_factor_gt          0.066
_diffrn_radiation_probe          x-ray
_symmetry_cell_setting           monoclinic
_symmetry_space_group_name_H-M   'P 21'
_symmetry_Int_Tables_number      4
loop_
_symmetry_equiv_pos_site_id
_symmetry_equiv_pos_as_xyz
1 x,y,z
2 -x,1/2+y,-z
_cell_length_a                   12.8610(17)
_cell_length_b                   21.791(2)
_cell_length_c                   13.0750(16)
_cell_angle_alpha                90
_cell_angle_beta                 115.179(12)
_cell_angle_gamma                90
_cell_volume                     3316.15
_exptl_crystal_colour            colorless
_exptl_crystal_description       prism
_cell_formula_units_Z            2
loop_
_atom_site_label
_atom_site_type_symbol
_atom_site_fract_x
_atom_site_fract_y
_atom_site_fract_z
N1 N -0.1829(4) 0.2905(2) 0.6868(4)
H1 H -0.2241 0.2594 0.6432
N2 N -0.4294(5) 0.3350(3) 0.5833(4)
H3 H -0.4373 0.2982 0.5574
N3 N -0.5747(4) 0.3529(2) 0.3351(4)
H4 H -0.5562 0.3129 0.3486
N4 N -0.0722(4) 0.1271(2) 0.4064(4)
H6 H -0.1264 0.1399 0.428
N5 N -0.2863(5) 0.0892(2) 0.1947(4)
H8 H -0.2561 0.1146 0.1647
N6 N -0.4848(4) 0.1719(2) 0.0655(5)
H9 H -0.4211 0.1866 0.0617
N7 N 0.0557(4) 0.3858(3) 0.4445(4)
H11 H 0.0222 0.3564 0.3927
N8 N -0.0913(4) 0.4559(2) 0.2298(5)
H13 H -0.125 0.4673 0.271
N9 N -0.3384(4) 0.4262(2) 0.0786(4)
H14 H -0.3376 0.4392 0.1442
C1 C -0.0033(5) 0.2596(3) 0.6832(5)
C2 C -0.0024(5) 0.2010(3) 0.6368(5)
C3 C 0.0492(5) 0.1946(3) 0.5621(5)
C4 C 0.0990(5) 0.2446(3) 0.5321(5)
C5 C 0.0997(5) 0.3027(3) 0.5815(5)
C6 C 0.0466(5) 0.3097(3) 0.6562(5)
C7 C -0.6253(5) 0.3441(3) 0.1326(5)
C8 C -0.6332(5) 0.2838(3) 0.0922(5)
C9 C -0.5850(5) 0.2701(3) 0.0165(5)
C10 C -0.5274(5) 0.3150(3) -0.0171(5)
C11 C -0.5236(5) 0.3755(3) 0.0221(5)
C12 C -0.5714(5) 0.3902(3) 0.0975(5)
C13 C -0.0667(6) 0.2687(3) 0.7578(5)
H16 H -0.0702 0.2303 0.7935
H17 H -0.0264 0.2985 0.8165
C14 C -0.2432(6) 0.3147(3) 0.7514(6)
H18 H -0.1894 0.3377 0.8157
H19 H -0.2718 0.2807 0.78
C15 C -0.3413(6) 0.3554(3) 0.6817(5)
C16 C -0.3600(6) 0.4157(3) 0.6951(6)
H20 H -0.3139 0.4409 0.7545
C17 C -0.4637(7) 0.4331(4) 0.6006(6)
H21 H -0.4975 0.4717 0.5882
C18 C -0.5038(6) 0.3838(3) 0.5328(6)
C19 C -0.6046(6) 0.3761(3) 0.4221(5)
H22 H -0.6587 0.3482 0.4313
H23 H -0.6426 0.4155 0.3982
C20 C -0.6676(5) 0.3590(3) 0.2223(5)
H24 H -0.6972 0.4006 0.2116
H25 H -0.7297 0.3314 0.2144
C21 C 0.0413(6) 0.1329(3) 0.5027(6)
H26 H 0.1011 0.1304 0.4762
H27 H 0.0525 0.0995 0.5555
C22 C -0.0994(5) 0.0648(3) 0.3625(6)
H28 H -0.0727 0.0361 0.4252
H29 H -0.059 0.0559 0.3163
C23 C -0.2260(6) 0.0557(3) 0.2932(5)
C24 C -0.3037(6) 0.0212(3) 0.3116(6)
H30 H -0.2884 -0.0057 0.3715
C25 C -0.4114(6) 0.0333(3) 0.2239(6)
H31 H -0.4799 0.0151 0.2156
C26 C -0.4012(6) 0.0757(3) 0.1527(6)
C27 C -0.4892(6) 0.1060(3) 0.0496(6)
H32 H -0.4747 0.0961 -0.0155
H33 H -0.5651 0.091 0.0355
C28 C -0.5865(5) 0.2038(3) -0.0195(6)
H34 H -0.6562 0.1838 -0.0252
H35 H -0.5848 0.2021 -0.0929
C29 C 0.1471(5) 0.3578(3) 0.5459(5)
H36 H 0.1755 0.3875 0.6069
H37 H 0.2107 0.3454 0.5292
C30 C 0.0978(6) 0.4348(4) 0.3933(6)
H38 H 0.1762 0.4261 0.4055
H39 H 0.0969 0.4739 0.4282
C31 C 0.0228(5) 0.4376(3) 0.2707(6)
C32 C 0.0431(6) 0.4245(4) 0.1809(7)
H40 H 0.1131 0.4119 0.183
C33 C -0.0616(6) 0.4333(3) 0.0804(7)
H41 H -0.0724 0.4268 0.0062
C34 C -0.1417(6) 0.4529(3) 0.1154(6)
C35 C -0.2681(5) 0.4669(3) 0.0459(6)
H42 H -0.2836 0.5092 0.0578
H43 H -0.2872 0.4615 -0.0337
C36 C -0.4590(5) 0.4245(3) -0.0095(5)
H44 H -0.4601 0.4152 -0.0825
H45 H -0.4952 0.4641 -0.0145
C37 C -0.0542(6) 0.1460(3) 0.6703(5)
H46 H -0.0821 0.1167 0.6086
H47 H -0.1192 0.1595 0.6837
C38 C 0.0345(7) 0.1141(3) 0.7780(6)
H48 H -0.0012 0.08 0.797
H49 H 0.0618 0.1429 0.8395
H50 H 0.098 0.0997 0.7644
C39 C 0.1509(5) 0.2383(3) 0.4481(6)
H51 H 0.1469 0.2775 0.4116
H52 H 0.1061 0.209 0.3902
C40 C 0.2787(6) 0.2165(4) 0.5054(7)
H53 H 0.3084 0.2136 0.4495
H54 H 0.2828 0.177 0.5394
H55 H 0.3235 0.2455 0.5624
C41 C 0.0471(5) 0.3729(3) 0.7058(5)
H56 H 0.0425 0.404 0.6509
H57 H -0.0201 0.3771 0.721
C42 C 0.1544(6) 0.3837(3) 0.8143(6)
H58 H 0.1509 0.4237 0.8434
H59 H 0.221 0.3811 0.799
H60 H 0.1592 0.3531 0.8689
C43 C -0.6969(5) 0.2364(3) 0.1268(6)
H61 H -0.6824 0.243 0.2051
H62 H -0.669 0.1959 0.1207
C44 C -0.8279(5) 0.2398(4) 0.0516(7)
H63 H -0.8665 0.2092 0.0755
H64 H -0.8425 0.2327 -0.0257
H65 H -0.8559 0.2798 0.0585
C45 C -0.4736(6) 0.2983(3) -0.0947(5)
H66 H -0.4479 0.256 -0.0815
H67 H -0.4071 0.3241 -0.0787
C46 C -0.5596(6) 0.3063(4) -0.2193(6)
H68 H -0.5233 0.2951 -0.2674
H69 H -0.5839 0.3484 -0.2328
H70 H -0.6252 0.2805 -0.2354
C47 C -0.5723(5) 0.4566(3) 0.1318(5)
H71 H -0.5695 0.458 0.207
H72 H -0.5041 0.477 0.1345
C48 C -0.6761(6) 0.4903(3) 0.0522(6)
H73 H -0.6733 0.5319 0.0775
H74 H -0.7439 0.4706 0.0499
H75 H -0.6781 0.4901 -0.022
O1 O -0.1103(4) 0.1774(2) 0.1973(4)
C49 C -0.0993(7) 0.2424(4) 0.1754(7)
H76 H -0.0179 0.2537 0.2123
C50 C -0.1408(8) 0.2522(4) 0.0540(7)
H77 H -0.0971 0.2274 0.0257
H78 H -0.1323 0.2947 0.0398
H79 H -0.2204 0.2409 0.0167
C51 C -0.1651(7) 0.2812(4) 0.2262(6)
H80 H -0.1357 0.2731 0.3058
H81 H -0.2452 0.2708 0.1903
H82 H -0.1555 0.3239 0.2144
O2 O -0.3612(4) 0.21289(18) 0.5513(3)
C52 C -0.3636(6) 0.1775(3) 0.4559(6)
H83 H -0.3096 0.1431 0.4841
C53 C -0.3292(6) 0.2177(3) 0.3805(6)
H84 H -0.2521 0.2322 0.4225
H85 H -0.3806 0.2521 0.3546
H86 H -0.3333 0.1943 0.3167
C54 C -0.4834(6) 0.1528(4) 0.3933(6)
H87 H -0.5021 0.1273 0.4429
H88 H -0.4879 0.1291 0.3297
H89 H -0.5367 0.1864 0.3674
O3 O -0.2707(5) 0.4823(3) 0.3019(5)
C55 C -0.2976(9) 0.4570(5) 0.3884(8)
H90 H -0.3783 0.4651 0.3712
C56 C -0.2206(12) 0.4884(7) 0.4976(10)
H91 H -0.2393 0.5313 0.4927
H92 H -0.1419 0.4836 0.5104
H93 H -0.2319 0.4703 0.5591
C57 C -0.2744(14) 0.3878(6) 0.4018(18)
H94 H -0.3233 0.3672 0.3331
H95 H -0.2899 0.3726 0.4629
H96 H -0.1955 0.3801 0.4178
C61 C -0.3820(7) 0.1177(3) 0.7115(7)
Cl1 Cl -0.3075(15) 0.0550(6) 0.6957(15)
Cl2 Cl -0.3098(10) 0.1520(3) 0.8405(7)
Cl3 Cl -0.5164(6) 0.0922(4) 0.7026(9)
C62 C 0.9123(9) 0.5715(4) 0.8327(8)
Cl7 Cl 0.9538(4) 0.49915(19) 0.8133(4)
Cl8 Cl 0.7998(6) 0.5982(4) 0.7217(7)
Cl9 Cl 0.9258(15) 0.5826(3) 0.9610(8)
H2? H -0.1789 0.3202 0.6407
H5? H -0.5123 0.3729 0.3379
H7? H -0.0747 0.152 0.3505
H10? H -0.4795 0.1802 0.1349
H12? H 0.0017 0.4017 0.4636
H15? H -0.3086 0.3881 0.0894
O4? O -0.1155(12) 0.4671(7) 0.4272(13)
C58? C -0.201(2) 0.4537(11) 0.465(3)
H97? H -0.165 0.452 0.5481
C59? C -0.289(2) 0.5045(11) 0.427(3)
H98? H -0.2519 0.5434 0.4509
H99? H -0.3429 0.4984 0.4596
H100? H -0.3298 0.5039 0.3461
C60? C -0.241(3) 0.3895(15) 0.418(4)
H101? H -0.1783 0.3613 0.4491
H102? H -0.2699 0.3903 0.3374
H103? H -0.3016 0.3767 0.4384
Cl4? Cl -0.341(2) 0.0505(6) 0.6683(18)
Cl5? Cl -0.266(2) 0.1418(9) 0.8372(10)
Cl6? Cl -0.5035(13) 0.1097(10) 0.7299(16)
Cl10? Cl 0.7977(10) 0.5739(5) 0.8505(17)
Cl11? Cl 0.9161(11) 0.6319(6) 0.7817(12)
Cl12? Cl 1.0299(14) 0.5889(13) 0.9236(14)

#END

