
#######################################################################
#
#                 Cambridge Crystallographic Data Centre
#                                CCDC 
#
#######################################################################
#
# If this CIF has been generated directly or indirectly from an entry in the 
# Cambridge Structural Database, then it will include bibliographic, chemical, 
# crystal, experimental, refinement or atomic coordinate data resulting from 
# the CCDC's data processing and validation procedures. Files generated from 
# CSD entries are Copyright 2015 Cambridge Crystallographic Data Centre. They 
# may be used in bona fide research applications only, and may not be copied or 
# further disseminated in any form, whether machine-readable or not, except for 
# the purposes of generating routine backup copies on your local computer 
# system.
# 
# Files arising from any other source may also contain material that is the 
# copyright of third parties, including the originator, and you should check 
# with the originator concerning the permitted uses of the information 
# contained in this CIF.
#
# For further information on the CCDC and the free tools enCIFer and Mercury
# for validating and visualising CIF files, please visit www.ccdc.cam.ac.uk
#
#######################################################################

data_AJOHUD
_audit_creation_date             2010-08-29
_database_code_depnum_ccdc_archive 'CCDC 745245'
_chemical_formula_moiety         'C60 H60 B6 O12,C7 H8'
_chemical_name_systematic        
'bis(Benzene-1,3,5-triyl)tris(2,7-(5,5,10,10-tetramethyl-3a,5,5a,8a,10,10a-hexahydro[1,3,2]dioxaborolo[5,6]-s-indaceno[1,2-d][1,3,2]dioxaborole)) toluene clathrate'
_journal_coden_Cambridge         1220
_journal_volume                  15
_journal_year                    2009
_journal_page_first              13327
_journal_name_full               Chem.-Eur.J.
loop_
_publ_author_name
H.Takahagi
S.Fujibe
N.Iwasawa
_chemical_absolute_configuration unk
_diffrn_ambient_temperature      173
_exptl_crystal_density_meas      1.24
_exptl_crystal_density_diffrn    1.24
#These two values have been output from a single CSD field.
_refine_ls_R_factor_gt           0.0483
_refine_ls_wR_factor_gt          0.0483
_diffrn_radiation_probe          x-ray
_symmetry_cell_setting           triclinic
_symmetry_space_group_name_H-M   'P -1'
_symmetry_Int_Tables_number      2
loop_
_symmetry_equiv_pos_site_id
_symmetry_equiv_pos_as_xyz
1 x,y,z
2 -x,-y,-z
_cell_length_a                   12.473(3)
_cell_length_b                   14.546(4)
_cell_length_c                   17.781(5)
_cell_angle_alpha                78.896(9)
_cell_angle_beta                 80.581(9)
_cell_angle_gamma                74.372(9)
_cell_volume                     3027.22
_exptl_crystal_colour            colorless
_exptl_crystal_description       block
_cell_formula_units_Z            2
_exptl_crystal_recrystallization_method pentane/toluene
loop_
_atom_site_label
_atom_site_type_symbol
_atom_site_fract_x
_atom_site_fract_y
_atom_site_fract_z
C1 C 0.18521(15) -0.28868(14) 0.27325(10)
C2 C 0.20301(19) -0.23295(17) 0.32315(11)
H1 H 0.1558 -0.2266 0.3705
C3 C 0.2899(2) -0.18653(16) 0.30378(19)
H2 H 0.3021 -0.1484 0.3379
C4 C 0.35902(17) -0.19585(19) 0.2345(2)
H3 H 0.4184 -0.1641 0.2213
C5 C 0.34122(19) -0.2516(2) 0.18462(15)
H4 H 0.3884 -0.2579 0.1373
C6 C 0.2543(2) -0.29799(17) 0.20399(10)
H5 H 0.2421 -0.3361 0.1699
C7 C 0.0912(3) -0.3394(3) 0.2922(3)
H6 H 0.1095 -0.3944 0.3335
H7 H 0.0815 -0.3627 0.2462
H8 H 0.0217 -0.2942 0.3093
C8 C 0.57454(13) -0.42678(11) 0.25886(10)
C9 C 0.53852(13) -0.48182(11) 0.21562(10)
H9 H 0.5753 -0.4891 0.1652
C10 C 0.44985(14) -0.52640(11) 0.24465(10)
C11 C 0.39769(14) -0.51441(11) 0.31939(10)
H10 H 0.3379 -0.5442 0.3401
C12 C 0.43044(13) -0.46005(11) 0.36476(10)
C13 C 0.51938(13) -0.41680(11) 0.33278(10)
H11 H 0.5426 -0.3796 0.3625
C14 C 0.13104(12) 0.03567(10) 0.22927(8)
C15 C 0.12875(12) -0.00382(11) 0.16349(8)
H12 H 0.1818 0.0057 0.1197
C16 C 0.05126(12) -0.05683(10) 0.15981(8)
C17 C -0.02730(12) -0.06878(10) 0.22442(8)
H13 H -0.0811 -0.1036 0.2229
C18 C -0.02878(12) -0.03066(10) 0.29150(8)
C19 C 0.05141(12) 0.02126(11) 0.29253(8)
H14 H 0.0513 0.0472 0.3377
C20 C 0.73770(13) -0.23595(12) 0.20613(10)
H15 H 0.8137 -0.2322 0.2144
C21 C 0.73674(13) -0.26203(12) 0.12548(10)
H16 H 0.8147 -0.2828 0.0994
C22 C 0.66764(12) -0.17205(11) 0.07670(9)
C23 C 0.60918(12) -0.10873(11) 0.13697(8)
C24 C 0.65288(12) -0.14073(11) 0.20752(9)
C25 C 0.61333(13) -0.09042(12) 0.26968(9)
H17 H 0.6432 -0.1130 0.3176
C26 C 0.52923(12) -0.00667(12) 0.25929(9)
C27 C 0.48748(12) 0.02628(11) 0.18797(8)
C28 C 0.52574(12) -0.02445(11) 0.12639(8)
H18 H 0.4956 -0.0020 0.0786
C29 C 0.47230(13) 0.06198(13) 0.31651(10)
C30 C 0.36914(12) 0.12427(12) 0.27733(9)
H19 H 0.3515 0.1928 0.2864
C31 C 0.39711(12) 0.11759(11) 0.19048(9)
H20 H 0.4227 0.1750 0.1605
C32 C 0.74500(13) -0.11765(13) 0.01979(10)
H21 H 0.7004 -0.0553 -0.0034
H22 H 0.7826 -0.1562 -0.0209
H23 H 0.8013 -0.1068 0.0474
C33 C 0.58692(14) -0.19750(13) 0.03204(10)
H24 H 0.5394 -0.2344 0.0679
H25 H 0.6301 -0.2364 -0.0071
H26 H 0.5397 -0.1379 0.0068
C34 C 0.54847(16) 0.12929(17) 0.31924(14)
H27 H 0.6190 0.0906 0.3380
H28 H 0.5104 0.1759 0.3541
H29 H 0.5642 0.1640 0.2673
C35 C 0.44218(17) 0.00949(17) 0.39716(10)
H30 H 0.3930 -0.0317 0.3941
H31 H 0.4034 0.0570 0.4311
H32 H 0.5108 -0.0305 0.4180
C36 C 0.34260(14) -0.57782(12) 0.07684(11)
H33 H 0.3700 -0.6177 0.0344
C37 C 0.26864(15) -0.62425(13) 0.14336(11)
H34 H 0.2832 -0.6954 0.1437
C38 C 0.14588(15) -0.57285(13) 0.13296(11)
C39 C 0.15817(13) -0.47565(12) 0.08708(10)
C40 C 0.26724(13) -0.48066(12) 0.05068(10)
C41 C 0.29793(13) -0.40256(12) 0.00212(9)
H35 H 0.3722 -0.4081 -0.0230
C42 C 0.21681(12) -0.31636(12) -0.00843(9)
C43 C 0.10821(12) -0.31023(11) 0.02949(9)
C44 C 0.07717(13) -0.38943(12) 0.07665(10)
H36 H 0.0025 -0.3844 0.1010
C45 C 0.22789(13) -0.22213(13) -0.05966(9)
C46 C 0.12082(13) -0.14974(12) -0.03155(9)
H37 H 0.0875 -0.1039 -0.0761
C47 C 0.03761(12) -0.20924(12) 0.01320(9)
H38 H -0.0240 -0.2056 -0.0176
C48 C 0.10376(18) -0.62769(15) 0.08167(15)
H39 H 0.0288 -0.5916 0.0689
H40 H 0.1005 -0.6921 0.1097
H41 H 0.1554 -0.6341 0.0340
C49 C 0.06978(18) -0.56821(16) 0.20922(13)
H42 H 0.0970 -0.5342 0.2418
H43 H 0.0703 -0.6339 0.2357
H44 H -0.0068 -0.5336 0.1992
C50 C 0.22056(19) -0.23079(17) -0.14382(10)
H45 H 0.2839 -0.2817 -0.1611
H46 H 0.2230 -0.1691 -0.1771
H47 H 0.1501 -0.2470 -0.1466
C51 C 0.33537(15) -0.19321(15) -0.05462(12)
H48 H 0.3394 -0.1886 -0.0009
H49 H 0.3351 -0.1305 -0.0870
H50 H 0.4005 -0.2421 -0.0727
C52 C 0.23403(14) -0.43345(11) 0.54927(9)
H51 H 0.2226 -0.4833 0.5951
C53 C 0.32327(14) -0.38052(12) 0.55908(10)
H52 H 0.3666 -0.4164 0.6029
C54 C 0.26107(14) -0.27733(12) 0.57424(9)
C55 C 0.14627(13) -0.26590(11) 0.54951(8)
C56 C 0.12979(14) -0.35377(11) 0.53876(8)
C57 C 0.02871(14) -0.35989(11) 0.51820(9)
H53 H 0.0178 -0.4200 0.5119
C58 C -0.05483(13) -0.27572(11) 0.50733(8)
C59 C -0.03735(13) -0.18770(11) 0.51774(8)
C60 C 0.06255(13) -0.18137(11) 0.53895(8)
H54 H 0.0730 -0.1214 0.5459
C61 C -0.17202(14) -0.26164(12) 0.48542(9)
C62 C -0.20271(13) -0.15227(12) 0.45547(8)
H55 H -0.2852 -0.1237 0.4654
C63 C -0.13470(12) -0.10508(11) 0.49592(8)
H56 H -0.1795 -0.0764 0.5415
C64 C 0.24806(18) -0.27519(16) 0.66148(10)
H57 H 0.2036 -0.2115 0.6722
H58 H 0.3223 -0.2880 0.6785
H59 H 0.2100 -0.3248 0.6893
C65 C 0.32079(15) -0.20036(13) 0.53011(11)
H60 H 0.3246 -0.1995 0.4745
H61 H 0.3969 -0.2154 0.5445
H62 H 0.2791 -0.1369 0.5430
C66 C -0.25046(17) -0.28268(16) 0.55951(12)
H63 H -0.3271 -0.2704 0.5468
H64 H -0.2488 -0.2406 0.5960
H65 H -0.2254 -0.3504 0.5829
C67 C -0.17922(17) -0.32331(14) 0.42675(11)
H66 H -0.1294 -0.3098 0.3796
H67 H -0.2565 -0.3078 0.4145
H68 H -0.1563 -0.3919 0.4485
B1 B 0.65599(15) -0.36140(13) 0.22083(11)
B2 B 0.39719(16) -0.56877(13) 0.18975(12)
B3 B 0.36623(16) -0.43986(13) 0.44484(12)
B4 B 0.23166(14) 0.07909(12) 0.23224(10)
B5 B 0.06118(14) -0.10813(12) 0.08856(10)
B6 B -0.09913(14) -0.06272(12) 0.36763(10)
O1 O 0.69763(10) -0.31057(9) 0.26164(7)
O2 O 0.68174(10) -0.34108(8) 0.14254(7)
O3 O 0.43395(9) -0.56533(9) 0.11234(7)
O4 O 0.30287(11) -0.60417(9) 0.21173(7)
O5 O 0.27626(10) -0.47615(8) 0.47964(7)
O6 O 0.39520(10) -0.38200(9) 0.48708(7)
O7 O 0.27084(8) 0.08468(8) 0.29891(6)
O8 O 0.29546(8) 0.10934(8) 0.16621(6)
O9 O 0.13812(10) -0.09748(8) 0.02533(6)
O10 O -0.00517(8) -0.16823(8) 0.08370(6)
O11 O -0.16104(9) -0.13019(8) 0.37455(6)
O12 O -0.09595(9) -0.03395(7) 0.43639(6)
C68? C 0.2843(4) -0.2253(4) 0.2806(3)
C69? C 0.1963(5) -0.2456(5) 0.3345(2)
C70? C 0.1275(4) -0.2978(4) 0.3175(3)
C71? C 0.1465(4) -0.3297(4) 0.2465(3)
C72? C 0.2345(5) -0.3094(5) 0.1926(2)
C73? C 0.3034(4) -0.2572(4) 0.2096(3)
C74? C 0.3638(7) -0.1704(6) 0.2941(5)
H69? H 0.1833 -0.2238 0.3830
H70? H 0.0673 -0.3117 0.3544
H71? H 0.0994 -0.3654 0.2349
H72? H 0.2475 -0.3312 0.1441
H73? H 0.3635 -0.2433 0.1727
H74? H 0.3218 -0.1155 0.3200
H75? H 0.4023 -0.1466 0.2446
H76? H 0.4192 -0.2132 0.3267

#END

