
#######################################################################
#
#                 Cambridge Crystallographic Data Centre
#                                CCDC 
#
#######################################################################
#
# If this CIF has been generated directly or indirectly from an entry in the 
# Cambridge Structural Database, then it will include bibliographic, chemical, 
# crystal, experimental, refinement or atomic coordinate data resulting from 
# the CCDC's data processing and validation procedures. Files generated from 
# CSD entries are Copyright 2015 Cambridge Crystallographic Data Centre. They 
# may be used in bona fide research applications only, and may not be copied or 
# further disseminated in any form, whether machine-readable or not, except for 
# the purposes of generating routine backup copies on your local computer 
# system.
# 
# Files arising from any other source may also contain material that is the 
# copyright of third parties, including the originator, and you should check 
# with the originator concerning the permitted uses of the information 
# contained in this CIF.
#
# For further information on the CCDC and the free tools enCIFer and Mercury
# for validating and visualising CIF files, please visit www.ccdc.cam.ac.uk
#
#######################################################################

data_TOBGIC
_audit_creation_date             2014-02-20
_database_code_depnum_ccdc_archive 'CCDC 957159'
_chemical_formula_moiety         
'C60 H54 N8,0.5(C3 H8 O1),C2 H6 O1,0.5(C1 H4 O1)'
_chemical_name_systematic        
'1,4,19,22,25,40,45,60-Octa-azaoctacyclo[20.20.20.1^6,10^.1^13,17^.1^27,31^.1^34,38^.1^47,51^.1^54,58^]octahexaconta-4,6(68),7,9,13(67),14,16,18,25,27(66),28,30,34(65),35,37,39,45,47(64),48,50,54(63),55,57,59-tetracosaene-11,32,52-triyne n-propanol ethanol methanol solvate'
_journal_coden_Cambridge         1220
_journal_volume                  20
_journal_year                    2014
_journal_page_first              1646
_journal_name_full               Chem.-Eur.J.
loop_
_publ_author_name
P.Mukherjee
K.Acharyya
_chemical_absolute_configuration unk
_diffrn_ambient_temperature      100
_exptl_crystal_density_meas      1.193
_exptl_crystal_density_diffrn    1.208
#These two values have been output from a single CSD field.
_refine_ls_R_factor_gt           0.0734
_refine_ls_wR_factor_gt          0.0734
_diffrn_radiation_probe          x-ray
_symmetry_cell_setting           monoclinic
_symmetry_space_group_name_H-M   'C 2/c'
_symmetry_Int_Tables_number      15
loop_
_symmetry_equiv_pos_site_id
_symmetry_equiv_pos_as_xyz
1 x,y,z
2 -x,y,1/2-z
3 1/2+x,1/2+y,z
4 1/2-x,1/2+y,1/2-z
5 -x,-y,-z
6 x,-y,1/2+z
7 1/2-x,1/2-y,-z
8 1/2+x,1/2-y,1/2+z
_cell_length_a                   34.3058(13)
_cell_length_b                   33.6615(13)
_cell_length_c                   20.9080(7)
_cell_angle_alpha                90
_cell_angle_beta                 116.853(2)
_cell_angle_gamma                90
_cell_volume                     21540.7
_exptl_crystal_colour            colorless
_exptl_crystal_description       rod
_cell_formula_units_Z            16
loop_
_atom_site_label
_atom_site_type_symbol
_atom_site_fract_x
_atom_site_fract_y
_atom_site_fract_z
C8 C 0.09320(12) 0.83432(10) 0.91517(18)
H1 H 0.1030 0.8424 0.9646
H2 H 0.0856 0.8064 0.9116
C9 C 0.05324(13) 0.85784(10) 0.86791(19)
H3 H 0.0477 0.8551 0.8183
H4 H 0.0281 0.8475 0.8722
C10 C 0.05767(10) 0.92492(10) 0.84235(17)
H5 H 0.0529 0.9162 0.7972
C11 C 0.06322(10) 0.96755(9) 0.85850(16)
C12 C 0.05536(10) 0.99477(9) 0.80362(17)
H6 H 0.0475 0.9856 0.7574
C13 C 0.05918(10) 1.03543(9) 0.81727(17)
C14 C 0.07117(10) 1.04875(10) 0.88697(17)
H7 H 0.0734 1.0759 0.8966
C15 C 0.07982(10) 1.02164(10) 0.94192(17)
H8 H 0.0883 1.0307 0.9883
C16 C 0.07591(10) 0.98147(10) 0.92820(17)
H9 H 0.0817 0.9636 0.9653
C17 C 0.04961(10) 1.06374(10) 0.76045(17)
C18 C 0.04005(10) 1.08801(10) 0.71406(17)
C19 C 0.02659(10) 1.11735(10) 0.65906(17)
C20 C 0.03325(10) 1.15784(10) 0.67723(16)
H10 H 0.0468 1.1652 0.7253
C21 C 0.02003(10) 1.18688(9) 0.62486(16)
C22 C -0.00057(11) 1.17577(10) 0.55231(17)
H11 H -0.0099 1.1951 0.5166
C23 C -0.00699(11) 1.13577(10) 0.53414(17)
H12 H -0.0205 1.1282 0.4862
C24 C 0.00665(11) 1.10719(10) 0.58716(17)
H13 H 0.0023 1.0805 0.5743
C25 C 0.02758(11) 1.22906(10) 0.64504(17)
H14 H 0.0409 1.2356 0.6935
C26 C 0.02560(13) 1.29764(10) 0.62435(19)
H15 H 0.0433 1.2981 0.6759
H16 H -0.0017 1.3112 0.6131
C27 C 0.04943(13) 1.31890(10) 0.58850(19)
H17 H 0.0343 1.3139 0.5373
H18 H 0.0485 1.3473 0.5958
C28 C 0.12412(12) 1.32998(10) 0.67756(17)
H19 H 0.1079 1.3404 0.7017
H20 H 0.1350 1.3523 0.6611
C29 C 0.16247(11) 1.30566(9) 0.73031(17)
H21 H 0.1748 1.2901 0.7047
H22 H 0.1850 1.3232 0.7634
C30 C 0.15302(10) 1.24242(9) 0.76653(15)
H23 H 0.1665 1.2336 0.7393
C31 C 0.13926(10) 1.21287(9) 0.80386(15)
C32 C 0.15050(10) 1.17338(9) 0.80385(15)
H24 H 0.1662 1.1659 0.7794
C33 C 0.13859(10) 1.14458(9) 0.84000(15)
C34 C 0.11462(11) 1.15612(10) 0.87485(16)
H25 H 0.1062 1.1372 0.8986
C35 C 0.10290(12) 1.19530(10) 0.87515(17)
H26 H 0.0866 1.2026 0.8987
C36 C 0.11558(11) 1.22371(9) 0.84027(16)
H27 H 0.1082 1.2502 0.8412
C37 C 0.15338(10) 1.10438(10) 0.84303(16)
C38 C 0.16705(10) 1.07136(10) 0.84755(15)
C39 C 0.18719(10) 1.03287(9) 0.85855(15)
C40 C 0.17350(10) 1.00178(9) 0.88825(15)
H28 H 0.1495 1.0055 0.8970
C41 C 0.19526(10) 0.96539(9) 0.90489(15)
C42 C 0.23102(11) 0.96024(10) 0.89064(17)
H29 H 0.2458 0.9361 0.9012
C43 C 0.24462(12) 0.99053(11) 0.86105(18)
H30 H 0.2683 0.9867 0.8516
C44 C 0.22299(11) 1.02658(10) 0.84551(16)
H31 H 0.2326 1.0469 0.8260
C45 C 0.18208(11) 0.93454(9) 0.94049(15)
H32 H 0.1580 0.9392 0.9488
C46 C 0.18725(12) 0.87460(10) 0.99867(18)
H33 H 0.1635 0.8866 1.0049
H34 H 0.2110 0.8694 1.0458
C47 C 0.17181(12) 0.83557(10) 0.95750(17)
H35 H 0.1928 0.8270 0.9410
H36 H 0.1705 0.8153 0.9894
C48 C 0.12441(13) 0.81237(10) 0.83825(18)
H37 H 0.0938 0.8062 0.8090
H38 H 0.1397 0.7878 0.8589
C49 C 0.14307(13) 0.83062(10) 0.79175(18)
H39 H 0.1711 0.8428 0.8219
H40 H 0.1477 0.8100 0.7635
C50 C 0.12730(11) 0.89525(9) 0.74534(16)
H41 H 0.1561 0.9015 0.7768
C51 C 0.09889(11) 0.92620(9) 0.69768(16)
C52 C 0.11549(11) 0.96360(9) 0.69716(16)
H42 H 0.1445 0.9691 0.7283
C53 C 0.08940(11) 0.99324(9) 0.65060(16)
C54 C 0.04571(11) 0.98461(9) 0.60469(17)
H43 H 0.0278 1.0040 0.5736
C55 C 0.02896(11) 0.94740(9) 0.60526(17)
H44 H -0.0001 0.9418 0.5746
C56 C 0.05524(11) 0.91852(10) 0.65122(16)
H45 H 0.0437 0.8935 0.6512
C57 C 0.10727(11) 1.03133(10) 0.65000(17)
C58 C 0.12225(11) 1.06348(10) 0.64980(16)
C59 C 0.14295(10) 1.10097(9) 0.65153(16)
C60 C 0.11918(10) 1.13458(9) 0.61756(15)
H46 H 0.0888 1.1333 0.5944
C61 C 0.13981(11) 1.16990(9) 0.61754(15)
C62 C 0.18560(11) 1.17168(9) 0.65307(16)
H47 H 0.1998 1.1952 0.6531
C63 C 0.20977(11) 1.13856(9) 0.68809(16)
H48 H 0.2401 1.1399 0.7121
C64 C 0.18844(11) 1.10343(9) 0.68714(16)
H49 H 0.2047 1.0812 0.7106
C65 C 0.11323(12) 1.20393(10) 0.57766(16)
H50 H 0.0830 1.2024 0.5598
C66 C 0.09968(14) 1.26579(9) 0.52160(17)
H51 H 0.0699 1.2579 0.5090
H52 H 0.1025 1.2685 0.4776
C67 C 0.10920(15) 1.30518(10) 0.56020(19)
H53 H 0.1404 1.3102 0.5816
H54 H 0.0947 1.3261 0.5257
N1 N 0.12881(10) 0.83971(8) 0.89594(14)
N2 N 0.05920(10) 0.89980(8) 0.88804(15)
N3 N 0.20190(9) 0.90180(8) 0.96042(14)
N4 N 0.11355(10) 0.86024(8) 0.74467(14)
N5 N 0.09483(10) 1.30645(8) 0.61585(14)
N6 N 0.01675(10) 1.25668(8) 0.59968(14)
N7 N 0.12972(10) 1.23544(8) 0.56654(14)
N8 N 0.14726(9) 1.27928(8) 0.76983(13)
C68 C -0.18462(13) 0.36381(11) 0.4334(2)
H55 H -0.1632 0.3677 0.4829
H56 H -0.2134 0.3681 0.4304
C69 C -0.17688(12) 0.39444(11) 0.3867(2)
H57 H -0.1928 0.3869 0.3367
H58 H -0.1875 0.4202 0.3927
C70 C -0.11851(12) 0.39130(9) 0.35876(18)
H59 H -0.1396 0.3859 0.3123
C71 C -0.07210(12) 0.39285(9) 0.37381(17)
C72 C -0.06088(12) 0.38890(9) 0.31822(18)
H60 H -0.0827 0.3850 0.2717
C73 C -0.01722(13) 0.39064(9) 0.33094(17)
C74 C 0.01537(12) 0.39581(9) 0.40100(18)
H61 H 0.0446 0.3962 0.4105
C75 C 0.00398(12) 0.40031(9) 0.45651(18)
H62 H 0.0257 0.4044 0.5030
C76 C -0.03895(12) 0.39875(9) 0.44346(17)
H63 H -0.0461 0.4016 0.4812
C77 C -0.00542(12) 0.38755(9) 0.27365(18)
C78 C -0.22367(12) 0.30849(11) 0.35638(19)
H64 H -0.2411 0.3309 0.3292
H65 H -0.2396 0.2953 0.3786
C79 C -0.21735(12) 0.27984(11) 0.30592(18)
H66 H -0.1949 0.2607 0.3333
H67 H -0.2443 0.2655 0.2780
C80 C -0.16947(11) 0.29226(10) 0.25654(16)
H68 H -0.1527 0.2717 0.2857
C81 C -0.15437(11) 0.31264(9) 0.20987(16)
C82 C -0.11638(11) 0.29974(9) 0.20823(16)
H69 H -0.1009 0.2786 0.2370
C83 C -0.10121(11) 0.31819(9) 0.16389(16)
C84 C -0.12499(11) 0.35041(10) 0.12134(17)
H70 H -0.1154 0.3629 0.0913
C85 C -0.16204(12) 0.36353(10) 0.12359(18)
H71 H -0.1771 0.3853 0.0960
C86 C -0.17738(11) 0.34461(10) 0.16691(17)
H72 H -0.2030 0.3533 0.1673
C87 C -0.06310(11) 0.30330(9) 0.16018(16)
C88 C -0.03267(11) 0.28959(9) 0.15502(15)
C89 C 0.00175(10) 0.27094(9) 0.14486(15)
C90 C 0.02222(10) 0.29001(9) 0.10885(15)
H73 H 0.0152 0.3163 0.0945
C91 C 0.05271(10) 0.27059(9) 0.09427(15)
C92 C 0.06417(10) 0.23174(9) 0.11751(16)
H74 H 0.0850 0.2186 0.1085
C93 C 0.04467(11) 0.21253(10) 0.15405(17)
H75 H 0.0524 0.1865 0.1695
C94 C 0.01367(11) 0.23193(9) 0.16772(16)
H76 H 0.0007 0.2188 0.1923
C95 C 0.07172(11) 0.29090(10) 0.05271(16)
H77 H 0.0642 0.3172 0.0394
C96 C 0.11349(12) 0.29629(12) -0.00887(18)
H78 H 0.1029 0.3234 -0.0139
H79 H 0.1022 0.2847 -0.0563
C97 C -0.16290(12) 0.29627(12) 0.47400(18)
H80 H -0.1734 0.2695 0.4585
H81 H -0.1726 0.3043 0.5090
N9 N -0.18170(9) 0.32303(8) 0.41247(14)
N10 N -0.13034(10) 0.39704(8) 0.40678(15)
N11 N -0.20472(9) 0.30174(8) 0.25842(15)
N12 N 0.09803(9) 0.27369(8) 0.03440(14)
C68A C 0.18462 0.36381 0.0666
H55A H 0.1632 0.3677 0.0171
H56A H 0.2134 0.3681 0.0696
C69A C 0.17688 0.39444 0.1133
H57A H 0.1928 0.3869 0.1633
H58A H 0.1875 0.4202 0.1073
C70A C 0.11851 0.3913 0.14124
H59A H 0.1396 0.3859 0.1877
C71A C 0.0721 0.39285 0.12619
C72A C 0.06088 0.3889 0.18178
H60A H 0.0827 0.385 0.2283
C73A C 0.01722 0.39064 0.16906
C74A C -0.01537 0.39581 0.099
H61A H -0.0446 0.3962 0.0895
C75A C -0.00398 0.40031 0.04349
H62A H -0.0257 0.4044 -0.003
C76A C 0.03895 0.39875 0.05654
H63A H 0.0461 0.4016 0.0188
C77A C 0.00542 0.38755 0.22635
C78A C 0.22367 0.30849 0.14362
H64A H 0.2411 0.3309 0.1708
H65A H 0.2396 0.2953 0.1214
C79A C 0.21735 0.27984 0.19408
H66A H 0.1949 0.2607 0.1667
H67A H 0.2443 0.2655 0.222
C80A C 0.16947 0.29226 0.24346
H68A H 0.1527 0.2717 0.2143
C81A C 0.15437 0.31264 0.29013
C82A C 0.11638 0.29974 0.29177
H69A H 0.1009 0.2786 0.263
C83A C 0.10121 0.31819 0.33611
C84A C 0.12499 0.35041 0.37866
H70A H 0.1154 0.3629 0.4087
C85A C 0.16204 0.36353 0.37641
H71A H 0.1771 0.3853 0.404
C86A C 0.17738 0.34461 0.33309
H72A H 0.203 0.3533 0.3327
C87A C 0.0631 0.3033 0.33982
C88A C 0.03267 0.28959 0.34498
C89A C -0.00175 0.27094 0.35514
C90A C -0.02222 0.29001 0.39115
H73A H -0.0152 0.3163 0.4055
C91A C -0.05271 0.27059 0.40573
C92A C -0.06417 0.23174 0.38249
H74A H -0.085 0.2186 0.3915
C93A C -0.04467 0.21253 0.34595
H75A H -0.0524 0.1865 0.3305
C94A C -0.01367 0.23193 0.33228
H76A H -0.0007 0.2188 0.3077
C95A C -0.07172 0.2909 0.44729
H77A H -0.0642 0.3172 0.4606
C96A C -0.11349 0.29629 0.50887
H78A H -0.1029 0.3234 0.5139
H79A H -0.1022 0.2847 0.5563
C97A C 0.1629 0.29627 0.026
H80A H 0.1734 0.2695 0.0415
H81A H 0.1726 0.3043 -0.009
N9A N 0.1817 0.32303 0.08753
N10A N 0.13034 0.39704 0.09322
N11A N 0.20472 0.30174 0.24158
N12A N -0.09803 0.27369 0.4656
C98 C 0.27464(12) 0.54384(12) 0.31406(18)
H82 H 0.2741 0.5199 0.2878
H83 H 0.3036 0.5554 0.3321
C99 C 0.24153(10) 0.57283(11) 0.26397(18)
H84 H 0.2371 0.5940 0.2914
H85 H 0.2523 0.5845 0.2326
C100 C 0.16673(10) 0.56432(9) 0.22611(15)
H86 H 0.1693 0.5847 0.2578
C101 C 0.12353(10) 0.54641(9) 0.18288(15)
C102 C 0.08685(10) 0.56272(9) 0.18448(15)
H87 H 0.0899 0.5842 0.2143
C103 C 0.04516(10) 0.54706(9) 0.14142(15)
C104 C 0.04108(11) 0.51428(9) 0.09788(16)
H88 H 0.0137 0.5034 0.0696
C105 C 0.07792(11) 0.49790(9) 0.09688(17)
H89 H 0.0750 0.4761 0.0678
C106 C 0.11868(11) 0.51364(9) 0.13843(16)
H90 H 0.1431 0.5025 0.1371
C107 C 0.00722(11) 0.56503(9) 0.14164(16)
C108 C -0.02443(11) 0.57979(10) 0.14144(16)
C109 C -0.06215(10) 0.59775(9) 0.14249(16)
C110 C -0.05913(11) 0.63500(9) 0.17270(16)
H91 H -0.0326 0.6484 0.1923
C111 C -0.09540(10) 0.65244(9) 0.17397(16)
H92 H -0.0929 0.6774 0.1946
C112 C -0.13481(10) 0.63319(9) 0.14499(15)
H93 H -0.1589 0.6451 0.1462
C113 C -0.13894(10) 0.59578(9) 0.11356(15)
C114 C -0.10250(10) 0.57849(9) 0.11290(16)
H94 H -0.1050 0.5535 0.0923
C115 C -0.18098(11) 0.57497(10) 0.07830(16)
H95 H -0.1812 0.5493 0.0615
C116 C -0.25678(11) 0.56717(11) 0.02790(17)
H96 H -0.2491 0.5410 0.0176
H97 H -0.2740 0.5805 -0.0174
C117 C 0.28190(13) 0.49299(12) 0.4013(2)
H98 H 0.2896 0.4916 0.4520
H99 H 0.3080 0.4876 0.3960
C118 C 0.24797(13) 0.46171(12) 0.3617(2)
H100 H 0.2353 0.4666 0.3105
H101 H 0.2615 0.4357 0.3712
C119 C 0.17524(12) 0.47031(10) 0.33968(19)
H102 H 0.1691 0.4744 0.2921
C120 C 0.13954(12) 0.47242(9) 0.36014(19)
C121 C 0.09715(12) 0.47820(10) 0.3085(2)
H103 H 0.0913 0.4808 0.2608
C122 C 0.06267(13) 0.48020(10) 0.3271(2)
C123 C 0.07212(16) 0.47640(10) 0.3989(3)
H104 H 0.0497 0.4781 0.4122
C124 C 0.11451(16) 0.47012(11) 0.4506(2)
H105 H 0.1203 0.4672 0.4983
C125 C 0.14827(14) 0.46820(10) 0.4320(2)
H106 H 0.1768 0.4641 0.4672
C126 C 0.01868(13) 0.48446(10) 0.2728(3)
C127 C 0.28388(11) 0.56282(12) 0.43159(18)
H107 H 0.2853 0.5883 0.4111
H108 H 0.3134 0.5553 0.4650
N13 N 0.26616(9) 0.53336(9) 0.37458(14)
N14 N 0.21396(10) 0.46306(9) 0.38531(16)
N15 N 0.20044(9) 0.55285(9) 0.22140(14)
N16 N -0.21702(9) 0.58983(8) 0.06934(13)
C98A C -0.27464 0.54384 0.18594
H82A H -0.2741 0.5199 0.2122
H83A H -0.3036 0.5554 0.1679
C99A C -0.24153 0.57283 0.23603
H84A H -0.2371 0.594 0.2086
H85A H -0.2523 0.5845 0.2674
C100A C -0.16673 0.56432 0.27389
H86A H -0.1693 0.5847 0.2422
C101A C -0.12353 0.54641 0.31712
C102A C -0.08685 0.56272 0.31552
H87A H -0.0899 0.5842 0.2857
C103A C -0.04516 0.54706 0.35858
C104A C -0.04108 0.51428 0.40212
H88A H -0.0137 0.5034 0.4304
C105A C -0.07792 0.4979 0.40312
H89A H -0.075 0.4761 0.4322
C106A C -0.11868 0.51364 0.36157
H90A H -0.1431 0.5025 0.3629
C107A C -0.00722 0.56503 0.35836
C108A C 0.02443 0.57979 0.35856
C109A C 0.06215 0.59775 0.35751
C110A C 0.05913 0.635 0.3273
H91A H 0.0326 0.6484 0.3077
C111A C 0.0954 0.65244 0.32603
H92A H 0.0929 0.6774 0.3054
C112A C 0.13481 0.63319 0.35501
H93A H 0.1589 0.6451 0.3538
C113A C 0.13894 0.59578 0.38644
C114A C 0.1025 0.57849 0.3871
H94A H 0.105 0.5535 0.4077
C115A C 0.18098 0.57497 0.4217
H95A H 0.1812 0.5493 0.4385
C116A C 0.25678 0.56717 0.4721
H96A H 0.2491 0.541 0.4824
H97A H 0.274 0.5805 0.5174
C117A C -0.2819 0.49299 0.0987
H98A H -0.2896 0.4916 0.048
H99A H -0.308 0.4876 0.104
C118A C -0.24797 0.46171 0.1383
H100A H -0.2353 0.4666 0.1895
H101A H -0.2615 0.4357 0.1288
C119A C -0.17524 0.47031 0.16032
H102A H -0.1691 0.4744 0.2079
C120A C -0.13954 0.47242 0.13986
C121A C -0.09715 0.4782 0.1915
H103A H -0.0913 0.4808 0.2392
C122A C -0.06267 0.4802 0.1729
C123A C -0.07212 0.4764 0.1011
H104A H -0.0497 0.4781 0.0878
C124A C -0.11451 0.47012 0.0494
H105A H -0.1203 0.4672 0.0017
C125A C -0.14827 0.4682 0.068
H106A H -0.1768 0.4641 0.0328
C126A C -0.01868 0.48446 0.2272
C127A C -0.28388 0.56282 0.06841
H107A H -0.2853 0.5883 0.0889
H108A H -0.3134 0.5553 0.035
N13A N -0.26616 0.53336 0.12542
N14A N -0.21396 0.46306 0.11469
N15A N -0.20044 0.55285 0.2786
N16A N 0.21702 0.58983 0.43066

#END

