
#######################################################################
#
#                 Cambridge Crystallographic Data Centre
#                                CCDC 
#
#######################################################################
#
# If this CIF has been generated directly or indirectly from an entry in the 
# Cambridge Structural Database, then it will include bibliographic, chemical, 
# crystal, experimental, refinement or atomic coordinate data resulting from 
# the CCDC's data processing and validation procedures. Files generated from 
# CSD entries are Copyright 2015 Cambridge Crystallographic Data Centre. They 
# may be used in bona fide research applications only, and may not be copied or 
# further disseminated in any form, whether machine-readable or not, except for 
# the purposes of generating routine backup copies on your local computer 
# system.
# 
# Files arising from any other source may also contain material that is the 
# copyright of third parties, including the originator, and you should check 
# with the originator concerning the permitted uses of the information 
# contained in this CIF.
#
# For further information on the CCDC and the free tools enCIFer and Mercury
# for validating and visualising CIF files, please visit www.ccdc.cam.ac.uk
#
#######################################################################

data_TOBGOI
_audit_creation_date             2014-02-20
_database_code_depnum_ccdc_archive 'CCDC 957158'
_chemical_formula_moiety         'C60 H54 N8 O6,2(C2 H3 N1),H2 O1'
_chemical_name_systematic        
'1,4,19,22,25,40,45,60-Octa-azaoctacyclo[20.20.20.1^6,10^.1^13,17^.1^27,31^.1^34,38^.1^47,51^.1^54,58^]octahexaconta-4,6(68),7,9,13(67),14,16,18,25,27(66),28,30,34(65),35,37,39,45,47(64),48,50,54(63),55,57,59-tetracosaene-11,32,52-triyne-7,16,28,37,48,57-hexol acetonitrile solvate monohydrate'
_journal_coden_Cambridge         1220
_journal_volume                  20
_journal_year                    2014
_journal_page_first              1646
_journal_name_full               Chem.-Eur.J.
loop_
_publ_author_name
P.Mukherjee
K.Acharyya
_chemical_absolute_configuration unk
_diffrn_ambient_temperature      100
_exptl_crystal_density_meas      1.278
_exptl_crystal_density_diffrn    1.288
#These two values have been output from a single CSD field.
_refine_ls_R_factor_gt           0.0778
_refine_ls_wR_factor_gt          0.0778
_diffrn_radiation_probe          x-ray
_symmetry_cell_setting           monoclinic
_symmetry_space_group_name_H-M   'P 21/c'
_symmetry_Int_Tables_number      14
loop_
_symmetry_equiv_pos_site_id
_symmetry_equiv_pos_as_xyz
1 x,y,z
2 -x,1/2+y,1/2-z
3 -x,-y,-z
4 x,1/2-y,1/2+z
_cell_length_a                   17.861(6)
_cell_length_b                   17.674(5)
_cell_length_c                   19.284(6)
_cell_angle_alpha                90
_cell_angle_beta                 113.396(11)
_cell_angle_gamma                90
_cell_volume                     5586.98
_exptl_crystal_colour            yellow
_exptl_crystal_description       block
_cell_formula_units_Z            4
loop_
_atom_site_label
_atom_site_type_symbol
_atom_site_fract_x
_atom_site_fract_y
_atom_site_fract_z
C3 C 0.7012(3) 0.5575(3) 1.3672(3)
H1 H 0.7425 0.5956 1.3911
H2 H 0.7147 0.5130 1.3992
C4 C 0.6187(3) 0.5873(3) 1.3591(3)
H3 H 0.5765 0.5522 1.3292
H4 H 0.6170 0.5915 1.4086
C5 C 0.5377(3) 0.6711(3) 1.2647(3)
H5 H 0.5002 0.6318 1.2470
C6 C 0.5205(3) 0.7445(3) 1.2252(3)
C7 C 0.5787(3) 0.8032(3) 1.2486(3)
C8 C 0.5610(3) 0.8719(3) 1.2107(3)
H6 H 0.5993 0.9107 1.2254
C9 C 0.4869(3) 0.8828(3) 1.1515(3)
H7 H 0.4760 0.9292 1.1266
C10 C 0.4277(3) 0.8262(3) 1.1278(3)
C11 C 0.4461(3) 0.7570(3) 1.1647(3)
H8 H 0.4080 0.7181 1.1488
C12 C 0.3492(4) 0.8395(3) 1.0685(3)
C13 C 0.2828(4) 0.8527(3) 1.0203(3)
C14 C 0.2017(3) 0.8674(3) 0.9667(3)
C15 C 0.1407(4) 0.8145(3) 0.9536(3)
H9 H 0.1536 0.7680 0.9781
C16 C 0.0616(4) 0.8286(3) 0.9052(3)
H10 H 0.0217 0.7920 0.8980
C17 C 0.0403(3) 0.8973(3) 0.8667(3)
C18 C 0.1009(3) 0.9521(3) 0.8789(3)
C19 C 0.1807(3) 0.9360(3) 0.9286(3)
H11 H 0.2211 0.9721 0.9365
C20 C 0.0801(4) 1.0256(3) 0.8400(3)
H12 H 0.1207 1.0610 0.8461
C21 C -0.0155(4) 1.1135(3) 0.7589(3)
H13 H 0.0337 1.1413 0.7657
H14 H -0.0471 1.1432 0.7799
C22 C -0.0648(4) 1.0996(3) 0.6758(3)
H15 H -0.1081 1.0638 0.6698
H16 H -0.0897 1.1466 0.6517
C23 C 0.0316(4) 1.1293(3) 0.6186(3)
H17 H 0.0408 1.1711 0.6537
H18 H -0.0014 1.1478 0.5683
C24 C 0.1124(4) 1.1020(3) 0.6207(3)
H19 H 0.1050 1.0540 0.5945
H20 H 0.1333 1.1382 0.5949
C25 C 0.2083(3) 1.0304(3) 0.7203(3)
H21 H 0.1967 0.9905 0.6862
C26 C 0.2683(3) 1.0197(3) 0.7971(3)
C27 C 0.2864(3) 1.0791(3) 0.8503(3)
C28 C 0.3447(3) 1.0695(3) 0.9232(3)
H22 H 0.3555 1.1081 0.9587
C29 C 0.3863(3) 1.0018(3) 0.9423(3)
H23 H 0.4250 0.9951 0.9913
C30 C 0.3718(3) 0.9431(3) 0.8899(3)
C31 C 0.3130(3) 0.9530(3) 0.8184(3)
H24 H 0.3027 0.9141 0.7834
C32 C 0.4204(3) 0.8754(3) 0.9129(3)
C33 C 0.4643(3) 0.8217(3) 0.9345(3)
C34 C 0.5197(3) 0.7595(3) 0.9627(3)
C35 C 0.5657(3) 0.7498(3) 1.0394(3)
H25 H 0.5579 0.7831 1.0732
C36 C 0.6223(3) 0.6931(3) 1.0673(3)
C37 C 0.6341(3) 0.6419(3) 1.0164(3)
C38 C 0.5871(4) 0.6489(3) 0.9399(3)
H26 H 0.5930 0.6145 0.9059
C39 C 0.5316(3) 0.7070(3) 0.9142(3)
H27 H 0.5009 0.7113 0.8625
C40 C 0.6719(3) 0.6872(3) 1.1477(3)
H28 H 0.6634 0.7216 1.1804
C41 C 0.7777(3) 0.6351(3) 1.2560(3)
H29 H 0.7563 0.6705 1.2819
H30 H 0.8327 0.6505 1.2645
C42 C 0.7793(3) 0.5561(3) 1.2876(3)
H31 H 0.7898 0.5194 1.2552
H32 H 0.8231 0.5527 1.3374
C43 C 0.6750(3) 0.4599(3) 1.2716(3)
H33 H 0.6405 0.4437 1.2969
H34 H 0.7225 0.4272 1.2879
C44 C 0.6284(3) 0.4523(3) 1.1865(3)
H35 H 0.6590 0.4762 1.1607
H36 H 0.6218 0.3992 1.1727
C45 C 0.5222(3) 0.5297(3) 1.1047(3)
H37 H 0.5556 0.5393 1.0790
C46 C 0.4405(3) 0.5626(3) 1.0772(2)
C47 C 0.3880(3) 0.5490(2) 1.1143(2)
C48 C 0.3101(3) 0.5777(2) 1.0865(2)
H38 H 0.2762 0.5684 1.1117
C49 C 0.2823(3) 0.6205(3) 1.0214(3)
H39 H 0.2295 0.6397 1.0030
C50 C 0.3326(3) 0.6353(2) 0.9825(2)
C51 C 0.4112(3) 0.6060(2) 1.0114(2)
H40 H 0.4452 0.6156 0.9863
C52 C 0.3005(3) 0.6791(3) 0.9137(3)
C53 C 0.2696(3) 0.7137(3) 0.8559(3)
C54 C 0.2326(3) 0.7514(2) 0.7844(2)
C55 C 0.1605(3) 0.7925(3) 0.7659(3)
H41 H 0.1371 0.7968 0.8009
C56 C 0.1230(3) 0.8273(3) 0.6951(3)
C57 C 0.1581(3) 0.8198(3) 0.6420(3)
C58 C 0.2293(3) 0.7783(3) 0.6600(3)
H42 H 0.2519 0.7726 0.6244
C59 C 0.2668(3) 0.7453(2) 0.7306(3)
H43 H 0.3153 0.7188 0.7424
C60 C 0.0473(3) 0.8696(3) 0.6765(3)
H44 H 0.0247 0.8735 0.7122
C61 C -0.0655(3) 0.9404(3) 0.5959(3)
H45 H -0.0787 0.9392 0.6401
H46 H -0.1088 0.9147 0.5551
C62 C -0.0599(4) 1.0223(3) 0.5736(3)
H47 H -0.0347 1.0237 0.5373
H48 H -0.1145 1.0430 0.5492
N2 N 0.7011(3) 0.5379(2) 1.2930(2)
N3 N 0.6037(3) 0.6607(2) 1.3228(2)
N4 N 0.7268(3) 0.6363(2) 1.1751(2)
N5 N 0.5482(3) 0.4881(2) 1.1632(2)
N6 N -0.0127(3) 1.0694(2) 0.6385(2)
N7 N 0.0059(3) 1.0403(2) 0.7977(2)
N8 N 0.1711(3) 1.0930(2) 0.6986(2)
N9 N 0.0117(2) 0.9012(2) 0.6125(2)
O1 O 0.4133(2) 0.50750(17) 1.17892(16)
H49 H 0.4604 0.4935 1.1900
O2 O 0.2467(2) 1.14606(18) 0.83229(18)
H50 H 0.2141 1.1451 0.7881
O3 O 0.1246(2) 0.85159(18) 0.57286(16)
H51 H 0.0831 0.8745 0.5686
O4 O 0.6512(2) 0.79443(19) 1.30677(18)
H52 H 0.6542 0.7517 1.3243
O5 O -0.0375(2) 0.9102(2) 0.82023(19)
H53 H -0.0414 0.9525 0.8015
O6 O 0.6907(2) 0.58629(19) 1.0403(2)
H54 H 0.7143 0.5882 1.0865

#END

