
#######################################################################
#
#                 Cambridge Crystallographic Data Centre
#                                CCDC 
#
#######################################################################
#
# If this CIF has been generated directly or indirectly from an entry in the 
# Cambridge Structural Database, then it will include bibliographic, chemical, 
# crystal, experimental, refinement or atomic coordinate data resulting from 
# the CCDC's data processing and validation procedures. Files generated from 
# CSD entries are Copyright 2015 Cambridge Crystallographic Data Centre. They 
# may be used in bona fide research applications only, and may not be copied or 
# further disseminated in any form, whether machine-readable or not, except for 
# the purposes of generating routine backup copies on your local computer 
# system.
# 
# Files arising from any other source may also contain material that is the 
# copyright of third parties, including the originator, and you should check 
# with the originator concerning the permitted uses of the information 
# contained in this CIF.
#
# For further information on the CCDC and the free tools enCIFer and Mercury
# for validating and visualising CIF files, please visit www.ccdc.cam.ac.uk
#
#######################################################################

data_VOWTUY
_audit_creation_date             2015-02-11
_database_code_depnum_ccdc_archive 'CCDC 1042072'
_chemical_formula_moiety         'C54 H54 N8,C1 H1 Cl3'
_chemical_name_systematic        
'1,4,16,19,22,34,39,51-octaazaoctacyclo[17.17.17.2^6,9^.2^24,27^.2^41,44^.1^10,14^.1^28,32^.1^45,49^]dohexaconta-4,6,8,10(60),11,13,15,22,24,26,28(57),29,31,33,39,41,43,45(54),46,48,50,55,58,61-tetracosaene chloroform solvate'
_journal_coden_Cambridge         182
_journal_volume                  51
_journal_year                    2015
_journal_page_first              4241
_journal_name_full               Chem.Commun.
loop_
_publ_author_name
K.Acharyya
P.S.Mukherjee
_chemical_absolute_configuration unk
_diffrn_ambient_temperature      100
_exptl_crystal_density_meas      1.293
_exptl_crystal_density_diffrn    1.293
#These two values have been output from a single CSD field.
_refine_ls_R_factor_gt           0.0662
_refine_ls_wR_factor_gt          0.0662
_diffrn_radiation_probe          x-ray
_symmetry_cell_setting           triclinic
_symmetry_space_group_name_H-M   'P -1'
_symmetry_Int_Tables_number      2
loop_
_symmetry_equiv_pos_site_id
_symmetry_equiv_pos_as_xyz
1 x,y,z
2 -x,-y,-z
_cell_length_a                   10.6574(14)
_cell_length_b                   14.7322(19)
_cell_length_c                   17.013(2)
_cell_angle_alpha                66.539(4)
_cell_angle_beta                 80.163(4)
_cell_angle_gamma                80.329(4)
_cell_volume                     2399.5
_exptl_crystal_colour            colorless
_exptl_crystal_description       rod
_cell_formula_units_Z            2
loop_
_atom_site_label
_atom_site_type_symbol
_atom_site_fract_x
_atom_site_fract_y
_atom_site_fract_z
C1 C -0.2762(3) 0.4719(2) 0.2649(2)
H1 H -0.3409 0.4426 0.2517
H2 H -0.2079 0.4197 0.2874
C2 C -0.2230(3) 0.5521(2) 0.1827(2)
H3 H -0.2060 0.5281 0.1361
H4 H -0.2851 0.6107 0.1666
C3 C -0.0930(3) 0.6669(2) 0.18033(19)
H5 H -0.1603 0.7161 0.1608
C4 C 0.0275(3) 0.6940(2) 0.19185(19)
C5 C 0.1157(3) 0.6188(2) 0.23911(19)
H6 H 0.0947 0.5539 0.2677
C6 C 0.2342(3) 0.6418(2) 0.2428(2)
H7 H 0.2931 0.5920 0.2741
C7 C 0.2665(3) 0.7380(2) 0.2006(2)
H8 H 0.3479 0.7515 0.2023
C8 C 0.1785(3) 0.8153(2) 0.15529(19)
C9 C 0.0586(3) 0.7911(2) 0.15186(19)
H9 H -0.0016 0.8411 0.1222
C10 C 0.2130(3) 0.9188(2) 0.11341(19)
C11 C 0.3415(3) 0.9383(2) 0.09539(19)
H10 H 0.4060 0.8853 0.1047
C12 C 0.3738(3) 1.0335(2) 0.06437(19)
H11 H 0.4597 1.0440 0.0550
C13 C 0.2793(3) 1.1152(2) 0.04662(19)
C14 C 0.1515(3) 1.0970(2) 0.0597(2)
H12 H 0.0874 1.1502 0.0456
C15 C 0.1192(3) 1.0006(2) 0.0935(2)
H13 H 0.0334 0.9900 0.1031
C16 C 0.3117(3) 1.2177(2) 0.01826(19)
H14 H 0.2457 1.2695 0.0100
C17 C 0.4458(3) 1.3407(2) -0.0162(2)
H15 H 0.3669 1.3835 -0.0323
H16 H 0.5115 1.3614 -0.0648
C18 C 0.4858(3) 1.3509(2) 0.0608(2)
H17 H 0.5553 1.2996 0.0827
H18 H 0.5178 1.4149 0.0423
C19 C 0.2963(3) 1.4360(2) 0.1136(2)
H19 H 0.2911 1.4685 0.0521
H20 H 0.3331 1.4797 0.1314
C20 C 0.1623(3) 1.4209(2) 0.1602(2)
H21 H 0.1676 1.3720 0.2185
H22 H 0.1205 1.4830 0.1639
C21 C 0.0245(3) 1.3138(2) 0.1594(2)
H23 H 0.0336 1.2808 0.2178
C22 C -0.0620(3) 1.2782(2) 0.1209(2)
C23 C -0.0976(3) 1.3360(2) 0.0390(2)
H24 H -0.0690 1.3983 0.0083
C24 C -0.1759(3) 1.3000(2) 0.0040(2)
H25 H -0.2000 1.3386 -0.0506
C25 C -0.2190(3) 1.2078(2) 0.0485(2)
H26 H -0.2715 1.1851 0.0234
C26 C -0.1847(3) 1.1477(2) 0.13112(19)
C27 C -0.1060(3) 1.1858(2) 0.1658(2)
H27 H -0.0824 1.1478 0.2207
C28 C -0.2307(3) 1.0487(2) 0.17895(19)
C29 C -0.2731(3) 0.9965(2) 0.1369(2)
H28 H -0.2688 1.0236 0.0770
C30 C -0.3206(3) 0.9067(2) 0.18160(19)
H29 H -0.3496 0.8747 0.1518
C31 C -0.3260(3) 0.8627(2) 0.2710(2)
C32 C -0.2805(3) 0.9123(2) 0.3134(2)
H30 H -0.2802 0.8831 0.3729
C33 C -0.2362(3) 1.0038(2) 0.2685(2)
H31 H -0.2093 1.0364 0.2985
C34 C -0.3802(3) 0.7681(2) 0.32213(19)
H32 H -0.3618 0.7343 0.3788
C35 C -0.5013(3) 0.6388(2) 0.3532(2)
H33 H -0.5939 0.6505 0.3628
H34 H -0.4681 0.6178 0.4081
C36 C -0.4638(3) 0.5571(2) 0.3173(2)
H35 H -0.5218 0.5062 0.3453
H36 H -0.4721 0.5850 0.2560
C37 C -0.3273(3) 0.4344(2) 0.4176(2)
H37 H -0.3385 0.3711 0.4161
H38 H -0.3974 0.4500 0.4564
C38 C -0.2018(3) 0.4247(2) 0.4522(2)
H39 H -0.1890 0.3602 0.4987
H40 H -0.1315 0.4291 0.4068
C39 C -0.1292(3) 0.5696(2) 0.4420(2)
H41 H -0.0775 0.5650 0.3935
C40 C -0.1211(3) 0.6538(2) 0.4662(2)
C41 C -0.0356(3) 0.7226(2) 0.4176(2)
H42 H 0.0135 0.7159 0.3691
C42 C -0.0217(3) 0.8019(2) 0.4399(2)
C43 C -0.0977(3) 0.8103(3) 0.5124(2)
H43 H -0.0897 0.8621 0.5288
C44 C -0.1843(3) 0.7436(3) 0.5602(2)
H44 H -0.2351 0.7515 0.6077
C45 C -0.1965(3) 0.6650(3) 0.5385(2)
H45 H -0.2544 0.6196 0.5716
C46 C 0.0731(3) 0.8730(2) 0.39025(19)
C47 C 0.1888(3) 0.8438(2) 0.35009(19)
H46 H 0.2046 0.7790 0.3518
C48 C 0.2803(3) 0.9078(2) 0.30809(19)
H47 H 0.3561 0.8860 0.2814
C49 C 0.2606(3) 1.0053(2) 0.30497(19)
C50 C 0.1430(3) 1.0366(2) 0.3423(2)
H48 H 0.1266 1.1020 0.3389
C51 C 0.0511(3) 0.9726(2) 0.3839(2)
H49 H -0.0264 0.9953 0.4080
C52 C 0.3643(3) 1.0697(2) 0.2688(2)
H50 H 0.4329 1.0534 0.2332
C53 C 0.4743(3) 1.2015(2) 0.2516(2)
H51 H 0.5270 1.1803 0.2082
H52 H 0.5251 1.1872 0.2982
C54 C 0.4339(3) 1.3124(2) 0.2124(2)
H53 H 0.3701 1.3312 0.2528
H54 H 0.5075 1.3479 0.2029
N1 N -0.3329(2) 0.51204(19) 0.33070(16)
N2 N -0.1056(2) 0.5776(2) 0.19681(16)
N3 N 0.4265(3) 1.2378(2) 0.00472(17)
N4 N 0.3812(2) 1.34260(18) 0.13061(16)
N5 N 0.0861(2) 1.3872(2) 0.11590(17)
N6 N -0.4501(2) 0.73073(19) 0.29298(16)
N7 N -0.2028(3) 0.5035(2) 0.48398(18)
N8 N 0.3628(3) 1.1464(2) 0.28468(17)

#END

