
#######################################################################
#
#                 Cambridge Crystallographic Data Centre
#                                CCDC 
#
#######################################################################
#
# If this CIF has been generated directly or indirectly from an entry in the 
# Cambridge Structural Database, then it will include bibliographic, chemical, 
# crystal, experimental, refinement or atomic coordinate data resulting from 
# the CCDC's data processing and validation procedures. Files generated from 
# CSD entries are Copyright 2015 Cambridge Crystallographic Data Centre. They 
# may be used in bona fide research applications only, and may not be copied or 
# further disseminated in any form, whether machine-readable or not, except for 
# the purposes of generating routine backup copies on your local computer 
# system.
# 
# Files arising from any other source may also contain material that is the 
# copyright of third parties, including the originator, and you should check 
# with the originator concerning the permitted uses of the information 
# contained in this CIF.
#
# For further information on the CCDC and the free tools enCIFer and Mercury
# for validating and visualising CIF files, please visit www.ccdc.cam.ac.uk
#
#######################################################################

data_FOMLUQ
_audit_creation_date             2014-11-05
_database_code_depnum_ccdc_archive 'CCDC 1018380'
_chemical_formula_moiety         'C84 H87 N9'
_chemical_name_systematic        
'2,20,22,40,60,65-hexamethyl-11,31,48-triphenyl-5,11,17,25,31,37,42,48,54-nonaazadecacyclo[19.19.15.2^7,10^.2^12,15^.2^27,30^.2^32,35^.2^44,47^.2^49,52^.1^3,39^.1^19,23^]nonahexaconta-1,3(60),7,9,12,14,19(65),20,22,27,29,32,34,39,44,46,49,51,56,58,61,63,66,68-tetracosaene solvate'
_journal_coden_Cambridge         182
_journal_volume                  50
_journal_year                    2014
_journal_page_first              15788
_journal_name_full               Chem.Commun.
loop_
_publ_author_name
K.Acharyya
P.S.Mukherjee
_chemical_absolute_configuration unk
_diffrn_ambient_temperature      100
_exptl_crystal_density_meas      0.963
_exptl_crystal_density_diffrn    0.963
#These two values have been output from a single CSD field.
_refine_ls_R_factor_gt           0.0772
_refine_ls_wR_factor_gt          0.0772
_diffrn_radiation_probe          x-ray
_symmetry_cell_setting           monoclinic
_symmetry_space_group_name_H-M   'C 2/c'
_symmetry_Int_Tables_number      15
loop_
_symmetry_equiv_pos_site_id
_symmetry_equiv_pos_as_xyz
1 x,y,z
2 -x,y,1/2-z
3 1/2+x,1/2+y,z
4 1/2-x,1/2+y,1/2-z
5 -x,-y,-z
6 x,-y,1/2+z
7 1/2-x,1/2-y,-z
8 1/2+x,1/2-y,1/2+z
_cell_length_a                   26.9032(15)
_cell_length_b                   16.3699(8)
_cell_length_c                   19.1527(10)
_cell_angle_alpha                90
_cell_angle_beta                 90.698(3)
_cell_angle_gamma                90
_cell_volume                     8434.27
_exptl_crystal_colour            colorless
_exptl_crystal_description       ROD
_cell_formula_units_Z            4
loop_
_atom_site_label
_atom_site_type_symbol
_atom_site_fract_x
_atom_site_fract_y
_atom_site_fract_z
C1 C 0.65123(13) 0.6812(2) 1.02204(17)
C2 C 0.67646(13) 0.6386(2) 0.97067(17)
C3 C 0.70466(13) 0.6820(2) 0.92104(17)
C4 C 0.70822(13) 0.7659(2) 0.92461(17)
C5 C 0.68124(13) 0.8099(2) 0.97531(18)
C6 C 0.65390(12) 0.7671(2) 1.02509(18)
C7 C 0.62081(15) 0.6359(2) 1.07621(19)
H1 H 0.6114 0.5833 1.0582
H2 H 0.5915 0.6668 1.0865
H3 H 0.6403 0.6291 1.1181
C8 C 0.73153(16) 0.6354(2) 0.86474(19)
H4 H 0.7379 0.6711 0.8261
H5 H 0.7113 0.5905 0.8492
H6 H 0.7625 0.6150 0.8832
C9 C 0.68352(15) 0.9019(2) 0.9741(2)
H7 H 0.6545 0.9238 0.9961
H8 H 0.6847 0.9205 0.9267
H9 H 0.7127 0.9199 0.9989
C10 C 0.62775(13) 0.8109(2) 1.0843(2)
H10 H 0.6361(2) 0.7782(8) 1.1343(12)
H11 H 0.6431(4) 0.8741(15) 1.0890(2)
C11 C 0.55904(16) 0.8810(3) 1.0269(2)
H12 H 0.5749(5) 0.8696(4) 0.9746(14)
H13 H 0.5735(4) 0.9404(16) 1.0463(5)
C12 C 0.50341(15) 0.8841(2) 1.0215(2)
C13 C 0.47785(15) 0.8342(2) 0.9743(2)
H14 H 0.4958 0.8016 0.9438
C14 C 0.42643(14) 0.8317(2) 0.9714(2)
H15 H 0.4102 0.7972 0.9399
C15 C 0.39890(13) 0.8817(2) 1.01623(18)
C16 C 0.42402(14) 0.9335(2) 1.0615(2)
H16 H 0.4062 0.9685 1.0901
C17 C 0.47538(15) 0.9337(2) 1.0645(2)
H17 H 0.4915 0.9680 1.0962
C18 C 0.31618(13) 0.8857(2) 1.07299(17)
C19 C 0.33475(15) 0.8687(2) 1.14016(19)
H18 H 0.3666 0.8474 1.1460
C20 C 0.30557(16) 0.8836(2) 1.19738(19)
H19 H 0.3184 0.8729 1.2417
C21 C 0.25818(19) 0.9139(2) 1.1910(2)
H20 H 0.2394(10) 0.9249(6) 1.230(2)
C22 C 0.23891(16) 0.9277(2) 1.1244(2)
H21 H 0.2065 0.9468 1.1192
C23 C 0.26678(14) 0.9135(2) 1.06659(18)
H22 H 0.2530 0.9224 1.0225
C24 C 0.67750(14) 0.5468(2) 0.96894(19)
H23 H 0.7129(9) 0.5276(5) 0.9542(4)
H24 H 0.67117(19) 0.5246(6) 1.0192(13)
C25 C 0.65109(15) 0.4247(2) 0.9071(2)
H25 H 0.6556(2) 0.3933(9) 0.9560(13)
H26 H 0.6855(9) 0.4201(3) 0.8796(7)
C26 C 0.61064(14) 0.3834(2) 0.8650(2)
C27 C 0.59859(15) 0.4056(3) 0.7971(2)
H27 H 0.6152 0.4489 0.7763
C28 C 0.56234(16) 0.3643(3) 0.7600(2)
H28 H 0.5549 0.3803 0.7145
C29 C 0.53681(14) 0.3000(2) 0.78860(18)
C30 C 0.54892(16) 0.2779(2) 0.8564(2)
H29 H 0.5324 0.2345 0.8773
C31 C 0.58520(16) 0.3193(2) 0.8936(2)
H30 H 0.5926 0.3034 0.9391
C32 C 0.5000 0.1699(3) 0.7500
C33 C 0.45553(17) 0.1270(3) 0.7500(2)
H31 H 0.4254 0.1549 0.7500
C34 C 0.4562(2) 0.0411(3) 0.7498(2)
H32 H 0.4263 0.0126 0.7496
C35 C 0.5000 -0.0016(4) 0.7500
H33 H 0.5000 -0.0585 0.7500
C36 C 0.74147(14) 0.8105(2) 0.87470(17)
H34 H 0.7516(3) 0.8624(14) 0.8955(6)
H35 H 0.7714(8) 0.7780(8) 0.8672(3)
C37 C 0.75149(14) 0.8521(2) 0.75370(18)
H36 H 0.7802(8) 0.8110(10) 0.75095(19)
H37 H 0.7662(4) 0.9079(14) 0.7670(4)
C38 C 0.72596(13) 0.8582(2) 0.68352(17)
C39 C 0.69329(13) 0.9219(2) 0.66909(18)
H38 H 0.6876 0.9613 0.7031
C40 C 0.66882(14) 0.9280(2) 0.60466(18)
H39 H 0.6471 0.9710 0.5958
C41 C 0.67734(13) 0.8690(2) 0.55382(17)
C42 C 0.70862(14) 0.8052(2) 0.56850(18)
H40 H 0.7135 0.7648 0.5351
C43 C 0.73321(13) 0.7999(2) 0.63269(18)
H41 H 0.7548 0.7566 0.6414
N1 N 0.57396(12) 0.8158(2) 1.07479(18)
N2 N 0.34608(11) 0.87663(18) 1.01359(14)
N3 N 0.64060(14) 0.51108(19) 0.92087(19)
N4 N 0.5000 0.2558(3) 0.7500
N5 N 0.71687(12) 0.8262(2) 0.80708(15)
H42 H 0.5623(16) 0.835(3) 1.1158(15)
H43 H 0.606(3) 0.523(6) 0.928(5)
H44 H 0.692(4) 0.858(7) 0.795(6)
C1A C 0.34877 0.6812 0.47796
C2A C 0.32354 0.6386 0.52933
C3A C 0.29534 0.682 0.57896
C4A C 0.29178 0.7659 0.57539
C5A C 0.31876 0.8099 0.52469
C6A C 0.3461 0.7671 0.47491
C7A C 0.37919 0.6359 0.42379
H1A H 0.3886 0.5833 0.4418
H2A H 0.4085 0.6668 0.4135
H3A H 0.3597 0.6291 0.3819
C8A C 0.26847 0.6354 0.63526
H4A H 0.2621 0.6711 0.6739
H5A H 0.2887 0.5905 0.6508
H6A H 0.2375 0.615 0.6168
C9A C 0.31648 0.9019 0.5259
H7A H 0.3455 0.9238 0.5039
H8A H 0.3153 0.9205 0.5733
H9A H 0.2873 0.9199 0.5011
C10A C 0.37225 0.8109 0.4157
H10A H 0.3639 0.7782 0.3657
H11A H 0.3569 0.8741 0.411
C11A C 0.44096 0.881 0.4731
H12A H 0.4251 0.8696 0.5254
H13A H 0.4265 0.9404 0.4537
C12A C 0.49659 0.8841 0.4785
C13A C 0.52215 0.8342 0.5257
H14A H 0.5042 0.8016 0.5562
C14A C 0.57357 0.8317 0.5286
H15A H 0.5898 0.7972 0.5601
C15A C 0.6011 0.8817 0.48377
C16A C 0.57598 0.9335 0.4385
H16A H 0.5938 0.9685 0.4099
C17A C 0.52462 0.9337 0.4355
H17A H 0.5085 0.968 0.4038
C18A C 0.68382 0.8857 0.42701
C19A C 0.66525 0.8687 0.35984
H18A H 0.6334 0.8474 0.354
C20A C 0.69443 0.8836 0.30262
H19A H 0.6816 0.8729 0.2583
C21A C 0.74182 0.9139 0.309
H20A H 0.7606 0.9249 0.27
C22A C 0.76109 0.9277 0.3756
H21A H 0.7935 0.9468 0.3808
C23A C 0.73322 0.9135 0.43341
H22A H 0.747 0.9224 0.4775
C24A C 0.3225 0.5468 0.53106
H23A H 0.2871 0.5276 0.5458
H24A H 0.32883 0.5246 0.4808
C25A C 0.34891 0.4247 0.5929
H25A H 0.3444 0.3933 0.544
H26A H 0.3145 0.4201 0.6204
C26A C 0.38936 0.3834 0.635
C27A C 0.40141 0.4056 0.7029
H27A H 0.3848 0.4489 0.7237
C28A C 0.43766 0.3643 0.74
H28A H 0.4451 0.3803 0.7855
C29A C 0.46319 0.3 0.7114
C30A C 0.45108 0.2779 0.6436
H29A H 0.4676 0.2345 0.6227
C31A C 0.4148 0.3193 0.6064
H30A H 0.4074 0.3034 0.5609
C33A C 0.54447 0.127 0.75
H31A H 0.5746 0.1549 0.75
C34A C 0.5438 0.0411 0.7502
H32A H 0.5737 0.0126 0.7504
C36A C 0.25853 0.8105 0.6253
H34A H 0.2484 0.8624 0.6045
H35A H 0.2286 0.778 0.6328
C37A C 0.24851 0.8521 0.7463
H36A H 0.2198 0.811 0.74905
H37A H 0.2338 0.9079 0.733
C38A C 0.27404 0.8582 0.81648
C39A C 0.30671 0.9219 0.83091
H38A H 0.3124 0.9613 0.7969
C40A C 0.33118 0.928 0.89534
H39A H 0.3529 0.971 0.9042
C41A C 0.32266 0.869 0.94618
C42A C 0.29138 0.8052 0.9315
H40A H 0.2865 0.7648 0.9649
C43A C 0.26679 0.7999 0.86731
H41A H 0.2452 0.7566 0.8586
N1A N 0.42604 0.8158 0.42521
N2A N 0.65392 0.87663 0.48641
N3A N 0.3594 0.51108 0.57913
N5A N 0.28313 0.8262 0.69292
H42A H 0.4377 0.835 0.3842
H43A H 0.394 0.523 0.572
H44A H 0.308 0.858 0.705

#END

