
#######################################################################
#
#                 Cambridge Crystallographic Data Centre
#                                CCDC 
#
#######################################################################
#
# If this CIF has been generated directly or indirectly from an entry in the 
# Cambridge Structural Database, then it will include bibliographic, chemical, 
# crystal, experimental, refinement or atomic coordinate data resulting from 
# the CCDC's data processing and validation procedures. Files generated from 
# CSD entries are Copyright 2015 Cambridge Crystallographic Data Centre. They 
# may be used in bona fide research applications only, and may not be copied or 
# further disseminated in any form, whether machine-readable or not, except for 
# the purposes of generating routine backup copies on your local computer 
# system.
# 
# Files arising from any other source may also contain material that is the 
# copyright of third parties, including the originator, and you should check 
# with the originator concerning the permitted uses of the information 
# contained in this CIF.
#
# For further information on the CCDC and the free tools enCIFer and Mercury
# for validating and visualising CIF files, please visit www.ccdc.cam.ac.uk
#
#######################################################################

data_UYUWAN
_audit_creation_date             2011-11-07
_database_code_depnum_ccdc_archive 'CCDC 777074'
_chemical_formula_moiety         'C48 H45 N1 O6'
_chemical_name_systematic        
10,17,24-Trimethoxy-8,26,39-trioxa-1-azanonacyclo[16.14.7.3^12,25^.2^3,6^.2^28,31^.2^34,37^.1^9,13^.0^15,20^.0^22,45^]nonatetraconta-3,5,9(47),10,12,15,17,19,22,24,28,30,34,36,40,42,44,48-octadecaene
_journal_coden_Cambridge         35
_journal_volume                  76
_journal_year                    2011
_journal_page_first              1418
_journal_name_full               J.Org.Chem.
loop_
_publ_author_name
N.S.Khan
J.M.Perez-Aguilar
T.Kaufmann
P.A.Hill
O.Taratula
O.-S.Lee
P.J.Carroll
J.G.Saven
I.J.Dmochowski
_chemical_absolute_configuration unk
_diffrn_ambient_temperature      143
_exptl_crystal_density_meas      1.283
_exptl_crystal_density_diffrn    1.283
#These two values have been output from a single CSD field.
_refine_ls_R_factor_gt           0.0479
_refine_ls_wR_factor_gt          0.0479
_diffrn_radiation_probe          x-ray
_symmetry_cell_setting           monoclinic
_symmetry_space_group_name_H-M   'P 21/c'
_symmetry_Int_Tables_number      14
loop_
_symmetry_equiv_pos_site_id
_symmetry_equiv_pos_as_xyz
1 x,y,z
2 -x,1/2+y,1/2-z
3 -x,-y,-z
4 x,1/2-y,1/2+z
_cell_length_a                   17.0976(17)
_cell_length_b                   11.4592(9)
_cell_length_c                   21.096(2)
_cell_angle_alpha                90
_cell_angle_beta                 113.539(2)
_cell_angle_gamma                90
_cell_volume                     3789.3
_cell_formula_units_Z            4
_exptl_crystal_recrystallization_method 'dichloromethane/diethyl ether'
loop_
_atom_site_label
_atom_site_type_symbol
_atom_site_fract_x
_atom_site_fract_y
_atom_site_fract_z
C1 C 0.68997(11) 0.37952(15) 0.29839(9)
H1 H 0.6451 0.3270 0.2672
H2 H 0.7209 0.3367 0.3421
C2 C 0.75236(11) 0.40673(14) 0.26512(9)
C3 C 0.84043(11) 0.41596(14) 0.30238(9)
C4 C 0.89146(11) 0.43957(15) 0.26611(9)
H3 H 0.9515 0.4432 0.2911
C5 C 0.85851(11) 0.45786(15) 0.19571(9)
C6 C 0.77077(11) 0.44525(16) 0.15789(9)
C7 C 0.71970(11) 0.41913(15) 0.19298(9)
H4 H 0.6602 0.4092 0.1672
C8 C 0.65700(13) 0.4318(2) 0.04641(11)
H5 H 0.6450 0.3517 0.0562
H6 H 0.6468 0.4387 -0.0026
H7 H 0.6196 0.4859 0.0571
C9 C 0.97285(11) 0.57257(16) 0.19077(10)
H8 H 1.0114 0.5752 0.1661
H9 H 1.0073 0.5514 0.2395
C10 C 0.93397(10) 0.69121(16) 0.18818(9)
C11 C 0.92045(10) 0.76371(16) 0.13235(9)
H10 H 0.9395 0.7403 0.0977
C12 C 0.87924(11) 0.87092(16) 0.12626(9)
H11 H 0.8709 0.9197 0.0877
C13 C 0.85038(11) 0.90696(15) 0.17561(9)
C14 C 0.86559(12) 0.83505(16) 0.23278(10)
H12 H 0.8472 0.8591 0.2677
C15 C 0.90709(12) 0.72936(16) 0.23933(9)
H13 H 0.9175 0.6821 0.2789
C16 C 0.80156(11) 1.01976(16) 0.16882(10)
H14 H 0.8320 1.0701 0.2094
H15 H 0.7981 1.0620 0.1268
C17 C 0.88499(11) 0.40748(15) 0.38059(9)
H16 H 0.9415 0.3704 0.3932
H17 H 0.8509 0.3577 0.3984
C18 C 0.83844(10) 0.57560(15) 0.43743(8)
C19 C 0.85107(10) 0.69090(15) 0.46236(8)
H18 H 0.8110 0.7241 0.4780
C20 C 0.91926(11) 0.75719(15) 0.46494(9)
C21 C 0.97914(10) 0.70775(15) 0.44247(9)
C22 C 0.96706(11) 0.59457(15) 0.41771(9)
H19 H 1.0077 0.5611 0.4028
C23 C 0.89641(10) 0.52749(15) 0.41390(8)
C24 C 1.10639(11) 0.73352(17) 0.42323(10)
H20 H 1.1326 0.6623 0.4485
H21 H 1.1508 0.7921 0.4298
H22 H 1.0770 0.7157 0.3739
C25 C 0.86890(11) 0.94238(16) 0.49063(9)
H23 H 0.8923 1.0113 0.5205
H24 H 0.8321 0.8992 0.5088
C26 C 0.81656(11) 0.98192(15) 0.41791(9)
C27 C 0.84351(11) 1.07744(15) 0.39113(9)
H25 H 0.8925 1.1200 0.4199
C28 C 0.79946(12) 1.11117(15) 0.32269(10)
H26 H 0.8184 1.1773 0.3056
C29 C 0.72828(11) 1.04995(15) 0.27887(9)
C30 C 0.70048(11) 0.95528(16) 0.30603(10)
H27 H 0.6515 0.9127 0.2772
C31 C 0.74325(11) 0.92279(16) 0.37437(10)
H28 H 0.7225 0.8592 0.3921
C32 C 0.68496(12) 1.07720(16) 0.20272(9)
H29 H 0.6224 1.0698 0.1872
H30 H 0.6981 1.1583 0.1940
C33 C 0.76095(11) 0.51090(15) 0.43731(9)
H31 H 0.7705 0.4260 0.4353
H32 H 0.7550 0.5271 0.4813
C34 C 0.67860(10) 0.54356(15) 0.37776(9)
C35 C 0.64710(11) 0.48570(15) 0.31415(9)
C36 C 0.57016(11) 0.52390(15) 0.26292(9)
H33 H 0.5473 0.4828 0.2203
C37 C 0.52585(10) 0.61942(16) 0.27182(9)
C38 C 0.55679(11) 0.67538(15) 0.33629(9)
C39 C 0.63139(11) 0.63625(15) 0.38791(9)
H34 H 0.6514 0.6734 0.4318
C40 C 0.53370(13) 0.81326(19) 0.41162(10)
H35 H 0.5307 0.7524 0.4432
H36 H 0.4957 0.8778 0.4109
H37 H 0.5924 0.8420 0.4274
C41 C 0.43175(11) 0.64014(17) 0.15108(9)
H38 H 0.3705 0.6548 0.1232
H39 H 0.4438 0.5575 0.1446
C42 C 0.48468(11) 0.71819(16) 0.12638(9)
C43 C 0.56745(11) 0.68775(17) 0.13472(10)
H40 H 0.5880 0.6113 0.1497
C44 C 0.61975(11) 0.76726(17) 0.12146(10)
H41 H 0.6761 0.7452 0.1282
C45 C 0.59082(11) 0.87947(16) 0.09831(9)
C46 C 0.50707(12) 0.90731(16) 0.08574(9)
H42 H 0.4851 0.9817 0.0673
C47 C 0.45492(11) 0.82781(16) 0.09974(9)
H43 H 0.3978 0.8488 0.0909
C48 C 0.65400(12) 0.96850(17) 0.09431(9)
H44 H 0.6841 0.9371 0.0665
H45 H 0.6236 1.0404 0.0716
N1 N 0.71561(9) 0.99538(13) 0.16430(7)
O1 O 0.74317(8) 0.45924(12) 0.08764(6)
O2 O 0.90822(8) 0.48420(11) 0.15958(6)
O3 O 1.04669(7) 0.77780(11) 0.44864(7)
O4 O 0.93840(7) 0.86765(10) 0.49263(6)
O5 O 0.50798(8) 0.76623(11) 0.34394(7)
O6 O 0.45025(7) 0.66099(11) 0.22319(6)

#END

