
#######################################################################
#
#                 Cambridge Crystallographic Data Centre
#                                CCDC 
#
#######################################################################
#
# If this CIF has been generated directly or indirectly from an entry in the 
# Cambridge Structural Database, then it will include bibliographic, chemical, 
# crystal, experimental, refinement or atomic coordinate data resulting from 
# the CCDC's data processing and validation procedures. Files generated from 
# CSD entries are Copyright 2015 Cambridge Crystallographic Data Centre. They 
# may be used in bona fide research applications only, and may not be copied or 
# further disseminated in any form, whether machine-readable or not, except for 
# the purposes of generating routine backup copies on your local computer 
# system.
# 
# Files arising from any other source may also contain material that is the 
# copyright of third parties, including the originator, and you should check 
# with the originator concerning the permitted uses of the information 
# contained in this CIF.
#
# For further information on the CCDC and the free tools enCIFer and Mercury
# for validating and visualising CIF files, please visit www.ccdc.cam.ac.uk
#
#######################################################################

data_LAXRUZ
_audit_creation_date             2012-05-09
_database_code_depnum_ccdc_archive 'CCDC 838463'
_chemical_formula_moiety         'C66 H78 N22 O12,C2 H3 N1,15(H2 O1)'
_chemical_name_systematic        
'1,4,12,15,18,26,29,32,40,43,46,54,59,67,70,71,74,82,85,86,87,88-docosaazanonacyclo[27.27.13.13^15,43^.1^6,10^.1^20,24^.1^34,38^.1^48,52^.1^61,65^.1^76,80^]octaoctaconta-6(87),7,9,20(86),21,23,34(85),35,37,48(71),49,51,61(70),62,64,76(88),77,79-octadecaene-5,11,19,25,33,39,47,53,60,66,75,81-dodecone pentahydrate clathrate acetonitrile solvate decahydrate'
_journal_coden_Cambridge         179
_journal_volume                  51
_journal_year                    2012
_journal_page_first              2119
_journal_name_full               Angew.Chem.,Int.Ed.
loop_
_publ_author_name
'Qi-Qiang Wang'
V.W.Day
K.Bowman-James
_chemical_absolute_configuration unk
_diffrn_ambient_temperature      100
_exptl_crystal_density_diffrn    1.383
#These two values have been output from a single CSD field.
_refine_ls_R_factor_gt           0.0507
_refine_ls_wR_factor_gt          0.0507
_diffrn_radiation_probe          x-ray
_symmetry_cell_setting           orthorhombic
_symmetry_space_group_name_H-M   'P b c a'
_symmetry_Int_Tables_number      61
loop_
_symmetry_equiv_pos_site_id
_symmetry_equiv_pos_as_xyz
1 x,y,z
2 1/2-x,-y,1/2+z
3 -x,1/2+y,1/2-z
4 1/2+x,1/2-y,-z
5 -x,-y,-z
6 1/2+x,y,1/2-z
7 x,1/2-y,1/2+z
8 1/2-x,1/2+y,z
_cell_length_a                   22.024(10)
_cell_length_b                   21.146(9)
_cell_length_c                   34.71(2)
_cell_angle_alpha                90
_cell_angle_beta                 90
_cell_angle_gamma                90
_cell_volume                     16165.1
_exptl_crystal_colour            colorless
_exptl_crystal_description       parallelepiped
_cell_formula_units_Z            8
loop_
_atom_site_label
_atom_site_type_symbol
_atom_site_fract_x
_atom_site_fract_y
_atom_site_fract_z
O1 O 0.00253(6) 0.35035(7) 0.33592(4)
O2 O 0.25871(6) 0.35351(7) 0.21451(4)
O3 O 0.17591(13) 0.32775(9) -0.03818(6)
O4 O 0.21140(7) 0.02631(7) 0.04200(4)
O5 O 0.24823(7) 0.18442(8) 0.28644(5)
O6 O -0.06858(7) 0.17256(7) 0.31061(4)
O7 O -0.12862(9) 0.39309(8) 0.10237(5)
O8 O -0.11447(7) 0.15629(8) -0.03756(4)
O9 O 0.06716(7) 0.06631(7) -0.01365(5)
O10 O 0.00830(8) 0.39298(7) -0.01061(5)
O11 O 0.15092(9) 0.00979(12) 0.30291(5)
O12 O -0.13595(8) 0.00405(8) 0.21472(5)
N1 N -0.08032(7) 0.27835(8) 0.21134(5)
C1 C -0.09296(9) 0.34030(9) 0.22890(6)
H1 H -0.1374 0.3469 0.2296
H2 H -0.0753 0.3738 0.2124
C2 C -0.06803(9) 0.34738(10) 0.26927(6)
H3 H -0.0817 0.3883 0.2800
H4 H -0.0849 0.3133 0.2857
N2 N -0.00202(7) 0.34467(8) 0.27080(5)
H5 H 0.0187 0.3413 0.2492
C3 C 0.02762(9) 0.34711(9) 0.30407(6)
C4 C 0.09580(9) 0.34716(9) 0.30053(6)
N3 N 0.11827(8) 0.34878(8) 0.26481(5)
C5 C 0.13192(10) 0.34762(11) 0.33326(6)
H6 H 0.1144 0.3459 0.3582
C6 C 0.19413(11) 0.35067(14) 0.32843(7)
H7 H 0.2203 0.3514 0.3502
C7 C 0.21775(10) 0.35270(12) 0.29165(7)
H8 H 0.2604 0.3553 0.2877
C8 C 0.17844(9) 0.35088(9) 0.26063(6)
C9 C 0.20353(9) 0.35060(9) 0.22015(6)
N4 N 0.16162(8) 0.34665(8) 0.19246(5)
H9 H 0.1231 0.3468 0.1991
C10 C 0.17695(10) 0.34219(10) 0.15191(6)
H10 H 0.1700 0.2985 0.1428
H11 H 0.2204 0.3523 0.1482
C11 C 0.13823(9) 0.38794(10) 0.12858(6)
H12 H 0.0954 0.3833 0.1367
H13 H 0.1510 0.4317 0.1347
N5 N 0.14187(8) 0.37875(8) 0.08650(5)
C12 C 0.20248(10) 0.39851(10) 0.07256(6)
H14 H 0.2337 0.3774 0.0885
H15 H 0.2067 0.4446 0.0766
C13 C 0.21543(11) 0.38400(10) 0.03044(6)
H16 H 0.1849 0.4058 0.0143
H17 H 0.2558 0.4012 0.0236
N6 N 0.21428(8) 0.31640(9) 0.02163(5)
H18 H 0.2264 0.2895 0.0394
C14 C 0.19566(11) 0.29393(11) -0.01216(7)
C15 C 0.19940(10) 0.22349(11) -0.01782(6)
N7 N 0.20620(8) 0.18750(8) 0.01358(5)
C16 C 0.19610(11) 0.19865(11) -0.05489(6)
H19 H 0.1910 0.2256 -0.0766
C17 C 0.20048(11) 0.13397(12) -0.05946(6)
H20 H 0.1987 0.1157 -0.0844
C18 C 0.20749(10) 0.09603(11) -0.02735(6)
H21 H 0.2106 0.0514 -0.0298
C19 C 0.20989(9) 0.12455(10) 0.00859(6)
C20 C 0.21806(9) 0.08437(10) 0.04389(6)
N8 N 0.23335(8) 0.11572(8) 0.07569(5)
H22 H 0.2369 0.1571 0.0742
C21 C 0.24466(10) 0.08573(10) 0.11284(6)
H23 H 0.2839 0.1006 0.1234
H24 H 0.2471 0.0393 0.1095
C22 C 0.19340(9) 0.10205(10) 0.14094(6)
H25 H 0.1840 0.1476 0.1382
H26 H 0.1567 0.0783 0.1331
N9 N 0.20508(8) 0.08892(8) 0.18183(5)
C23 C 0.25168(9) 0.13077(10) 0.19818(6)
H27 H 0.2854 0.1352 0.1795
H28 H 0.2683 0.1113 0.2219
C24 C 0.22684(10) 0.19612(10) 0.20786(6)
H29 H 0.2606 0.2236 0.2165
H30 H 0.2092 0.2152 0.1843
N10 N 0.18064(8) 0.19387(8) 0.23784(5)
H31 H 0.1422 0.1977 0.2314
C25 C 0.19525(9) 0.18622(10) 0.27465(6)
C26 C 0.14291(9) 0.17974(10) 0.30197(6)
N11 N 0.08779(8) 0.17899(8) 0.28610(5)
C27 C 0.15311(10) 0.17420(12) 0.34118(7)
H32 H 0.1932 0.1751 0.3513
C28 C 0.10362(11) 0.16733(12) 0.36518(7)
H33 H 0.1090 0.1632 0.3922
C29 C 0.04591(10) 0.16651(11) 0.34921(6)
H34 H 0.0111 0.1619 0.3651
C30 C 0.04009(9) 0.17259(9) 0.30955(6)
C31 C -0.02172(9) 0.17097(9) 0.29094(6)
N12 N -0.02134(8) 0.16775(8) 0.25275(5)
H35 H 0.0137 0.1676 0.2406
C32 C -0.07726(10) 0.16444(10) 0.23043(6)
H36 H -0.1032 0.1304 0.2411
H37 H -0.0672 0.1531 0.2035
C33 C -0.11280(9) 0.22624(10) 0.23057(6)
H38 H -0.1522 0.2195 0.2175
H39 H -0.1214 0.2385 0.2576
C34 C -0.09135(9) 0.27876(10) 0.16950(6)
H40 H -0.0830 0.2358 0.1595
H41 H -0.0617 0.3078 0.1574
C35 C -0.15530(10) 0.29835(11) 0.15624(6)
H42 H -0.1861 0.2707 0.1685
H43 H -0.1635 0.3425 0.1641
N13 N -0.15919(8) 0.29281(8) 0.11460(5)
H44 H -0.1731 0.2575 0.1045
C36 C -0.14234(10) 0.33973(10) 0.09121(7)
C37 C -0.14005(9) 0.32331(10) 0.04900(6)
N14 N -0.13660(8) 0.26144(8) 0.04066(5)
C38 C -0.13920(10) 0.37001(11) 0.02105(7)
H45 H -0.1417 0.4134 0.0280
C39 C -0.13463(10) 0.35212(11) -0.01712(7)
H46 H -0.1340 0.3831 -0.0369
C40 C -0.13095(9) 0.28831(11) -0.02617(7)
H47 H -0.1275 0.2749 -0.0522
C41 C -0.13235(9) 0.24452(10) 0.00360(6)
C42 C -0.12622(9) 0.17466(10) -0.00458(6)
N15 N -0.13326(8) 0.13706(8) 0.02582(5)
H48 H -0.1448 0.1542 0.0477
C43 C -0.12278(10) 0.06883(10) 0.02481(6)
H49 H -0.0871 0.0596 0.0084
H50 H -0.1585 0.0475 0.0134
C44 C -0.11172(9) 0.04314(10) 0.06503(6)
H51 H -0.1456 0.0562 0.0820
H52 H -0.1114 -0.0036 0.0640
N16 N -0.05362(8) 0.06551(8) 0.08182(5)
C45 C -0.00105(9) 0.03116(10) 0.06592(6)
H53 H -0.0101 0.0187 0.0390
H54 H 0.0054 -0.0080 0.0810
C46 C 0.05701(9) 0.07023(10) 0.06652(7)
H55 H 0.0645 0.0854 0.0931
H56 H 0.0916 0.0431 0.0589
N17 N 0.05364(8) 0.12423(8) 0.04063(5)
H57 H 0.0503 0.1625 0.0503
C47 C 0.05549(9) 0.11662(10) 0.00239(6)
C48 C 0.04129(9) 0.17519(10) -0.02039(6)
N18 N 0.03713(8) 0.22896(8) -0.00042(5)
C49 C 0.03127(10) 0.17174(11) -0.05980(6)
H58 H 0.0350 0.1327 -0.0731
C50 C 0.01571(10) 0.22660(11) -0.07918(6)
H59 H 0.0079 0.2257 -0.1061
C51 C 0.01162(10) 0.28276(11) -0.05882(6)
H60 H 0.0013 0.3211 -0.0715
C52 C 0.02294(9) 0.28185(10) -0.01959(6)
C53 C 0.01943(10) 0.34127(10) 0.00416(6)
N19 N 0.02884(8) 0.33298(8) 0.04163(5)
H61 H 0.0335 0.2943 0.0505
C54 C 0.03175(10) 0.38593(10) 0.06858(6)
H62 H 0.0228 0.3705 0.0949
H63 H 0.0004 0.4174 0.0616
C55 C 0.09376(10) 0.41762(10) 0.06838(6)
H64 H 0.1055 0.4268 0.0414
H65 H 0.0909 0.4585 0.0822
C56 C 0.21789(10) 0.02185(10) 0.18925(6)
H66 H 0.2612 0.0133 0.1838
H67 H 0.1933 -0.0044 0.1715
C57 C 0.20397(10) 0.00301(11) 0.23045(7)
H68 H 0.2184 -0.0407 0.2350
H69 H 0.2261 0.0314 0.2483
N20 N 0.13920(9) 0.00641(8) 0.23860(5)
H70 H 0.1133 0.0077 0.2193
C58 C 0.11823(11) 0.00761(11) 0.27445(7)
C59 C 0.05001(11) 0.00597(10) 0.27888(7)
N21 N 0.01707(9) 0.00287(8) 0.24678(5)
C60 C 0.02439(12) 0.00737(11) 0.31541(7)
H71 H 0.0493 0.0094 0.3377
C61 C -0.03809(12) 0.00570(11) 0.31868(7)
H72 H -0.0568 0.0064 0.3433
C62 C -0.07286(12) 0.00306(11) 0.28573(7)
H73 H -0.1159 0.0020 0.2872
C63 C -0.04353(10) 0.00202(9) 0.25032(7)
C64 C -0.07992(10) 0.00152(10) 0.21371(7)
N22 N -0.04679(9) -0.00170(8) 0.18176(5)
H74 H -0.0072 -0.0050 0.1846
C65 C -0.07008(10) -0.00030(10) 0.14280(7)
H75 H -0.1147 -0.0062 0.1431
H76 H -0.0519 -0.0351 0.1276
C66 C -0.05427(10) 0.06370(10) 0.12421(6)
H77 H -0.0839 0.0955 0.1334
H78 H -0.0137 0.0768 0.1336

#END

