
#######################################################################
#
#                 Cambridge Crystallographic Data Centre
#                                CCDC 
#
#######################################################################
#
# If this CIF has been generated directly or indirectly from an entry in the 
# Cambridge Structural Database, then it will include bibliographic, chemical, 
# crystal, experimental, refinement or atomic coordinate data resulting from 
# the CCDC's data processing and validation procedures. Files generated from 
# CSD entries are Copyright 2015 Cambridge Crystallographic Data Centre. They 
# may be used in bona fide research applications only, and may not be copied or 
# further disseminated in any form, whether machine-readable or not, except for 
# the purposes of generating routine backup copies on your local computer 
# system.
# 
# Files arising from any other source may also contain material that is the 
# copyright of third parties, including the originator, and you should check 
# with the originator concerning the permitted uses of the information 
# contained in this CIF.
#
# For further information on the CCDC and the free tools enCIFer and Mercury
# for validating and visualising CIF files, please visit www.ccdc.cam.ac.uk
#
#######################################################################

data_LAXSAG
_audit_creation_date             2012-05-09
_database_code_depnum_ccdc_archive 'CCDC 838464'
_chemical_formula_moiety         'C66 H78 N22 O12,8(H2 O1),C4 H12 N1 1+,F1 1-'
_chemical_name_systematic        
'Tetramethylammonium 1,4,12,15,18,26,29,32,40,43,46,54,59,67,70,71,74,82,85,86,87,88-docosaazanonacyclo[27.27.13.13^15,43^.1^6,10^.1^20,24^.1^34,38^.1^48,52^.1^61,65^.1^76,80^]octaoctaconta-6(87),7,9,20(86),21,23,34(85),35,37,48(71),49,51,61(70),62,64,76(88),77,79-octadecaene-5,11,19,25,33,39,47,53,60,66,75,81-dodecone fluoride tetrahydrate clathrate tetrahydrate'
_journal_coden_Cambridge         179
_journal_volume                  51
_journal_year                    2012
_journal_page_first              2119
_journal_name_full               Angew.Chem.,Int.Ed.
loop_
_publ_author_name
'Qi-Qiang Wang'
V.W.Day
K.Bowman-James
_chemical_absolute_configuration unk
_diffrn_ambient_temperature      100
_exptl_crystal_density_meas      1.347
_exptl_crystal_density_diffrn    1.347
#These two values have been output from a single CSD field.
_refine_ls_R_factor_gt           0.0587
_refine_ls_wR_factor_gt          0.0587
_diffrn_radiation_probe          x-ray
_symmetry_cell_setting           triclinic
_symmetry_space_group_name_H-M   'P -1'
_symmetry_Int_Tables_number      2
loop_
_symmetry_equiv_pos_site_id
_symmetry_equiv_pos_as_xyz
1 x,y,z
2 -x,-y,-z
_cell_length_a                   11.0802(4)
_cell_length_b                   19.1494(7)
_cell_length_c                   20.5201(7)
_cell_angle_alpha                66.9120(10)
_cell_angle_beta                 83.0830(10)
_cell_angle_gamma                83.6400(10)
_cell_volume                     3966.41
_exptl_crystal_colour            colorless
_exptl_crystal_description       plate
_cell_formula_units_Z            2
loop_
_atom_site_label
_atom_site_type_symbol
_atom_site_fract_x
_atom_site_fract_y
_atom_site_fract_z
O1 O 0.28913(16) 0.33930(12) -0.14039(10)
O2 O -0.26667(14) 0.41360(11) 0.02617(10)
O3 O -0.25457(15) 0.43504(9) 0.47948(9)
O4 O -0.14896(17) 0.04567(9) 0.54542(9)
O5 O -0.18359(17) 0.14799(12) 0.06225(10)
O6 O 0.45586(15) 0.13504(10) 0.01242(10)
O7 O 0.39246(14) 0.54539(9) 0.18281(8)
O8 O 0.49678(15) 0.28957(10) 0.53126(9)
O9 O 0.17692(15) 0.16569(9) 0.59407(8)
O10 O 0.07929(15) 0.53703(9) 0.34190(9)
O11 O 0.01966(17) -0.08882(10) 0.16453(9)
O12 O 0.55183(16) 0.01305(12) 0.24676(11)
N1 N 0.42310(15) 0.34093(10) 0.07268(10)
C1 C 0.43527(19) 0.40827(13) 0.00601(12)
H1 H 0.5215 0.4210 -0.0036
H2 H 0.3860 0.4517 0.0126
C2 C 0.3964(2) 0.39948(15) -0.05878(13)
H3 H 0.4014 0.4486 -0.1000
H4 H 0.4531 0.3614 -0.0703
N2 N 0.27275(16) 0.37560(11) -0.04715(10)
H5 H 0.2254 0.3784 -0.0105
C3 C 0.22925(19) 0.34966(12) -0.09041(11)
C4 C 0.09494(19) 0.33752(11) -0.07621(11)
N3 N 0.03223(15) 0.36531(10) -0.03058(9)
C5 C 0.0407(2) 0.30355(13) -0.11280(12)
H6 H 0.0882 0.2833 -0.1439
C6 C -0.0849(2) 0.30006(14) -0.10277(12)
H7 H -0.1249 0.2766 -0.1265
C7 C -0.1515(2) 0.33122(14) -0.05761(12)
H8 H -0.2379 0.3313 -0.0512
C8 C -0.08887(19) 0.36212(12) -0.02223(11)
C9 C -0.15677(19) 0.39519(13) 0.02866(12)
N4 N -0.08872(16) 0.40203(11) 0.07481(10)
H9 H -0.0123 0.3836 0.0757
C10 C -0.1356(2) 0.43864(14) 0.12374(12)
H10 H -0.2258 0.4431 0.1267
H11 H -0.1067 0.4905 0.1060
C11 C -0.0924(2) 0.39224(12) 0.19715(12)
H12 H -0.1364 0.3451 0.2180
H13 H -0.0048 0.3769 0.1912
N5 N -0.10782(15) 0.42929(10) 0.24867(9)
C12 C -0.23671(19) 0.45013(12) 0.26513(11)
H14 H -0.2878 0.4107 0.2654
H15 H -0.2623 0.4990 0.2274
C13 C -0.25799(19) 0.45787(12) 0.33673(11)
H16 H -0.2045 0.4957 0.3373
H17 H -0.3436 0.4767 0.3434
N6 N -0.23326(16) 0.38575(10) 0.39475(9)
H18 H -0.2186 0.3442 0.3856
C14 C -0.23203(18) 0.38033(12) 0.46167(11)
C15 C -0.19982(18) 0.30149(12) 0.51480(11)
N7 N -0.18735(15) 0.24565(10) 0.49023(9)
C16 C -0.18399(19) 0.28941(13) 0.58443(12)
H19 H -0.1916 0.3307 0.5996
C17 C -0.1568(2) 0.21562(14) 0.63145(12)
H20 H -0.1448 0.2056 0.6795
C18 C -0.1473(2) 0.15697(13) 0.60756(12)
H21 H -0.1318 0.1057 0.6391
C19 C -0.16111(18) 0.17463(12) 0.53638(12)
C20 C -0.14340(19) 0.11333(12) 0.50651(12)
N8 N -0.12001(16) 0.14040(10) 0.43571(10)
H22 H -0.1202 0.1901 0.4130
C21 C -0.0944(2) 0.09393(13) 0.39379(13)
H23 H -0.1065 0.0400 0.4242
H24 H -0.0088 0.0977 0.3730
C22 C -0.1802(2) 0.12205(13) 0.33505(13)
H25 H -0.2632 0.1078 0.3567
H26 H -0.1825 0.1783 0.3136
N9 N -0.14968(16) 0.09341(10) 0.27795(10)
C23 C -0.2282(2) 0.13657(14) 0.21973(13)
H27 H -0.3067 0.1531 0.2397
H28 H -0.2455 0.1031 0.1960
C24 C -0.1679(2) 0.20593(14) 0.16538(14)
H29 H -0.2289 0.2393 0.1333
H30 H -0.1388 0.2350 0.1903
N10 N -0.06565(18) 0.18532(11) 0.12322(10)
H31 H 0.0089 0.1918 0.1295
C25 C -0.0819(2) 0.15705(14) 0.07557(12)
C26 C 0.0330(2) 0.13622(14) 0.03793(12)
N11 N 0.13683(18) 0.15190(11) 0.05419(10)
C27 C 0.0268(2) 0.10355(16) -0.01088(13)
H32 H -0.0495 0.0933 -0.0208
C28 C 0.1348(3) 0.08612(16) -0.04490(13)
H33 H 0.1341 0.0636 -0.0787
C29 C 0.2432(2) 0.10207(14) -0.02886(13)
H34 H 0.3184 0.0908 -0.0515
C30 C 0.2405(2) 0.13476(13) 0.02075(12)
C31 C 0.3569(2) 0.15175(12) 0.04039(12)
N12 N 0.34643(18) 0.18219(11) 0.08879(12)
H35 H 0.2730 0.1927 0.1058
C32 C 0.4517(2) 0.19907(14) 0.11507(16)
H36 H 0.5169 0.1581 0.1195
H37 H 0.4282 0.1993 0.1631
C33 C 0.5015(2) 0.27489(13) 0.06745(15)
H38 H 0.5839 0.2766 0.0805
H39 H 0.5094 0.2790 0.0175
C34 C 0.45940(19) 0.35653(12) 0.13247(12)
H40 H 0.5436 0.3731 0.1209
H41 H 0.4595 0.3088 0.1754
C35 C 0.3755(2) 0.41756(13) 0.14906(12)
H42 H 0.3901 0.4682 0.1114
H43 H 0.2894 0.4076 0.1501
N13 N 0.39898(16) 0.41700(10) 0.21764(9)
H44 H 0.4119 0.3729 0.2528
C36 C 0.40165(18) 0.48071(12) 0.22927(11)
C37 C 0.41499(17) 0.46903(12) 0.30557(11)
N14 N 0.44238(15) 0.39786(10) 0.35078(9)
C38 C 0.39563(19) 0.53033(13) 0.32655(12)
H45 H 0.3769 0.5802 0.2931
C39 C 0.40419(19) 0.51741(13) 0.39733(12)
H46 H 0.3906 0.5582 0.4132
C40 C 0.43276(19) 0.44416(14) 0.44441(12)
H47 H 0.4399 0.4337 0.4931
C41 C 0.45073(18) 0.38627(13) 0.41889(11)
C42 C 0.47985(19) 0.30540(13) 0.46878(12)
N15 N 0.48440(17) 0.25413(11) 0.43916(10)
H48 H 0.4687 0.2696 0.3944
C43 C 0.5145(2) 0.17365(13) 0.47845(13)
H49 H 0.4637 0.1564 0.5243
H50 H 0.6009 0.1661 0.4890
C44 C 0.4939(2) 0.12586(14) 0.43724(13)
H51 H 0.5427 0.1449 0.3908
H52 H 0.5248 0.0728 0.4637
N16 N 0.36683(17) 0.12555(12) 0.42435(10)
C45 C 0.29111(19) 0.08693(12) 0.49021(12)
H53 H 0.3224 0.0944 0.5300
H54 H 0.2972 0.0316 0.5009
C46 C 0.15798(19) 0.11678(12) 0.48466(12)
H55 H 0.1290 0.1136 0.4422
H56 H 0.1086 0.0841 0.5270
N17 N 0.13963(15) 0.19486(10) 0.47965(10)
H57 H 0.1196 0.2311 0.4394
C47 C 0.15266(18) 0.21259(12) 0.53497(11)
C48 C 0.13702(18) 0.29668(12) 0.52005(11)
N18 N 0.12903(15) 0.34276(10) 0.45213(9)
C49 C 0.13317(19) 0.32219(13) 0.57489(12)
H58 H 0.1355 0.2873 0.6229
C50 C 0.1259(2) 0.40001(13) 0.55761(13)
H59 H 0.1246 0.4196 0.5937
C51 C 0.12050(19) 0.44897(13) 0.48713(13)
H60 H 0.1179 0.5025 0.4738
C52 C 0.11894(18) 0.41792(12) 0.43672(12)
C53 C 0.10525(18) 0.46778(12) 0.36007(12)
N19 N 0.12007(15) 0.43223(10) 0.31549(10)
H61 H 0.1421 0.3832 0.3319
C54 C 0.10132(19) 0.47111(13) 0.24061(12)
H62 H 0.1330 0.4372 0.2155
H63 H 0.1485 0.5170 0.2204
C55 C -0.03276(19) 0.49484(12) 0.22728(12)
H64 H -0.0655 0.5270 0.2540
H65 H -0.0387 0.5259 0.1761
C56 C -0.1635(2) 0.01069(13) 0.30515(12)
H66 H -0.2508 0.0017 0.3191
H67 H -0.1190 -0.0146 0.3484
C57 C -0.1174(2) -0.02588(14) 0.25271(13)
H68 H -0.1346 -0.0803 0.2739
H69 H -0.1619 -0.0012 0.2094
N20 N 0.01300(18) -0.01974(11) 0.23287(10)
H70 H 0.0539 0.0062 0.2489
C58 C 0.0709(2) -0.05315(12) 0.19056(12)
C59 C 0.2061(2) -0.04507(12) 0.17528(12)
N21 N 0.25945(19) -0.01897(11) 0.21536(11)
C60 C 0.2693(3) -0.06429(15) 0.12128(14)
H71 H 0.2289 -0.0847 0.0951
C61 C 0.3926(3) -0.05298(16) 0.10653(14)
H72 H 0.4378 -0.0642 0.0690
C62 C 0.4489(2) -0.02540(14) 0.14670(14)
H73 H 0.5332 -0.0167 0.1373
C63 C 0.3793(2) -0.01054(13) 0.20145(14)
C64 C 0.4406(3) 0.01494(19) 0.2489(2)
N22 N 0.3653(3) 0.0395(4) 0.2903(4)
H74 H 0.2925 0.0600 0.2775
C65 C 0.4090(4) 0.0314(3) 0.3680(3)
H75 H 0.3785 -0.0143 0.4075
H76 H 0.4988 0.0299 0.3670
C66 C 0.3573(3) 0.0932(4) 0.3723(2)
H77 H 0.2690 0.0885 0.3731
H78 H 0.3801 0.1337 0.3259

#END

