
#######################################################################
#
#                 Cambridge Crystallographic Data Centre
#                                CCDC 
#
#######################################################################
#
# If this CIF has been generated directly or indirectly from an entry in the 
# Cambridge Structural Database, then it will include bibliographic, chemical, 
# crystal, experimental, refinement or atomic coordinate data resulting from 
# the CCDC's data processing and validation procedures. Files generated from 
# CSD entries are Copyright 2015 Cambridge Crystallographic Data Centre. They 
# may be used in bona fide research applications only, and may not be copied or 
# further disseminated in any form, whether machine-readable or not, except for 
# the purposes of generating routine backup copies on your local computer 
# system.
# 
# Files arising from any other source may also contain material that is the 
# copyright of third parties, including the originator, and you should check 
# with the originator concerning the permitted uses of the information 
# contained in this CIF.
#
# For further information on the CCDC and the free tools enCIFer and Mercury
# for validating and visualising CIF files, please visit www.ccdc.cam.ac.uk
#
#######################################################################

data_SETNEM
_audit_creation_date             2013-05-16
_database_code_depnum_ccdc_archive 'CCDC 939980'
_chemical_formula_moiety         'C66 H78 N22 O12,3(C3 H7 N1 O1),3(H2 O1)'
_chemical_name_systematic        
'1,4,12,15,18,26,29,32,40,43,46,54,59,67,70,71,74,82,85,86,87,88-Docosaazanonacyclo[27.27.13.13^15,43^.1^6,10^.1^20,24^.1^34,38^.1^48,52^.1^61,65^.1^76,80^]octaoctaconta-6(87),7,9,20(86),21,23,34(85),35,37,48(71),49,51,61(70),62,64,76(88),77,79-octadecaene-5,11,19,25,33,39,47,53,60,66,75,81-dodecone N,N-dimethylformamide solvate trihydrate'
_journal_coden_Cambridge         4
_journal_volume                  135
_journal_year                    2013
_journal_page_first              392
_journal_name_full               J.Am.Chem.Soc.
loop_
_publ_author_name
'Qi-Qiang Wang'
V.W.Day
K.Bowman-James
_chemical_absolute_configuration unk
_diffrn_ambient_temperature      100
_exptl_crystal_density_diffrn    1.268
#These two values have been output from a single CSD field.
_refine_ls_R_factor_gt           0.097
_refine_ls_wR_factor_gt          0.097
_diffrn_radiation_probe          x-ray
_symmetry_cell_setting           monoclinic
_symmetry_space_group_name_H-M   'P 21/c'
_symmetry_Int_Tables_number      14
loop_
_symmetry_equiv_pos_site_id
_symmetry_equiv_pos_as_xyz
1 x,y,z
2 -x,1/2+y,1/2-z
3 -x,-y,-z
4 x,1/2-y,1/2+z
_cell_length_a                   11.0487(13)
_cell_length_b                   16.3220(19)
_cell_length_c                   47.794(6)
_cell_angle_alpha                90
_cell_angle_beta                 91.313(2)
_cell_angle_gamma                90
_cell_volume                     8616.76
_cell_formula_units_Z            4
loop_
_atom_site_label
_atom_site_type_symbol
_atom_site_fract_x
_atom_site_fract_y
_atom_site_fract_z
O1 O 0.2440(3) -0.0942(2) 0.31409(6)
O2 O 0.1583(3) 0.2605(2) 0.23174(6)
O3 O 0.3265(3) 0.35923(19) 0.32889(7)
O4 O 0.2758(3) 0.4313(2) 0.47317(7)
O5 O 0.3056(3) 0.0587(4) 0.46556(8)
O6 O 0.0472(5) -0.2972(3) 0.40696(10)
O7 O 0.1693(4) -0.4419(2) 0.34780(9)
O8 O 0.5566(3) -0.12821(19) 0.39614(6)
O9 O 0.6634(3) 0.1906(2) 0.28262(7)
O10 O 0.2486(3) 0.4588(2) 0.21798(7)
O11 O 0.6888(3) 0.2306(2) 0.42792(8)
O12 O 0.3730(3) 0.3842(3) 0.54248(7)
N1 N -0.0656(3) -0.2014(2) 0.34549(7)
C1 C -0.0388(4) -0.1410(3) 0.32380(9)
H1 H -0.1145 -0.1263 0.3135
H2 H 0.0177 -0.1652 0.3103
C2 C 0.0171(4) -0.0646(3) 0.33659(9)
H3 H -0.0467 -0.0320 0.3456
H4 H 0.0774 -0.0806 0.3512
N2 N 0.0763(3) -0.0141(2) 0.31554(7)
H5 H 0.0394 0.0301 0.3092
C3 C 0.1857(4) -0.0339(3) 0.30579(9)
C4 C 0.2325(4) 0.0232(3) 0.28397(9)
N3 N 0.1614(3) 0.0863(2) 0.27640(7)
C5 C 0.3455(4) 0.0096(3) 0.27286(10)
H6 H 0.3935 -0.0358 0.2787
C6 C 0.3866(4) 0.0638(3) 0.25302(10)
H7 H 0.4638 0.0563 0.2450
C7 C 0.3144(4) 0.1290(3) 0.24491(10)
H8 H 0.3411 0.1672 0.2314
C8 C 0.2019(4) 0.1375(3) 0.25691(8)
C9 C 0.1214(4) 0.2086(3) 0.24824(9)
N4 N 0.0108(3) 0.2075(2) 0.25894(7)
H9 H -0.0098 0.1661 0.2696
C10 C -0.0772(4) 0.2727(3) 0.25349(9)
H10 H -0.1566 0.2479 0.2485
H11 H -0.0511 0.3054 0.2373
C11 C -0.0916(4) 0.3288(3) 0.27828(9)
H12 H -0.1583 0.3678 0.2742
H13 H -0.1142 0.2958 0.2947
N5 N 0.0195(3) 0.3751(2) 0.28514(7)
C12 C 0.0390(5) 0.3856(3) 0.31509(10)
H14 H -0.0382 0.4009 0.3238
H15 H 0.0977 0.4304 0.3186
C13 C 0.0874(5) 0.3063(3) 0.32843(10)
H16 H 0.0187 0.2706 0.3333
H17 H 0.1373 0.2766 0.3148
N6 N 0.1599(4) 0.3238(2) 0.35341(7)
H18 H 0.1291 0.3160 0.3700
C14 C 0.2744(5) 0.3520(3) 0.35135(9)
C15 C 0.3345(4) 0.3739(3) 0.37871(10)
N7 N 0.2651(3) 0.3754(2) 0.40138(8)
C16 C 0.4580(4) 0.3932(3) 0.37978(11)
H19 H 0.5048 0.3921 0.3634
C17 C 0.5099(5) 0.4138(3) 0.40543(12)
H20 H 0.5940 0.4253 0.4071
C18 C 0.4380(5) 0.4174(3) 0.42859(11)
H21 H 0.4716 0.4330 0.4463
C19 C 0.3157(4) 0.3978(3) 0.42585(10)
C20 C 0.2367(5) 0.4048(3) 0.45094(10)
N8 N 0.1213(5) 0.3810(4) 0.44643(9)
H22 H 0.1004 0.3625 0.4297
C21 C 0.0287(6) 0.3842(5) 0.46776(13)
H23 H -0.0422 0.4149 0.4603
H24 H 0.0612 0.4143 0.4843
C22 C -0.0114(5) 0.3002(5) 0.47671(13)
H25 H -0.0775 0.3055 0.4902
H26 H -0.0432 0.2698 0.4602
N9 N 0.0885(4) 0.2544(4) 0.48963(9)
C23 C 0.0767(6) 0.1655(5) 0.48492(11)
H27 H -0.0041 0.1470 0.4908
H28 H 0.1386 0.1362 0.4964
C24 C 0.0928(6) 0.1445(5) 0.45414(12)
H29 H 0.0203 0.1627 0.4433
H30 H 0.1636 0.1746 0.4471
N10 N 0.1104(4) 0.0568(4) 0.44973(9)
H31 H 0.0495 0.0269 0.4433
C25 C 0.2180(5) 0.0207(5) 0.45527(12)
C26 C 0.2250(4) -0.0682(5) 0.44933(11)
N11 N 0.1344(4) -0.1044(4) 0.43443(9)
C27 C 0.3242(5) -0.1127(6) 0.45955(14)
H32 H 0.3868 -0.0866 0.4702
C28 C 0.3296(6) -0.1949(7) 0.45393(14)
H33 H 0.3962 -0.2263 0.4608
C29 C 0.2393(6) -0.2321(5) 0.43835(12)
H34 H 0.2432 -0.2888 0.4339
C30 C 0.1413(5) -0.1840(5) 0.42918(11)
C31 C 0.0395(5) -0.2256(5) 0.41305(12)
N12 N -0.0566(4) -0.1776(3) 0.40717(8)
H35 H -0.0559 -0.1263 0.4128
C32 C -0.1618(4) -0.2086(4) 0.39166(10)
H36 H -0.2359 -0.1932 0.4017
H37 H -0.1577 -0.2692 0.3911
C33 C -0.1708(4) -0.1762(3) 0.36211(10)
H38 H -0.2461 -0.1968 0.3530
H39 H -0.1752 -0.1156 0.3626
C34 C -0.0834(4) -0.2844(3) 0.33475(10)
H40 H -0.1522 -0.2840 0.3211
H41 H -0.1055 -0.3206 0.3504
C35 C 0.0271(4) -0.3201(3) 0.32062(9)
H42 H 0.0138 -0.3794 0.3173
H43 H 0.0369 -0.2933 0.3022
N13 N 0.1371(3) -0.3092(2) 0.33741(7)
H44 H 0.1669 -0.2594 0.3391
C36 C 0.1949(4) -0.3696(3) 0.35017(9)
C37 C 0.3021(4) -0.3428(3) 0.36871(9)
N14 N 0.3406(3) -0.2656(2) 0.36625(7)
C38 C 0.3541(4) -0.3992(3) 0.38720(10)
H45 H 0.3237 -0.4535 0.3883
C39 C 0.4511(4) -0.3742(3) 0.40387(10)
H46 H 0.4888 -0.4113 0.4167
C40 C 0.4923(4) -0.2948(3) 0.40165(9)
H47 H 0.5585 -0.2761 0.4130
C41 C 0.4353(4) -0.2431(3) 0.38265(9)
C42 C 0.4802(4) -0.1571(3) 0.37962(9)
N15 N 0.4355(3) -0.1149(2) 0.35748(7)
H48 H 0.3811 -0.1382 0.3463
C43 C 0.4747(4) -0.0325(3) 0.35158(10)
H49 H 0.4640 -0.0215 0.3313
H50 H 0.5620 -0.0272 0.3564
C44 C 0.4036(4) 0.0313(3) 0.36805(9)
H51 H 0.3206 0.0361 0.3600
H52 H 0.3974 0.0133 0.3877
N16 N 0.4635(3) 0.1107(2) 0.36712(7)
C45 C 0.4363(4) 0.1549(3) 0.34114(9)
H53 H 0.3620 0.1879 0.3434
H54 H 0.4206 0.1150 0.3259
C46 C 0.5395(4) 0.2109(3) 0.33311(9)
H55 H 0.5527 0.2525 0.3479
H56 H 0.6147 0.1783 0.3316
N17 N 0.5138(3) 0.2517(2) 0.30659(7)
H57 H 0.4556 0.2885 0.3058
C47 C 0.5741(4) 0.2360(3) 0.28353(9)
C48 C 0.5272(4) 0.2749(3) 0.25722(9)
N18 N 0.4349(3) 0.3295(2) 0.25971(7)
C49 C 0.5723(4) 0.2531(3) 0.23153(9)
H58 H 0.6381 0.2159 0.2306
C50 C 0.5220(4) 0.2853(3) 0.20740(10)
H59 H 0.5511 0.2700 0.1896
C51 C 0.4276(4) 0.3409(3) 0.20969(9)
H60 H 0.3906 0.3644 0.1935
C52 C 0.3884(4) 0.3613(3) 0.23607(9)
C53 C 0.2879(4) 0.4232(3) 0.23919(9)
N19 N 0.2505(3) 0.4356(2) 0.26489(8)
H61 H 0.2866 0.4089 0.2787
C54 C 0.1518(4) 0.4916(3) 0.27134(11)
H62 H 0.1540 0.5389 0.2584
H63 H 0.1643 0.5128 0.2906
C55 C 0.0271(4) 0.4512(3) 0.26898(10)
H64 H -0.0346 0.4901 0.2756
H65 H 0.0083 0.4392 0.2490
C56 C 0.4420(4) 0.1596(3) 0.39210(9)
H66 H 0.3538 0.1647 0.3948
H67 H 0.4754 0.2153 0.3895
C57 C 0.5005(4) 0.1209(3) 0.41806(9)
H68 H 0.4517 0.0733 0.4239
H69 H 0.5824 0.1009 0.4135
N20 N 0.5101(3) 0.1794(2) 0.44112(7)
H70 H 0.4527 0.1806 0.4536
C58 C 0.6035(4) 0.2310(3) 0.44381(9)
C59 C 0.5959(4) 0.2919(3) 0.46694(9)
N21 N 0.5034(3) 0.2858(2) 0.48418(7)
C60 C 0.6829(4) 0.3532(3) 0.46906(10)
H71 H 0.7484 0.3549 0.4565
C61 C 0.6720(5) 0.4121(3) 0.48994(11)
H72 H 0.7294 0.4552 0.4918
C62 C 0.5764(5) 0.4065(3) 0.50780(10)
H73 H 0.5665 0.4456 0.5223
C63 C 0.4945(4) 0.3425(3) 0.50421(9)
C64 C 0.3879(4) 0.3349(4) 0.52343(10)
N22 N 0.3194(4) 0.2687(3) 0.51875(8)
H74 H 0.3427 0.2335 0.5060
C65 C 0.2079(5) 0.2513(6) 0.53357(11)
H75 H 0.2032 0.1915 0.5369
H76 H 0.2124 0.2787 0.5520
C66 C 0.0993(6) 0.2767(6) 0.51937(12)
H77 H 0.0930 0.3370 0.5209
H78 H 0.0297 0.2529 0.5292

#END
