
#######################################################################
#
#                 Cambridge Crystallographic Data Centre
#                                CCDC 
#
#######################################################################
#
# If this CIF has been generated directly or indirectly from an entry in the 
# Cambridge Structural Database, then it will include bibliographic, chemical, 
# crystal, experimental, refinement or atomic coordinate data resulting from 
# the CCDC's data processing and validation procedures. Files generated from 
# CSD entries are Copyright 2015 Cambridge Crystallographic Data Centre. They 
# may be used in bona fide research applications only, and may not be copied or 
# further disseminated in any form, whether machine-readable or not, except for 
# the purposes of generating routine backup copies on your local computer 
# system.
# 
# Files arising from any other source may also contain material that is the 
# copyright of third parties, including the originator, and you should check 
# with the originator concerning the permitted uses of the information 
# contained in this CIF.
#
# For further information on the CCDC and the free tools enCIFer and Mercury
# for validating and visualising CIF files, please visit www.ccdc.cam.ac.uk
#
#######################################################################

data_MONCID
_audit_creation_date             2014-08-11
_database_code_depnum_ccdc_archive 'CCDC 1013794'
_chemical_formula_moiety         'C110 H84 N18 Zn2,8.79(C1 H1 Cl3)'
_chemical_name_systematic        
"(\m-5,5':10,10':15,15'20,20'-tetrakis(N,N'-ethane-1,2-diylbis[1-(3-ylphenyl)methanimine])-porphyrinato)-(\m-1,4-diazabicyclo [2.2.2.] octane)-di-zinc chloroform solvate"
_journal_coden_Cambridge         182
_journal_volume                  50
_journal_year                    2014
_journal_page_first              11162
_journal_name_full               Chem.Commun.
loop_
_publ_author_name
'Huimin Ding'
'Xiangshi Meng'
'Xu Cui'
'Yihui Yang'
'Tailin Zhou'
'Caixing Wang'
M.Zeller
'Cheng Wang'
_chemical_absolute_configuration unk
_diffrn_ambient_temperature      293
_exptl_crystal_density_meas      1.428
_exptl_crystal_density_diffrn    1.428
#These two values have been output from a single CSD field.
_refine_ls_R_factor_gt           0.0524
_refine_ls_wR_factor_gt          0.0524
_diffrn_radiation_probe          x-ray
_diffrn_source                   'synchrotron radiation'
_symmetry_cell_setting           monoclinic
_symmetry_space_group_name_H-M   'P 21/n'
_symmetry_Int_Tables_number      14
loop_
_symmetry_equiv_pos_site_id
_symmetry_equiv_pos_as_xyz
1 x,y,z
2 1/2-x,1/2+y,1/2-z
3 -x,-y,-z
4 1/2+x,1/2-y,1/2+z
_cell_length_a                   18.058(4)
_cell_length_b                   17.549(4)
_cell_length_c                   21.217(4)
_cell_angle_alpha                90
_cell_angle_beta                 100.90(3)
_cell_angle_gamma                90
_cell_volume                     6602.36
_exptl_crystal_colour            red
_exptl_crystal_description       block
_cell_formula_units_Z            2
loop_
_atom_site_label
_atom_site_type_symbol
_atom_site_fract_x
_atom_site_fract_y
_atom_site_fract_z
C59 C 0.3374(3) 0.7617(3) -0.1695(2)
H49 H 0.3677 0.7738 -0.2020
Cl1 Cl 0.36848(14) 0.67480(14) -0.13350(11)
Cl2 Cl 0.24218(8) 0.75517(9) -0.20750(9)
Cl3 Cl 0.34936(17) 0.83476(17) -0.11219(16)
C60 C 0.2518(9) 0.7293(9) 0.0396(10)
H50 H 0.2240 0.7082 0.0710
Cl4 Cl 0.3294(4) 0.6701(4) 0.0411(4)
Cl5 Cl 0.1887(3) 0.7293(3) -0.0341(3)
Cl6 Cl 0.2780(2) 0.8222(2) 0.0659(2)
C61 C 0.1483(7) 0.9535(7) -0.0211(6)
H51 H 0.1470 0.8977 -0.0222
Cl7 Cl 0.2246(2) 0.9804(3) -0.0522(2)
Cl8 Cl 0.06386(15) 0.9848(2) -0.06860(12)
Cl9 Cl 0.1549(2) 0.9803(3) 0.06032(18)
C62 C 0.4466(9) 0.6631(12) 0.4638(7)
H52 H 0.4494 0.6090 0.4530
Cl10 Cl 0.4725(5) 0.7172(2) 0.4008(2)
Cl11 Cl 0.5109(3) 0.6800(5) 0.5332(2)
Cl12 Cl 0.3557(2) 0.6813(3) 0.4784(4)
C1 C 0.74393(15) 0.50926(17) 0.14827(13)
C2 C 0.80119(15) 0.45495(17) 0.14064(14)
H1 H 0.8211 0.4173 0.1698
C3 C 0.82055(15) 0.46879(17) 0.08347(14)
H2 H 0.8564 0.4424 0.0658
C4 C 0.77581(14) 0.53169(17) 0.05479(13)
C5 C 0.78324(16) 0.56888(18) -0.00215(13)
C6 C 0.74067(17) 0.63145(19) -0.02978(14)
C7 C 0.75212(19) 0.6713(2) -0.08671(15)
H3 H 0.7873 0.6592 -0.1119
C8 C 0.70289(19) 0.7289(2) -0.09645(16)
H4 H 0.6975 0.7642 -0.1297
C9 C 0.65957(16) 0.72621(18) -0.04593(13)
C10 C 0.60402(16) 0.77880(17) -0.03841(13)
C11 C 0.56387(15) 0.77955(16) 0.01200(13)
C12 C 0.50998(17) 0.83685(17) 0.02153(14)
H5 H 0.4919 0.8762 -0.0065
C13 C 0.49064(17) 0.82280(17) 0.07865(14)
H6 H 0.4570 0.8509 0.0976
C14 C 0.53176(15) 0.75593(16) 0.10510(13)
C15 C 0.53226(16) 0.72626(16) 0.16646(13)
C16 C 0.57518(16) 0.66468(17) 0.19469(13)
C17 C 0.5773(2) 0.63790(19) 0.25923(15)
H7 H 0.5490 0.6566 0.2883
C18 C 0.6278(2) 0.5807(2) 0.26955(14)
H8 H 0.6413 0.5529 0.3073
C19 C 0.65722(17) 0.57026(18) 0.21158(13)
C20 C 0.71302(16) 0.51821(17) 0.20361(13)
C21 C 0.84806(17) 0.5450(2) -0.03290(14)
C22 C 0.84950(18) 0.4767(2) -0.06346(15)
H9 H 0.8089 0.4435 -0.0663
C23 C 0.91211(17) 0.45613(19) -0.09074(15)
C24 C 0.97219(18) 0.5046(2) -0.08556(15)
H10 H 1.0142 0.4902 -0.1021
C25 C 0.97144(19) 0.5743(2) -0.05633(16)
H11 H 1.0118 0.6076 -0.0544
C26 C 0.90958(18) 0.5944(2) -0.02966(15)
H12 H 0.9090 0.6414 -0.0094
C27 C 0.59154(17) 0.84489(19) -0.08392(14)
C28 C 0.54259(16) 0.84112(19) -0.14204(14)
H13 H 0.5166 0.7961 -0.1541
C29 C 0.53141(16) 0.90429(18) -0.18337(14)
C30 C 0.5706(2) 0.9709(2) -0.16489(17)
H14 H 0.5633 1.0131 -0.1919
C31 C 0.6201(3) 0.9756(2) -0.10730(19)
H15 H 0.6465 1.0205 -0.0955
C32 C 0.6304(2) 0.9130(2) -0.06706(18)
H16 H 0.6638 0.9162 -0.0280
C33 C 0.49022(17) 0.77159(17) 0.20854(13)
C34 C 0.41398(19) 0.7644(2) 0.20574(16)
H17 H 0.3869 0.7290 0.1779
C35 C 0.37609(17) 0.8100(2) 0.24434(16)
C36 C 0.41728(19) 0.86156(18) 0.28565(15)
H18 H 0.3930 0.8923 0.3112
C37 C 0.49383(19) 0.86820(18) 0.28955(16)
H19 H 0.5213 0.9023 0.3184
C38 C 0.52975(18) 0.82437(18) 0.25080(15)
H20 H 0.5814 0.8301 0.2529
C39 C 0.74904(17) 0.47289(18) 0.26154(13)
C40 C 0.71367(19) 0.41270(19) 0.28490(14)
H21 H 0.6654 0.3988 0.2645
C41 C 0.74941(18) 0.37198(17) 0.33895(15)
C42 C 0.82133(18) 0.39337(19) 0.36904(14)
H22 H 0.8456 0.3664 0.4048
C43 C 0.85670(19) 0.4529(2) 0.34708(16)
H23 H 0.9048 0.4671 0.3679
C44 C 0.82081(19) 0.4928(2) 0.29330(16)
H24 H 0.8454 0.5336 0.2783
C45 C 0.9173(4) 0.3800(3) -0.1189(3)
H25 H 0.9625 0.3659 -0.1305
N1 N 0.8635(3) 0.3329(3) -0.1282(2)
C46 C 0.8756(3) 0.2622(4) -0.1612(3)
H26 H 0.8660 0.2190 -0.1354
H27 H 0.9277 0.2595 -0.1667
C47 C 0.8228(3) 0.2588(5) -0.2271(3)
H28 H 0.8315 0.3028 -0.2523
H29 H 0.8339 0.2134 -0.2498
N2 N 0.7442(2) 0.2573(4) -0.2200(3)
C48 C 0.7040(2) 0.2023(4) -0.2473(3)
H30 H 0.7268 0.1676 -0.2707
C49 C 0.47820(17) 0.90136(19) -0.24492(14)
H31 H 0.4753 0.9434 -0.2719
C50 C 0.3812(2) 0.8545(2) -0.32318(18)
H32 H 0.3939 0.8994 -0.3457
H33 H 0.3315 0.8622 -0.3133
C51 C 0.3799(2) 0.7859(2) -0.36586(17)
H34 H 0.3480 0.7962 -0.4071
H35 H 0.4305 0.7757 -0.3730
N3 N 0.35154(18) 0.71886(18) -0.33700(14)
C52 C 0.2881(2) 0.6929(2) -0.36408(16)
H36 H 0.2638 0.7159 -0.4018
C53 C 0.5856(3) 0.4807(3) 0.0005(3)
H37 H 0.6194 0.4554 0.0351
H38 H 0.6149 0.4973 -0.0309
C54 C 0.5247(3) 0.4243(4) -0.0311(3)
H39 H 0.5279 0.4179 -0.0760
H40 H 0.5334 0.3751 -0.0103
C55 C 0.4960(3) 0.5834(3) -0.0235(3)
H41 H 0.5213 0.6035 -0.0564
H42 H 0.4725 0.6256 -0.0053
C56 C 0.4349(3) 0.5269(3) -0.0542(3)
H43 H 0.3860 0.5450 -0.0479
H44 H 0.4339 0.5242 -0.1000
C57 C 0.5079(3) 0.5156(4) 0.0768(3)
H45 H 0.5429 0.4904 0.1106
H46 H 0.4841 0.5570 0.0959
C58 C 0.4475(4) 0.4587(4) 0.0455(3)
H47 H 0.3982 0.4759 0.0513
H48 H 0.4571 0.4093 0.0659
N4 N 0.72760(12) 0.55428(14) 0.09421(10)
N5 N 0.68330(13) 0.66572(14) -0.00652(11)
N6 N 0.57466(12) 0.72949(13) 0.06266(10)
N7 N 0.62331(13) 0.62154(13) 0.16626(11)
N8 N 0.43646(15) 0.84528(16) -0.26309(12)
N9 N 0.55132(12) 0.54820(13) 0.02636(10)
Zn1 Zn 0.63788(2) 0.62975(2) 0.07178(2)
C1B C 0.25607 0.49074 -0.14827
C2B C 0.19881 0.54505 -0.14064
H1B H 0.1789 0.5827 -0.1698
C3B C 0.17945 0.53121 -0.08347
H2B H 0.1436 0.5576 -0.0658
C4B C 0.22419 0.46831 -0.05479
C5B C 0.21676 0.43112 0.00215
C6B C 0.25933 0.36855 0.02978
C7B C 0.24788 0.3287 0.08671
H3B H 0.2127 0.3408 0.1119
C8B C 0.29711 0.2711 0.09645
H4B H 0.3025 0.2358 0.1297
C9B C 0.34043 0.27379 0.04593
C10B C 0.39598 0.2212 0.03841
C11B C 0.43613 0.22045 -0.012
C12B C 0.49002 0.16315 -0.02153
H5B H 0.5081 0.1238 0.0065
C13B C 0.50936 0.1772 -0.07865
H6B H 0.543 0.1491 -0.0976
C14B C 0.46824 0.24407 -0.1051
C15B C 0.46774 0.27374 -0.16646
C16B C 0.42482 0.33532 -0.19469
C17B C 0.4227 0.3621 -0.25923
H7B H 0.451 0.3434 -0.2883
C18B C 0.3722 0.4193 -0.26955
H8B H 0.3587 0.4471 -0.3073
C19B C 0.34278 0.42974 -0.21158
C20B C 0.28698 0.48179 -0.20361
C21B C 0.15194 0.455 0.0329
C22B C 0.1505 0.5233 0.06346
H9B H 0.1911 0.5565 0.0663
C23B C 0.08789 0.54387 0.09074
C24B C 0.02781 0.4954 0.08556
H10B H -0.0142 0.5098 0.1021
C25B C 0.02856 0.4257 0.05633
H11B H -0.0118 0.3924 0.0544
C26B C 0.09042 0.4056 0.02966
H12B H 0.091 0.3586 0.0094
C27B C 0.40846 0.15511 0.08392
C28B C 0.45741 0.15888 0.14204
H13B H 0.4834 0.2039 0.1541
C29B C 0.46859 0.09571 0.18337
C30B C 0.4294 0.0291 0.16489
H14B H 0.4367 -0.0131 0.1919
C31B C 0.3799 0.0244 0.1073
H15B H 0.3535 -0.0205 0.0955
C32B C 0.3696 0.087 0.06706
H16B H 0.3362 0.0838 0.028
C33B C 0.50978 0.22841 -0.20854
C34B C 0.58602 0.2356 -0.20574
H17B H 0.6131 0.271 -0.1779
C35B C 0.62391 0.19 -0.24434
C36B C 0.58272 0.13844 -0.28565
H18B H 0.607 0.1077 -0.3112
C37B C 0.50617 0.1318 -0.28955
H19B H 0.4787 0.0977 -0.3184
C38B C 0.47025 0.17563 -0.2508
H20B H 0.4186 0.1699 -0.2529
C39B C 0.25096 0.52711 -0.26154
C40B C 0.28633 0.5873 -0.2849
H21B H 0.3346 0.6012 -0.2645
C41B C 0.25059 0.62802 -0.33895
C42B C 0.17867 0.60663 -0.36904
H22B H 0.1544 0.6336 -0.4048
C43B C 0.1433 0.5471 -0.34708
H23B H 0.0952 0.5329 -0.3679
C44B C 0.17919 0.5072 -0.2933
H24B H 0.1546 0.4664 -0.2783
C45B C 0.0827 0.62 0.1189
H25B H 0.0375 0.6341 0.1305
N1B N 0.1365 0.6671 0.1282
C46B C 0.1244 0.7378 0.1612
H26B H 0.134 0.781 0.1354
H27B H 0.0723 0.7405 0.1667
C47B C 0.1772 0.7412 0.2271
H28B H 0.1685 0.6972 0.2523
H29B H 0.1661 0.7866 0.2498
N2B N 0.2558 0.7427 0.22
C48B C 0.296 0.7977 0.2473
H30B H 0.2732 0.8324 0.2707
C49B C 0.5218 0.09864 0.24492
H31B H 0.5247 0.0566 0.2719
C50B C 0.6188 0.1455 0.32318
H32B H 0.6061 0.1006 0.3457
H33B H 0.6685 0.1378 0.3133
C51B C 0.6201 0.2141 0.36586
H34B H 0.652 0.2038 0.4071
H35B H 0.5695 0.2243 0.373
N3B N 0.64846 0.28114 0.337
C52B C 0.7119 0.3071 0.36408
H36B H 0.7362 0.2841 0.4018
N4B N 0.2724 0.44572 -0.09421
N5B N 0.3167 0.33428 0.00652
N6B N 0.42534 0.27051 -0.06266
N7B N 0.37669 0.37846 -0.16626
N8B N 0.56354 0.15472 0.26309
C53B C 0.4144 0.5193 -0.0005
H37B H 0.3806 0.5446 -0.0351
H38B H 0.3851 0.5027 0.0309
C54B C 0.4753 0.5757 0.0311
H39B H 0.4721 0.5821 0.076
H40B H 0.4666 0.6249 0.0103
C55B C 0.504 0.4166 0.0235
H41B H 0.4787 0.3965 0.0564
H42B H 0.5275 0.3744 0.0053
C56B C 0.5651 0.4731 0.0542
H43B H 0.614 0.455 0.0479
H44B H 0.5661 0.4758 0.1
C57B C 0.4921 0.4844 -0.0768
H45B H 0.4571 0.5096 -0.1106
H46B H 0.5159 0.443 -0.0959
C58B C 0.5525 0.5413 -0.0455
H47B H 0.6018 0.5241 -0.0513
H48B H 0.5429 0.5907 -0.0659
N9B N 0.44868 0.4518 -0.02636
Zn1B Zn 0.36212 0.37025 -0.07178
C63? C 0.9059(12) 0.3925(12) -0.1367(10)
H53? H 0.9504 0.3796 -0.1501
N10? N 0.8484(12) 0.3525(15) -0.1609(15)
C64? C 0.8575(16) 0.2895(14) -0.2045(15)
H54? H 0.9105 0.2843 -0.2065
H55? H 0.8304 0.3015 -0.2473
C65? C 0.8282(8) 0.2126(12) -0.1827(12)
H56? H 0.8383 0.1718 -0.2107
H57? H 0.8532 0.2008 -0.1392
N11? N 0.7482(7) 0.2202(14) -0.1857(10)
C66? C 0.7052(10) 0.1783(12) -0.2252(8)
H58? H 0.7267 0.1375 -0.2432
C67? C 0.4037(15) 0.834(2) -0.3314(9)
H59? H 0.4251 0.7902 -0.3487
H60? H 0.4113 0.8790 -0.3564
C68? C 0.3215(15) 0.8226(14) -0.3304(15)
H61? H 0.3058 0.8580 -0.3004
H62? H 0.2920 0.8330 -0.3727
N12? N 0.3075(14) 0.7452(13) -0.3119(12)
C69? C 0.2512(15) 0.7120(2) -0.3420(14)
H63? H 0.2109 0.7389 -0.3655
C70? C 0.7952(13) -0.0809(15) -0.2713(10)
H64? H 0.7610 -0.1195 -0.2940
Cl13? Cl 0.8329(12) -0.1243(9) -0.1988(6)
Cl14? Cl 0.8575(7) -0.0658(9) -0.3198(7)
Cl15? Cl 0.7366(9) -0.0039(9) -0.2650(5)
C71? C 0.9987(15) 0.1224(13) -0.2418(9)
H65? H 1.0433 0.1552 -0.2317
Cl16? Cl 0.9380(3) 0.1604(4) -0.3057(2)
Cl17? Cl 1.0274(4) 0.0312(4) -0.2576(4)
Cl18? Cl 0.9576(13) 0.1157(10) -0.1740(5)
C72? C 0.9728(19) 0.1475(18) -0.2422(13)
H66? H 1.0196 0.1752 -0.2436
Cl19? Cl 0.9332(19) 0.1111(13) -0.3161(9)
Cl20? Cl 0.9025(12) 0.2078(12) -0.2260(9)
Cl21? Cl 0.9871(16) 0.0736(19) -0.1857(11)
C73? C 0.3294(12) 0.7590(14) -0.1646(17)
H67? H 0.3404 0.7554 -0.2081
Cl22? Cl 0.3838(13) 0.6973(12) -0.1131(11)
Cl23? Cl 0.2345(8) 0.7418(11) -0.1644(19)
Cl24? Cl 0.3499(13) 0.8498(11) -0.1321(11)
C74? C 0.2465(11) 0.7319(11) 0.0468(14)
H68? H 0.2344 0.7231 0.0893
Cl25? Cl 0.3118(7) 0.6680(8) 0.0309(8)
Cl26? Cl 0.1666(6) 0.7256(6) -0.0126(8)
Cl27? Cl 0.2834(6) 0.8240(5) 0.0412(8)
C75? C 0.1410(14) 0.9299(18) -0.0224(11)
H69? H 0.1644 0.8796 -0.0229
Cl28? Cl 0.1954(12) 0.9934(11) -0.0529(7)
Cl29? Cl 0.0513(8) 0.9250(14) -0.0698(7)
Cl30? Cl 0.1442(15) 0.9554(16) 0.0573(9)
C76? C 0.4385(10) 0.6645(16) 0.4701(8)
H70? H 0.4560 0.6119 0.4677
Cl31? Cl 0.4199(9) 0.7017(8) 0.3905(4)
Cl32? Cl 0.5120(5) 0.7167(6) 0.5126(6)
Cl33? Cl 0.3533(8) 0.6615(12) 0.4982(6)
C77? C 0.8122(10) -0.0493(16) -0.2721(10)
H71? H 0.7948 -0.0966 -0.2947
Cl34? Cl 0.9039(8) -0.0629(8) -0.2331(12)
Cl35? Cl 0.8112(6) 0.0197(6) -0.3275(4)
Cl36? Cl 0.7568(14) -0.0328(12) -0.2149(8)
C78? C 0.7960(9) -0.0663(12) -0.2725(8)
H72? H 0.7777 -0.1124 -0.2965
Cl37? Cl 0.8719(5) -0.0915(6) -0.2133(2)
Cl38? Cl 0.8246(7) -0.0048(9) -0.3240(5)
Cl39? Cl 0.7250(4) -0.0334(4) -0.2344(5)
C79? C 0.9611(16) 0.059(2) -0.2454(13)
H73? H 0.9798 0.0090 -0.2553
Cl40? Cl 0.9867(11) 0.1219(14) -0.2980(10)
Cl41? Cl 0.8643(13) 0.052(2) -0.2523(16)
Cl42? Cl 1.0096(16) 0.085(2) -0.1689(11)
C80? C 0.9647(17) 0.0542(19) -0.2451(12)
H74? H 0.9993 0.0110 -0.2354
Cl43? Cl 1.0187(10) 0.1331(10) -0.2288(10)
Cl44? Cl 0.912(2) 0.036(3) -0.3197(10)
Cl45? Cl 0.9055(14) 0.050(2) -0.1889(9)

#END

