
#######################################################################
#
#                 Cambridge Crystallographic Data Centre
#                                CCDC 
#
#######################################################################
#
# If this CIF has been generated directly or indirectly from an entry in the 
# Cambridge Structural Database, then it will include bibliographic, chemical, 
# crystal, experimental, refinement or atomic coordinate data resulting from 
# the CCDC's data processing and validation procedures. Files generated from 
# CSD entries are Copyright 2015 Cambridge Crystallographic Data Centre. They 
# may be used in bona fide research applications only, and may not be copied or 
# further disseminated in any form, whether machine-readable or not, except for 
# the purposes of generating routine backup copies on your local computer 
# system.
# 
# Files arising from any other source may also contain material that is the 
# copyright of third parties, including the originator, and you should check 
# with the originator concerning the permitted uses of the information 
# contained in this CIF.
#
# For further information on the CCDC and the free tools enCIFer and Mercury
# for validating and visualising CIF files, please visit www.ccdc.cam.ac.uk
#
#######################################################################

data_LEJPIB
_audit_creation_date             2012-11-29
_database_code_depnum_ccdc_archive 'CCDC 876256'
_chemical_formula_moiety         'C48 H48 N12,C66 H72 N12,1.5(N2)'
_chemical_name_systematic        
'3,6,10,13,17,20,24,27,30,33,36,39-Dodeca-aza-1,8,15,22(1,3,5)-tetrabenzenatricyclo[13.13.6.6^8,22^]tetracontaphane-2,6,9,13,16,20,24,27,29,33,35,39-dodecaene (R)-3,5,9,11,15,17,21,23,26,28,31,33-dodeca-aza-1,7,13,19(1,3,5)-tetrabenzena-4,10,16,22,27,32(1,2)-hexacyclopentanatricyclo[11.11.5.5^7,19^]tetratriacontaphane-2,5,8,11,14,17 20,23,25,28,30,33-dodecaene dinitrogen'
_journal_coden_Cambridge         179
_journal_volume                  51
_journal_year                    2012
_journal_page_first              7154
_journal_name_full               Angew.Chem.,Int.Ed.
loop_
_publ_author_name
T.Hasell
S.Y.Chong
M.Schmidtmann
D.J.Adams
A.I.Cooper
_chemical_absolute_configuration unk
_diffrn_ambient_temperature      100
_exptl_crystal_density_meas      0.947
_exptl_crystal_density_diffrn    0.947
#These two values have been output from a single CSD field.
_refine_ls_R_factor_gt           0.0434
_refine_ls_wR_factor_gt          0.0434
_diffrn_radiation_probe          x-ray
_symmetry_cell_setting           cubic
_symmetry_space_group_name_H-M   'F 2 3'
_symmetry_Int_Tables_number      196
loop_
_symmetry_equiv_pos_site_id
_symmetry_equiv_pos_as_xyz
1 x,y,z
2 -x,-y,z
3 -x,y,-z
4 x,-y,-z
5 z,x,y
6 z,-x,-y
7 -z,-x,y
8 -z,x,-y
9 y,z,x
10 -y,z,-x
11 y,-z,-x
12 -y,-z,x
13 x,1/2+y,1/2+z
14 -x,1/2-y,1/2+z
15 -x,1/2+y,1/2-z
16 x,1/2-y,1/2-z
17 z,1/2+x,1/2+y
18 z,1/2-x,1/2-y
19 -z,1/2-x,1/2+y
20 -z,1/2+x,1/2-y
21 y,1/2+z,1/2+x
22 -y,1/2+z,1/2-x
23 y,1/2-z,1/2-x
24 -y,1/2-z,1/2+x
25 1/2+x,y,1/2+z
26 1/2-x,-y,1/2+z
27 1/2-x,y,1/2-z
28 1/2+x,-y,1/2-z
29 1/2+z,x,1/2+y
30 1/2+z,-x,1/2-y
31 1/2-z,-x,1/2+y
32 1/2-z,x,1/2-y
33 1/2+y,z,1/2+x
34 1/2-y,z,1/2-x
35 1/2+y,-z,1/2-x
36 1/2-y,-z,1/2+x
37 1/2+x,1/2+y,z
38 1/2-x,1/2-y,z
39 1/2-x,1/2+y,-z
40 1/2+x,1/2-y,-z
41 1/2+z,1/2+x,y
42 1/2+z,1/2-x,-y
43 1/2-z,1/2-x,y
44 1/2-z,1/2+x,-y
45 1/2+y,1/2+z,x
46 1/2-y,1/2+z,-x
47 1/2+y,1/2-z,-x
48 1/2-y,1/2-z,x
_cell_length_a                   23.5795(6)
_cell_length_b                   23.5795(6)
_cell_length_c                   23.5795(6)
_cell_angle_alpha                90
_cell_angle_beta                 90
_cell_angle_gamma                90
_cell_volume                     13110
_exptl_crystal_colour            colorless
_exptl_crystal_description       'truncated tetrahedron'
_cell_formula_units_Z            4
loop_
_atom_site_label
_atom_site_type_symbol
_atom_site_fract_x
_atom_site_fract_y
_atom_site_fract_z
N2 N 0.55066(5) -0.23541(5) -0.03471(6)
C7 C 0.51472(7) -0.28525(6) -0.02848(7)
H10 H 0.5381 -0.3199 -0.0321
H11 H 0.4860 -0.2857 -0.0591
C8 C 0.53737(7) -0.20146(6) -0.07423(6)
H12 H 0.5049 -0.2098 -0.0965
C9 C 0.56988(6) -0.14972(5) -0.08724(6)
C10 C 0.61741(6) -0.13395(6) -0.05485(6)
H13 H 0.6275 -0.1555 -0.0224
N2B N 0.44934 -0.23541 0.03471
N2FA N 0.26459 -0.03471 0.05066
N2HA N 0.26459 0.03471 -0.05066
N2NA N 0.46529 0.05066 -0.23541
N2PA N 0.53471 -0.05066 -0.23541
N2GA N 0.73541 -0.03471 -0.05066
N2IA N 0.73541 0.03471 0.05066
N2QA N 0.53471 0.05066 0.23541
N2OA N 0.46529 -0.05066 0.23541
N2C N 0.55066 0.23541 0.03471
N2A N 0.44934 0.23541 -0.03471
C7B C 0.48528 -0.28525 0.02848
C7FA C 0.21475 -0.02848 0.01472
C7HA C 0.21475 0.02848 -0.01472
C7NA C 0.47152 0.01472 -0.28525
C7PA C 0.52848 -0.01472 -0.28525
C7GA C 0.78525 -0.02848 -0.01472
C7IA C 0.78525 0.02848 0.01472
C7QA C 0.52848 0.01472 0.28525
C7OA C 0.47152 -0.01472 0.28525
C7C C 0.51472 0.28525 0.02848
C7A C 0.48528 0.28525 -0.02848
H10OA H 0.4679 -0.0381 0.3199
H10QA H 0.5321 0.0381 0.3199
H10A H 0.4619 0.3199 -0.0321
H10C H 0.5381 0.3199 0.0321
H10IA H 0.8199 0.0321 0.0381
H10GA H 0.8199 -0.0321 -0.0381
H10PA H 0.5321 -0.0381 -0.3199
H10NA H 0.4679 0.0381 -0.3199
H10HA H 0.1801 0.0321 -0.0381
H10FA H 0.1801 -0.0321 0.0381
H10B H 0.4619 -0.3199 0.0321
H11OA H 0.4409 0.014 0.2857
H11QA H 0.5591 -0.014 0.2857
H11A H 0.514 0.2857 -0.0591
H11C H 0.486 0.2857 0.0591
H11IA H 0.7857 0.0591 -0.014
H11GA H 0.7857 -0.0591 0.014
H11PA H 0.5591 0.014 -0.2857
H11NA H 0.4409 -0.014 -0.2857
H11HA H 0.2143 0.0591 0.014
H11FA H 0.2143 -0.0591 -0.014
H11B H 0.514 -0.2857 0.0591
C8B C 0.46263 -0.20146 0.07423
C8FA C 0.29854 -0.07423 0.03737
C8HA C 0.29854 0.07423 -0.03737
C8NA C 0.42577 0.03737 -0.20146
C8PA C 0.57423 -0.03737 -0.20146
C8GA C 0.70146 -0.07423 -0.03737
C8IA C 0.70146 0.07423 0.03737
C8QA C 0.57423 0.03737 0.20146
C8OA C 0.42577 -0.03737 0.20146
C8C C 0.53737 0.20146 0.07423
C8A C 0.46263 0.20146 -0.07423
H12B H 0.4951 -0.2098 0.0965
H12HA H 0.2902 0.0965 -0.0049
H12PA H 0.5965 -0.0049 -0.2098
H12IA H 0.7098 0.0965 0.0049
H12OA H 0.4035 -0.0049 0.2098
H12QA H 0.5965 0.0049 0.2098
H12A H 0.4951 0.2098 -0.0965
H12C H 0.5049 0.2098 0.0965
H12GA H 0.7098 -0.0965 -0.0049
H12NA H 0.4035 0.0049 -0.2098
H12FA H 0.2902 -0.0965 0.0049
C9B C 0.43012 -0.14972 0.08724
C9FA C 0.35028 -0.08724 0.06988
C9HA C 0.35028 0.08724 -0.06988
C9NA C 0.41276 0.06988 -0.14972
C9PA C 0.58724 -0.06988 -0.14972
C9GA C 0.64972 -0.08724 -0.06988
C9IA C 0.64972 0.08724 0.06988
C9QA C 0.58724 0.06988 0.14972
C9OA C 0.41276 -0.06988 0.14972
C9C C 0.56988 0.14972 0.08724
C9A C 0.43012 0.14972 -0.08724
C10B C 0.38259 -0.13395 0.05485
C10HA C 0.36605 0.05485 -0.11741
C10PA C 0.55485 -0.11741 -0.13395
C10IA C 0.63395 0.05485 0.11741
C10OA C 0.44515 -0.11741 0.13395
C10FA C 0.36605 -0.05485 0.11741
C10QA C 0.55485 0.11741 0.13395
C10A C 0.38259 0.13395 -0.05485
C10NA C 0.44515 0.11741 -0.13395
C10C C 0.61741 0.13395 0.05485
C10GA C 0.63395 -0.05485 -0.11741
H13OA H 0.4776 -0.1275 0.1555
H13FA H 0.3445 -0.0224 0.1275
H13A H 0.3725 0.1555 -0.0224
H13NA H 0.4776 0.1275 -0.1555
H13C H 0.6275 0.1555 0.0224
H13QA H 0.5224 0.1275 0.1555
H13IA H 0.6555 0.0224 0.1275
H13GA H 0.6555 -0.0224 -0.1275
H13PA H 0.5224 -0.1275 -0.1555
H13HA H 0.3445 0.0224 -0.1275
H13B H 0.3725 -0.1555 0.0224
N3 N 0.2500 0.2500 0.2500
N4 N 0.5000 0.0000 0.0000
N5 N 0.3740(10) 0.1260(10) 0.1260(10)
N1 N 0.48799(4) 0.28927(4) 0.19913(4)
C1 C 0.53447(5) 0.28006(6) 0.23824(6)
H1 H 0.5316 0.3077 0.2703
C2 C 0.59312(5) 0.28481(8) 0.21104(8)
H4 H 0.6033(17) 0.3239(6) 0.1995(17)
H5 H 0.5954(17) 0.2620(13) 0.1759(9)
C3 C 0.63138(9) 0.26256(18) 0.25980(19)
C4 C 0.45257(5) 0.32754(5) 0.21236(6)
H8 H 0.4587 0.3486 0.2462
C5 C 0.40247(5) 0.34085(5) 0.17784(5)
C6 C 0.36937(5) 0.38761(5) 0.19184(6)
H9 H 0.3790 0.4098 0.2241
N1O N 0.48799 0.21073 0.30087
N1PA N 0.30087 0.01201 0.28927
N1Q N 0.19913 0.01201 0.21073
N1GA N 0.21073 0.19913 0.01201
N1V N 0.28927 0.30087 0.01201
N1EA N 0.30087 0.48799 0.21073
N1D N 0.19913 0.48799 0.28927
N1UA N 0.21073 0.30087 0.48799
N1H N 0.28927 0.19913 0.48799
N1Z N 0.01201 0.28927 0.30087
N1KA N 0.01201 0.21073 0.19913
C1O C 0.53447 0.21994 0.26176
C1PA C 0.26176 -0.03447 0.28006
C1Q C 0.23824 -0.03447 0.21994
C1GA C 0.21994 0.23824 -0.03447
C1V C 0.28006 0.26176 -0.03447
C1EA C 0.26176 0.53447 0.21994
C1D C 0.23824 0.53447 0.28006
C1UA C 0.21994 0.26176 0.53447
C1H C 0.28006 0.23824 0.53447
C1Z C -0.03447 0.28006 0.26176
C1KA C -0.03447 0.21994 0.23824
H1H H 0.3077 0.2703 0.5316
H1UA H 0.1923 0.2297 0.5316
H1KA H -0.0316 0.1923 0.2703
H1Z H -0.0316 0.3077 0.2297
H1D H 0.2703 0.5316 0.3077
H1EA H 0.2297 0.5316 0.1923
H1V H 0.3077 0.2297 -0.0316
H1GA H 0.1923 0.2703 -0.0316
H1Q H 0.2703 -0.0316 0.1923
H1PA H 0.2297 -0.0316 0.3077
H1O H 0.5316 0.1923 0.2297
C2H C 0.28481 0.21104 0.59312
C2UA C 0.21519 0.28896 0.59312
C2KA C -0.09312 0.21519 0.21104
C2Z C -0.09312 0.28481 0.28896
C2D C 0.21104 0.59312 0.28481
C2EA C 0.28896 0.59312 0.21519
C2V C 0.28481 0.28896 -0.09312
C2GA C 0.21519 0.21104 -0.09312
C2Q C 0.21104 -0.09312 0.21519
C2PA C 0.28896 -0.09312 0.28481
C2O C 0.59312 0.21519 0.28896
H4H H 0.3239 0.1995 0.6033
H4UA H 0.1761 0.3005 0.6033
H4KA H -0.1033 0.1761 0.1995
H4Z H -0.1033 0.3239 0.3005
H4D H 0.1995 0.6033 0.3239
H4EA H 0.3005 0.6033 0.1761
H4V H 0.3239 0.3005 -0.1033
H4GA H 0.1761 0.1995 -0.1033
H4Q H 0.1995 -0.1033 0.1761
H4PA H 0.3005 -0.1033 0.3239
H4O H 0.6033 0.1761 0.3005
H5H H 0.262 0.1759 0.5954
H5UA H 0.238 0.3241 0.5954
H5KA H -0.0954 0.238 0.1759
H5Z H -0.0954 0.262 0.3241
H5D H 0.1759 0.5954 0.262
H5EA H 0.3241 0.5954 0.238
H5V H 0.262 0.3241 -0.0954
H5GA H 0.238 0.1759 -0.0954
H5Q H 0.1759 -0.0954 0.238
H5PA H 0.3241 -0.0954 0.262
H5O H 0.5954 0.238 0.3241
C3H C 0.26256 0.2598 0.63138
C3UA C 0.23744 0.2402 0.63138
C3KA C -0.13138 0.23744 0.2598
C3Z C -0.13138 0.26256 0.2402
C3D C 0.2598 0.63138 0.26256
C3EA C 0.2402 0.63138 0.23744
C3V C 0.26256 0.2402 -0.13138
C3GA C 0.23744 0.2598 -0.13138
C3Q C 0.2598 -0.13138 0.23744
C3PA C 0.2402 -0.13138 0.26256
C3O C 0.63138 0.23744 0.2402
C4O C 0.45257 0.17246 0.28764
C4PA C 0.28764 0.04743 0.32754
C4Q C 0.21236 0.04743 0.17246
C4GA C 0.17246 0.21236 0.04743
C4V C 0.32754 0.28764 0.04743
C4EA C 0.28764 0.45257 0.17246
C4D C 0.21236 0.45257 0.32754
C4UA C 0.17246 0.28764 0.45257
C4H C 0.32754 0.21236 0.45257
C4Z C 0.04743 0.32754 0.28764
C4KA C 0.04743 0.17246 0.21236
H8O H 0.4587 0.1514 0.2538
H8Q H 0.2462 0.0413 0.1514
H8V H 0.3486 0.2538 0.0413
H8D H 0.2462 0.4587 0.3486
H8H H 0.3486 0.2462 0.4587
H8UA H 0.1514 0.2538 0.4587
H8KA H 0.0413 0.1514 0.2462
H8Z H 0.0413 0.3486 0.2538
H8EA H 0.2538 0.4587 0.1514
H8GA H 0.1514 0.2462 0.0413
H8PA H 0.2538 0.0413 0.3486
C5O C 0.40247 0.15915 0.32216
C5PA C 0.32216 0.09753 0.34085
C5Q C 0.17784 0.09753 0.15915
C5GA C 0.15915 0.17784 0.09753
C5V C 0.34085 0.32216 0.09753
C5EA C 0.32216 0.40247 0.15915
C5D C 0.17784 0.40247 0.34085
C5UA C 0.15915 0.32216 0.40247
C5H C 0.34085 0.17784 0.40247
C5Z C 0.09753 0.34085 0.32216
C5KA C 0.09753 0.15915 0.17784
C6O C 0.36937 0.11239 0.30816
C6Q C 0.19184 0.13063 0.11239
C6V C 0.38761 0.30816 0.13063
C6D C 0.19184 0.36937 0.38761
C6H C 0.38761 0.19184 0.36937
C6PA C 0.30816 0.13063 0.38761
C6UA C 0.11239 0.30816 0.36937
C6KA C 0.13063 0.11239 0.19184
C6GA C 0.11239 0.19184 0.13063
C6Z C 0.13063 0.38761 0.30816
C6EA C 0.30816 0.36937 0.11239
H9H H 0.4098 0.2241 0.379
H9PA H 0.2759 0.121 0.4098
H9KA H 0.121 0.0902 0.2241
H9GA H 0.0902 0.2241 0.121
H9Z H 0.121 0.4098 0.2759
H9UA H 0.0902 0.2759 0.379
H9D H 0.2241 0.379 0.4098
H9EA H 0.2759 0.379 0.0902
H9V H 0.4098 0.2759 0.121
H9Q H 0.2241 0.121 0.0902
H9O H 0.379 0.0902 0.2759
H2? H 0.6093 0.3230 0.2177
H3? H 0.5907 0.2783 0.1696
H6? H 0.6408 0.2932 0.2869
H7? H 0.6670 0.2461 0.2448

#END

