
#######################################################################
#
#                 Cambridge Crystallographic Data Centre
#                                CCDC 
#
#######################################################################
#
# If this CIF has been generated directly or indirectly from an entry in the 
# Cambridge Structural Database, then it will include bibliographic, chemical, 
# crystal, experimental, refinement or atomic coordinate data resulting from 
# the CCDC's data processing and validation procedures. Files generated from 
# CSD entries are Copyright 2015 Cambridge Crystallographic Data Centre. They 
# may be used in bona fide research applications only, and may not be copied or 
# further disseminated in any form, whether machine-readable or not, except for 
# the purposes of generating routine backup copies on your local computer 
# system.
# 
# Files arising from any other source may also contain material that is the 
# copyright of third parties, including the originator, and you should check 
# with the originator concerning the permitted uses of the information 
# contained in this CIF.
#
# For further information on the CCDC and the free tools enCIFer and Mercury
# for validating and visualising CIF files, please visit www.ccdc.cam.ac.uk
#
#######################################################################

data_MOTWUP02
_audit_creation_date             2015-01-26
_database_code_depnum_ccdc_archive 'CCDC 979934'
_chemical_formula_moiety         '2(C72 H84 N12),C72 H69 N11'
_chemical_name_systematic        
'bis(5,12,20,27,35,42,50,57,62,69,74,81-Dodecaazatridecacyclo[29.29.10.10^16,46^.1^3,59^.1^14,18^.1^29,33^.1^44,48^.0^6,11^.0^21,26^.0^36,41^.0^51,56^.0^63,68^.0^75,80^]tetraoctaconta-1,3(71),4,12,14(84),15,17,19,27,29(83),30,32,34,42,44(72),45,47,49,57,59,61,69,73,81-tetracosaene) 10,28,45-triphenyl-1,4,10,16,19,22,28,34,39,45,51-undecaazaoctacyclo[17.17.17.2^6,9^.2^11,14^.2^24,27^.2^29,32^.2^41,44^.2^46,49^]pentahexaconta-4,6,8,11,13,15,22,24,26,29,31,33,39,41,43,46,48,50,54,56,58,60,62,64-tetracosaene'
_journal_coden_Cambridge         1441
_journal_volume                  7
_journal_year                    2015
_journal_page_first              153
_journal_name_full               'Nature Chemistry'
loop_
_publ_author_name
M.A.Little
M.E.Briggs
J.T.A.Jones
M.Schmidtmann
T.Hasell
'Samantha Y.Chong'
K.E.Jelfs
'Linjiang Chen'
A.I.Cooper
_chemical_absolute_configuration unk
_diffrn_ambient_temperature      100
_exptl_crystal_density_meas      1.027
_exptl_crystal_density_diffrn    1.027
#These two values have been output from a single CSD field.
_refine_ls_R_factor_gt           0.0433
_refine_ls_wR_factor_gt          0.0433
_diffrn_radiation_probe          x-ray
_symmetry_cell_setting           rhombohedral
_symmetry_space_group_name_H-M   'R 3 2'
_symmetry_Int_Tables_number      155
loop_
_symmetry_equiv_pos_site_id
_symmetry_equiv_pos_as_xyz
1 x,y,z
2 -y,x-y,z
3 -x+y,-x,z
4 x-y,-y,-z
5 -x,-x+y,-z
6 y,x,-z
7 2/3+x,1/3+y,1/3+z
8 2/3-y,1/3+x-y,1/3+z
9 2/3-x+y,1/3-x,1/3+z
10 2/3+x-y,1/3-y,1/3-z
11 2/3-x,1/3-x+y,1/3-z
12 2/3+y,1/3+x,1/3-z
13 1/3+x,2/3+y,2/3+z
14 1/3-y,2/3+x-y,2/3+z
15 1/3-x+y,2/3-x,2/3+z
16 1/3+x-y,2/3-y,2/3-z
17 1/3-x,2/3-x+y,2/3-z
18 1/3+y,2/3+x,2/3-z
_cell_length_a                   20.4108(7)
_cell_length_b                   20.4108(7)
_cell_length_c                   44.6718(17)
_cell_angle_alpha                90
_cell_angle_beta                 90
_cell_angle_gamma                120
_cell_volume                     16117
_exptl_crystal_colour            colorless
_exptl_crystal_description       prism
_cell_formula_units_Z            3
loop_
_atom_site_label
_atom_site_type_symbol
_atom_site_fract_x
_atom_site_fract_y
_atom_site_fract_z
N1 N 0.29018(8) 0.42089(9) 0.58831(3)
N2 N 0.45155(8) 0.50924(8) 0.58043(3)
C1 C 0.51507(10) 0.62402(10) 0.53537(4)
H1 H 0.4987 0.5736 0.5292
C2 C 0.63338(10) 0.69508(10) 0.43896(4)
H2 H 0.6066 0.6386 0.4378
C3 C 0.55389(10) 0.68264(10) 0.51548(4)
C4 C 0.33984(10) 0.38947(9) 0.59338(4)
H3 H 0.3451 0.3668 0.5743
N3 N 0.52211(9) 0.68987(9) 0.41767(4)
C5 C 0.62253(12) 0.70798(12) 0.38352(4)
H4 H 0.6045 0.7299 0.3680
H5 H 0.5957 0.6525 0.3807
C6 C 0.58575(10) 0.85025(10) 0.56222(4)
H6 H 0.6088 0.8887 0.5475
N4 N 0.61884(9) 0.71843(8) 0.46802(3)
C7 C 0.57302(10) 0.66688(10) 0.48549(4)
H7 H 0.5500 0.6158 0.4790
C8 C 0.60406(10) 0.72601(10) 0.41443(4)
H8 H 0.6273 0.7820 0.4168
C9 C 0.52119(10) 0.71091(10) 0.57318(4)
H9 H 0.5099 0.7202 0.5928
C10 C 0.41797(10) 0.45156(10) 0.60368(4)
H10 H 0.4130 0.4749 0.6226
C11 C 0.46363(10) 0.57485(10) 0.58625(4)
H11 H 0.4493 0.5843 0.6053
C12 C 0.49940(10) 0.63754(10) 0.56446(4)
C13 C 0.57616(10) 0.75674(10) 0.52471(4)
H12 H 0.6029 0.7976 0.5112
C14 C 0.36343(11) 0.61885(11) 0.42861(5)
H13 H 0.3844 0.5865 0.4286
C15 C 0.70768(12) 0.73980(13) 0.37974(5)
H14 H 0.7177 0.7247 0.3600
H15 H 0.7341 0.7957 0.3805
C16 C 0.43480(12) 0.35282(12) 0.63172(5)
H16 H 0.4672 0.3296 0.6331
H17 H 0.4334 0.3732 0.6517
C17 C 0.49403(11) 0.73013(11) 0.42528(5)
H18 H 0.5268 0.7825 0.4290
C18 C 0.73801(12) 0.71088(13) 0.40416(5)
H19 H 0.7936 0.7352 0.4022
H20 H 0.7164 0.6556 0.4018
C19 C 0.71852(11) 0.72728(11) 0.43528(4)
H21 H 0.7451 0.7827 0.4386
H22 H 0.7364 0.7048 0.4506
C20 C 0.55962(10) 0.77112(10) 0.55329(4)
C21 C 0.41186(11) 0.69807(11) 0.42861(5)
C22 C 0.30534(11) 0.32809(11) 0.61744(4)
H23 H 0.3001 0.3504 0.6363
H24 H 0.2543 0.2884 0.6111
C23 C 0.46869(11) 0.41733(11) 0.60902(4)
H25 H 0.4767 0.3981 0.5898
H26 H 0.5186 0.4573 0.6163
C24 C 0.35510(12) 0.29280(11) 0.62276(5)
H27 H 0.3326 0.2543 0.6388
H28 H 0.3572 0.2672 0.6043
N1A N 0.57911 0.86929 0.58831
N2A N 0.49076 0.94231 0.58043
C1A C 0.37598 0.89105 0.53537
H1A H 0.4264 0.9251 0.5292
C2A C 0.30492 0.9383 0.43896
H2A H 0.3614 0.968 0.4378
C3A C 0.31736 0.87125 0.51548
C4A C 0.61053 0.95037 0.59338
H3A H 0.6332 0.9783 0.5743
N3A N 0.31013 0.83224 0.41767
C5A C 0.29202 0.91455 0.38352
H4A H 0.2701 0.8746 0.368
H5A H 0.3475 0.9432 0.3807
C6A C 0.14975 0.7355 0.56222
H6A H 0.1113 0.7201 0.5475
N4A N 0.28157 0.90041 0.46802
C7A C 0.33312 0.90614 0.48549
H7A H 0.3842 0.9342 0.479
C8A C 0.27399 0.87805 0.41443
H8A H 0.218 0.8453 0.4168
C9A C 0.28909 0.81028 0.57318
H9A H 0.2798 0.7897 0.5928
C10A C 0.54844 0.96641 0.60368
H10A H 0.5251 0.9381 0.6226
C11A C 0.42515 0.88878 0.58625
H11A H 0.4157 0.865 0.6053
C12A C 0.36246 0.86186 0.56446
C13A C 0.24326 0.81942 0.52471
H12A H 0.2024 0.8053 0.5112
C14A C 0.38115 0.74458 0.42861
H13A H 0.4135 0.7979 0.4286
C15A C 0.2602 0.96788 0.37974
H14A H 0.2753 0.993 0.36
H15A H 0.2043 0.9384 0.3805
C16A C 0.64718 1.08198 0.63172
H16A H 0.6704 1.1376 0.6331
H17A H 0.6268 1.0602 0.6517
C17A C 0.26987 0.7639 0.42528
H18A H 0.2175 0.7443 0.429
C18A C 0.28912 1.02713 0.40416
H19A H 0.2648 1.0584 0.4022
H20A H 0.3444 1.0608 0.4018
C19A C 0.27272 0.99124 0.43528
H21A H 0.2173 0.9624 0.4386
H22A H 0.2952 1.0316 0.4506
C20A C 0.22888 0.7885 0.55329
C21A C 0.30193 0.71379 0.42861
C22A C 0.67191 0.97725 0.61744
H23A H 0.6496 0.9497 0.6363
H24A H 0.7116 0.9659 0.6111
C23A C 0.58267 1.05136 0.60902
H25A H 0.6019 1.0786 0.5898
H26A H 0.5427 1.0613 0.6163
C24A C 0.7072 1.0623 0.62276
H27A H 0.7457 1.0783 0.6388
H28A H 0.7328 1.09 0.6043
N1B N 0.13071 0.70982 0.58831
N2B N 0.05769 0.54845 0.58043
C1B C 0.10895 0.48493 0.53537
H1B H 0.0749 0.5013 0.5292
C2B C 0.0617 0.36662 0.43896
H2B H 0.032 0.3934 0.4378
C3B C 0.12875 0.44611 0.51548
C4B C 0.04963 0.66016 0.59338
H3B H 0.0217 0.6549 0.5743
N3B N 0.16776 0.47789 0.41767
C5B C 0.08545 0.37747 0.38352
H4B H 0.1254 0.3955 0.368
H5B H 0.0568 0.4043 0.3807
C6B C 0.2645 0.41425 0.56222
H6B H 0.2799 0.3912 0.5475
N4B N 0.09959 0.38116 0.46802
C7B C 0.09386 0.42698 0.48549
H7B H 0.0658 0.45 0.479
C8B C 0.12195 0.39594 0.41443
H8B H 0.1547 0.3727 0.4168
C9B C 0.18972 0.47881 0.57318
H9B H 0.2103 0.4901 0.5928
C10B C 0.03359 0.58203 0.60368
H10B H 0.0619 0.587 0.6226
C11B C 0.11122 0.53637 0.58625
H11B H 0.135 0.5507 0.6053
C12B C 0.13814 0.5006 0.56446
C13B C 0.18058 0.42384 0.52471
H12B H 0.1947 0.3971 0.5112
C14B C 0.25542 0.63657 0.42861
H13B H 0.2021 0.6156 0.4286
C15B C 0.03212 0.29232 0.37974
H14B H 0.007 0.2823 0.36
H15B H 0.0616 0.2659 0.3805
C16B C -0.08198 0.5652 0.63172
H16B H -0.1376 0.5328 0.6331
H17B H -0.0602 0.5666 0.6517
C17B C 0.2361 0.50597 0.42528
H18B H 0.2557 0.4732 0.429
C18B C -0.02713 0.26199 0.40416
H19B H -0.0584 0.2064 0.4022
H20B H -0.0608 0.2836 0.4018
C19B C 0.00876 0.28148 0.43528
H21B H 0.0376 0.2549 0.4386
H22B H -0.0316 0.2636 0.4506
C20B C 0.2115 0.44038 0.55329
C21B C 0.28621 0.58814 0.42861
C22B C 0.02275 0.69466 0.61744
H23B H 0.0503 0.6999 0.6363
H24B H 0.0341 0.7457 0.6111
C23B C -0.05136 0.53131 0.60902
H25B H -0.0786 0.5233 0.5898
H26B H -0.0613 0.4814 0.6163
C24B C -0.0623 0.6449 0.62276
H27B H -0.0783 0.6674 0.6388
H28B H -0.09 0.6428 0.6043

#END

