
#######################################################################
#
#                 Cambridge Crystallographic Data Centre
#                                CCDC 
#
#######################################################################
#
# If this CIF has been generated directly or indirectly from an entry in the 
# Cambridge Structural Database, then it will include bibliographic, chemical, 
# crystal, experimental, refinement or atomic coordinate data resulting from 
# the CCDC's data processing and validation procedures. Files generated from 
# CSD entries are Copyright 2015 Cambridge Crystallographic Data Centre. They 
# may be used in bona fide research applications only, and may not be copied or 
# further disseminated in any form, whether machine-readable or not, except for 
# the purposes of generating routine backup copies on your local computer 
# system.
# 
# Files arising from any other source may also contain material that is the 
# copyright of third parties, including the originator, and you should check 
# with the originator concerning the permitted uses of the information 
# contained in this CIF.
#
# For further information on the CCDC and the free tools enCIFer and Mercury
# for validating and visualising CIF files, please visit www.ccdc.cam.ac.uk
#
#######################################################################

data_MOTWUP01
_audit_creation_date             2015-01-26
_database_code_depnum_ccdc_archive 'CCDC 979933'
_chemical_formula_moiety         '2(C72 H84 N12),C72 H69 N11'
_chemical_name_systematic        
'bis(5,12,20,27,35,42,50,57,62,69,74,81-Dodecaazatridecacyclo[29.29.10.10^16,46^.1^3,59^.1^14,18^.1^29,33^.1^44,48^.0^6,11^.0^21,26^.0^36,41^.0^51,56^.0^63,68^.0^75,80^]tetraoctaconta-1,3(71),4,12,14(84),15,17,19,27,29(83),30,32,34,42,44(72),45,47,49,57,59,61,69,73,81-tetracosaene) 10,28,45-triphenyl-1,4,10,16,19,22,28,34,39,45,51-undecaazaoctacyclo[17.17.17.2^6,9^.2^11,14^.2^24,27^.2^29,32^.2^41,44^.2^46,49^]pentahexaconta-4,6,8,11,13,15,22,24,26,29,31,33,39,41,43,46,48,50,54,56,58,60,62,64-tetracosaene'
_journal_coden_Cambridge         1441
_journal_volume                  7
_journal_year                    2015
_journal_page_first              153
_journal_name_full               'Nature Chemistry'
loop_
_publ_author_name
M.A.Little
M.E.Briggs
J.T.A.Jones
M.Schmidtmann
T.Hasell
'Samantha Y.Chong'
K.E.Jelfs
'Linjiang Chen'
A.I.Cooper
_chemical_absolute_configuration unk
_diffrn_ambient_temperature      450
_exptl_crystal_density_meas      0.979
_exptl_crystal_density_diffrn    0.979
#These two values have been output from a single CSD field.
_refine_ls_R_factor_gt           0.0678
_refine_ls_wR_factor_gt          0.0678
_diffrn_radiation_probe          x-ray
_symmetry_cell_setting           rhombohedral
_symmetry_space_group_name_H-M   'R 3 2'
_symmetry_Int_Tables_number      155
loop_
_symmetry_equiv_pos_site_id
_symmetry_equiv_pos_as_xyz
1 x,y,z
2 -y,x-y,z
3 -x+y,-x,z
4 x-y,-y,-z
5 -x,-x+y,-z
6 y,x,-z
7 2/3+x,1/3+y,1/3+z
8 2/3-y,1/3+x-y,1/3+z
9 2/3-x+y,1/3-x,1/3+z
10 2/3+x-y,1/3-y,1/3-z
11 2/3-x,1/3-x+y,1/3-z
12 2/3+y,1/3+x,1/3-z
13 1/3+x,2/3+y,2/3+z
14 1/3-y,2/3+x-y,2/3+z
15 1/3-x+y,2/3-x,2/3+z
16 1/3+x-y,2/3-y,2/3-z
17 1/3-x,2/3-x+y,2/3-z
18 1/3+y,2/3+x,2/3-z
_cell_length_a                   20.804(3)
_cell_length_b                   20.804(3)
_cell_length_c                   45.126(7)
_cell_angle_alpha                90
_cell_angle_beta                 90
_cell_angle_gamma                120
_cell_volume                     16914.2
_exptl_crystal_colour            colorless
_exptl_crystal_description       prism
_cell_formula_units_Z            3
loop_
_atom_site_label
_atom_site_type_symbol
_atom_site_fract_x
_atom_site_fract_y
_atom_site_fract_z
N5 N 0.4234(7) 0.6237(8) 0.5363(3)
C25 C 0.4008(5) 0.5965(4) 0.58934(11)
C26 C 0.3681(5) 0.5201(4) 0.58611(12)
H29 H 0.3606 0.4993 0.5673
C27 C 0.3467(5) 0.4746(3) 0.61100(16)
H30 H 0.3248 0.4235 0.6088
C28 C 0.3579(6) 0.5057(4) 0.63913(13)
C29 C 0.3906(5) 0.5821(4) 0.64237(10)
H31 H 0.3981 0.6029 0.6612
C30 C 0.4121(4) 0.6275(3) 0.61748(14)
H32 H 0.4339 0.6787 0.6196
C31 C 0.3958(9) 0.6548(9) 0.4881(3)
H33 H 0.3760 0.6031 0.4829
H34 H 0.4198 0.6844 0.4707
C32 C 0.4332(10) 0.6490(10) 0.5616(4)
H35 H 0.4603 0.7002 0.5644
C33 C 0.4507(8) 0.6746(8) 0.5115(3)
H36 H 0.4942 0.6753 0.5033
H37 H 0.4656 0.7242 0.5185
C34 C 0.3333 0.3941(3) 0.6667
C35 C 0.3928(2) 0.3977(4) 0.65120(12)
C36 C 0.4008(5) 0.3354(5) 0.6493(3)
C37 C 0.3493(7) 0.2695(5) 0.6629(3)
N6 N 0.3333 0.4638(3) 0.6667
N7 N 0.3333 0.6667 0.4969(2)
N5A N 0.3763 0.7997 0.5363
C25A C 0.4035 0.8043 0.58934
C26A C 0.4799 0.848 0.58611
H29A H 0.5007 0.8613 0.5673
C27A C 0.5254 0.8721 0.611
H30A H 0.5765 0.9013 0.6088
C28A C 0.4943 0.8522 0.63913
C29A C 0.4179 0.8085 0.64237
H31A H 0.3971 0.7952 0.6612
C30A C 0.3725 0.7846 0.61748
H32A H 0.3213 0.7552 0.6196
C31A C 0.3452 0.741 0.4881
H33A H 0.3969 0.7729 0.4829
H34A H 0.3156 0.7354 0.4707
C32A C 0.351 0.7842 0.5616
H35A H 0.2998 0.7601 0.5644
C33A C 0.3254 0.7761 0.5115
H36A H 0.3247 0.8189 0.5033
H37A H 0.2758 0.7414 0.5185
C34A C 0.6059 0.9392 0.6667
C35A C 0.6023 0.9951 0.6512
C36A C 0.6646 1.0654 0.6493
C37A C 0.7305 1.0798 0.6629
N6A N 0.5362 0.8695 0.6667
N5B N 0.2003 0.5766 0.5363
C25B C 0.1957 0.5992 0.58934
C26B C 0.152 0.6319 0.58611
H29B H 0.1387 0.6394 0.5673
C27B C 0.1279 0.6533 0.611
H30B H 0.0987 0.6752 0.6088
C28B C 0.1478 0.6421 0.63913
C29B C 0.1915 0.6094 0.64237
H31B H 0.2048 0.6019 0.6612
C30B C 0.2154 0.5879 0.61748
H32B H 0.2448 0.5661 0.6196
C31B C 0.259 0.6042 0.4881
H33B H 0.2271 0.624 0.4829
H34B H 0.2646 0.5802 0.4707
C32B C 0.2158 0.5668 0.5616
H35B H 0.2399 0.5397 0.5644
C33B C 0.2239 0.5493 0.5115
H36B H 0.1811 0.5058 0.5033
H37B H 0.2586 0.5344 0.5185
C34B C 0.0608 0.6667 0.6667
C35B C 0.0049 0.6072 0.6512
C36B C -0.0654 0.5992 0.6493
C37B C -0.0798 0.6507 0.6629
N6B N 0.1305 0.6667 0.6667
N5I N 0.466367 0.709633 0.797033
C25I C 0.470967 0.736833 0.743993
C26I C 0.514667 0.813233 0.747223
H29I H 0.527967 0.834033 0.766033
C27I C 0.538767 0.858733 0.722333
H30I H 0.567967 0.909833 0.724533
C28I C 0.518867 0.827633 0.694203
C29I C 0.475167 0.751233 0.690963
H31I H 0.461867 0.730433 0.672133
C30I C 0.451267 0.705833 0.715853
H32I H 0.421867 0.654633 0.713733
C31I C 0.407667 0.678533 0.845233
H33I H 0.439567 0.730233 0.850433
H34I H 0.402067 0.648933 0.862633
C32I C 0.450867 0.684333 0.771733
H35I H 0.426767 0.633133 0.768933
C33I C 0.442767 0.658733 0.821833
H36I H 0.485567 0.658033 0.830033
H37I H 0.408067 0.609133 0.814833
C35I C 0.661767 0.935633 0.682133
C36I C 0.732067 0.997933 0.684033
C37I C 0.746467 1.06383 0.670433
N7I N 0.333267 0.666633 0.836433
N5J N 0.243267 0.533633 0.797033
C25J C 0.265867 0.529033 0.743993
C26J C 0.298567 0.485333 0.747223
H29J H 0.306067 0.472033 0.766033
C27J C 0.319967 0.461233 0.722333
H30J H 0.341867 0.432033 0.724533
C28J C 0.308767 0.481133 0.694203
C29J C 0.276067 0.524833 0.690963
H31J H 0.268567 0.538133 0.672133
C30J C 0.254567 0.548733 0.715853
H32J H 0.232767 0.578133 0.713733
C31J C 0.270867 0.592333 0.845233
H33J H 0.290667 0.560433 0.850433
H34J H 0.246867 0.597933 0.862633
C32J C 0.233467 0.549133 0.771733
H35J H 0.206367 0.573233 0.768933
C33J C 0.215967 0.557233 0.821833
H36J H 0.172467 0.514433 0.830033
H37J H 0.201067 0.591933 0.814833
C35J C 0.273867 0.338233 0.682133
C36J C 0.265867 0.267933 0.684033
C37J C 0.317367 0.253533 0.670433
N5K N 0.290367 0.756733 0.797033
C25K C 0.263167 0.734133 0.743993
C26K C 0.186767 0.701433 0.747223
H29K H 0.165967 0.693933 0.766033
C27K C 0.141267 0.680033 0.722333
H30K H 0.0901667 0.658133 0.724533
C28K C 0.172367 0.691233 0.694203
C29K C 0.248767 0.723933 0.690963
H31K H 0.269567 0.731433 0.672133
C30K C 0.294167 0.745433 0.715853
H32K H 0.345367 0.767233 0.713733
C31K C 0.321467 0.729133 0.845233
H33K H 0.269767 0.709333 0.850433
H34K H 0.351067 0.753133 0.862633
C32K C 0.315667 0.766533 0.771733
H35K H 0.366867 0.793633 0.768933
C33K C 0.341267 0.784033 0.821833
H36K H 0.341967 0.827533 0.830033
H37K H 0.390867 0.798933 0.814833
C35K C 0.0643667 0.726133 0.682133
C36K C 0.00206667 0.734133 0.684033
C37K C -0.0638333 0.682633 0.670433
C1 C 0.5594(4) 0.4488(4) 0.72152(16)
N1 N 0.8157(4) 0.6029(3) 0.74912(12)
N2 N 0.6113(3) 0.5584(3) 0.63755(13)
C2 C 0.6612(4) 0.5660(3) 0.65550(17)
H1 H 0.7104 0.5947 0.6496
C3 C 0.6337(3) 0.5970(3) 0.60932(15)
H2 H 0.6879 0.6270 0.6084
C4 C 0.6904(4) 0.5240(4) 0.73333(18)
C5 C 0.3553(5) 0.3510(5) 0.78371(17)
H3 H 0.3826 0.3593 0.8021
H4 H 0.3635 0.3986 0.7767
C6 C 0.4836(4) 0.3959(4) 0.73082(16)
H5 H 0.4470 0.3797 0.7163
N3 N 0.4635(3) 0.3707(3) 0.75576(14)
C7 C 0.5746(4) 0.4805(4) 0.69399(17)
H6 H 0.5356 0.4668 0.6808
C8 C 0.7034(4) 0.5527(3) 0.70510(18)
H7 H 0.7518 0.5865 0.6994
C9 C 0.6464(4) 0.5326(4) 0.68491(16)
C10 C 0.3737(4) 0.2449(4) 0.77189(14)
H8 H 0.4022 0.2520 0.7901
C11 C 0.7524(5) 0.5509(4) 0.75462(15)
H9 H 0.7437 0.5277 0.7730
C12 C 0.2904(5) 0.1928(4) 0.77771(19)
H10 H 0.2827 0.1461 0.7856
H11 H 0.2634 0.1826 0.7592
C13 C 0.6226(5) 0.5759(5) 0.55429(17)
H12 H 0.6760 0.6039 0.5514
H13 H 0.6015 0.5383 0.5390
C14 C 0.2600(5) 0.2278(7) 0.7998(2)
H14 H 0.2070 0.1951 0.8022
H15 H 0.2832 0.2329 0.8190
N4 N 0.6420(3) 0.4956(4) 0.58722(12)
C15 C 0.6054(3) 0.5391(4) 0.58435(14)
H16 H 0.5516 0.5064 0.5863
C16 C 0.6361(4) 0.3794(4) 0.59444(12)
C17 C 0.3848(3) 0.3187(4) 0.76092(14)
H17 H 0.3576 0.3109 0.7423
C18 C 0.6032(4) 0.4274(4) 0.59223(13)
H18 H 0.5523 0.4066 0.5946
C19 C 0.6178(4) 0.4713(4) 0.74198(16)
H19 H 0.6086 0.4516 0.7610
C20 C 0.5919(3) 0.3038(4) 0.59474(11)
H20 H 0.5406 0.2835 0.5952
C21 C 0.2744(5) 0.3015(7) 0.7897(2)
H21 H 0.2584 0.3236 0.8048
H22 H 0.2463 0.2959 0.7718
C22 C 0.5917(5) 0.6268(7) 0.5517(2)
H23 H 0.5379 0.5978 0.5525
H24 H 0.6055 0.6515 0.5326
C23 C 0.6191(6) 0.6848(6) 0.5759(3)
H25 H 0.5954 0.7146 0.5741
H26 H 0.6723 0.7173 0.5741
C24 C 0.6007(4) 0.6462(4) 0.60581(19)
H27 H 0.6194 0.6832 0.6214
H28 H 0.5473 0.6166 0.6080
C1A C 0.5512 0.1106 0.72152
N1A N 0.3971 0.2128 0.74912
N2A N 0.4416 0.0529 0.63755
C2A C 0.434 0.0952 0.6555
H1A H 0.4053 0.1157 0.6496
C3A C 0.403 0.0367 0.60932
H2A H 0.373 0.0609 0.6084
C4A C 0.476 0.1664 0.73333
C5A C 0.649 0.0043 0.78371
H3A H 0.6407 0.0233 0.8021
H4A H 0.6014 -0.0351 0.7767
C6A C 0.6041 0.0877 0.73082
H5A H 0.6203 0.0673 0.7163
N3A N 0.6293 0.0928 0.75576
C7A C 0.5195 0.0941 0.69399
H6A H 0.5332 0.0688 0.6808
C8A C 0.4473 0.1507 0.7051
H7A H 0.4135 0.1653 0.6994
C9A C 0.4674 0.1138 0.68491
C10A C 0.7551 0.1288 0.77189
H8A H 0.748 0.1502 0.7901
C11A C 0.4491 0.2015 0.75462
H9A H 0.4723 0.216 0.773
C12A C 0.8072 0.0976 0.77771
H10A H 0.8539 0.1366 0.7856
H11A H 0.8174 0.0808 0.7592
C13A C 0.4241 0.0467 0.55429
H12A H 0.3961 0.0721 0.5514
H13A H 0.4617 0.0632 0.539
C14A C 0.7722 0.0322 0.7998
H14A H 0.8049 0.0119 0.8022
H15A H 0.7671 0.0503 0.819
N4A N 0.5044 0.1464 0.58722
C15A C 0.4609 0.0663 0.58435
H16A H 0.4936 0.0452 0.5863
C16A C 0.6206 0.2567 0.59444
C17A C 0.6813 0.0661 0.76092
H17A H 0.6891 0.0467 0.7423
C18A C 0.5726 0.1758 0.59223
H18A H 0.5934 0.1457 0.5946
C19A C 0.5287 0.1465 0.74198
H19A H 0.5484 0.157 0.761
C20A C 0.6962 0.2881 0.59474
H20A H 0.7165 0.2571 0.5952
C21A C 0.6985 -0.0271 0.7897
H21A H 0.6764 -0.0652 0.8048
H22A H 0.7041 -0.0496 0.7718
C22A C 0.3732 -0.0351 0.5517
H23A H 0.4022 -0.0599 0.5525
H24A H 0.3485 -0.046 0.5326
C23A C 0.3152 -0.0657 0.5759
H25A H 0.2854 -0.1192 0.5741
H26A H 0.2827 -0.045 0.5741
C24A C 0.3538 -0.0455 0.60581
H27A H 0.3168 -0.0638 0.6214
H28A H 0.3834 -0.0693 0.608
C1B C 0.8894 0.4406 0.72152
N1B N 0.7872 0.1843 0.74912
N2B N 0.9471 0.3887 0.63755
C2B C 0.9048 0.3388 0.6555
H1B H 0.8843 0.2896 0.6496
C3B C 0.9633 0.3663 0.60932
H2B H 0.9391 0.3121 0.6084
C4B C 0.8336 0.3096 0.73333
C5B C 0.9957 0.6447 0.78371
H3B H 0.9767 0.6174 0.8021
H4B H 1.0351 0.6365 0.7767
C6B C 0.9123 0.5164 0.73082
H5B H 0.9327 0.553 0.7163
N3B N 0.9072 0.5365 0.75576
C7B C 0.9059 0.4254 0.69399
H6B H 0.9312 0.4644 0.6808
C8B C 0.8493 0.2966 0.7051
H7B H 0.8347 0.2482 0.6994
C9B C 0.8862 0.3536 0.68491
C10B C 0.8712 0.6263 0.77189
H8B H 0.8498 0.5978 0.7901
C11B C 0.7985 0.2476 0.75462
H9B H 0.784 0.2563 0.773
C12B C 0.9024 0.7096 0.77771
H10B H 0.8634 0.7173 0.7856
H11B H 0.9192 0.7366 0.7592
C13B C 0.9533 0.3774 0.55429
H12B H 0.9279 0.324 0.5514
H13B H 0.9368 0.3985 0.539
C14B C 0.9678 0.74 0.7998
H14B H 0.9881 0.793 0.8022
H15B H 0.9497 0.7168 0.819
N4B N 0.8536 0.358 0.58722
C15B C 0.9337 0.3946 0.58435
H16B H 0.9548 0.4484 0.5863
C16B C 0.7433 0.3639 0.59444
C17B C 0.9339 0.6152 0.76092
H17B H 0.9533 0.6424 0.7423
C18B C 0.8242 0.3968 0.59223
H18B H 0.8543 0.4477 0.5946
C19B C 0.8535 0.3822 0.74198
H19B H 0.843 0.3914 0.761
C20B C 0.7119 0.4081 0.59474
H20B H 0.7429 0.4594 0.5952
C21B C 1.0271 0.7256 0.7897
H21B H 1.0652 0.7416 0.8048
H22B H 1.0496 0.7537 0.7718
C22B C 1.0351 0.4083 0.5517
H23B H 1.0599 0.4621 0.5525
H24B H 1.046 0.3945 0.5326
C23B C 1.0657 0.3809 0.5759
H25B H 1.1192 0.4046 0.5741
H26B H 1.045 0.3277 0.5741
C24B C 1.0455 0.3993 0.60581
H27B H 1.0638 0.3806 0.6214
H28B H 1.0693 0.4527 0.608

#END

