
#######################################################################
#
#                 Cambridge Crystallographic Data Centre
#                                CCDC 
#
#######################################################################
#
# If this CIF has been generated directly or indirectly from an entry in the 
# Cambridge Structural Database, then it will include bibliographic, chemical, 
# crystal, experimental, refinement or atomic coordinate data resulting from 
# the CCDC's data processing and validation procedures. Files generated from 
# CSD entries are Copyright 2015 Cambridge Crystallographic Data Centre. They 
# may be used in bona fide research applications only, and may not be copied or 
# further disseminated in any form, whether machine-readable or not, except for 
# the purposes of generating routine backup copies on your local computer 
# system.
# 
# Files arising from any other source may also contain material that is the 
# copyright of third parties, including the originator, and you should check 
# with the originator concerning the permitted uses of the information 
# contained in this CIF.
#
# For further information on the CCDC and the free tools enCIFer and Mercury
# for validating and visualising CIF files, please visit www.ccdc.cam.ac.uk
#
#######################################################################

data_MOTWUP02
_audit_creation_date             2015-01-26
_database_code_depnum_ccdc_archive 'CCDC 979934'
_chemical_formula_moiety         '2(C72 H84 N12),C72 H69 N11'
_chemical_name_systematic        
'bis(5,12,20,27,35,42,50,57,62,69,74,81-Dodecaazatridecacyclo[29.29.10.10^16,46^.1^3,59^.1^14,18^.1^29,33^.1^44,48^.0^6,11^.0^21,26^.0^36,41^.0^51,56^.0^63,68^.0^75,80^]tetraoctaconta-1,3(71),4,12,14(84),15,17,19,27,29(83),30,32,34,42,44(72),45,47,49,57,59,61,69,73,81-tetracosaene) 10,28,45-triphenyl-1,4,10,16,19,22,28,34,39,45,51-undecaazaoctacyclo[17.17.17.2^6,9^.2^11,14^.2^24,27^.2^29,32^.2^41,44^.2^46,49^]pentahexaconta-4,6,8,11,13,15,22,24,26,29,31,33,39,41,43,46,48,50,54,56,58,60,62,64-tetracosaene'
_journal_coden_Cambridge         1441
_journal_volume                  7
_journal_year                    2015
_journal_page_first              153
_journal_name_full               'Nature Chemistry'
loop_
_publ_author_name
M.A.Little
M.E.Briggs
J.T.A.Jones
M.Schmidtmann
T.Hasell
'Samantha Y.Chong'
K.E.Jelfs
'Linjiang Chen'
A.I.Cooper
_chemical_absolute_configuration unk
_diffrn_ambient_temperature      100
_exptl_crystal_density_meas      1.027
_exptl_crystal_density_diffrn    1.027
#These two values have been output from a single CSD field.
_refine_ls_R_factor_gt           0.0433
_refine_ls_wR_factor_gt          0.0433
_diffrn_radiation_probe          x-ray
_symmetry_cell_setting           rhombohedral
_symmetry_space_group_name_H-M   'R 3 2'
_symmetry_Int_Tables_number      155
loop_
_symmetry_equiv_pos_site_id
_symmetry_equiv_pos_as_xyz
1 x,y,z
2 -y,x-y,z
3 -x+y,-x,z
4 x-y,-y,-z
5 -x,-x+y,-z
6 y,x,-z
7 2/3+x,1/3+y,1/3+z
8 2/3-y,1/3+x-y,1/3+z
9 2/3-x+y,1/3-x,1/3+z
10 2/3+x-y,1/3-y,1/3-z
11 2/3-x,1/3-x+y,1/3-z
12 2/3+y,1/3+x,1/3-z
13 1/3+x,2/3+y,2/3+z
14 1/3-y,2/3+x-y,2/3+z
15 1/3-x+y,2/3-x,2/3+z
16 1/3+x-y,2/3-y,2/3-z
17 1/3-x,2/3-x+y,2/3-z
18 1/3+y,2/3+x,2/3-z
_cell_length_a                   20.4108(7)
_cell_length_b                   20.4108(7)
_cell_length_c                   44.6718(17)
_cell_angle_alpha                90
_cell_angle_beta                 90
_cell_angle_gamma                120
_cell_volume                     16117
_exptl_crystal_colour            colorless
_exptl_crystal_description       prism
_cell_formula_units_Z            3
loop_
_atom_site_label
_atom_site_type_symbol
_atom_site_fract_x
_atom_site_fract_y
_atom_site_fract_z
N5 N 0.77853(16) 0.96412(17) 0.49274(6)
N6 N 1.0000 1.0000 0.67199(11)
C25 C 0.7113(2) 0.9688(3) 0.49246(11)
C26 C 0.8212(2) 0.9848(2) 0.51985(8)
C27 C 0.5790(3) 0.9770(3) 0.49336(12)
C28 C 0.8259(2) 0.9706(2) 0.57304(8)
H29 H 0.8021 0.9457 0.5912
C29 C 0.9456(2) 1.0225(3) 0.67551(8)
H30 H 0.9517 1.0434 0.6960
H31 H 0.8953 0.9761 0.6748
C30 C 0.8953(3) 1.0424(2) 0.52034(10)
H32 H 0.9194 1.0668 0.5022
C31 C 0.7866(2) 0.9460(2) 0.54613(8)
H33 H 0.7369 0.9035 0.5457
C32 C 0.9432(3) 1.0791(3) 0.65423(9)
H34 H 0.9183 1.1043 0.6642
H35 H 0.9954 1.1184 0.6490
C33 C 0.8998(2) 1.0314(2) 0.57369(8)
C34 C 0.9352(3) 1.0655(3) 0.54711(13)
H36 H 0.9867 1.1045 0.5471
C35 C 0.9379(2) 1.0623(2) 0.60255(10)
H37 H 0.9905 1.0982 0.6027
N7 N 0.9023(2) 1.04230(19) 0.62735(7)
C36 C 0.6474(2) 0.9146(2) 0.47730(8)
H38 H 0.6490 0.8751 0.4666
C37 C 0.5814(2) 0.9186(3) 0.47783(9)
H39 H 0.5377 0.8816 0.4676
N5A N 1.03588 0.81441 0.49274
C25A C 1.0312 0.7425 0.49246
C26A C 1.0152 0.8364 0.51985
C27A C 1.023 0.602 0.49336
C28A C 1.0294 0.8553 0.57304
H29A H 1.0543 0.8564 0.5912
C29A C 0.9775 0.9231 0.67551
H30A H 0.9566 0.9083 0.696
H31A H 1.0239 0.9192 0.6748
C30A C 0.9576 0.8529 0.52034
H32A H 0.9332 0.8526 0.5022
C31A C 1.054 0.8406 0.54613
H33A H 1.0965 0.8334 0.5457
C32A C 0.9209 0.8641 0.65423
H34A H 0.8957 0.814 0.6642
H35A H 0.8816 0.877 0.649
C33A C 0.9686 0.8684 0.57369
C34A C 0.9345 0.8697 0.54711
H36A H 0.8955 0.8822 0.5471
C35A C 0.9377 0.8756 0.60255
H37A H 0.9018 0.8923 0.6027
N7A N 0.9577 0.86 0.62735
C36A C 1.0854 0.7328 0.4773
H38A H 1.1249 0.7739 0.4666
C37A C 1.0814 0.6628 0.47783
H39A H 1.1184 0.6561 0.4676
N5B N 1.18559 1.22147 0.49274
C25B C 1.2575 1.2887 0.49246
C26B C 1.1636 1.1788 0.51985
C27B C 1.398 1.421 0.49336
C28B C 1.1447 1.1741 0.57304
H29B H 1.1436 1.1979 0.5912
C29B C 1.0769 1.0544 0.67551
H30B H 1.0917 1.0483 0.696
H31B H 1.0808 1.1047 0.6748
C30B C 1.1471 1.1047 0.52034
H32B H 1.1474 1.0806 0.5022
C31B C 1.1594 1.2134 0.54613
H33B H 1.1666 1.2631 0.5457
C32B C 1.1359 1.0568 0.65423
H34B H 1.186 1.0817 0.6642
H35B H 1.123 1.0046 0.649
C33B C 1.1316 1.1002 0.57369
C34B C 1.1303 1.0648 0.54711
H36B H 1.1178 1.0133 0.5471
C35B C 1.1244 1.0621 0.60255
H37B H 1.1077 1.0095 0.6027
N7B N 1.14 1.0977 0.62735
C36B C 1.2672 1.3526 0.4773
H38B H 1.2261 1.351 0.4666
C37B C 1.3372 1.4186 0.47783
H39B H 1.3439 1.4623 0.4676
N5C N 0.81441 1.03588 0.50726
N6C N 1 1 0.32801
C25C C 0.7425 1.0312 0.50754
C26C C 0.8364 1.0152 0.48015
C27C C 0.602 1.023 0.50664
C28C C 0.8553 1.0294 0.42696
H29C H 0.8564 1.0543 0.4088
C29C C 0.9231 0.9775 0.32449
H30C H 0.9083 0.9566 0.304
H31C H 0.9192 1.0239 0.3252
C30C C 0.8529 0.9576 0.47966
H32C H 0.8526 0.9332 0.4978
C31C C 0.8406 1.054 0.45387
H33C H 0.8334 1.0965 0.4543
C32C C 0.8641 0.9209 0.34577
H34C H 0.814 0.8957 0.3358
H35C H 0.877 0.8816 0.351
C33C C 0.8684 0.9686 0.42631
C34C C 0.8697 0.9345 0.45289
H36C H 0.8822 0.8955 0.4529
C35C C 0.8756 0.9377 0.39745
H37C H 0.8923 0.9018 0.3973
N7C N 0.86 0.9577 0.37265
C36C C 0.7328 1.0854 0.5227
H38C H 0.7739 1.1249 0.5334
C37C C 0.6628 1.0814 0.52217
H39C H 0.6561 1.1184 0.5324
N5D N 1.22147 1.18559 0.50726
C25D C 1.2887 1.2575 0.50754
C26D C 1.1788 1.1636 0.48015
C27D C 1.421 1.398 0.50664
C28D C 1.1741 1.1447 0.42696
H29D H 1.1979 1.1436 0.4088
C29D C 1.0544 1.0769 0.32449
H30D H 1.0483 1.0917 0.304
H31D H 1.1047 1.0808 0.3252
C30D C 1.1047 1.1471 0.47966
H32D H 1.0806 1.1474 0.4978
C31D C 1.2134 1.1594 0.45387
H33D H 1.2631 1.1666 0.4543
C32D C 1.0568 1.1359 0.34577
H34D H 1.0817 1.186 0.3358
H35D H 1.0046 1.123 0.351
C33D C 1.1002 1.1316 0.42631
C34D C 1.0648 1.1303 0.45289
H36D H 1.0133 1.1178 0.4529
C35D C 1.0621 1.1244 0.39745
H37D H 1.0095 1.1077 0.3973
N7D N 1.0977 1.14 0.37265
C36D C 1.3526 1.2672 0.5227
H38D H 1.351 1.2261 0.5334
C37D C 1.4186 1.3372 0.52217
H39D H 1.4623 1.3439 0.5324
N5E N 0.96412 0.77853 0.50726
C25E C 0.9688 0.7113 0.50754
C26E C 0.9848 0.8212 0.48015
C27E C 0.977 0.579 0.50664
C28E C 0.9706 0.8259 0.42696
H29E H 0.9457 0.8021 0.4088
C29E C 1.0225 0.9456 0.32449
H30E H 1.0434 0.9517 0.304
H31E H 0.9761 0.8953 0.3252
C30E C 1.0424 0.8953 0.47966
H32E H 1.0668 0.9194 0.4978
C31E C 0.946 0.7866 0.45387
H33E H 0.9035 0.7369 0.4543
C32E C 1.0791 0.9432 0.34577
H34E H 1.1043 0.9183 0.3358
H35E H 1.1184 0.9954 0.351
C33E C 1.0314 0.8998 0.42631
C34E C 1.0655 0.9352 0.45289
H36E H 1.1045 0.9867 0.4529
C35E C 1.0623 0.9379 0.39745
H37E H 1.0982 0.9905 0.3973
N7E N 1.0423 0.9023 0.37265
C36E C 0.9146 0.6474 0.5227
H38E H 0.8751 0.649 0.5334
C37E C 0.9186 0.5814 0.52217
H39E H 0.8816 0.5377 0.5324
N1 N 0.29018(8) 0.42089(9) 0.58831(3)
N2 N 0.45155(8) 0.50924(8) 0.58043(3)
C1 C 0.51507(10) 0.62402(10) 0.53537(4)
H1 H 0.4987 0.5736 0.5292
C2 C 0.63338(10) 0.69508(10) 0.43896(4)
H2 H 0.6066 0.6386 0.4378
C3 C 0.55389(10) 0.68264(10) 0.51548(4)
C4 C 0.33984(10) 0.38947(9) 0.59338(4)
H3 H 0.3451 0.3668 0.5743
N3 N 0.52211(9) 0.68987(9) 0.41767(4)
C5 C 0.62253(12) 0.70798(12) 0.38352(4)
H4 H 0.6045 0.7299 0.3680
H5 H 0.5957 0.6525 0.3807
C6 C 0.58575(10) 0.85025(10) 0.56222(4)
H6 H 0.6088 0.8887 0.5475
N4 N 0.61884(9) 0.71843(8) 0.46802(3)
C7 C 0.57302(10) 0.66688(10) 0.48549(4)
H7 H 0.5500 0.6158 0.4790
C8 C 0.60406(10) 0.72601(10) 0.41443(4)
H8 H 0.6273 0.7820 0.4168
C9 C 0.52119(10) 0.71091(10) 0.57318(4)
H9 H 0.5099 0.7202 0.5928
C10 C 0.41797(10) 0.45156(10) 0.60368(4)
H10 H 0.4130 0.4749 0.6226
C11 C 0.46363(10) 0.57485(10) 0.58625(4)
H11 H 0.4493 0.5843 0.6053
C12 C 0.49940(10) 0.63754(10) 0.56446(4)
C13 C 0.57616(10) 0.75674(10) 0.52471(4)
H12 H 0.6029 0.7976 0.5112
C14 C 0.36343(11) 0.61885(11) 0.42861(5)
H13 H 0.3844 0.5865 0.4286
C15 C 0.70768(12) 0.73980(13) 0.37974(5)
H14 H 0.7177 0.7247 0.3600
H15 H 0.7341 0.7957 0.3805
C16 C 0.43480(12) 0.35282(12) 0.63172(5)
H16 H 0.4672 0.3296 0.6331
H17 H 0.4334 0.3732 0.6517
C17 C 0.49403(11) 0.73013(11) 0.42528(5)
H18 H 0.5268 0.7825 0.4290
C18 C 0.73801(12) 0.71088(13) 0.40416(5)
H19 H 0.7936 0.7352 0.4022
H20 H 0.7164 0.6556 0.4018
C19 C 0.71852(11) 0.72728(11) 0.43528(4)
H21 H 0.7451 0.7827 0.4386
H22 H 0.7364 0.7048 0.4506
C20 C 0.55962(10) 0.77112(10) 0.55329(4)
C21 C 0.41186(11) 0.69807(11) 0.42861(5)
C22 C 0.30534(11) 0.32809(11) 0.61744(4)
H23 H 0.3001 0.3504 0.6363
H24 H 0.2543 0.2884 0.6111
C23 C 0.46869(11) 0.41733(11) 0.60902(4)
H25 H 0.4767 0.3981 0.5898
H26 H 0.5186 0.4573 0.6163
C24 C 0.35510(12) 0.29280(11) 0.62276(5)
H27 H 0.3326 0.2543 0.6388
H28 H 0.3572 0.2672 0.6043
N1A N 0.57911 0.86929 0.58831
N2A N 0.49076 0.94231 0.58043
C1A C 0.37598 0.89105 0.53537
H1A H 0.4264 0.9251 0.5292
C2A C 0.30492 0.9383 0.43896
H2A H 0.3614 0.968 0.4378
C3A C 0.31736 0.87125 0.51548
C4A C 0.61053 0.95037 0.59338
H3A H 0.6332 0.9783 0.5743
N3A N 0.31013 0.83224 0.41767
C5A C 0.29202 0.91455 0.38352
H4A H 0.2701 0.8746 0.368
H5A H 0.3475 0.9432 0.3807
C6A C 0.14975 0.7355 0.56222
H6A H 0.1113 0.7201 0.5475
N4A N 0.28157 0.90041 0.46802
C7A C 0.33312 0.90614 0.48549
H7A H 0.3842 0.9342 0.479
C8A C 0.27399 0.87805 0.41443
H8A H 0.218 0.8453 0.4168
C9A C 0.28909 0.81028 0.57318
H9A H 0.2798 0.7897 0.5928
C10A C 0.54844 0.96641 0.60368
H10A H 0.5251 0.9381 0.6226
C11A C 0.42515 0.88878 0.58625
H11A H 0.4157 0.865 0.6053
C12A C 0.36246 0.86186 0.56446
C13A C 0.24326 0.81942 0.52471
H12A H 0.2024 0.8053 0.5112
C14A C 0.38115 0.74458 0.42861
H13A H 0.4135 0.7979 0.4286
C15A C 0.2602 0.96788 0.37974
H14A H 0.2753 0.993 0.36
H15A H 0.2043 0.9384 0.3805
C16A C 0.64718 1.08198 0.63172
H16A H 0.6704 1.1376 0.6331
H17A H 0.6268 1.0602 0.6517
C17A C 0.26987 0.7639 0.42528
H18A H 0.2175 0.7443 0.429
C18A C 0.28912 1.02713 0.40416
H19A H 0.2648 1.0584 0.4022
H20A H 0.3444 1.0608 0.4018
C19A C 0.27272 0.99124 0.43528
H21A H 0.2173 0.9624 0.4386
H22A H 0.2952 1.0316 0.4506
C20A C 0.22888 0.7885 0.55329
C21A C 0.30193 0.71379 0.42861
C22A C 0.67191 0.97725 0.61744
H23A H 0.6496 0.9497 0.6363
H24A H 0.7116 0.9659 0.6111
C23A C 0.58267 1.05136 0.60902
H25A H 0.6019 1.0786 0.5898
H26A H 0.5427 1.0613 0.6163
C24A C 0.7072 1.0623 0.62276
H27A H 0.7457 1.0783 0.6388
H28A H 0.7328 1.09 0.6043
N1B N 0.13071 0.70982 0.58831
N2B N 0.05769 0.54845 0.58043
C1B C 0.10895 0.48493 0.53537
H1B H 0.0749 0.5013 0.5292
C2B C 0.0617 0.36662 0.43896
H2B H 0.032 0.3934 0.4378
C3B C 0.12875 0.44611 0.51548
C4B C 0.04963 0.66016 0.59338
H3B H 0.0217 0.6549 0.5743
N3B N 0.16776 0.47789 0.41767
C5B C 0.08545 0.37747 0.38352
H4B H 0.1254 0.3955 0.368
H5B H 0.0568 0.4043 0.3807
C6B C 0.2645 0.41425 0.56222
H6B H 0.2799 0.3912 0.5475
N4B N 0.09959 0.38116 0.46802
C7B C 0.09386 0.42698 0.48549
H7B H 0.0658 0.45 0.479
C8B C 0.12195 0.39594 0.41443
H8B H 0.1547 0.3727 0.4168
C9B C 0.18972 0.47881 0.57318
H9B H 0.2103 0.4901 0.5928
C10B C 0.03359 0.58203 0.60368
H10B H 0.0619 0.587 0.6226
C11B C 0.11122 0.53637 0.58625
H11B H 0.135 0.5507 0.6053
C12B C 0.13814 0.5006 0.56446
C13B C 0.18058 0.42384 0.52471
H12B H 0.1947 0.3971 0.5112
C14B C 0.25542 0.63657 0.42861
H13B H 0.2021 0.6156 0.4286
C15B C 0.03212 0.29232 0.37974
H14B H 0.007 0.2823 0.36
H15B H 0.0616 0.2659 0.3805
C16B C -0.08198 0.5652 0.63172
H16B H -0.1376 0.5328 0.6331
H17B H -0.0602 0.5666 0.6517
C17B C 0.2361 0.50597 0.42528
H18B H 0.2557 0.4732 0.429
C18B C -0.02713 0.26199 0.40416
H19B H -0.0584 0.2064 0.4022
H20B H -0.0608 0.2836 0.4018
C19B C 0.00876 0.28148 0.43528
H21B H 0.0376 0.2549 0.4386
H22B H -0.0316 0.2636 0.4506
C20B C 0.2115 0.44038 0.55329
C21B C 0.28621 0.58814 0.42861
C22B C 0.02275 0.69466 0.61744
H23B H 0.0503 0.6999 0.6363
H24B H 0.0341 0.7457 0.6111
C23B C -0.05136 0.53131 0.60902
H25B H -0.0786 0.5233 0.5898
H26B H -0.0613 0.4814 0.6163
C24B C -0.0623 0.6449 0.62276
H27B H -0.0783 0.6674 0.6388
H28B H -0.09 0.6428 0.6043

#END

