
#######################################################################
#
#                 Cambridge Crystallographic Data Centre
#                                CCDC 
#
#######################################################################
#
# If this CIF has been generated directly or indirectly from an entry in the 
# Cambridge Structural Database, then it will include bibliographic, chemical, 
# crystal, experimental, refinement or atomic coordinate data resulting from 
# the CCDC's data processing and validation procedures. Files generated from 
# CSD entries are Copyright 2015 Cambridge Crystallographic Data Centre. They 
# may be used in bona fide research applications only, and may not be copied or 
# further disseminated in any form, whether machine-readable or not, except for 
# the purposes of generating routine backup copies on your local computer 
# system.
# 
# Files arising from any other source may also contain material that is the 
# copyright of third parties, including the originator, and you should check 
# with the originator concerning the permitted uses of the information 
# contained in this CIF.
#
# For further information on the CCDC and the free tools enCIFer and Mercury
# for validating and visualising CIF files, please visit www.ccdc.cam.ac.uk
#
#######################################################################

data_MOTWUP01
_audit_creation_date             2015-01-26
_database_code_depnum_ccdc_archive 'CCDC 979933'
_chemical_formula_moiety         '2(C72 H84 N12),C72 H69 N11'
_chemical_name_systematic        
'bis(5,12,20,27,35,42,50,57,62,69,74,81-Dodecaazatridecacyclo[29.29.10.10^16,46^.1^3,59^.1^14,18^.1^29,33^.1^44,48^.0^6,11^.0^21,26^.0^36,41^.0^51,56^.0^63,68^.0^75,80^]tetraoctaconta-1,3(71),4,12,14(84),15,17,19,27,29(83),30,32,34,42,44(72),45,47,49,57,59,61,69,73,81-tetracosaene) 10,28,45-triphenyl-1,4,10,16,19,22,28,34,39,45,51-undecaazaoctacyclo[17.17.17.2^6,9^.2^11,14^.2^24,27^.2^29,32^.2^41,44^.2^46,49^]pentahexaconta-4,6,8,11,13,15,22,24,26,29,31,33,39,41,43,46,48,50,54,56,58,60,62,64-tetracosaene'
_journal_coden_Cambridge         1441
_journal_volume                  7
_journal_year                    2015
_journal_page_first              153
_journal_name_full               'Nature Chemistry'
loop_
_publ_author_name
M.A.Little
M.E.Briggs
J.T.A.Jones
M.Schmidtmann
T.Hasell
'Samantha Y.Chong'
K.E.Jelfs
'Linjiang Chen'
A.I.Cooper
_chemical_absolute_configuration unk
_diffrn_ambient_temperature      450
_exptl_crystal_density_meas      0.979
_exptl_crystal_density_diffrn    0.979
#These two values have been output from a single CSD field.
_refine_ls_R_factor_gt           0.0678
_refine_ls_wR_factor_gt          0.0678
_diffrn_radiation_probe          x-ray
_symmetry_cell_setting           rhombohedral
_symmetry_space_group_name_H-M   'R 3 2'
_symmetry_Int_Tables_number      155
loop_
_symmetry_equiv_pos_site_id
_symmetry_equiv_pos_as_xyz
1 x,y,z
2 -y,x-y,z
3 -x+y,-x,z
4 x-y,-y,-z
5 -x,-x+y,-z
6 y,x,-z
7 2/3+x,1/3+y,1/3+z
8 2/3-y,1/3+x-y,1/3+z
9 2/3-x+y,1/3-x,1/3+z
10 2/3+x-y,1/3-y,1/3-z
11 2/3-x,1/3-x+y,1/3-z
12 2/3+y,1/3+x,1/3-z
13 1/3+x,2/3+y,2/3+z
14 1/3-y,2/3+x-y,2/3+z
15 1/3-x+y,2/3-x,2/3+z
16 1/3+x-y,2/3-y,2/3-z
17 1/3-x,2/3-x+y,2/3-z
18 1/3+y,2/3+x,2/3-z
_cell_length_a                   20.804(3)
_cell_length_b                   20.804(3)
_cell_length_c                   45.126(7)
_cell_angle_alpha                90
_cell_angle_beta                 90
_cell_angle_gamma                120
_cell_volume                     16914.2
_exptl_crystal_colour            colorless
_exptl_crystal_description       prism
_cell_formula_units_Z            3
loop_
_atom_site_label
_atom_site_type_symbol
_atom_site_fract_x
_atom_site_fract_y
_atom_site_fract_z
C1 C 0.5594(4) 0.4488(4) 0.72152(16)
N1 N 0.8157(4) 0.6029(3) 0.74912(12)
N2 N 0.6113(3) 0.5584(3) 0.63755(13)
C2 C 0.6612(4) 0.5660(3) 0.65550(17)
H1 H 0.7104 0.5947 0.6496
C3 C 0.6337(3) 0.5970(3) 0.60932(15)
H2 H 0.6879 0.6270 0.6084
C4 C 0.6904(4) 0.5240(4) 0.73333(18)
C5 C 0.3553(5) 0.3510(5) 0.78371(17)
H3 H 0.3826 0.3593 0.8021
H4 H 0.3635 0.3986 0.7767
C6 C 0.4836(4) 0.3959(4) 0.73082(16)
H5 H 0.4470 0.3797 0.7163
N3 N 0.4635(3) 0.3707(3) 0.75576(14)
C7 C 0.5746(4) 0.4805(4) 0.69399(17)
H6 H 0.5356 0.4668 0.6808
C8 C 0.7034(4) 0.5527(3) 0.70510(18)
H7 H 0.7518 0.5865 0.6994
C9 C 0.6464(4) 0.5326(4) 0.68491(16)
C10 C 0.3737(4) 0.2449(4) 0.77189(14)
H8 H 0.4022 0.2520 0.7901
C11 C 0.7524(5) 0.5509(4) 0.75462(15)
H9 H 0.7437 0.5277 0.7730
C12 C 0.2904(5) 0.1928(4) 0.77771(19)
H10 H 0.2827 0.1461 0.7856
H11 H 0.2634 0.1826 0.7592
C13 C 0.6226(5) 0.5759(5) 0.55429(17)
H12 H 0.6760 0.6039 0.5514
H13 H 0.6015 0.5383 0.5390
C14 C 0.2600(5) 0.2278(7) 0.7998(2)
H14 H 0.2070 0.1951 0.8022
H15 H 0.2832 0.2329 0.8190
N4 N 0.6420(3) 0.4956(4) 0.58722(12)
C15 C 0.6054(3) 0.5391(4) 0.58435(14)
H16 H 0.5516 0.5064 0.5863
C16 C 0.6361(4) 0.3794(4) 0.59444(12)
C17 C 0.3848(3) 0.3187(4) 0.76092(14)
H17 H 0.3576 0.3109 0.7423
C18 C 0.6032(4) 0.4274(4) 0.59223(13)
H18 H 0.5523 0.4066 0.5946
C19 C 0.6178(4) 0.4713(4) 0.74198(16)
H19 H 0.6086 0.4516 0.7610
C20 C 0.5919(3) 0.3038(4) 0.59474(11)
H20 H 0.5406 0.2835 0.5952
C21 C 0.2744(5) 0.3015(7) 0.7897(2)
H21 H 0.2584 0.3236 0.8048
H22 H 0.2463 0.2959 0.7718
C22 C 0.5917(5) 0.6268(7) 0.5517(2)
H23 H 0.5379 0.5978 0.5525
H24 H 0.6055 0.6515 0.5326
C23 C 0.6191(6) 0.6848(6) 0.5759(3)
H25 H 0.5954 0.7146 0.5741
H26 H 0.6723 0.7173 0.5741
C24 C 0.6007(4) 0.6462(4) 0.60581(19)
H27 H 0.6194 0.6832 0.6214
H28 H 0.5473 0.6166 0.6080
C1A C 0.5512 0.1106 0.72152
N1A N 0.3971 0.2128 0.74912
N2A N 0.4416 0.0529 0.63755
C2A C 0.434 0.0952 0.6555
H1A H 0.4053 0.1157 0.6496
C3A C 0.403 0.0367 0.60932
H2A H 0.373 0.0609 0.6084
C4A C 0.476 0.1664 0.73333
C5A C 0.649 0.0043 0.78371
H3A H 0.6407 0.0233 0.8021
H4A H 0.6014 -0.0351 0.7767
C6A C 0.6041 0.0877 0.73082
H5A H 0.6203 0.0673 0.7163
N3A N 0.6293 0.0928 0.75576
C7A C 0.5195 0.0941 0.69399
H6A H 0.5332 0.0688 0.6808
C8A C 0.4473 0.1507 0.7051
H7A H 0.4135 0.1653 0.6994
C9A C 0.4674 0.1138 0.68491
C10A C 0.7551 0.1288 0.77189
H8A H 0.748 0.1502 0.7901
C11A C 0.4491 0.2015 0.75462
H9A H 0.4723 0.216 0.773
C12A C 0.8072 0.0976 0.77771
H10A H 0.8539 0.1366 0.7856
H11A H 0.8174 0.0808 0.7592
C13A C 0.4241 0.0467 0.55429
H12A H 0.3961 0.0721 0.5514
H13A H 0.4617 0.0632 0.539
C14A C 0.7722 0.0322 0.7998
H14A H 0.8049 0.0119 0.8022
H15A H 0.7671 0.0503 0.819
N4A N 0.5044 0.1464 0.58722
C15A C 0.4609 0.0663 0.58435
H16A H 0.4936 0.0452 0.5863
C16A C 0.6206 0.2567 0.59444
C17A C 0.6813 0.0661 0.76092
H17A H 0.6891 0.0467 0.7423
C18A C 0.5726 0.1758 0.59223
H18A H 0.5934 0.1457 0.5946
C19A C 0.5287 0.1465 0.74198
H19A H 0.5484 0.157 0.761
C20A C 0.6962 0.2881 0.59474
H20A H 0.7165 0.2571 0.5952
C21A C 0.6985 -0.0271 0.7897
H21A H 0.6764 -0.0652 0.8048
H22A H 0.7041 -0.0496 0.7718
C22A C 0.3732 -0.0351 0.5517
H23A H 0.4022 -0.0599 0.5525
H24A H 0.3485 -0.046 0.5326
C23A C 0.3152 -0.0657 0.5759
H25A H 0.2854 -0.1192 0.5741
H26A H 0.2827 -0.045 0.5741
C24A C 0.3538 -0.0455 0.60581
H27A H 0.3168 -0.0638 0.6214
H28A H 0.3834 -0.0693 0.608
C1B C 0.8894 0.4406 0.72152
N1B N 0.7872 0.1843 0.74912
N2B N 0.9471 0.3887 0.63755
C2B C 0.9048 0.3388 0.6555
H1B H 0.8843 0.2896 0.6496
C3B C 0.9633 0.3663 0.60932
H2B H 0.9391 0.3121 0.6084
C4B C 0.8336 0.3096 0.73333
C5B C 0.9957 0.6447 0.78371
H3B H 0.9767 0.6174 0.8021
H4B H 1.0351 0.6365 0.7767
C6B C 0.9123 0.5164 0.73082
H5B H 0.9327 0.553 0.7163
N3B N 0.9072 0.5365 0.75576
C7B C 0.9059 0.4254 0.69399
H6B H 0.9312 0.4644 0.6808
C8B C 0.8493 0.2966 0.7051
H7B H 0.8347 0.2482 0.6994
C9B C 0.8862 0.3536 0.68491
C10B C 0.8712 0.6263 0.77189
H8B H 0.8498 0.5978 0.7901
C11B C 0.7985 0.2476 0.75462
H9B H 0.784 0.2563 0.773
C12B C 0.9024 0.7096 0.77771
H10B H 0.8634 0.7173 0.7856
H11B H 0.9192 0.7366 0.7592
C13B C 0.9533 0.3774 0.55429
H12B H 0.9279 0.324 0.5514
H13B H 0.9368 0.3985 0.539
C14B C 0.9678 0.74 0.7998
H14B H 0.9881 0.793 0.8022
H15B H 0.9497 0.7168 0.819
N4B N 0.8536 0.358 0.58722
C15B C 0.9337 0.3946 0.58435
H16B H 0.9548 0.4484 0.5863
C16B C 0.7433 0.3639 0.59444
C17B C 0.9339 0.6152 0.76092
H17B H 0.9533 0.6424 0.7423
C18B C 0.8242 0.3968 0.59223
H18B H 0.8543 0.4477 0.5946
C19B C 0.8535 0.3822 0.74198
H19B H 0.843 0.3914 0.761
C20B C 0.7119 0.4081 0.59474
H20B H 0.7429 0.4594 0.5952
C21B C 1.0271 0.7256 0.7897
H21B H 1.0652 0.7416 0.8048
H22B H 1.0496 0.7537 0.7718
C22B C 1.0351 0.4083 0.5517
H23B H 1.0599 0.4621 0.5525
H24B H 1.046 0.3945 0.5326
C23B C 1.0657 0.3809 0.5759
H25B H 1.1192 0.4046 0.5741
H26B H 1.045 0.3277 0.5741
C24B C 1.0455 0.3993 0.60581
H27B H 1.0638 0.3806 0.6214
H28B H 1.0693 0.4527 0.608

#END

