
#######################################################################
#
#                 Cambridge Crystallographic Data Centre
#                                CCDC 
#
#######################################################################
#
# If this CIF has been generated directly or indirectly from an entry in the 
# Cambridge Structural Database, then it will include bibliographic, chemical, 
# crystal, experimental, refinement or atomic coordinate data resulting from 
# the CCDC's data processing and validation procedures. Files generated from 
# CSD entries are Copyright 2015 Cambridge Crystallographic Data Centre. They 
# may be used in bona fide research applications only, and may not be copied or 
# further disseminated in any form, whether machine-readable or not, except for 
# the purposes of generating routine backup copies on your local computer 
# system.
# 
# Files arising from any other source may also contain material that is the 
# copyright of third parties, including the originator, and you should check 
# with the originator concerning the permitted uses of the information 
# contained in this CIF.
#
# For further information on the CCDC and the free tools enCIFer and Mercury
# for validating and visualising CIF files, please visit www.ccdc.cam.ac.uk
#
#######################################################################

data_MOTWUP03
_audit_creation_date             2015-01-26
_database_code_depnum_ccdc_archive 'CCDC 979935'
_chemical_formula_moiety         '2(C72 H84 N12),C72 H69 N11'
_chemical_name_systematic        
'bis(5,12,20,27,35,42,50,57,62,69,74,81-Dodecaazatridecacyclo[29.29.10.10^16,46^.1^3,59^.1^14,18^.1^29,33^.1^44,48^.0^6,11^.0^21,26^.0^36,41^.0^51,56^.0^63,68^.0^75,80^]tetraoctaconta-1,3(71),4,12,14(84),15,17,19,27,29(83),30,32,34,42,44(72),45,47,49,57,59,61,69,73,81-tetracosaene) 10,28,45-triphenyl-1,4,10,16,19,22,28,34,39,45,51-undecaazaoctacyclo[17.17.17.2^6,9^.2^11,14^.2^24,27^.2^29,32^.2^41,44^.2^46,49^]pentahexaconta-4,6,8,11,13,15,22,24,26,29,31,33,39,41,43,46,48,50,54,56,58,60,62,64-tetracosaene'
_journal_coden_Cambridge         1441
_journal_volume                  7
_journal_year                    2015
_journal_page_first              153
_journal_name_full               'Nature Chemistry'
loop_
_publ_author_name
M.A.Little
M.E.Briggs
J.T.A.Jones
M.Schmidtmann
T.Hasell
'Samantha Y.Chong'
K.E.Jelfs
'Linjiang Chen'
A.I.Cooper
_chemical_absolute_configuration unk
_diffrn_ambient_temperature      300
_exptl_crystal_density_meas      1
_exptl_crystal_density_diffrn    1
#These two values have been output from a single CSD field.
_refine_ls_R_factor_gt           0.046
_refine_ls_wR_factor_gt          0.046
_diffrn_radiation_probe          x-ray
_symmetry_cell_setting           rhombohedral
_symmetry_space_group_name_H-M   'R 3 2'
_symmetry_Int_Tables_number      155
loop_
_symmetry_equiv_pos_site_id
_symmetry_equiv_pos_as_xyz
1 x,y,z
2 -y,x-y,z
3 -x+y,-x,z
4 x-y,-y,-z
5 -x,-x+y,-z
6 y,x,-z
7 2/3+x,1/3+y,1/3+z
8 2/3-y,1/3+x-y,1/3+z
9 2/3-x+y,1/3-x,1/3+z
10 2/3+x-y,1/3-y,1/3-z
11 2/3-x,1/3-x+y,1/3-z
12 2/3+y,1/3+x,1/3-z
13 1/3+x,2/3+y,2/3+z
14 1/3-y,2/3+x-y,2/3+z
15 1/3-x+y,2/3-x,2/3+z
16 1/3+x-y,2/3-y,2/3-z
17 1/3-x,2/3-x+y,2/3-z
18 1/3+y,2/3+x,2/3-z
_cell_length_a                   20.6365(16)
_cell_length_b                   20.6365(16)
_cell_length_c                   44.899(4)
_cell_angle_alpha                90
_cell_angle_beta                 90
_cell_angle_gamma                120
_cell_volume                     16559.2
_exptl_crystal_colour            colorless
_exptl_crystal_description       prism
_cell_formula_units_Z            3
loop_
_atom_site_label
_atom_site_type_symbol
_atom_site_fract_x
_atom_site_fract_y
_atom_site_fract_z
N1 N -0.61543(12) -0.89495(11) -0.46990(5)
C1 C -0.41089(13) -0.71333(13) -0.42816(5)
C2 C -0.58201(13) -0.73182(14) -0.56341(6)
H1 H -0.6036 -0.7165 -0.5489
C3 C -0.57391(14) -0.81591(13) -0.52628(6)
H2 H -0.5991 -0.8017 -0.5130
C4 C -0.63121(13) -0.93311(13) -0.44127(6)
H3 H -0.6059 -0.9626 -0.4403
N2 N -0.57558(11) -0.70569(11) -0.58897(5)
N3 N -0.52099(11) -0.83050(12) -0.41921(5)
C5 C -0.55787(13) -0.78517(13) -0.55458(5)
C6 C -0.62138(16) -0.91183(19) -0.38604(7)
H4 H -0.5958 -0.9400 -0.3832
H5 H -0.6041 -0.8735 -0.3708
C7 C -0.60433(13) -0.65501(14) -0.59412(5)
H6 H -0.6249 -0.6484 -0.5754
C8 C -0.55316(13) -0.86775(13) -0.51718(6)
C9 C -0.37973(14) -0.63690(14) -0.42834(5)
H7 H -0.4110 -0.6165 -0.4286
C10 C -0.60186(13) -0.87490(13) -0.41648(5)
H8 H -0.6235 -0.8423 -0.4186
C11 C -0.54274(14) -0.57943(14) -0.60468(5)
H9 H -0.5209 -0.5854 -0.6231
C12 C -0.57260(14) -0.90235(13) -0.48759(6)
H10 H -0.5520 -0.9314 -0.4816
C13 C -0.52072(14) -0.80734(14) -0.57449(6)
H11 H -0.5097 -0.7873 -0.5936
C14 C -0.70494(18) -0.9638(2) -0.38271(8)
H12 H -0.7152 -0.9890 -0.3636
H13 H -0.7302 -0.9348 -0.3832
C15 C -0.73456(17) -1.0209(2) -0.40722(9)
H14 H -0.7885 -1.0511 -0.4054
H15 H -0.7138 -1.0537 -0.4051
N4 N -0.48549(12) -0.54654(12) -0.58187(4)
C16 C -0.51590(14) -0.88804(13) -0.53737(6)
H16 H -0.5011 -0.9220 -0.5316
C17 C -0.50020(14) -0.85912(14) -0.56586(6)
C18 C -0.71522(15) -0.98498(16) -0.43759(7)
H17 H -0.7406 -0.9566 -0.4405
H18 H -0.7329 -1.0237 -0.4527
C19 C -0.49210(13) -0.76244(15) -0.42550(5)
H19 H -0.5232 -0.7424 -0.4286
C20 C -0.66676(16) -0.68892(17) -0.61735(6)
H20 H -0.6469 -0.6957 -0.6359
H21 H -0.7056 -0.7377 -0.6106
C21 C -0.6402(2) -0.5628(2) -0.63230(8)
H22 H -0.6618 -0.5306 -0.6341
H23 H -0.6217 -0.5662 -0.6518
C22 C -0.69983(19) -0.6394(2) -0.62253(8)
H24 H -0.7229 -0.6355 -0.6043
H25 H -0.7383 -0.6614 -0.6377
C23 C -0.57507(19) -0.52813(18) -0.61028(7)
H26 H -0.5922 -0.5185 -0.5916
H27 H -0.5361 -0.4807 -0.6181
C24 C -0.42128(15) -0.53544(15) -0.58756(6)
H28 H -0.4124 -0.5500 -0.6060
N1A N -0.10505 -0.72048 -0.4699
C1A C -0.28667 -0.69756 -0.42816
C2A C -0.26818 -0.85019 -0.56341
H1A H -0.2835 -0.8871 -0.5489
C3A C -0.18409 -0.758 -0.52628
H2A H -0.1983 -0.7974 -0.513
C4A C -0.06689 -0.6981 -0.44127
H3A H -0.0374 -0.6433 -0.4403
N2A N -0.29431 -0.86989 -0.58897
N3A N -0.1695 -0.69049 -0.41921
C5A C -0.21483 -0.7727 -0.55458
C6A C -0.08817 -0.70955 -0.38604
H4A H -0.06 -0.6558 -0.3832
H5A H -0.1265 -0.7306 -0.3708
C7A C -0.34499 -0.94932 -0.59412
H6A H -0.3516 -0.9765 -0.5754
C8A C -0.13225 -0.68541 -0.51718
C9A C -0.3631 -0.74283 -0.42834
H7A H -0.3835 -0.7945 -0.4286
C10A C -0.1251 -0.72696 -0.41648
H8A H -0.1577 -0.7812 -0.4186
C11A C -0.42057 -0.96331 -0.60468
H9A H -0.4146 -0.9355 -0.6231
C12A C -0.09765 -0.67025 -0.48759
H10A H -0.0686 -0.6206 -0.4816
C13A C -0.19266 -0.71338 -0.57449
H11A H -0.2127 -0.7224 -0.5936
C14A C -0.0362 -0.74114 -0.38271
H12A H -0.011 -0.7262 -0.3636
H13A H -0.0652 -0.7954 -0.3832
C15A C 0.0209 -0.71366 -0.40722
H14A H 0.0511 -0.7374 -0.4054
H15A H 0.0537 -0.6601 -0.4051
N4A N -0.45346 -0.93895 -0.58187
C16A C -0.11196 -0.62786 -0.53737
H16A H -0.078 -0.5791 -0.5316
C17A C -0.14088 -0.64108 -0.56586
C18A C -0.01502 -0.73024 -0.43759
H17A H -0.0434 -0.784 -0.4405
H18A H 0.0237 -0.7092 -0.4527
C19A C -0.23756 -0.72966 -0.4255
H19A H -0.2576 -0.7808 -0.4286
C20A C -0.31108 -0.97784 -0.61735
H20A H -0.3043 -0.9512 -0.6359
H21A H -0.2623 -0.9679 -0.6106
C21A C -0.4372 -1.0774 -0.6323
H22A H -0.4694 -1.1312 -0.6341
H23A H -0.4338 -1.0555 -0.6518
C22A C -0.3606 -1.06043 -0.62253
H24A H -0.3645 -1.0874 -0.6043
H25A H -0.3386 -1.0769 -0.6377
C23A C -0.47187 -1.04694 -0.61028
H26A H -0.4815 -1.0737 -0.5916
H27A H -0.5193 -1.0554 -0.6181
C24A C -0.46456 -0.88584 -0.58756
H28A H -0.45 -0.8624 -0.606
N1B N -0.27952 -0.38457 -0.4699
C1B C -0.30244 -0.58911 -0.42816
C2B C -0.14981 -0.41799 -0.56341
H1B H -0.1129 -0.3964 -0.5489
C3B C -0.242 -0.42609 -0.52628
H2B H -0.2026 -0.4009 -0.513
C4B C -0.3019 -0.36879 -0.44127
H3B H -0.3567 -0.3941 -0.4403
N2B N -0.13011 -0.42442 -0.58897
N3B N -0.30951 -0.47901 -0.41921
C5B C -0.2273 -0.44213 -0.55458
C6B C -0.29045 -0.37862 -0.38604
H4B H -0.3442 -0.4042 -0.3832
H5B H -0.2694 -0.3959 -0.3708
C7B C -0.05068 -0.39567 -0.59412
H6B H -0.0235 -0.3751 -0.5754
C8B C -0.31459 -0.44684 -0.51718
C9B C -0.25717 -0.62027 -0.42834
H7B H -0.2055 -0.589 -0.4286
C10B C -0.27304 -0.39814 -0.41648
H8B H -0.2188 -0.3765 -0.4186
C11B C -0.03669 -0.45726 -0.60468
H9B H -0.0645 -0.4791 -0.6231
C12B C -0.32975 -0.4274 -0.48759
H10B H -0.3794 -0.448 -0.4816
C13B C -0.28662 -0.47928 -0.57449
H11B H -0.2776 -0.4903 -0.5936
C14B C -0.25886 -0.29506 -0.38271
H12B H -0.2738 -0.2848 -0.3636
H13B H -0.2046 -0.2698 -0.3832
C15B C -0.28634 -0.26544 -0.40722
H14B H -0.2626 -0.2115 -0.4054
H15B H -0.3399 -0.2862 -0.4051
N4B N -0.06105 -0.51451 -0.58187
C16B C -0.37214 -0.4841 -0.53737
H16B H -0.4209 -0.4989 -0.5316
C17B C -0.35892 -0.4998 -0.56586
C18B C -0.26976 -0.28478 -0.43759
H17B H -0.216 -0.2594 -0.4405
H18B H -0.2908 -0.2671 -0.4527
C19B C -0.27034 -0.5079 -0.4255
H19B H -0.2192 -0.4768 -0.4286
C20B C -0.02216 -0.33324 -0.61735
H20B H -0.0488 -0.3531 -0.6359
H21B H -0.0321 -0.2944 -0.6106
C21B C 0.0774 -0.3598 -0.6323
H22B H 0.1312 -0.3382 -0.6341
H23B H 0.0555 -0.3783 -0.6518
C22B C 0.06043 -0.30017 -0.62253
H24B H 0.0874 -0.2771 -0.6043
H25B H 0.0769 -0.2617 -0.6377
C23B C 0.04694 -0.42493 -0.61028
H26B H 0.0737 -0.4078 -0.5916
H27B H 0.0554 -0.4639 -0.6181
C24B C -0.11416 -0.57872 -0.58756
H28B H -0.1376 -0.5876 -0.606

#END

