
#######################################################################
#
#                 Cambridge Crystallographic Data Centre
#                                CCDC 
#
#######################################################################
#
# If this CIF has been generated directly or indirectly from an entry in the 
# Cambridge Structural Database, then it will include bibliographic, chemical, 
# crystal, experimental, refinement or atomic coordinate data resulting from 
# the CCDC's data processing and validation procedures. Files generated from 
# CSD entries are Copyright 2015 Cambridge Crystallographic Data Centre. They 
# may be used in bona fide research applications only, and may not be copied or 
# further disseminated in any form, whether machine-readable or not, except for 
# the purposes of generating routine backup copies on your local computer 
# system.
# 
# Files arising from any other source may also contain material that is the 
# copyright of third parties, including the originator, and you should check 
# with the originator concerning the permitted uses of the information 
# contained in this CIF.
#
# For further information on the CCDC and the free tools enCIFer and Mercury
# for validating and visualising CIF files, please visit www.ccdc.cam.ac.uk
#
#######################################################################

data_GUMCIB
_audit_creation_date             2010-04-23
_database_code_depnum_ccdc_archive 'CCDC 717929'
_chemical_formula_moiety         'C102 H96 O24,12(C2 H6 O1 S1)'
_chemical_name_systematic        
'6^4^,6^6^,11^4^,11^6^,17^4^,17^6^,23^4^,23^6^,24^4^,24^6^,26^4^,26^6^,32^4^,32^6^,38^4^,38^6^,39^4^,39^6^,40^4^,40^6^,41^4^,41^6^-docosakis(hydroxy)-6,11,17,23,24,26,32,38,39,40,41(1,3)-undecabenezenahexacyclo(23.10.6.1^5,27^.1^7,31^.1^10,18^.1^22,36^) hentetracontaphane dimethylsulfoxide solvate'
_journal_coden_Cambridge         179
_journal_volume                  48
_journal_year                    2009
_journal_page_first              5492
_journal_name_full               Angew.Chem.,Int.Ed.
loop_
_publ_author_name
'Jian Tian'
P.K.Thallapally
S.J.Dalgarno
P.B.McGrail
J.L.Atwood
_chemical_absolute_configuration unk
_diffrn_ambient_temperature      173
_exptl_crystal_density_meas      1.106
_exptl_crystal_density_diffrn    1.106
#These two values have been output from a single CSD field.
_refine_ls_R_factor_gt           0.0955
_refine_ls_wR_factor_gt          0.0955
_diffrn_radiation_probe          x-ray
_symmetry_cell_setting           triclinic
_symmetry_space_group_name_H-M   'P -1'
_symmetry_Int_Tables_number      2
loop_
_symmetry_equiv_pos_site_id
_symmetry_equiv_pos_as_xyz
1 x,y,z
2 -x,-y,-z
_cell_length_a                   15.169(5)
_cell_length_b                   15.637(5)
_cell_length_c                   18.838(6)
_cell_angle_alpha                99.509(5)
_cell_angle_beta                 111.210(6)
_cell_angle_gamma                100.259(5)
_cell_volume                     3968.55
_exptl_crystal_colour            colorless
_exptl_crystal_description       prism
_cell_formula_units_Z            1
loop_
_atom_site_label
_atom_site_type_symbol
_atom_site_fract_x
_atom_site_fract_y
_atom_site_fract_z
O1 O 0.00351(19) 0.66716(19) -0.36485(16)
H1 H -0.0572 0.6488 -0.3915
C1 C 0.3107(2) 1.0772(2) -0.3076(2)
O2 O 0.2851(2) 0.44254(16) -0.12760(17)
H2 H 0.2495 0.3950 -0.1617
C2 C 0.2526(3) 1.1025(2) -0.3728(2)
C3 C 0.1986(3) 1.1640(2) -0.3642(2)
H3 H 0.1603 1.1816 -0.4089
O3 O -0.10798(18) 0.84297(19) -0.19754(16)
H4 H -0.1621 0.8143 -0.2340
C4 C 0.1999(2) 1.1992(2) -0.2927(2)
O4 O 0.14554(19) 1.25887(17) -0.28384(16)
H5 H 0.1144 1.2677 -0.3278
C5 C 0.2561(2) 1.1752(2) -0.2250(2)
C6 C 0.3103(2) 1.1143(2) -0.2357(2)
H6 H 0.3492 1.0973 -0.1908
C7 C 0.2504(2) 1.2109(2) -0.1467(2)
H7 H 0.2425 1.2731 -0.1456
C8 C 0.3430(2) 1.2183(2) -0.0742(2)
H8 H 0.3299 1.2342 -0.0265
H9 H 0.3574 1.1588 -0.0768
O5 O 0.2509(2) 1.06464(19) -0.44495(15)
H10 H 0.2139 1.0847 -0.4797
C9 C 0.1598(3) 1.1567(2) -0.1419(2)
C10 C 0.0752(3) 1.1876(2) -0.1550(2)
C11 C -0.0054(3) 1.1377(3) -0.1484(3)
H11 H -0.0620 1.1596 -0.1576
C12 C -0.0047(3) 1.0570(3) -0.1286(2)
O6 O -0.08768(19) 1.01246(19) -0.12240(17)
H12 H -0.1077 0.9600 -0.1514
C13 C 0.0780(2) 1.0234(2) -0.1141(2)
C14 C 0.1571(2) 1.0751(2) -0.12268(19)
H13 H 0.2131 1.0524 -0.1147
C15 C 0.0828(2) 0.9347(2) -0.0896(2)
H14 H 0.0277 0.9193 -0.0728
O7 O 0.1936(2) 0.6601(2) 0.17403(17)
H15 H 0.1766 0.6105 0.1833
C16 C 0.0629(2) 0.8597(2) -0.1602(2)
O8 O 0.1095(2) 0.54612(18) -0.34354(16)
H16 H 0.0760 0.5838 -0.3499
C17 C -0.0338(3) 0.8177(2) -0.2137(2)
C18 C -0.0535(3) 0.7541(3) -0.2814(2)
H17 H -0.1194 0.7267 -0.3172
O9 O 0.3257(3) 0.48006(18) 0.02659(18)
H18 H 0.3050 0.4674 -0.0227
C19 C 0.0219(3) 0.7298(2) -0.2974(2)
C20 C 0.1195(2) 0.7683(2) -0.2449(2)
C21 C 0.1363(2) 0.8326(2) -0.1785(2)
H19 H 0.2023 0.8602 -0.1430
C22 C 0.2026(2) 0.7362(2) -0.2604(2)
H20 H 0.1779 0.7128 -0.3186
C23 C 0.2960(3) 0.8118(2) -0.2357(2)
H21 H 0.3178 0.8421 -0.1795
H22 H 0.3483 0.7848 -0.2410
C24 C 0.2837(3) 0.8814(2) -0.2831(2)
H23 H 0.2385 0.9147 -0.2721
H24 H 0.2539 0.8507 -0.3399
C25 C 0.2237(2) 0.6578(2) -0.2249(2)
C26 C 0.1769(3) 0.5686(2) -0.2671(2)
C27 C 0.1993(3) 0.4994(2) -0.2336(2)
H25 H 0.1670 0.4392 -0.2632
C28 C 0.2675(3) 0.5158(2) -0.1579(2)
C29 C 0.3169(2) 0.6037(2) -0.1130(2)
C30 C 0.2921(2) 0.6716(2) -0.1484(2)
H26 H 0.3240 0.7318 -0.1185
C31 C 0.3935(3) 0.6237(2) -0.0290(2)
H27 H 0.4186 0.5690 -0.0245
C32 C 0.4819(3) 0.7010(2) -0.0123(2)
H28 H 0.5046 0.6899 -0.0553
H29 H 0.4609 0.7574 -0.0125
C33 C 0.5673(3) 0.7132(2) 0.0657(2)
H30 H 0.5481 0.7330 0.1095
H31 H 0.5832 0.6549 0.0693
C34 C 0.3457(3) 0.6348(2) 0.0289(2)
C35 C 0.3102(3) 0.5614(3) 0.0529(2)
C36 C 0.2595(3) 0.5702(3) 0.1002(3)
H32 H 0.2346 0.5189 0.1149
C37 C 0.2439(3) 0.6508(3) 0.1267(2)
C38 C 0.2807(2) 0.7289(2) 0.1069(2)
C39 C 0.3305(2) 0.7174(2) 0.0582(2)
H33 H 0.3561 0.7686 0.0438
O10 O 0.0682(2) 1.2680(2) -0.1736(2)
H34 H 0.0810 1.2696 -0.2133
C40 C 0.2743(3) 0.8200(3) 0.1449(2)
H35 H 0.2115 0.8093 0.1521
C41 C 0.2700(3) 0.8884(2) 0.0953(2)
H36 H 0.2738 0.9467 0.1277
H37 H 0.3288 0.8961 0.0832
O11 O 0.5793(2) 0.9620(2) 0.45235(16)
H38 H 0.6258 0.9379 0.4575
C42 C 0.1812(3) 0.8666(3) 0.0191(2)
H39 H 0.1214 0.8499 0.0290
H40 H 0.1827 0.8144 -0.0178
C43 C 0.1776(3) 0.9456(2) -0.0178(2)
H41 H 0.2332 0.9564 -0.0338
H42 H 0.1870 0.9996 0.0226
C44 C 0.3560(3) 0.8575(2) 0.2270(2)
C45 C 0.3404(3) 0.8503(3) 0.2954(2)
C46 C 0.4159(3) 0.8859(3) 0.3685(2)
H43 H 0.4041 0.8812 0.4141
C47 C 0.5081(3) 0.9283(3) 0.3768(2)
C48 C 0.5274(3) 0.9371(2) 0.3105(2)
C49 C 0.4505(3) 0.8998(2) 0.2376(2)
H44 H 0.4630 0.9033 0.1921
C50 C 0.6283(3) 0.9876(2) 0.3179(2)
H45 H 0.6633 1.0256 0.3731
O12 O 0.2495(2) 0.8118(2) 0.29226(17)
H46 H 0.2290 0.7590 0.2639
C51 C 0.6187(3) 1.0521(2) 0.2641(2)
H47 H 0.5926 1.0169 0.2088
H48 H 0.5712 1.0860 0.2694
O1A O 0.99649 1.33284 0.36485
H1A H 1.0572 1.3512 0.3915
C1A C 0.6893 0.9228 0.3076
O2A O 0.7149 1.55746 0.1276
H2A H 0.7505 1.605 0.1617
C2A C 0.7474 0.8975 0.3728
C3A C 0.8014 0.836 0.3642
H3A H 0.8397 0.8184 0.4089
O3A O 1.10798 1.15703 0.19754
H4A H 1.1621 1.1857 0.234
C4A C 0.8001 0.8008 0.2927
O4A O 0.85446 0.74113 0.28384
H5A H 0.8856 0.7323 0.3278
C5A C 0.7439 0.8248 0.225
C6A C 0.6897 0.8857 0.2357
H6A H 0.6508 0.9027 0.1908
C7A C 0.7496 0.7891 0.1467
H7A H 0.7575 0.7269 0.1456
C8A C 0.657 0.7817 0.0742
H8A H 0.6701 0.7658 0.0265
H9A H 0.6426 0.8412 0.0768
O5A O 0.7491 0.93536 0.44495
H10A H 0.7861 0.9153 0.4797
C9A C 0.8402 0.8433 0.1419
C10A C 0.9248 0.8124 0.155
C11A C 1.0054 0.8623 0.1484
H11A H 1.062 0.8404 0.1576
C12A C 1.0047 0.943 0.1286
O6A O 1.08768 0.98754 0.1224
H12A H 1.1077 1.04 0.1514
C13A C 0.922 0.9766 0.1141
C14A C 0.8429 0.9249 0.12268
H13A H 0.7869 0.9476 0.1147
C15A C 0.9172 1.0653 0.0896
H14A H 0.9723 1.0807 0.0728
O7A O 0.8064 1.3399 -0.17403
H15A H 0.8234 1.3895 -0.1833
C16A C 0.9371 1.1403 0.1602
O8A O 0.8905 1.45388 0.34354
H16A H 0.924 1.4162 0.3499
C17A C 1.0338 1.1823 0.2137
C18A C 1.0535 1.2459 0.2814
H17A H 1.1194 1.2733 0.3172
O9A O 0.6743 1.51994 -0.02659
H18A H 0.695 1.5326 0.0227
C19A C 0.9781 1.2702 0.2974
C20A C 0.8805 1.2317 0.2449
C21A C 0.8637 1.1674 0.1785
H19A H 0.7977 1.1398 0.143
C22A C 0.7974 1.2638 0.2604
H20A H 0.8221 1.2872 0.3186
C23A C 0.704 1.1882 0.2357
H21A H 0.6822 1.1579 0.1795
H22A H 0.6517 1.2152 0.241
C24A C 0.7163 1.1186 0.2831
H23A H 0.7615 1.0853 0.2721
H24A H 0.7461 1.1493 0.3399
C25A C 0.7763 1.3422 0.2249
C26A C 0.8231 1.4314 0.2671
C27A C 0.8007 1.5006 0.2336
H25A H 0.833 1.5608 0.2632
C28A C 0.7325 1.4842 0.1579
C29A C 0.6831 1.3963 0.113
C30A C 0.7079 1.3284 0.1484
H26A H 0.676 1.2682 0.1185
C31A C 0.6065 1.3763 0.029
H27A H 0.5814 1.431 0.0245
C32A C 0.5181 1.299 0.0123
H28A H 0.4954 1.3101 0.0553
H29A H 0.5391 1.2426 0.0125
C33A C 0.4327 1.2868 -0.0657
H30A H 0.4519 1.267 -0.1095
H31A H 0.4168 1.3451 -0.0693
C34A C 0.6543 1.3652 -0.0289
C35A C 0.6898 1.4386 -0.0529
C36A C 0.7405 1.4298 -0.1002
H32A H 0.7654 1.4811 -0.1149
C37A C 0.7561 1.3492 -0.1267
C38A C 0.7193 1.2711 -0.1069
C39A C 0.6695 1.2826 -0.0582
H33A H 0.6439 1.2314 -0.0438
O10A O 0.9318 0.732 0.1736
H34A H 0.919 0.7304 0.2133
C40A C 0.7257 1.18 -0.1449
H35A H 0.7885 1.1907 -0.1521
C41A C 0.73 1.1116 -0.0953
H36A H 0.7262 1.0533 -0.1277
H37A H 0.6712 1.1039 -0.0832
O11A O 0.4207 1.038 -0.45235
H38A H 0.3742 1.0621 -0.4575
C42A C 0.8188 1.1334 -0.0191
H39A H 0.8786 1.1501 -0.029
H40A H 0.8173 1.1856 0.0178
C43A C 0.8224 1.0544 0.0178
H41A H 0.7668 1.0436 0.0338
H42A H 0.813 1.0004 -0.0226
C44A C 0.644 1.1425 -0.227
C45A C 0.6596 1.1497 -0.2954
C46A C 0.5841 1.1141 -0.3685
H43A H 0.5959 1.1188 -0.4141
C47A C 0.4919 1.0717 -0.3768
C48A C 0.4726 1.0629 -0.3105
C49A C 0.5495 1.1002 -0.2376
H44A H 0.537 1.0967 -0.1921
C50A C 0.3717 1.0124 -0.3179
H45A H 0.3367 0.9744 -0.3731
O12A O 0.7505 1.1882 -0.29226
H46A H 0.771 1.241 -0.2639
C51A C 0.3813 0.9479 -0.2641
H47A H 0.4074 0.9831 -0.2088
H48A H 0.4288 0.914 -0.2694

#END

