
#######################################################################
#
#                 Cambridge Crystallographic Data Centre
#                                CCDC 
#
#######################################################################
#
# If this CIF has been generated directly or indirectly from an entry in the 
# Cambridge Structural Database, then it will include bibliographic, chemical, 
# crystal, experimental, refinement or atomic coordinate data resulting from 
# the CCDC's data processing and validation procedures. Files generated from 
# CSD entries are Copyright 2015 Cambridge Crystallographic Data Centre. They 
# may be used in bona fide research applications only, and may not be copied or 
# further disseminated in any form, whether machine-readable or not, except for 
# the purposes of generating routine backup copies on your local computer 
# system.
# 
# Files arising from any other source may also contain material that is the 
# copyright of third parties, including the originator, and you should check 
# with the originator concerning the permitted uses of the information 
# contained in this CIF.
#
# For further information on the CCDC and the free tools enCIFer and Mercury
# for validating and visualising CIF files, please visit www.ccdc.cam.ac.uk
#
#######################################################################

data_LUXVEF
_audit_creation_date             2003-07-09
_database_code_depnum_ccdc_archive 'CCDC 196142'
_database_code_NBS               794755
_chemical_name_common            
"5,5':11,11':17,17':23,23'-tetrakis(Butane-1,4-dioxy)-bis(2,8,14,20-tetrakis(2-phenylethyl)-6,10:12,16:18,22:24,4-O,O'-tetramethylenecalix(4)resorcinarene) benzocyclobuten-1-one bis(nitrobenzene) clathrate"
_chemical_formula_moiety         'C144 H136 O24,C8 H6 O1,2(C6 H5 N1 O2)'
_chemical_name_systematic        
'57,58,59,60,61,62,63,64-octakis(2-Phenylethyl)-2,4,6,8,10,15,17,19,21,23,25,27,29,34,36,38,39,44,45,50,51,53,54,56-tetracosaoxa-1,5,20,24(1,3,2,6,4),9(1,2,3,6,4),16,35(1,2,6,3,5),28(1,2,3,4,6)-octabenzena-tridecacyclo(22.14.6.6^5,20^,3^9,35^.3^16,28^.1^1,5^.1^1,35^.1^5,9^.1^9,35^.1^16,20^.1^16,28^.1^20,24^.1^24,28^)tetrahexacontaphane benzocyclobuten-1-one bis(nitrobenzene) clathrate'
_journal_coden_Cambridge         35
_journal_volume                  68
_journal_year                    2003
_journal_page_first              2077
_journal_name_full               J.Org.Chem.
loop_
_publ_author_name
R.Warmuth
E.F.Maverick
C.B.Knobler
D.J.Cram
_chemical_absolute_configuration unk
_diffrn_ambient_temperature      298
_exptl_crystal_density_meas      1.289
_exptl_crystal_density_diffrn    1.289
#These two values have been output from a single CSD field.
_refine_ls_R_factor_gt           0.1718
_refine_ls_wR_factor_gt          0.1718
_diffrn_radiation_probe          x-ray
_symmetry_cell_setting           monoclinic
_symmetry_space_group_name_H-M   'P 21/c'
_symmetry_Int_Tables_number      14
loop_
_symmetry_equiv_pos_site_id
_symmetry_equiv_pos_as_xyz
1 x,y,z
2 x,1/2-y,1/2+z
3 -x,-y,-z
4 -x,1/2+y,1/2-z
_cell_length_a                   16.650(11)
_cell_length_b                   20.442(14)
_cell_length_c                   20.043(13)
_cell_angle_alpha                90
_cell_angle_beta                 98.998(16)
_cell_angle_gamma                90
_cell_volume                     6737.87
_exptl_crystal_colour            colorless
_exptl_crystal_description       parallelepiped
_cell_formula_units_Z            2
_exptl_crystal_recrystallization_method chloroform/nitromethane
loop_
_atom_site_label
_atom_site_type_symbol
_atom_site_fract_x
_atom_site_fract_y
_atom_site_fract_z
O1 O 0.2107(6) 0.2358(5) 0.0699(5)
C1 C 0.1278(9) 0.2303(8) 0.0777(8)
H1 H 0.0961 0.2608 0.0471
H2 H 0.1090 0.1865 0.0649
O2 O 0.1139(6) 0.2428(5) 0.1434(6)
C2 C 0.1163(9) 0.1885(7) 0.1867(7)
C3 C 0.1894(8) 0.1654(7) 0.2209(7)
C4 C 0.1859(8) 0.1179(6) 0.2668(7)
H3 H 0.2346 0.1024 0.2907
C5 C 0.1134(8) 0.0903(6) 0.2808(6)
C6 C 0.0417(9) 0.1142(7) 0.2427(7)
C7 C 0.0466(9) 0.1638(7) 0.1956(7)
O3 O -0.0259(6) 0.1804(5) 0.1523(5)
C8 C -0.0787(13) 0.2226(13) 0.1843(10)
H4 H -0.0465 0.2535 0.2141
H5 H -0.1110 0.1968 0.2109
C9 C -0.1348(12) 0.2596(9) 0.1278(16)
H6 H -0.1452 0.3035 0.1428
H7 H -0.1086 0.2630 0.0879
C10 C -0.2145(13) 0.2222(15) 0.1109(11)
H8 H -0.2571 0.2447 0.1296
H9 H -0.2085 0.1787 0.1303
C11 C -0.2373(19) 0.2175(10) 0.0332(12)
H10 H -0.2955 0.2225 0.0200
H11 H -0.2101 0.2516 0.0116
O4 O -0.2115(6) 0.1534(5) 0.0132(5)
C16 C 0.2685(6) 0.1960(5) 0.2038(5)
H20 H 0.2574 0.2414 0.1899
C17 C 0.3333(6) 0.1956(5) 0.2702(5)
H21 H 0.3109 0.2154 0.3073
H22 H 0.3497 0.1511 0.2827
C18 C 0.4046(11) 0.2345(10) 0.2543(9)
H23 H 0.3856 0.2724 0.2272
H24 H 0.4374 0.2079 0.2289
C19 C 0.4569(8) 0.2570(7) 0.3228(5)
C20 C 0.4361(7) 0.3130(6) 0.3557(7)
H25 H 0.3905 0.3370 0.3376
C21 C 0.4835(9) 0.3329(6) 0.4155(7)
H26 H 0.4696 0.3704 0.4375
C22 C 0.5517(8) 0.2969(7) 0.4425(5)
H27 H 0.5835 0.3103 0.4825
C23 C 0.5725(7) 0.2410(7) 0.4097(7)
H28 H 0.6182 0.2169 0.4278
C24 C 0.5251(9) 0.2210(5) 0.3499(7)
H29 H 0.5390 0.1836 0.3279
C25 C 0.1110(8) 0.0371(6) 0.3300(7)
H30 H 0.0585 0.0412 0.3459
C26 C 0.1757(8) 0.0407(7) 0.3934(7)
H31 H 0.1699 0.0026 0.4210
H32 H 0.2289 0.0384 0.3795
C27 C 0.1729(8) 0.1006(7) 0.4363(8)
H33 H 0.2213 0.1016 0.4702
H34 H 0.1738 0.1391 0.4081
C28 C 0.1001(6) 0.1038(6) 0.4706(6)
C29 C 0.0269(8) 0.1313(5) 0.4407(5)
H35 H 0.0227 0.1505 0.3982
C30 C -0.0401(6) 0.1300(6) 0.4743(7)
H36 H -0.0891 0.1484 0.4543
C31 C -0.0339(8) 0.1013(7) 0.5377(7)
H37 H -0.0787 0.1004 0.5602
C32 C 0.0393(10) 0.0738(6) 0.5676(5)
H38 H 0.0435 0.0546 0.6101
C33 C 0.1063(7) 0.0751(6) 0.5340(7)
H39 H 0.1553 0.0567 0.5540
O5 O -0.0331(6) 0.0943(5) 0.2539(5)
C34 C -0.0577(9) 0.0361(7) 0.2235(8)
H40 H -0.0330 0.0314 0.1831
H41 H -0.1162 0.0374 0.2098
O6 O -0.0378(6) -0.0198(5) 0.2651(5)
C35 C 0.0334(8) -0.0535(7) 0.2591(7)
C36 C 0.1084(8) -0.0271(6) 0.2934(7)
C37 C 0.1789(8) -0.0613(6) 0.2841(6)
H42 H 0.2288 -0.0441 0.3035
C38 C 0.1794(8) -0.1192(7) 0.2477(7)
C39 C 0.0991(9) -0.1409(7) 0.2165(8)
C40 C 0.0322(8) -0.1062(6) 0.2241(7)
O7 O -0.0410(6) -0.1274(5) 0.1859(5)
C41 C -0.0977(10) -0.1590(9) 0.2278(9)
H43 H -0.1040 -0.1316 0.2661
H44 H -0.0766 -0.2012 0.2445
C42 C -0.1805(9) -0.1675(8) 0.1807(8)
H45 H -0.2229 -0.1802 0.2063
H46 H -0.1965 -0.1274 0.1564
C43 C -0.1653(9) -0.2181(8) 0.1357(7)
H47 H -0.1636 -0.2602 0.1581
H48 H -0.1136 -0.2109 0.1203
C44 C -0.2377(11) -0.2164(9) 0.0732(9)
H49 H -0.2348 -0.2535 0.0435
H50 H -0.2902 -0.2164 0.0885
O8 O -0.2236(6) -0.1540(5) 0.0388(5)
O9 O 0.0951(6) -0.1996(5) 0.1794(6)
C45 C 0.1094(9) -0.1963(8) 0.1147(8)
H51 H 0.0960 -0.1526 0.0975
H52 H 0.0734 -0.2267 0.0875
O10 O 0.1892(6) -0.2103(5) 0.1071(5)
C46 C 0.2533(8) -0.1545(7) 0.2351(7)
H53 H 0.2392 -0.2009 0.2288
C47 C 0.3245(8) -0.1493(7) 0.2944(7)
H54 H 0.3447 -0.1047 0.2980
H55 H 0.3057 -0.1605 0.3364
C48 C 0.3919(9) -0.1950(8) 0.2828(8)
H56 H 0.4052 -0.1871 0.2380
H57 H 0.3727 -0.2397 0.2841
C49 C 0.4676(6) -0.1872(6) 0.3341(6)
C50 C 0.5228(8) -0.1379(5) 0.3258(5)
H58 H 0.5102 -0.1072 0.2916
C51 C 0.5968(7) -0.1346(5) 0.3688(7)
H59 H 0.6337 -0.1016 0.3633
C52 C 0.6156(6) -0.1805(7) 0.4200(6)
H60 H 0.6651 -0.1783 0.4488
C53 C 0.5604(8) -0.2298(6) 0.4282(5)
H61 H 0.5730 -0.2605 0.4625
C54 C 0.4865(7) -0.2331(5) 0.3853(6)
H62 H 0.4496 -0.2661 0.3908
C55 C 0.2417(9) -0.1565(8) 0.1064(8)
C56 C 0.2779(7) -0.1288(6) 0.1677(7)
C57 C 0.3285(7) -0.0774(6) 0.1636(7)
H63 H 0.3516 -0.0577 0.2039
C58 C 0.3490(8) -0.0516(6) 0.1034(7)
C59 C 0.3070(8) -0.0805(7) 0.0454(7)
C60 C -0.2565(8) 0.1290(7) -0.0470(7)
O11 O 0.3237(6) -0.0577(5) -0.0186(5)
C61 C 0.2866(9) 0.0012(8) -0.0426(8)
H64 H 0.2722 -0.0016 -0.0913
H65 H 0.2366 0.0064 -0.0239
O12 O 0.3333(6) 0.0547(5) -0.0271(5)
C62 C 0.3183(9) 0.0911(7) 0.0307(8)
C63 C -0.2707(8) -0.1426(7) -0.0258(7)
C64 C 0.2548(8) 0.1784(7) 0.0782(7)
C65 C 0.2914(8) 0.1580(7) 0.1440(7)
C66 C 0.3402(7) 0.1021(6) 0.1491(7)
H66 H 0.3627 0.0878 0.1920
C67 C 0.3568(7) 0.0673(6) 0.0952(6)
C68 C 0.4060(8) 0.0056(6) 0.1010(7)
H67 H 0.4290 0.0014 0.0591
C69 C 0.4775(8) 0.0036(7) 0.1595(7)
H68 H 0.4590 0.0169 0.2010
H69 H 0.4982 -0.0407 0.1654
C70 C 0.5448(9) 0.0491(8) 0.1448(8)
H70 H 0.5238 0.0933 0.1401
H71 H 0.5609 0.0366 0.1022
C71 C 0.6197(5) 0.0482(6) 0.1996(5)
C72 C 0.6614(7) -0.0094(5) 0.2186(5)
H72 H 0.6430 -0.0489 0.1987
C73 C 0.7307(6) -0.0081(5) 0.2673(6)
H73 H 0.7585 -0.0467 0.2800
C74 C 0.7582(6) 0.0508(6) 0.2971(5)
H74 H 0.8046 0.0517 0.3297
C75 C 0.7165(7) 0.1084(5) 0.2781(6)
H75 H 0.7350 0.1479 0.2980
C76 C 0.6473(7) 0.1071(5) 0.2294(6)
H76 H 0.6194 0.1457 0.2167
C55B C -0.2417 0.1565 -0.1064
O10B O -0.1892 0.2103 -0.1071
C45B C -0.1094 0.1963 -0.1147
O9B O -0.0951 0.1996 -0.1794
C39B C -0.0991 0.1409 -0.2165
C38B C -0.1794 0.1192 -0.2477
C37B C -0.1789 0.0613 -0.2841
C36B C -0.1084 0.0271 -0.2934
C25B C -0.111 -0.0371 -0.33
C5B C -0.1134 -0.0903 -0.2808
C4B C -0.1859 -0.1179 -0.2668
C3B C -0.1894 -0.1654 -0.2209
C2B C -0.1163 -0.1885 -0.1867
O2B O -0.1139 -0.2428 -0.1434
C1B C -0.1278 -0.2303 -0.0777
O1B O -0.2107 -0.2358 -0.0699
C64B C -0.2548 -0.1784 -0.0782
C60B C 0.2565 -0.129 0.047
O4B O 0.2115 -0.1534 -0.0132
C11B C 0.2373 -0.2175 -0.0332
C10B C 0.2145 -0.2222 -0.1109
C9B C 0.1348 -0.2596 -0.1278
C8B C 0.0787 -0.2226 -0.1843
O3B O 0.0259 -0.1804 -0.1523
C7B C -0.0466 -0.1638 -0.1956
C6B C -0.0417 -0.1142 -0.2427
O5B O 0.0331 -0.0943 -0.2539
C34B C 0.0577 -0.0361 -0.2235
H40B H 0.033 -0.0314 -0.1831
H41B H 0.1162 -0.0374 -0.2098
O6B O 0.0378 0.0198 -0.2651
C35B C -0.0334 0.0535 -0.2591
C40B C -0.0322 0.1062 -0.2241
O7B O 0.041 0.1274 -0.1859
C41B C 0.0977 0.159 -0.2278
H43B H 0.104 0.1316 -0.2661
H44B H 0.0766 0.2012 -0.2445
C42B C 0.1805 0.1675 -0.1807
H45B H 0.2229 0.1802 -0.2063
H46B H 0.1965 0.1274 -0.1564
C43B C 0.1653 0.2181 -0.1357
H47B H 0.1636 0.2602 -0.1581
H48B H 0.1136 0.2109 -0.1203
C44B C 0.2377 0.2164 -0.0732
H49B H 0.2348 0.2535 -0.0435
H50B H 0.2902 0.2164 -0.0885
O8B O 0.2236 0.154 -0.0388
C63B C 0.2707 0.1426 0.0258
H4B H 0.0465 -0.2535 -0.2141
H5B H 0.111 -0.1968 -0.2109
H6B H 0.1452 -0.3035 -0.1428
H7B H 0.1086 -0.263 -0.0879
H8B H 0.2571 -0.2447 -0.1296
H9B H 0.2085 -0.1787 -0.1303
H10B H 0.2955 -0.2225 -0.02
H11B H 0.2101 -0.2516 -0.0116
C62B C -0.3183 -0.0911 -0.0307
O12B O -0.3333 -0.0547 0.0271
C61B C -0.2866 -0.0012 0.0426
O11B O -0.3237 0.0577 0.0186
C59B C -0.307 0.0805 -0.0454
C58B C -0.349 0.0516 -0.1034
C57B C -0.3285 0.0774 -0.1636
C56B C -0.2779 0.1288 -0.1677
C46B C -0.2533 0.1545 -0.2351
H53B H -0.2392 0.2009 -0.2288
C47B C -0.3245 0.1493 -0.2944
H54B H -0.3447 0.1047 -0.298
H55B H -0.3057 0.1605 -0.3364
C48B C -0.3919 0.195 -0.2828
H56B H -0.4052 0.1871 -0.238
H57B H -0.3727 0.2397 -0.2841
C49B C -0.4676 0.1872 -0.3341
C50B C -0.5228 0.1379 -0.3258
H58B H -0.5102 0.1072 -0.2916
C51B C -0.5968 0.1346 -0.3688
H59B H -0.6337 0.1016 -0.3633
C52B C -0.6156 0.1805 -0.42
H60B H -0.6651 0.1783 -0.4488
C53B C -0.5604 0.2298 -0.4282
H61B H -0.573 0.2605 -0.4625
C54B C -0.4865 0.2331 -0.3853
H62B H -0.4496 0.2661 -0.3908
H63B H -0.3516 0.0577 -0.2039
C68B C -0.406 -0.0056 -0.101
C67B C -0.3568 -0.0673 -0.0952
C66B C -0.3402 -0.1021 -0.1491
C65B C -0.2914 -0.158 -0.144
C16B C -0.2685 -0.196 -0.2038
H20B H -0.2574 -0.2414 -0.1899
C17B C -0.3333 -0.1956 -0.2702
H21B H -0.3109 -0.2154 -0.3073
H22B H -0.3497 -0.1511 -0.2827
C18B C -0.4046 -0.2345 -0.2543
H23B H -0.3856 -0.2724 -0.2272
H24B H -0.4374 -0.2079 -0.2289
C19B C -0.4569 -0.257 -0.3228
C20B C -0.4361 -0.313 -0.3557
H25B H -0.3905 -0.337 -0.3376
C21B C -0.4835 -0.3329 -0.4155
H26B H -0.4696 -0.3704 -0.4375
C22B C -0.5517 -0.2969 -0.4425
H27B H -0.5835 -0.3103 -0.4825
C23B C -0.5725 -0.241 -0.4097
H28B H -0.6182 -0.2169 -0.4278
C24B C -0.5251 -0.221 -0.3499
H29B H -0.539 -0.1836 -0.3279
H66B H -0.3627 -0.0878 -0.192
H67B H -0.429 -0.0014 -0.0591
C69B C -0.4775 -0.0036 -0.1595
H68B H -0.459 -0.0169 -0.201
H69B H -0.4982 0.0407 -0.1654
C70B C -0.5448 -0.0491 -0.1448
H70B H -0.5238 -0.0933 -0.1401
H71B H -0.5609 -0.0366 -0.1022
C71B C -0.6197 -0.0482 -0.1996
C72B C -0.6614 0.0094 -0.2186
H72B H -0.643 0.0489 -0.1987
C73B C -0.7307 0.0081 -0.2673
H73B H -0.7585 0.0467 -0.28
C74B C -0.7582 -0.0508 -0.2971
H74B H -0.8046 -0.0517 -0.3297
C75B C -0.7165 -0.1084 -0.2781
H75B H -0.735 -0.1479 -0.298
C76B C -0.6473 -0.1071 -0.2294
H76B H -0.6194 -0.1457 -0.2167
H64B H -0.2722 0.0016 0.0913
H65B H -0.2366 -0.0064 0.0239
H1B H -0.0961 -0.2608 -0.0471
H2B H -0.109 -0.1865 -0.0649
H3B H -0.2346 -0.1024 -0.2907
H30B H -0.0585 -0.0412 -0.3459
C26B C -0.1757 -0.0407 -0.3934
H31B H -0.1699 -0.0026 -0.421
H32B H -0.2289 -0.0384 -0.3795
C27B C -0.1729 -0.1006 -0.4363
H33B H -0.2213 -0.1016 -0.4702
H34B H -0.1738 -0.1391 -0.4081
C28B C -0.1001 -0.1038 -0.4706
C29B C -0.0269 -0.1313 -0.4407
H35B H -0.0227 -0.1505 -0.3982
C30B C 0.0401 -0.13 -0.4743
H36B H 0.0891 -0.1484 -0.4543
C31B C 0.0339 -0.1013 -0.5377
H37B H 0.0787 -0.1004 -0.5602
C32B C -0.0393 -0.0738 -0.5676
H38B H -0.0435 -0.0546 -0.6101
C33B C -0.1063 -0.0751 -0.534
H39B H -0.1553 -0.0567 -0.554
H42B H -0.2288 0.0441 -0.3035
H51B H -0.096 0.1526 -0.0975
H52B H -0.0734 0.2267 -0.0875

#END

