
#######################################################################
#
#                 Cambridge Crystallographic Data Centre
#                                CCDC 
#
#######################################################################
#
# If this CIF has been generated directly or indirectly from an entry in the 
# Cambridge Structural Database, then it will include bibliographic, chemical, 
# crystal, experimental, refinement or atomic coordinate data resulting from 
# the CCDC's data processing and validation procedures. Files generated from 
# CSD entries are Copyright 2015 Cambridge Crystallographic Data Centre. They 
# may be used in bona fide research applications only, and may not be copied or 
# further disseminated in any form, whether machine-readable or not, except for 
# the purposes of generating routine backup copies on your local computer 
# system.
# 
# Files arising from any other source may also contain material that is the 
# copyright of third parties, including the originator, and you should check 
# with the originator concerning the permitted uses of the information 
# contained in this CIF.
#
# For further information on the CCDC and the free tools enCIFer and Mercury
# for validating and visualising CIF files, please visit www.ccdc.cam.ac.uk
#
#######################################################################

data_LUXVIJ
_audit_creation_date             2003-07-09
_database_code_depnum_ccdc_archive 'CCDC 196143'
_database_code_NBS               794756
_chemical_name_common            
"5,5':11,11':17,17':23,23'-tetrakis(Butane-1,4-dioxy)-bis(2,8,14,20-tetrakis(2-phenylethyl)-6,10:12,16:18,22:24,4-tetramethylenecalix(4)resorcinarene) benzocyclobutene-1,2-dione bis(nitrobenzene) clathrate"
_chemical_formula_moiety         'C144 H136 O24,C8 H4 O2,2(C6 H5 N1 O2)'
_chemical_name_systematic        
'57,58,59,60,61,62,63,64-octakis(2-Phenylethyl)-2,4,6,8,10,15,17,19,21,23,25,27,29,34,36,38,39,44,45,50,51,53,54,56-tetracosaoxa-1,5,20,24(1,3,2,6,4),9(1,2,3,6,4),16,35(1,2,6,3,5),28(1,2,3,4,6)-octabenzena-tridecacyclo(22.14.6.6^5,20^,3^9,35^.3^16,28^.1^1,5^.1^1,35^.1^5,9^.1^9,35^.1^16,20^.1^16,28^.1^20,24^.1^24,28^)tetrahexacontaphane benzocyclobutene-1,2-dione bis(nitrobenzene) clathrate'
_journal_coden_Cambridge         35
_journal_volume                  68
_journal_year                    2003
_journal_page_first              2077
_journal_name_full               J.Org.Chem.
loop_
_publ_author_name
R.Warmuth
E.F.Maverick
C.B.Knobler
D.J.Cram
_chemical_absolute_configuration unk
_diffrn_ambient_temperature      298
_exptl_crystal_density_meas      1.273
_exptl_crystal_density_diffrn    1.273
#These two values have been output from a single CSD field.
_refine_ls_R_factor_gt           0.157
_refine_ls_wR_factor_gt          0.157
_diffrn_radiation_probe          x-ray
_symmetry_cell_setting           monoclinic
_symmetry_space_group_name_H-M   'P 21/c'
_symmetry_Int_Tables_number      14
loop_
_symmetry_equiv_pos_site_id
_symmetry_equiv_pos_as_xyz
1 x,y,z
2 x,1/2-y,1/2+z
3 -x,-y,-z
4 -x,1/2+y,1/2-z
_cell_length_a                   16.720(7)
_cell_length_b                   20.559(8)
_cell_length_c                   20.168(8)
_cell_angle_alpha                90
_cell_angle_beta                 98.524(12)
_cell_angle_gamma                90
_cell_volume                     6856.1
_exptl_crystal_colour            colorless
_exptl_crystal_description       parallelepiped
_cell_formula_units_Z            2
_exptl_crystal_recrystallization_method chloroform/nitromethane
loop_
_atom_site_label
_atom_site_type_symbol
_atom_site_fract_x
_atom_site_fract_y
_atom_site_fract_z
O3 O 0.2125(6) 0.2381(5) 0.0732(5)
C9 C 0.1301(8) 0.2366(7) 0.0824(7)
H5 H 0.1007 0.2691 0.0537
H6 H 0.1076 0.1944 0.0686
O4 O 0.1188(6) 0.2482(5) 0.1484(5)
C10 C 0.1905(4) 0.1190(4) 0.2702(4)
H7 H 0.2385 0.1031 0.2938
C11 C 0.1169(5) 0.0930(3) 0.2812(4)
C12 C 0.0451(4) 0.1167(4) 0.2459(5)
C13 C 0.0470(4) 0.1664(4) 0.1994(4)
C14 C 0.1206(6) 0.1924(4) 0.1883(4)
C15 C 0.1924(4) 0.1687(4) 0.2237(4)
O5 O -0.0219(6) 0.1826(5) 0.1554(5)
C16 C -0.0593(15) 0.2427(9) 0.1639(13)
H8 H -0.0212 0.2780 0.1621
H9 H -0.0785 0.2441 0.2070
C17 C -0.1290(12) 0.2493(11) 0.1081(11)
H10 H -0.1483 0.2939 0.1065
H11 H -0.1103 0.2400 0.0658
C18 C -0.1974(15) 0.2048(14) 0.1162(13)
H12 H -0.2287 0.2255 0.1470
H13 H -0.1741 0.1657 0.1382
C19 C -0.2558(12) 0.1834(13) 0.0566(10)
H14 H -0.2935 0.1519 0.0699
H15 H -0.2862 0.2204 0.0363
O6 O -0.2098(6) 0.1552(5) 0.0104(5)
C24 C 0.2694(8) 0.1950(7) 0.2071(6)
H24 H 0.2586 0.2403 0.1935
C25 C 0.3362(9) 0.1971(8) 0.2691(7)
H25 H 0.3135 0.2153 0.3066
H26 H 0.3532 0.1530 0.2809
C26 C 0.4032(12) 0.2331(10) 0.2596(10)
H27 H 0.3856 0.2702 0.2314
H28 H 0.4377 0.2066 0.2358
C27 C 0.4541(8) 0.2583(7) 0.3259(5)
C28 C 0.5234(9) 0.2237(5) 0.3510(7)
H29 H 0.5376 0.1868 0.3286
C29 C 0.5715(7) 0.2442(7) 0.4094(7)
H30 H 0.6179 0.2210 0.4262
C30 C 0.5502(8) 0.2992(7) 0.4428(5)
H31 H 0.5824 0.3129 0.4819
C31 C 0.4809(9) 0.3338(5) 0.4177(7)
H32 H 0.4667 0.3707 0.4400
C32 C 0.4328(7) 0.3134(7) 0.3592(7)
H33 H 0.3865 0.3365 0.3424
C33 C 0.1127(8) 0.0382(6) 0.3299(6)
H34 H 0.0608 0.0419 0.3467
C34 C 0.1807(8) 0.0399(6) 0.3922(6)
H35 H 0.1765 0.0014 0.4193
H36 H 0.2331 0.0391 0.3771
C35 C 0.1744(9) 0.1014(7) 0.4357(7)
H37 H 0.2233 0.1049 0.4680
H38 H 0.1717 0.1393 0.4069
C36 C 0.1037(7) 0.1024(6) 0.4724(6)
C37 C 0.1111(7) 0.0725(6) 0.5349(7)
H39 H 0.1602 0.0540 0.5534
C38 C 0.0453(10) 0.0702(6) 0.5695(5)
H40 H 0.0502 0.0502 0.6113
C39 C -0.0280(8) 0.0978(7) 0.5418(7)
H41 H -0.0720 0.0962 0.5650
C40 C -0.0354(6) 0.1276(6) 0.4794(7)
H42 H -0.0844 0.1461 0.4608
C41 C 0.0304(9) 0.1300(5) 0.4447(5)
H43 H 0.0255 0.1500 0.4029
O7 O -0.0299(6) 0.0951(5) 0.2559(5)
C42 C -0.0510(10) 0.0363(7) 0.2248(8)
H44 H -0.0226 0.0320 0.1864
H45 H -0.1085 0.0369 0.2081
O8 O -0.0341(6) -0.0180(5) 0.2656(5)
C43 C 0.1832(4) -0.0592(4) 0.2870(4)
H46 H 0.2323 -0.0429 0.3081
C44 C 0.1811(4) -0.1169(4) 0.2509(4)
C45 C 0.1077(6) -0.1413(3) 0.2194(4)
C46 C 0.0363(4) -0.1081(4) 0.2240(4)
C47 C 0.0384(4) -0.0504(4) 0.2602(4)
C48 C 0.1118(5) -0.0260(3) 0.2917(4)
O9 O -0.0352(6) -0.1257(4) 0.1859(5)
C49 C -0.0948(10) -0.1542(8) 0.2243(8)
H47 H -0.1032 -0.1253 0.2607
H48 H -0.0749 -0.1955 0.2435
C50 C -0.1758(8) -0.1649(7) 0.1775(7)
H49 H -0.2181 -0.1773 0.2031
H50 H -0.1922 -0.1256 0.1526
C51 C -0.1602(9) -0.2168(7) 0.1325(7)
H51 H -0.1588 -0.2585 0.1551
H52 H -0.1087 -0.2100 0.1168
C52 C -0.2332(10) -0.2146(8) 0.0708(9)
H53 H -0.2327 -0.2529 0.0428
H54 H -0.2850 -0.2118 0.0867
O10 O -0.2173(6) -0.1556(5) 0.0338(5)
O11 O 0.1012(6) -0.2004(5) 0.1856(5)
C53 C 0.1134(10) -0.1999(8) 0.1184(8)
H55 H 0.0789 -0.2325 0.0939
H56 H 0.0977 -0.1578 0.0990
O12 O 0.1927(6) -0.2122(5) 0.1112(5)
C54 C 0.2597(8) -0.1501(7) 0.2372(7)
H57 H 0.2466 -0.1964 0.2313
C55 C 0.3293(8) -0.1468(7) 0.2957(7)
H58 H 0.3102 -0.1599 0.3368
H59 H 0.3489 -0.1024 0.3012
C56 C 0.3985(9) -0.1919(8) 0.2820(8)
H60 H 0.3796 -0.2365 0.2809
H61 H 0.4125 -0.1818 0.2382
C57 C 0.4728(6) -0.1861(6) 0.3334(5)
C58 C 0.5268(8) -0.1364(5) 0.3250(5)
H62 H 0.5147 -0.1069 0.2900
C59 C 0.5989(7) -0.1309(5) 0.3688(7)
H63 H 0.6350 -0.0977 0.3632
C60 C 0.6170(6) -0.1750(7) 0.4211(6)
H64 H 0.6652 -0.1713 0.4505
C61 C 0.5630(8) -0.2246(5) 0.4296(5)
H65 H 0.5751 -0.2541 0.4646
C62 C 0.4909(7) -0.2302(5) 0.3858(6)
H66 H 0.4548 -0.2634 0.3914
C63 C -0.3312(5) 0.0744(4) -0.1667(3)
H67 H -0.3568 0.0554 -0.2060
C64 C -0.3445(5) 0.0505(3) -0.1048(4)
C65 C -0.3062(5) 0.0790(4) -0.0461(3)
C66 C -0.2545(5) 0.1315(4) -0.0493(3)
C67 C 0.2412(5) -0.1555(3) 0.1111(5)
C68 C 0.2795(5) -0.1269(4) 0.1699(3)
O13 O -0.3184(6) 0.0569(5) 0.0180(5)
C69 C -0.2786(9) -0.0005(7) 0.0414(7)
H68 H -0.2636 0.0024 0.0896
H69 H -0.2291 -0.0044 0.0218
O14 O -0.3248(6) -0.0558(5) 0.0262(5)
C70 C -0.3412(5) -0.1046(4) -0.1520(3)
H70 H -0.3660 -0.0912 -0.1941
C71 C -0.3525(4) -0.0693(3) -0.0953(4)
C72 C -0.3153(5) -0.0893(4) -0.0323(3)
C73 C -0.2669(5) -0.1446(4) -0.0261(3)
C74 C 0.2556(5) 0.1799(3) 0.0828(4)
C75 C 0.2928(5) 0.1599(4) 0.1457(3)
C76 C -0.4011(8) -0.0062(6) -0.0989(7)
H71 H -0.4210 -0.0014 -0.0558
C77 C -0.4759(8) -0.0059(6) -0.1540(6)
H72 H -0.4593 -0.0193 -0.1960
H73 H -0.4964 0.0382 -0.1597
C78 C -0.5426(9) -0.0494(7) -0.1393(7)
H74 H -0.5215 -0.0932 -0.1327
H75 H -0.5593 -0.0355 -0.0974
C79 C -0.6177(6) -0.0513(6) -0.1933(5)
C80 C -0.6593(8) 0.0058(5) -0.2120(6)
H76 H -0.6414 0.0451 -0.1923
C81 C -0.7279(7) 0.0044(5) -0.2603(6)
H77 H -0.7557 0.0426 -0.2729
C82 C -0.7547(6) -0.0543(7) -0.2899(5)
H78 H -0.8006 -0.0553 -0.3222
C83 C -0.7131(8) -0.1115(5) -0.2711(6)
H79 H -0.7311 -0.1507 -0.2909
C84 C -0.6446(7) -0.1100(5) -0.2228(6)
H80 H -0.6167 -0.1482 -0.2103
C70B C 0.3412 0.1046 0.152
H70B H 0.366 0.0912 0.1941
C71B C 0.3525 0.0693 0.0953
C72B C 0.3153 0.0893 0.0323
O14B O 0.3248 0.0558 -0.0262
C69B C 0.2786 0.0005 -0.0414
O13B O 0.3184 -0.0569 -0.018
C65B C 0.3062 -0.079 0.0461
C64B C 0.3445 -0.0505 0.1048
C63B C 0.3312 -0.0744 0.1667
H67B H 0.3568 -0.0554 0.206
C66B C 0.2545 -0.1315 0.0493
O6B O 0.2098 -0.1552 -0.0104
C19B C 0.2558 -0.1834 -0.0566
C18B C 0.1974 -0.2048 -0.1162
C17B C 0.129 -0.2493 -0.1081
C16B C 0.0593 -0.2427 -0.1639
O5B O 0.0219 -0.1826 -0.1554
C13B C -0.047 -0.1664 -0.1994
C12B C -0.0451 -0.1167 -0.2459
C11B C -0.1169 -0.093 -0.2812
C10B C -0.1905 -0.119 -0.2702
H7B H -0.2385 -0.1031 -0.2938
C15B C -0.1924 -0.1687 -0.2237
C14B C -0.1206 -0.1924 -0.1883
O4B O -0.1188 -0.2482 -0.1484
C9B C -0.1301 -0.2366 -0.0824
O3B O -0.2125 -0.2381 -0.0732
C74B C -0.2556 -0.1799 -0.0828
C68B C -0.2795 0.1269 -0.1699
C54B C -0.2597 0.1501 -0.2372
C44B C -0.1811 0.1169 -0.2509
C43B C -0.1832 0.0592 -0.287
H46B H -0.2323 0.0429 -0.3081
C48B C -0.1118 0.026 -0.2917
C33B C -0.1127 -0.0382 -0.3299
H34B H -0.0608 -0.0419 -0.3467
C34B C -0.1807 -0.0399 -0.3922
H35B H -0.1765 -0.0014 -0.4193
H36B H -0.2331 -0.0391 -0.3771
C35B C -0.1744 -0.1014 -0.4357
H37B H -0.2233 -0.1049 -0.468
H38B H -0.1717 -0.1393 -0.4069
C36B C -0.1037 -0.1024 -0.4724
C37B C -0.1111 -0.0725 -0.5349
H39B H -0.1602 -0.054 -0.5534
C38B C -0.0453 -0.0702 -0.5695
H40B H -0.0502 -0.0502 -0.6113
C39B C 0.028 -0.0978 -0.5418
H41B H 0.072 -0.0962 -0.565
C40B C 0.0354 -0.1276 -0.4794
H42B H 0.0844 -0.1461 -0.4608
C41B C -0.0304 -0.13 -0.4447
H43B H -0.0255 -0.15 -0.4029
C47B C -0.0384 0.0504 -0.2602
O8B O 0.0341 0.018 -0.2656
C42B C 0.051 -0.0363 -0.2248
O7B O 0.0299 -0.0951 -0.2559
H44B H 0.0226 -0.032 -0.1864
H45B H 0.1085 -0.0369 -0.2081
C46B C -0.0363 0.1081 -0.224
C45B C -0.1077 0.1413 -0.2194
O11B O -0.1012 0.2004 -0.1856
C53B C -0.1134 0.1999 -0.1184
H55B H -0.0789 0.2325 -0.0939
H56B H -0.0977 0.1578 -0.099
O12B O -0.1927 0.2122 -0.1112
C67B C -0.2412 0.1555 -0.1111
O9B O 0.0352 0.1257 -0.1859
C49B C 0.0948 0.1542 -0.2243
H47B H 0.1032 0.1253 -0.2607
H48B H 0.0749 0.1955 -0.2435
C50B C 0.1758 0.1649 -0.1775
H49B H 0.2181 0.1773 -0.2031
H50B H 0.1922 0.1256 -0.1526
C51B C 0.1602 0.2168 -0.1325
H51B H 0.1588 0.2585 -0.1551
H52B H 0.1087 0.21 -0.1168
C52B C 0.2332 0.2146 -0.0708
H53B H 0.2327 0.2529 -0.0428
H54B H 0.285 0.2118 -0.0867
O10B O 0.2173 0.1556 -0.0338
C73B C 0.2669 0.1446 0.0261
H57B H -0.2466 0.1964 -0.2313
C55B C -0.3293 0.1468 -0.2957
H58B H -0.3102 0.1599 -0.3368
H59B H -0.3489 0.1024 -0.3012
C56B C -0.3985 0.1919 -0.282
H60B H -0.3796 0.2365 -0.2809
H61B H -0.4125 0.1818 -0.2382
C57B C -0.4728 0.1861 -0.3334
C58B C -0.5268 0.1364 -0.325
H62B H -0.5147 0.1069 -0.29
C59B C -0.5989 0.1309 -0.3688
H63B H -0.635 0.0977 -0.3632
C60B C -0.617 0.175 -0.4211
H64B H -0.6652 0.1713 -0.4505
C61B C -0.563 0.2246 -0.4296
H65B H -0.5751 0.2541 -0.4646
C62B C -0.4909 0.2302 -0.3858
H66B H -0.4548 0.2634 -0.3914
C75B C -0.2928 -0.1599 -0.1457
C24B C -0.2694 -0.195 -0.2071
H24B H -0.2586 -0.2403 -0.1935
C25B C -0.3362 -0.1971 -0.2691
H25B H -0.3135 -0.2153 -0.3066
H26B H -0.3532 -0.153 -0.2809
C26B C -0.4032 -0.2331 -0.2596
H27B H -0.3856 -0.2702 -0.2314
H28B H -0.4377 -0.2066 -0.2358
C27B C -0.4541 -0.2583 -0.3259
C28B C -0.5234 -0.2237 -0.351
H29B H -0.5376 -0.1868 -0.3286
C29B C -0.5715 -0.2442 -0.4094
H30B H -0.6179 -0.221 -0.4262
C30B C -0.5502 -0.2992 -0.4428
H31B H -0.5824 -0.3129 -0.4819
C31B C -0.4809 -0.3338 -0.4177
H32B H -0.4667 -0.3707 -0.44
C32B C -0.4328 -0.3134 -0.3592
H33B H -0.3865 -0.3365 -0.3424
H5B H -0.1007 -0.2691 -0.0537
H6B H -0.1076 -0.1944 -0.0686
H8B H 0.0212 -0.278 -0.1621
H9B H 0.0785 -0.2441 -0.207
H10B H 0.1483 -0.2939 -0.1065
H11B H 0.1103 -0.24 -0.0658
H12B H 0.2287 -0.2255 -0.147
H13B H 0.1741 -0.1657 -0.1382
H14B H 0.2935 -0.1519 -0.0699
H15B H 0.2862 -0.2204 -0.0363
C76B C 0.4011 0.0062 0.0989
H71B H 0.421 0.0014 0.0558
C77B C 0.4759 0.0059 0.154
H72B H 0.4593 0.0193 0.196
H73B H 0.4964 -0.0382 0.1597
C78B C 0.5426 0.0494 0.1393
H74B H 0.5215 0.0932 0.1327
H75B H 0.5593 0.0355 0.0974
C79B C 0.6177 0.0513 0.1933
C80B C 0.6593 -0.0058 0.212
H76B H 0.6414 -0.0451 0.1923
C81B C 0.7279 -0.0044 0.2603
H77B H 0.7557 -0.0426 0.2729
C82B C 0.7547 0.0543 0.2899
H78B H 0.8006 0.0553 0.3222
C83B C 0.7131 0.1115 0.2711
H79B H 0.7311 0.1507 0.2909
C84B C 0.6446 0.11 0.2228
H80B H 0.6167 0.1482 0.2103
H68B H 0.2636 -0.0024 -0.0896
H69B H 0.2291 0.0044 -0.0218

#END

