
#######################################################################
#
#                 Cambridge Crystallographic Data Centre
#                                CCDC 
#
#######################################################################
#
# If this CIF has been generated directly or indirectly from an entry in the 
# Cambridge Structural Database, then it will include bibliographic, chemical, 
# crystal, experimental, refinement or atomic coordinate data resulting from 
# the CCDC's data processing and validation procedures. Files generated from 
# CSD entries are Copyright 2015 Cambridge Crystallographic Data Centre. They 
# may be used in bona fide research applications only, and may not be copied or 
# further disseminated in any form, whether machine-readable or not, except for 
# the purposes of generating routine backup copies on your local computer 
# system.
# 
# Files arising from any other source may also contain material that is the 
# copyright of third parties, including the originator, and you should check 
# with the originator concerning the permitted uses of the information 
# contained in this CIF.
#
# For further information on the CCDC and the free tools enCIFer and Mercury
# for validating and visualising CIF files, please visit www.ccdc.cam.ac.uk
#
#######################################################################

data_PAQFIW
_audit_creation_date             1998-10-19
_database_code_depnum_ccdc_journal 182/647
_database_code_NBS               693448
_chemical_name_common            
"5,5':11,11':17,17':23,23'-tetrakis(2,3-dihydroxy-butane-1,4-dioxy)-bis(6,10:12,16:18,22:24,4-O,O'-tetramethylene-2,8,14,20-tetrakis(phenylethyl)calix[4]resorcinarene)dimethylacetamide clathrate isopropanol chloroform unknown solvate"
_chemical_formula_moiety         
'C144 H136 O32,C4 H9 N1 O1,2(C1 H1 Cl3),C3 H8 O1'
_chemical_name_systematic        
'4,5,23,24,41,42,47,48-Octahydroxy-57,58,59,60,61,62,63,64-octakis(2-phenylethyl)-2,7,9,11,13,15,17,19,21,26,28,30,31,33,35,37,39,44,45,50,51,53,54,56-tetracosaoxa-1,8,12,16,20,27,34,38(1,2,3,4,5)-octabenzena-tridecacyclo(14.14.14.6^12,34^.3^8,20^.3^27,28^.1^1,27^.1^1,34^.1^8,12^.1^8,20^.1^12,16^.1^16,20^.1^27,38^.1^34,38^) tetrahexacontaphane dimethylacetamide clathrate isopropanol chloroform unknown solvate'
_journal_coden_Cambridge         182
_journal_year                    1998
_journal_page_first              55
_journal_name_full               Chem.Commun.
loop_
_publ_author_name
'Bong Ser Park'
C.B.Knobler
'C.N.Eid Junior'
R.Warmuth
D.J.Cram
_chemical_absolute_configuration unk
_diffrn_ambient_temperature      295
_exptl_crystal_density_diffrn    1.17
#These two values have been output from a single CSD field.
_refine_ls_R_factor_gt           0.1364
_refine_ls_wR_factor_gt          0.1364
_diffrn_radiation_probe          x-ray
_symmetry_cell_setting           triclinic
_symmetry_space_group_name_H-M   'P 1'
_symmetry_Int_Tables_number      1
loop_
_symmetry_equiv_pos_site_id
_symmetry_equiv_pos_as_xyz
1 x,y,z
_cell_length_a                   13.811(7)
_cell_length_b                   16.239(9)
_cell_length_c                   20.785(11)
_cell_angle_alpha                111.38(1)
_cell_angle_beta                 95.13(1)
_cell_angle_gamma                110.90(1)
_cell_volume                     3924.02
_exptl_crystal_colour            colorless
_exptl_crystal_description       plate
_cell_formula_units_Z            1
loop_
_atom_site_label
_atom_site_type_symbol
_atom_site_fract_x
_atom_site_fract_y
_atom_site_fract_z
O1 O 0.3094(4) 1.0699(13) 0.8918(9)
C1 C 0.3868(20) 1.0586(20) 0.8548(14)
H1 H 0.3799 1.0780 0.8163
H2 H 0.3726 0.9901 0.8334
O2 O 0.4944(14) 1.1133(13) 0.8977(10)
C2 C 0.5349(13) 1.0622(12) 0.9270(9)
C3 C 0.5072(12) 1.0508(12) 0.9869(9)
C4 C 0.5528(13) 1.0063(12) 1.0181(8)
H3 H 0.5342 0.9987 1.0581
C5 C 0.6262(13) 0.9733(12) 0.9895(9)
C6 C 0.6540(13) 0.9848(13) 0.9296(9)
C7 C 0.6083(14) 1.0292(13) 0.8984(8)
O3 O 0.6177(15) 1.0281(14) 0.8320(10)
C8 C 0.7195(22) 1.0869(22) 0.8262(15)
H4 H 0.7749 1.0683 0.8395
H5 H 0.7408 1.1556 0.8556
C9 C 0.6966(26) 1.0640(24) 0.7487(17)
H6 H 0.6573 0.9929 0.7242
O4 O 0.7991(30) 1.0858(27) 0.7269(22)
H7 H 0.7926 1.0395 0.6905
C10 C 0.6335(21) 1.1000(19) 0.7212(14)
H8 H 0.5772 1.0978 0.7470
O5 O 0.6971(24) 1.2042(20) 0.7392(15)
H9 H 0.7574 1.2223 0.7632
C11 C 0.5786(22) 1.0499(20) 0.6448(14)
H10 H 0.5462 1.0874 0.6316
H11 H 0.6285 1.0402 0.6159
O6 O 0.4975(14) 0.9574(13) 0.6353(9)
O7 O 0.7299(15) 0.9588(14) 0.8993(10)
C12 C 0.6955(25) 0.8545(21) 0.8472(16)
H12 H 0.6219 0.8277 0.8202
H13 H 0.7405 0.8510 0.8139
O8 O 0.7046(15) 0.8010(14) 0.8853(10)
C13 C 0.6133(13) 0.7569(12) 0.9063(9)
C14 C 0.5965(13) 0.8046(10) 0.9720(9)
C15 C 0.5105(14) 0.7559(12) 0.9939(8)
H14 H 0.4993 0.7879 1.0379
C16 C 0.4413(12) 0.6595(12) 0.9501(10)
C17 C 0.4580(14) 0.6118(10) 0.8844(9)
C18 C 0.5440(15) 0.6605(12) 0.8625(8)
O9 O 0.5518(16) 0.6172(15) 0.7937(11)
C19 C 0.5997(26) 0.5506(23) 0.7865(16)
H15 H 0.5591 0.4991 0.7994
H16 H 0.6731 0.5836 0.8153
C20 C 0.5942(23) 0.5104(20) 0.7046(15)
H17 H 0.5203 0.4910 0.6801
O10 O 0.6073(23) 0.4167(21) 0.6894(17)
H18 H 0.6496 0.4244 0.7237
C21 C 0.6621(20) 0.5755(20) 0.6785(14)
H19 H 0.6708 0.6420 0.7070
O11 O 0.7631(21) 0.5705(20) 0.6908(16)
H20 H 0.7864 0.5651 0.6553
C22 C 0.6253(23) 0.5494(22) 0.5996(15)
H21 H 0.6807 0.5891 0.5843
H22 H 0.6075 0.4813 0.5706
O12 O 0.5356(15) 0.5684(14) 0.5942(10)
O13 O 0.3911(16) 0.5160(15) 0.8385(11)
C23 C 0.2894(25) 0.4959(24) 0.7992(17)
H23 H 0.2955 0.5516 0.7898
H24 H 0.2706 0.4408 0.7535
O14 O 0.2105(15) 0.4764(14) 0.8305(10)
C24 C 0.1866(14) 0.5534(12) 0.8733(9)
C25 C 0.2470(12) 0.6177(13) 0.9427(9)
C26 C 0.2212(13) 0.6930(12) 0.9825(8)
H25 H 0.2616 0.7359 1.0290
C27 C 0.1350(13) 0.7040(11) 0.9529(9)
C28 C 0.0745(12) 0.6398(13) 0.8835(9)
C29 C 0.1003(13) 0.5645(12) 0.8437(8)
O15 O -0.0195(14) 0.6415(13) 0.8545(10)
C30 C -0.0077(23) 0.7043(20) 0.8219(15)
H26 H -0.0703 0.6772 0.7829
H27 H 0.0543 0.7114 0.8023
O16 O 0.0056(14) 0.8015(13) 0.8744(9)
C31 C 0.1125(11) 0.8664(11) 0.9093(9)
C32 C 0.1629(12) 0.8726(11) 0.9729(9)
C33 C 0.2646(12) 0.9458(12) 1.0104(8)
H28 H 0.2983 0.9499 1.0530
C34 C 0.3160(11) 1.0128(11) 0.9843(8)
C35 C 0.2657(13) 1.0066(11) 0.9206(9)
C36 C 0.1639(13) 0.9335(12) 0.8831(8)
C37 C 0.4326(18) 1.0937(17) 1.0227(12)
H29 H 0.4392 1.1487 1.0114
C38 C 0.4586(19) 1.1321(17) 1.1044(12)
H30 H 0.4432 1.0776 1.1169
H31 H 0.5345 1.1742 1.1240
C39 C 0.3958(22) 1.1880(20) 1.1375(14)
H32 H 0.4162 1.2457 1.1285
H33 H 0.3202 1.1480 1.1145
C40 C 0.4123(16) 1.2182(14) 1.2161(8)
C41 C 0.4823(15) 1.3131(13) 1.2629(11)
H34 H 0.5166 1.3577 1.2453
C42 C 0.5012(16) 1.3412(13) 1.3362(10)
H35 H 0.5480 1.4047 1.3675
C43 C 0.4500(19) 1.2745(17) 1.3626(9)
H36 H 0.4626 1.2933 1.4116
C44 C 0.3800(17) 1.1796(15) 1.3157(11)
H37 H 0.3457 1.1349 1.3334
C45 C 0.3611(15) 1.1514(12) 1.2425(11)
H38 H 0.3142 1.0880 1.2111
C46 C 0.6712(22) 0.9139(19) 1.0170(14)
H39 H 0.7423 0.9255 1.0081
C47 C 0.6827(21) 0.9454(19) 1.0964(13)
H40 H 0.7019 0.9014 1.1105
H41 H 0.6145 0.9413 1.1068
C48 C 0.7702(23) 1.0523(20) 1.1410(14)
H42 H 0.844 1.0531 1.1371
H43 H 0.7584 1.0936 1.1202
C49 C 0.7714(18) 1.0941(16) 1.2178(10)
C50 C 0.7103(17) 1.1464(17) 1.2392(12)
H44 H 0.6686 1.1533 1.2055
C51 C 0.7116(20) 1.1884(18) 1.3109(14)
H45 H 0.6708 1.2234 1.3252
C52 C 0.7739(22) 1.1781(19) 1.3612(10)
H46 H 0.7748 1.2063 1.4092
C53 C 0.8349(19) 1.1258(19) 1.3399(12)
H47 H 0.8766 1.1189 1.3736
C54 C 0.8337(17) 1.0838(17) 1.2682(13)
H48 H 0.8745 1.0488 1.2539
C55 C 0.3473(19) 0.6069(19) 0.9731(13)
H49 H 0.3315 0.5376 0.9488
C56 C 0.3620(21) 0.6304(20) 1.0515(14)
H50 H 0.2938 0.5976 1.0599
H51 H 0.3855 0.7000 1.0787
C57 C 0.4451(23) 0.5987(21) 1.0781(16)
H52 H 0.5070 0.6186 1.0594
H53 H 0.4686 0.6324 1.1298
C58 C 0.4023(16) 0.4897(12) 1.0561(11)
C59 C 0.3392(17) 0.4496(15) 1.0948(10)
H54 H 0.3257 0.4897 1.1346
C60 C 0.2962(17) 0.3495(16) 1.0739(12)
H55 H 0.2539 0.3227 1.0998
C61 C 0.3164(19) 0.2896(12) 1.0144(13)
H56 H 0.2876 0.2227 1.0004
C62 C 0.3795(19) 0.3297(15) 0.9758(11)
H57 H 0.3930 0.2896 0.9359
C63 C 0.4225(16) 0.4297(16) 0.9966(11)
H58 H 0.4647 0.4566 0.9708
C64 C 0.1064(19) 0.7867(17) 0.9936(12)
H59 H 0.0288 0.7640 0.9772
C65 C 0.1338(21) 0.8188(20) 1.0754(14)
H60 H 0.1196 0.7618 1.0847
H61 H 0.2096 0.8612 1.0954
C66 C 0.0703(31) 0.8712(29) 1.1117(22)
H62 H 0.0693 0.9175 1.0927
H63 H 0.1048 0.9075 1.1624
C67 C -0.0510(20) 0.7972(19) 1.1005(15)
C68 C -0.1383(28) 0.7867(22) 1.0544(15)
H64 H -0.1288 0.8269 1.0308
C69 C -0.2397(22) 0.7164(27) 1.0434(17)
H65 H -0.2981 0.7094 1.0126
C70 C -0.2539(22) 0.6564(23) 1.0787(20)
H66 H -0.3217 0.6093 1.0713
C71 C -0.1666(31) 0.6668(22) 1.1248(18)
H67 H -0.1760 0.6267 1.1484
C72 C -0.0651(25) 0.7372(24) 1.1358(15)
H68 H -0.0067 0.7442 1.1667
O17 O 0.3702(13) 0.3920(12) 0.5139(9)
C73 C 0.2929(22) 0.3839(21) 0.5528(15)
H69 H 0.2956 0.4480 0.5796
H70 H 0.3094 0.3597 0.5867
O18 O 0.1869(14) 0.3202(12) 0.5086(9)
C74 C 0.1281(12) 0.3592(12) 0.4818(9)
C75 C 0.1384(12) 0.3738(13) 0.4205(8)
C76 C 0.0712(13) 0.4062(12) 0.3932(8)
H71 H 0.0781 0.4160 0.3521
C77 C -0.0062(12) 0.4240(12) 0.4272(9)
C78 C -0.0165(12) 0.4093(12) 0.4885(8)
C79 C 0.0507(13) 0.3769(12) 0.5158(8)
O19 O 0.0492(13) 0.3772(12) 0.5827(9)
C80 C -0.0084(20) 0.2832(18) 0.5820(13)
H72 H 0.0296 0.2422 0.5675
H73 H -0.0798 0.2501 0.5503
C81 C -0.0127(21) 0.3095(19) 0.6590(14)
H74 H 0.0600 0.3558 0.6882
O20 O -0.0379(17) 0.2230(15) 0.6732(12)
H75 H -0.1000 0.1840 0.6519
C82 C -0.0830(20) 0.3580(19) 0.6820(13)
H76 H -0.0780 0.4001 0.6575
O21 O -0.1927(16) 0.2887(15) 0.6608(11)
H77 H -0.2314 0.3176 0.6690
C83 C -0.0521(19) 0.4220(18) 0.7616(13)
H78 H -0.1085 0.4413 0.7758
H79 H -0.0377 0.3883 0.7888
O22 O 0.0437(14) 0.5056(13) 0.7721(10)
O23 O -0.0987(14) 0.4162(13) 0.5206(9)
C84 C -0.0886(24) 0.5114(20) 0.5658(15)
H80 H -0.1297 0.5060 0.6007
H81 H -0.0141 0.5520 0.5916
O24 O -0.1229(13) 0.5577(12) 0.5296(9)
C85 C -0.0496(12) 0.6137(10) 0.5055(8)
C86 C -0.0284(12) 0.5733(9) 0.4399(8)
C87 C 0.0451(12) 0.6327(11) 0.4165(7)
H82 H 0.0593 0.6056 0.3726
C88 C 0.0975(12) 0.7325(10) 0.4586(8)
C89 C 0.0762(12) 0.7729(9) 0.5242(8)
C90 C 0.0027(13) 0.7135(11) 0.5477(7)
O25 O -0.0107(13) 0.7537(12) 0.6152(9)
C91 C -0.0913(22) 0.7853(20) 0.6208(14)
H83 H -0.1609 0.7302 0.6021
H84 H -0.0879 0.8242 0.5943
C92 C -0.0733(19) 0.8465(18) 0.7003(13)
H85 H -0.0672 0.8083 0.7264
O26 O -0.1639(19) 0.8730(18) 0.7144(13)
H86 H -0.2203 0.8270 0.6883
C93 C 0.0247(20) 0.9427(18) 0.7321(14)
H87 H 0.0804 0.9351 0.7074
O27 O -0.0023(21) 1.0163(20) 0.7220(14)
H88 H 0.0076 1.0170 0.6839
C94 C 0.0684(23) 0.9781(22) 0.8097(15)
H89 H 0.1178 1.0465 0.8307
H90 H 0.0112 0.9701 0.8339
O28 O 0.1223(14) 0.9202(13) 0.8152(9)
O29 O 0.1221(14) 0.8740(12) 0.5658(9)
C95 C 0.2280(21) 0.9097(20) 0.6070(15)
H91 H 0.2381 0.8570 0.6138
H92 H 0.2381 0.9598 0.6536
O30 O 0.3059(14) 0.9489(13) 0.5733(9)
C96 C 0.3476(13) 0.8835(11) 0.5334(8)
C97 C 0.2916(11) 0.8122(12) 0.4648(9)
C98 C 0.3359(12) 0.7515(11) 0.4261(7)
H93 H 0.2984 0.7038 0.3802
C99 C 0.4363(13) 0.7623(11) 0.4560(8)
C100 C 0.4923(11) 0.8336(12) 0.5246(9)
C101 C 0.4480(12) 0.8943(11) 0.5633(7)
O31 O 0.5936(14) 0.8499(13) 0.5582(10)
C102 C 0.5983(22) 0.7915(19) 0.5903(14)
H94 H 0.5332 0.7699 0.6056
H95 H 0.6581 0.8284 0.6324
O32 O 0.6115(14) 0.7053(13) 0.5414(10)
C103 C 0.5139(11) 0.6218(10) 0.5030(8)
C104 C 0.4527(12) 0.6076(10) 0.4399(8)
C105 C 0.3612(11) 0.5216(11) 0.4016(7)
H96 H 0.3202 0.5122 0.3594
C106 C 0.3309(11) 0.4497(10) 0.4264(8)
C107 C 0.3922(12) 0.4638(10) 0.4895(8)
C108 C 0.4837(12) 0.5499(11) 0.5278(7)
C109 C 0.2259(18) 0.3544(17) 0.3856(12)
H97 H 0.2357 0.3021 0.3943
C110 C 0.2047(18) 0.3251(16) 0.3058(12)
H98 H 0.2666 0.3195 0.2894
H99 H 0.1924 0.3748 0.2956
C111 C 0.1031(19) 0.2242(17) 0.2651(13)
H100 H 0.1175 0.1745 0.2741
H101 H 0.0428 0.2293 0.2842
C112 C 0.0736(15) 0.1932(14) 0.1869(8)
C113 C 0.0970(15) 0.1216(14) 0.1389(11)
H102 H 0.1335 0.0921 0.1555
C114 C 0.0658(17) 0.0941(14) 0.0660(10)
H103 H 0.0814 0.0462 0.0339
C115 C 0.0111(17) 0.1381(16) 0.0412(8)
H104 H -0.0098 0.1197 -0.0076
C116 C -0.0123(16) 0.2097(15) 0.0892(11)
H105 H -0.0488 0.2392 0.0726
C117 C 0.0190(16) 0.2373(13) 0.1621(10)
H106 H 0.0033 0.2851 0.1942
C118 C -0.0799(18) 0.4624(16) 0.4007(12)
H107 H -0.1468 0.4389 0.4147
C119 C -0.1092(17) 0.4224(16) 0.3169(11)
H108 H -0.0472 0.4526 0.3015
H109 H -0.1309 0.3525 0.2952
C120 C -0.2005(24) 0.4456(23) 0.2934(16)
H110 H -0.1767 0.5157 0.3135
H111 H -0.2602 0.4192 0.3121
C121 C -0.2399(15) 0.4024(13) 0.2097(8)
C122 C -0.2218(15) 0.3267(14) 0.1619(10)
H112 H -0.1788 0.3022 0.1786
C123 C -0.2682(17) 0.2876(13) 0.0893(10)
H113 H -0.2561 0.2369 0.0573
C124 C -0.3326(17) 0.3242(16) 0.0643(8)
H114 H -0.3636 0.2980 0.0157
C125 C -0.3506(15) 0.3999(15) 0.1121(11)
H115 H -0.3937 0.4244 0.0954
C126 C -0.3043(15) 0.4390(13) 0.1848(10)
H116 H -0.3164 0.4897 0.2167
C127 C 0.1785(19) 0.8029(18) 0.4353(13)
H117 H 0.1775 0.8670 0.4582
C128 C 0.1529(19) 0.7702(17) 0.3521(13)
H118 H 0.1695 0.7148 0.3294
H119 H 0.0770 0.7498 0.3339
C129 C 0.2157(22) 0.8505(20) 0.3332(15)
H120 H 0.2070 0.8241 0.2820
H121 H 0.2910 0.8749 0.3557
C130 C 0.1829(16) 0.9371(14) 0.3562(11)
C131 C 0.2386(15) 1.0207(16) 0.4193(11)
H122 H 0.2983 1.0266 0.4482
C132 C 0.2049(19) 1.0955(14) 0.4392(11)
H123 H 0.2422 1.1514 0.4814
C133 C 0.1156(21) 1.0867(17) 0.3959(15)
H124 H 0.0931 1.1367 0.4092
C134 C 0.0600(17) 1.0031(20) 0.3328(13)
H125 H 0.0002 0.9972 0.3038
C135 C 0.0936(16) 0.9283(15) 0.3129(10)
H126 H 0.0563 0.8724 0.2707
C136 C 0.4834(19) 0.6913(17) 0.4165(12)
H127 H 0.5614 0.7274 0.4343
C137 C 0.4596(21) 0.6589(19) 0.3364(13)
H128 H 0.3827 0.6234 0.3167
H129 H 0.4824 0.7163 0.3270
C138 C 0.5126(19) 0.5951(18) 0.2974(14)
H130 H 0.4877 0.5727 0.2463
H131 H 0.4924 0.5384 0.3076
C139 C 0.6378(13) 0.6522(15) 0.3206(11)
C140 C 0.6854(17) 0.7056(16) 0.2838(10)
H132 H 0.6434 0.7054 0.2462
C141 C 0.7958(18) 0.7592(16) 0.3033(12)
H133 H 0.8276 0.7948 0.2788
C142 C 0.8586(13) 0.7594(16) 0.3596(13)
H134 H 0.9324 0.7953 0.3727
C143 C 0.8109(15) 0.7061(16) 0.3964(10)
H135 H 0.8530 0.7063 0.4340
C144 C 0.7005(16) 0.6525(14) 0.3769(10)
H136 H 0.6687 0.6168 0.4014

#END

