
#######################################################################
#
#                 Cambridge Crystallographic Data Centre
#                                CCDC 
#
#######################################################################
#
# If this CIF has been generated directly or indirectly from an entry in the 
# Cambridge Structural Database, then it will include bibliographic, chemical, 
# crystal, experimental, refinement or atomic coordinate data resulting from 
# the CCDC's data processing and validation procedures. Files generated from 
# CSD entries are Copyright 2015 Cambridge Crystallographic Data Centre. They 
# may be used in bona fide research applications only, and may not be copied or 
# further disseminated in any form, whether machine-readable or not, except for 
# the purposes of generating routine backup copies on your local computer 
# system.
# 
# Files arising from any other source may also contain material that is the 
# copyright of third parties, including the originator, and you should check 
# with the originator concerning the permitted uses of the information 
# contained in this CIF.
#
# For further information on the CCDC and the free tools enCIFer and Mercury
# for validating and visualising CIF files, please visit www.ccdc.cam.ac.uk
#
#######################################################################

data_QORVUQ
_audit_creation_date             2015-02-02
_database_code_depnum_ccdc_archive 'CCDC 988437'
_chemical_formula_moiety         
'C66 H54 N6 6+,C18 H12,6(F6 P1 1-),10(C2 H3 N1)'
_chemical_name_systematic        
'7,14,26,33,42,49-hexaazoniatridecacyclo[18.18.14.2^4,7^.2^9,12^.2^14,17^.2^23,26^.2^28,31^.2^33,36^.2^39,42^.2^44,47^.2^49,52^.1^3,37^.1^18,22^]doheptaconta-1,3(59),4,6,9,11,14,16,18(66),19,21,23,25,28,30,33,35,37,39,41,44,46,49,51,53,55,57,60,62,64,67,69,71-tritriacontaene chrysene hexakis(hexafluorophosphate) acetonitrile solvate'
_journal_coden_Cambridge         4
_journal_volume                  136
_journal_year                    2014
_journal_page_first              10669
_journal_name_full               J.Am.Chem.Soc.
loop_
_publ_author_name
E.J.Dale
N.A.Vermeulent
A.A.Thomas
J.C.Barnes
M.Juricek
A.K.Blackburn
N.L.Strutt
A.A.Sarjeant
C.L.Stern
S.E.Denmark
'J.Fraser Stoddart'
_chemical_absolute_configuration unk
_diffrn_ambient_temperature      100
_exptl_crystal_density_meas      1.471
_exptl_crystal_density_diffrn    1.471
#These two values have been output from a single CSD field.
_refine_ls_R_factor_gt           0.0456
_refine_ls_wR_factor_gt          0.0456
_diffrn_radiation_probe          x-ray
_symmetry_cell_setting           orthorhombic
_symmetry_space_group_name_H-M   'C m c 21'
_symmetry_Int_Tables_number      36
loop_
_symmetry_equiv_pos_site_id
_symmetry_equiv_pos_as_xyz
1 x,y,z
2 -x,-y,1/2+z
3 -x,y,z
4 x,-y,1/2+z
5 1/2+x,1/2+y,z
6 1/2-x,1/2-y,1/2+z
7 1/2-x,1/2+y,z
8 1/2+x,1/2-y,1/2+z
_cell_length_a                   18.1424(6)
_cell_length_b                   28.4624(9)
_cell_length_c                   21.3281(6)
_cell_angle_alpha                90
_cell_angle_beta                 90
_cell_angle_gamma                90
_cell_volume                     11013.3
_exptl_crystal_colour            yellow
_exptl_crystal_description       block
_cell_formula_units_Z            4
loop_
_atom_site_label
_atom_site_type_symbol
_atom_site_fract_x
_atom_site_fract_y
_atom_site_fract_z
C39 C 0.5675(11) 0.4619(6) 0.620(2)
H29 H 0.6165 0.4503 0.6236
C40 C 0.5082(13) 0.4305(3) 0.6180(4)
H30 H 0.5165 0.3976 0.6190
C41 C 0.4360(10) 0.4486(5) 0.614(2)
H31 H 0.3955 0.4277 0.6103
C42 C 0.4236(7) 0.4967(5) 0.6155(10)
H32 H 0.3746 0.5085 0.6161
C43 C 0.4831(4) 0.5280(3) 0.6162(5)
C44 C 0.5548(7) 0.5110(5) 0.6179(10)
C45 C 0.6177(5) 0.5401(4) 0.6171(3)
H33 H 0.6657 0.5268 0.6187
C46 C 0.6082(8) 0.5887(5) 0.614(2)
H34 H 0.6496 0.6091 0.6112
C47 C 0.5335(5) 0.6076(4) 0.6147(4)
C48 C 0.4731(5) 0.5775(4) 0.6154(4)
C49 C 0.4002(6) 0.5964(5) 0.6154(19)
H35 H 0.3587 0.5761 0.6157
C50 C 0.3902(5) 0.6453(4) 0.6151(5)
H36 H 0.3417 0.6579 0.6151
C51 C 0.4510(6) 0.6760(4) 0.6147(6)
C52 C 0.5234(5) 0.6577(3) 0.6154(6)
C53 C 0.5836(6) 0.6900(5) 0.6166(7)
H37 H 0.6327 0.6785 0.6160
C54 C 0.5707(11) 0.7387(5) 0.619(2)
H38 H 0.6112 0.7598 0.6203
C55 C 0.4986(13) 0.7563(3) 0.6183(6)
H39 H 0.4900 0.7892 0.6197
C56 C 0.4390(10) 0.7246(6) 0.616(2)
H40 H 0.3900 0.7363 0.6149
C39B C 0.4325 0.4619 0.62
H29B H 0.3835 0.4503 0.6236
C40B C 0.4918 0.4305 0.618
H30B H 0.4835 0.3976 0.619
C41B C 0.564 0.4486 0.614
H31B H 0.6045 0.4277 0.6103
C42B C 0.5764 0.4967 0.6155
H32B H 0.6254 0.5085 0.6161
C43B C 0.5169 0.528 0.6162
C44B C 0.4452 0.511 0.6179
C45B C 0.3823 0.5401 0.6171
H33B H 0.3343 0.5268 0.6187
C46B C 0.3918 0.5887 0.614
H34B H 0.3504 0.6091 0.6112
C47B C 0.4665 0.6076 0.6147
C48B C 0.5269 0.5775 0.6154
C49B C 0.5998 0.5964 0.6154
H35B H 0.6413 0.5761 0.6157
C50B C 0.6098 0.6453 0.6151
H36B H 0.6583 0.6579 0.6151
C51B C 0.549 0.676 0.6147
C52B C 0.4766 0.6577 0.6154
C53B C 0.4164 0.69 0.6166
H37B H 0.3673 0.6785 0.616
C54B C 0.4293 0.7387 0.619
H38B H 0.3888 0.7598 0.6203
C55B C 0.5014 0.7563 0.6183
H39B H 0.51 0.7892 0.6197
C56B C 0.561 0.7246 0.616
H40B H 0.61 0.7363 0.6149
P1 P 0.77120(6) 0.33481(4) 0.76882(5)
F1 F 0.7994(2) 0.29118(10) 0.72841(14)
F2 F 0.72205(18) 0.35301(15) 0.71235(16)
F3 F 0.74322(18) 0.37723(9) 0.81125(16)
F4 F 0.81852(17) 0.31577(11) 0.82656(13)
F5 F 0.83840(16) 0.36523(9) 0.74410(13)
F6 F 0.70162(17) 0.30421(10) 0.79313(14)
P2 P 0.77592(5) 0.32214(3) 0.44775(5)
F7 F 0.81773(14) 0.27989(9) 0.48244(12)
F8 F 0.82119(15) 0.31091(10) 0.38571(12)
F9 F 0.73380(14) 0.36390(9) 0.41246(13)
F10 F 0.72905(14) 0.33223(11) 0.51009(13)
F11 F 0.83861(13) 0.35762(9) 0.47043(12)
F12 F 0.71222(15) 0.28652(9) 0.42566(13)
P3 P 1.0000 0.60197(5) 0.79949(7)
F13 F 1.0000 0.55018(16) 0.8272(2)
F14 F 1.0000 0.65384(13) 0.77102(19)
F15 F 0.93669(19) 0.61799(12) 0.84678(17)
F16 F 0.93743(15) 0.58710(10) 0.75095(15)
F15B F 1.06331 0.61799 0.84678
F16B F 1.06257 0.5871 0.75095
P4 P 1.0000 0.57769(6) 0.42991(8)
F17 F 1.0000 0.52546(18) 0.4078(4)
F18 F 1.0000 0.63189(16) 0.4522(3)
F19 F 0.93773(17) 0.56613(15) 0.48012(19)
F20 F 0.9362(3) 0.59118(15) 0.38239(19)
F19B F 1.06227 0.56613 0.48012
F20B F 1.0638 0.59118 0.38239
N5 N 0.5000 0.7345(2) 0.8397(3)
C57 C 0.5000 0.7707(2) 0.8163(3)
C58 C 0.5000 0.8164(3) 0.7862(4)
N6 N 0.5000 0.71722(19) 0.3994(3)
C59 C 0.5000 0.7534(2) 0.4212(3)
C60 C 0.5000 0.8000(2) 0.4501(4)
N7 N 1.0000 0.4137(5) 0.6088(7)
C61 C 1.0000 0.4175(4) 0.5546(5)
C62 C 1.0000 0.4212(3) 0.4899(4)
H41 H 1.0000 0.3897 0.4713
H42 H 1.0441 0.4383 0.4763
H42B H 0.9559 0.4383 0.4763
N8 N 0.7116(3) 0.4987(3) 0.3578(4)
C63 C 0.7663(3) 0.4856(2) 0.3748(4)
C64 C 0.8380(3) 0.4677(2) 0.3986(5)
H43 H 0.8578 0.4445 0.3692
H44 H 0.8306 0.4529 0.4397
H45 H 0.8727 0.4938 0.4028
N9 N 0.7249(3) 0.46412(17) 0.5203(3)
C65 C 0.7571(3) 0.44118(18) 0.5561(2)
C66 C 0.7968(4) 0.4126(2) 0.5997(3)
H46 H 0.7936 0.3796 0.5869
H47 H 0.7756 0.4163 0.6416
H48 H 0.8486 0.4223 0.6004
N10 N 0.7343(5) 0.4791(3) 0.7202(6)
C67 C 0.7950(6) 0.4741(3) 0.7373(5)
C68 C 0.8678(9) 0.4678(5) 0.7563(9)
H49 H 0.8919 0.4450 0.7287
H50 H 0.8687 0.4562 0.7996
H51 H 0.8940 0.4979 0.7541
N1 N 0.76688(16) 0.65037(11) 0.45932(14)
N2 N 0.5000 0.35022(15) 0.4635(2)
N3 N 0.5000 0.36491(15) 0.7719(2)
N4 N 0.76590(17) 0.66567(11) 0.75903(15)
C1 C 0.7057(2) 0.67121(13) 0.43704(18)
H1 H 0.7073 0.7031 0.4241
C2 C 0.6405(2) 0.64622(13) 0.43297(18)
H2 H 0.5974 0.6612 0.4174
C3 C 0.6375(2) 0.59933(12) 0.45146(17)
C4 C 0.7031(2) 0.57889(13) 0.47266(19)
H3 H 0.7036 0.5468 0.4848
C5 C 0.7662(2) 0.60466(13) 0.47604(19)
H4 H 0.8103 0.5903 0.4904
C6 C 0.56690(18) 0.57331(13) 0.44946(17)
C7 C 0.5000 0.59718(17) 0.4514(2)
H5 H 0.5000 0.6305 0.4541
C8 C 0.56637(19) 0.52405(13) 0.44761(17)
H6 H 0.6117 0.5074 0.4471
C9 C 0.5000 0.49913(17) 0.4465(2)
C10 C 0.5000 0.44670(17) 0.4477(2)
C11 C 0.5654(2) 0.42078(13) 0.4491(2)
H7 H 0.6112 0.4364 0.4439
C12 C 0.5641(2) 0.37306(14) 0.4580(2)
H8 H 0.6092 0.3561 0.4602
C13 C 0.5000 0.30015(18) 0.4855(3)
H9 H 0.5442 0.2837 0.4695
C14 C 0.5000 0.29944(16) 0.5560(3)
C15 C 0.4343(2) 0.30067(13) 0.5892(2)
H10 H 0.3888 0.2991 0.5672
C16 C 0.5660(2) 0.30417(13) 0.6535(2)
H11 H 0.6114 0.3048 0.6756
C17 C 0.5000 0.30683(16) 0.6863(3)
C18 C 0.5000 0.31368(18) 0.7563(3)
H12 H 0.4558 0.2986 0.7746
C19 C 0.4361(3) 0.38864(15) 0.7767(2)
H13 H 0.3910 0.3717 0.7754
C20 C 0.4343(2) 0.43662(14) 0.7834(2)
H14 H 0.3883 0.4523 0.7872
C21 C 0.5000 0.46268(18) 0.7845(2)
C22 C 0.5000 0.51495(17) 0.7850(2)
C23 C 0.5664(2) 0.53969(13) 0.78350(17)
H15 H 0.6118 0.5231 0.7846
C24 C 0.5665(2) 0.58892(12) 0.78034(16)
C25 C 0.5000 0.61282(17) 0.7786(2)
H16 H 0.5000 0.6461 0.7761
C26 C 0.6370(2) 0.61484(12) 0.77592(16)
C27 C 0.7014(2) 0.59318(13) 0.75391(19)
H17 H 0.7013 0.5606 0.7444
C28 C 0.7645(2) 0.61911(14) 0.7460(2)
H18 H 0.8079 0.6041 0.7312
C29 C 0.7050(2) 0.68743(13) 0.78245(17)
H19 H 0.7067 0.7199 0.7926
C30 C 0.6414(2) 0.66255(13) 0.79144(17)
H20 H 0.5994 0.6779 0.8085
C31 C 0.8329(2) 0.69369(13) 0.74217(18)
H21 H 0.8773 0.6794 0.7612
H22 H 0.8281 0.7262 0.7581
C32 C 0.8398(2) 0.69403(13) 0.67144(17)
C33 C 0.7887(2) 0.71856(13) 0.63595(19)
H23 H 0.7532 0.7378 0.6562
C34 C 0.7892(2) 0.71522(13) 0.57127(19)
H24 H 0.7540 0.7323 0.5473
C35 C 0.84082(19) 0.68699(12) 0.54098(18)
C36 C 0.8932(3) 0.66461(18) 0.5764(2)
H25 H 0.9303 0.6465 0.5563
C37 C 0.8927(3) 0.66810(19) 0.6415(2)
H26 H 0.9294 0.6523 0.6653
C38 C 0.8351(2) 0.67889(13) 0.47101(19)
H27 H 0.8320 0.7093 0.4487
H28 H 0.8791 0.6618 0.4557
N1B N 0.23312 0.65037 0.45932
N4B N 0.2341 0.66567 0.75903
C1B C 0.2943 0.67121 0.43704
H1B H 0.2927 0.7031 0.4241
C2B C 0.3595 0.64622 0.43297
H2B H 0.4026 0.6612 0.4174
C3B C 0.3625 0.59933 0.45146
C4B C 0.2969 0.57889 0.47266
H3B H 0.2964 0.5468 0.4848
C5B C 0.2338 0.60466 0.47604
H4B H 0.1897 0.5903 0.4904
C6B C 0.4331 0.57331 0.44946
C8B C 0.43363 0.52405 0.44761
H6B H 0.3883 0.5074 0.4471
C11B C 0.4346 0.42078 0.4491
H7B H 0.3888 0.4364 0.4439
C12B C 0.4359 0.37306 0.458
H8B H 0.3908 0.3561 0.4602
H9B H 0.4558 0.2837 0.4695
C15B C 0.5657 0.30067 0.5892
H10B H 0.6112 0.2991 0.5672
C16B C 0.434 0.30417 0.6535
H11B H 0.3886 0.3048 0.6756
H12B H 0.5442 0.2986 0.7746
C19B C 0.5639 0.38864 0.7767
H13B H 0.609 0.3717 0.7754
C20B C 0.5657 0.43662 0.7834
H14B H 0.6117 0.4523 0.7872
C23B C 0.4336 0.53969 0.7835
H15B H 0.3882 0.5231 0.7846
C24B C 0.4335 0.58892 0.78034
C26B C 0.363 0.61484 0.77592
C27B C 0.2986 0.59318 0.75391
H17B H 0.2987 0.5606 0.7444
C28B C 0.2355 0.61911 0.746
H18B H 0.1921 0.6041 0.7312
C29B C 0.295 0.68743 0.78245
H19B H 0.2933 0.7199 0.7926
C30B C 0.3586 0.66255 0.79144
H20B H 0.4006 0.6779 0.8085
C31B C 0.1671 0.69369 0.74217
H21B H 0.1227 0.6794 0.7612
H22B H 0.1719 0.7262 0.7581
C32B C 0.1602 0.69403 0.67144
C33B C 0.2113 0.71856 0.63595
H23B H 0.2468 0.7378 0.6562
C34B C 0.2108 0.71522 0.57127
H24B H 0.246 0.7323 0.5473
C35B C 0.15918 0.68699 0.54098
C36B C 0.1068 0.66461 0.5764
H25B H 0.0697 0.6465 0.5563
C37B C 0.1073 0.6681 0.6415
H26B H 0.0706 0.6523 0.6653
C38B C 0.1649 0.67889 0.47101
H27B H 0.168 0.7093 0.4487
H28B H 0.1209 0.6618 0.4557
N11? N 0.8105(8) 0.5146(4) 0.6912(6)
C69? C 0.8529(6) 0.4926(4) 0.7164(5)
C70? C 0.9083(10) 0.4647(5) 0.7473(6)
H52? H 0.9325 0.4443 0.7166
H53? H 0.8852 0.4455 0.7799
H54? H 0.9450 0.4855 0.7665
H55? H 0.5309 0.7995 0.4878
H56? H 0.4495 0.8087 0.4616
H57? H 0.5196 0.8230 0.4203
N12? N 0.8254(8) 0.5527(5) 0.6148(6)
C71? C 0.8878(10) 0.5456(5) 0.6159(6)
C72? C 0.9688(8) 0.5377(6) 0.6188(6)
H58? H 0.9888 0.5359 0.5762
H59? H 0.9788 0.5082 0.6410
H60? H 0.9922 0.5638 0.6413
H61? H 0.5509 0.8274 0.7812
H62? H 0.4726 0.8388 0.8122
H63? H 0.4765 0.8140 0.7450

#END

