
#######################################################################
#
#                 Cambridge Crystallographic Data Centre
#                                CCDC 
#
#######################################################################
#
# If this CIF has been generated directly or indirectly from an entry in the 
# Cambridge Structural Database, then it will include bibliographic, chemical, 
# crystal, experimental, refinement or atomic coordinate data resulting from 
# the CCDC's data processing and validation procedures. Files generated from 
# CSD entries are Copyright 2015 Cambridge Crystallographic Data Centre. They 
# may be used in bona fide research applications only, and may not be copied or 
# further disseminated in any form, whether machine-readable or not, except for 
# the purposes of generating routine backup copies on your local computer 
# system.
# 
# Files arising from any other source may also contain material that is the 
# copyright of third parties, including the originator, and you should check 
# with the originator concerning the permitted uses of the information 
# contained in this CIF.
#
# For further information on the CCDC and the free tools enCIFer and Mercury
# for validating and visualising CIF files, please visit www.ccdc.cam.ac.uk
#
#######################################################################

data_QORWEB
_audit_creation_date             2015-02-02
_database_code_depnum_ccdc_archive 'CCDC 988439'
_chemical_formula_moiety         'C66 H54 N6 6+,C18 H12,6(F6 P1 1-),7(C2 H3 N1)'
_chemical_name_systematic        
'7,14,26,33,42,49-hexaazoniatridecacyclo[18.18.14.2^4,7^.2^9,12^.2^14,17^.2^23,26^.2^28,31^.2^33,36^.2^39,42^.2^44,47^.2^49,52^.1^3,37^.1^18,22^]doheptaconta-1,3(59),4,6,9,11,14,16,18(66),19,21,23,25,28,30,33,35,37,39,41,44,46,49,51,53,55,57,60,62,64,67,69,71-tritriacontaene helicene hexakis(hexafluorophosphate) acetonitrile solvate'
_journal_coden_Cambridge         4
_journal_volume                  136
_journal_year                    2014
_journal_page_first              10669
_journal_name_full               J.Am.Chem.Soc.
loop_
_publ_author_name
E.J.Dale
N.A.Vermeulent
A.A.Thomas
J.C.Barnes
M.Juricek
A.K.Blackburn
N.L.Strutt
A.A.Sarjeant
C.L.Stern
S.E.Denmark
'J.Fraser Stoddart'
_chemical_absolute_configuration unk
_diffrn_ambient_temperature      100
_exptl_crystal_density_meas      1.384
_exptl_crystal_density_diffrn    1.367
#These two values have been output from a single CSD field.
_refine_ls_R_factor_gt           0.0933
_refine_ls_wR_factor_gt          0.0933
_diffrn_radiation_probe          x-ray
_symmetry_cell_setting           monoclinic
_symmetry_space_group_name_H-M   'P 21/n'
_symmetry_Int_Tables_number      14
loop_
_symmetry_equiv_pos_site_id
_symmetry_equiv_pos_as_xyz
1 x,y,z
2 1/2-x,1/2+y,1/2-z
3 -x,-y,-z
4 1/2+x,1/2-y,1/2+z
_cell_length_a                   18.2677(8)
_cell_length_b                   30.7383(12)
_cell_length_c                   21.5011(9)
_cell_angle_alpha                90
_cell_angle_beta                 111.192(2)
_cell_angle_gamma                90
_cell_volume                     11256.8
_exptl_crystal_colour            yellow
_exptl_crystal_description       block
_cell_formula_units_Z            4
loop_
_atom_site_label
_atom_site_type_symbol
_atom_site_fract_x
_atom_site_fract_y
_atom_site_fract_z
C67 C 0.5349(3) 0.56227(16) 0.2928(3)
H55 H 0.5768 0.5443 0.3194
C68 C 0.5420(5) 0.60678(19) 0.3028(5)
H56 H 0.5896 0.6187 0.3330
C69 C 0.4803(5) 0.6340(2) 0.2691(4)
H57 H 0.4850 0.6646 0.2764
C70 C 0.4125(4) 0.6167(2) 0.2250(3)
H58 H 0.3698 0.6355 0.2023
C71 C 0.4045(3) 0.5715(2) 0.2125(3)
C72 C 0.3329(4) 0.5556(3) 0.1739(4)
H59 H 0.2924 0.5753 0.1501
C73 C 0.3179(4) 0.5123(3) 0.1686(3)
H60 H 0.2659 0.5019 0.1467
C74 C 0.3825(4) 0.4818(2) 0.1967(3)
C75 C 0.3668(6) 0.4381(3) 0.1901(4)
H61 H 0.3140 0.4285 0.1699
C76 C 0.4276(6) 0.4069(2) 0.2129(6)
H62 H 0.4153 0.3768 0.2087
C77 C 0.5082(5) 0.4208(2) 0.2424(4)
C78 C 0.5706(7) 0.3900(2) 0.2600(8)
H63 H 0.5589 0.3599 0.2528
C79 C 0.6472(7) 0.4032(3) 0.2871(5)
H64 H 0.6876 0.3820 0.3028
C80 C 0.6676(5) 0.4486(3) 0.2922(5)
H65 H 0.7209 0.4578 0.3086
C81 C 0.6063(4) 0.47873(18) 0.2722(3)
H66 H 0.6182 0.5089 0.2730
C82 C 0.5264(4) 0.46532(16) 0.2507(3)
C83 C 0.4609(3) 0.49626(16) 0.2318(2)
C84 C 0.4688(3) 0.54213(16) 0.2454(3)
P1 P 0.25388(7) 0.35580(4) 0.29232(7)
F1 F 0.23666(18) 0.39554(10) 0.24226(15)
F2 F 0.21625(17) 0.38309(10) 0.33725(15)
F3 F 0.2713(2) 0.31643(10) 0.34458(17)
F4 F 0.2912(2) 0.32946(12) 0.24759(19)
F5 F 0.33803(15) 0.37641(9) 0.33538(18)
F6 F 0.16931(18) 0.33640(11) 0.25032(17)
P2 P 0.86223(6) 0.50575(4) 0.20788(6)
F7 F 0.85641(18) 0.55317(10) 0.23496(16)
F8 F 0.94055(18) 0.49682(12) 0.27017(16)
F9 F 0.8652(2) 0.45850(11) 0.17849(17)
F10 F 0.78235(13) 0.51382(9) 0.14513(13)
F11 F 0.91218(17) 0.52391(13) 0.16649(16)
F12 F 0.8102(2) 0.48792(13) 0.24753(16)
P3 P 0.29919(9) 0.67446(4) 0.02556(6)
F13 F 0.3639(4) 0.68741(16) 0.0953(2)
F14 F 0.2622(3) 0.63954(11) 0.0604(2)
F15 F 0.23840(17) 0.65893(13) -0.04409(15)
F16 F 0.3352(2) 0.70866(9) -0.01021(18)
F17 F 0.36012(19) 0.63882(9) 0.0176(2)
F18 F 0.2398(3) 0.70971(11) 0.0325(2)
P4 P 0.86408(7) 0.47532(5) 0.55623(6)
F19 F 0.8240(4) 0.4989(2) 0.4888(3)
F20 F 0.78000(17) 0.47371(14) 0.56262(16)
F21 F 0.8993(3) 0.44902(19) 0.6219(2)
F22 F 0.9463(2) 0.47777(15) 0.5485(2)
F23 F 0.8807(3) 0.51737(16) 0.5994(3)
F24 F 0.8482(2) 0.43094(16) 0.5163(2)
P5 P 0.4122(3) 0.69244(13) 0.4130(3)
F25 F 0.4080(7) 0.7395(3) 0.3829(8)
F26 F 0.3441(6) 0.7056(3) 0.4389(6)
F27 F 0.4080(6) 0.6441(3) 0.4390(5)
F28 F 0.4809(5) 0.6814(4) 0.3880(6)
F29 F 0.4760(5) 0.7027(3) 0.4851(4)
F30 F 0.3492(7) 0.6770(5) 0.3415(6)
P7 P 0.32414(8) 0.33051(4) -0.01692(7)
F37 F 0.3997(7) 0.3091(3) 0.0301(7)
F38 F 0.3264(9) 0.3027(5) -0.0771(7)
F39 F 0.3113(10) 0.3577(3) 0.0428(7)
F40 F 0.3753(3) 0.3710(2) -0.0270(3)
F41 F 0.2801(9) 0.2933(3) 0.0002(5)
F42 F 0.2494(4) 0.3563(4) -0.0540(8)
N1 N 0.17775(17) 0.50310(10) -0.02153(17)
N2 N 0.6739(2) 0.34331(10) 0.14170(19)
N3 N 0.6595(2) 0.65800(10) 0.20082(18)
N4 N 0.19106(19) 0.52759(11) 0.28628(18)
N5 N 0.6448(2) 0.33016(11) 0.4301(2)
N6 N 0.7095(2) 0.64398(12) 0.51521(18)
C1 C 0.2157(2) 0.46450(13) -0.0071(2)
H1 H 0.1866 0.4384 -0.0108
C2 C 0.2953(2) 0.46286(12) 0.0127(2)
H2 H 0.3215 0.4356 0.0220
C3 C 0.3387(2) 0.50134(12) 0.01934(19)
C4 C 0.2969(2) 0.53999(12) -0.00121(19)
H3 H 0.3241 0.5663 -0.0017
C5 C 0.2163(2) 0.54003(12) -0.02087(19)
H4 H 0.1880 0.5665 -0.0340
C6 C 0.42536(19) 0.50156(11) 0.05103(17)
C7 C 0.46868(19) 0.46349(11) 0.05797(17)
H5 H 0.4427 0.4374 0.0383
C8 C 0.5494(2) 0.46287(11) 0.09326(17)
C9 C 0.5869(2) 0.50203(11) 0.12064(17)
H6 H 0.6419 0.5021 0.1446
C10 C 0.5456(2) 0.54038(11) 0.11349(17)
C11 C 0.4639(2) 0.53968(11) 0.07874(18)
H7 H 0.4346 0.5658 0.0742
C12 C 0.5933(2) 0.42131(11) 0.10690(19)
C13 C 0.5542(2) 0.38114(13) 0.0932(3)
H8 H 0.4988 0.3805 0.0715
C14 C 0.5949(3) 0.34300(14) 0.1108(3)
H9 H 0.5676 0.3161 0.1012
C15 C 0.7138(2) 0.38080(13) 0.1541(2)
H10 H 0.7694 0.3804 0.1747
C16 C 0.6749(2) 0.41985(12) 0.1373(2)
H11 H 0.7040 0.4462 0.1465
C17 C 0.5854(2) 0.58162(11) 0.14378(17)
C18 C 0.6646(2) 0.58300(14) 0.1810(3)
H12 H 0.6949 0.5572 0.1872
C19 C 0.7000(3) 0.62095(15) 0.2091(3)
H13 H 0.7546 0.6210 0.2350
C20 C 0.5830(3) 0.65804(14) 0.1649(3)
H14 H 0.5545 0.6845 0.1587
C21 C 0.5446(3) 0.62066(13) 0.1367(3)
H15 H 0.4897 0.6214 0.1122
C22 C 0.0930(2) 0.50524(15) -0.0284(2)
H16 H 0.0660 0.4776 -0.0471
H17 H 0.0661 0.5293 -0.0587
C23 C 0.0906(2) 0.51283(14) 0.0403(2)
C24 C 0.0940(2) 0.47769(14) 0.0816(2)
H18 H 0.0943 0.4489 0.0657
C25 C 0.0972(2) 0.48455(14) 0.1468(2)
H19 H 0.0987 0.4604 0.1748
C26 C 0.0980(2) 0.52693(14) 0.1711(2)
C27 C 0.0934(2) 0.56147(15) 0.1277(2)
H20 H 0.0928 0.5904 0.1430
C28 C 0.0896(2) 0.55469(15) 0.0631(2)
H21 H 0.0864 0.5788 0.0345
C29 C 0.7150(3) 0.30163(13) 0.1686(2)
H22 H 0.7708 0.3036 0.1730
H23 H 0.6903 0.2774 0.1378
C30 C 0.7098(3) 0.29325(12) 0.2354(2)
C31 C 0.7699(3) 0.30674(14) 0.2938(3)
H24 H 0.8168 0.3185 0.2913
C32 C 0.7619(3) 0.30313(15) 0.3550(3)
H25 H 0.8032 0.3127 0.3940
C33 C 0.6939(3) 0.28553(14) 0.3605(3)
C34 C 0.6364(3) 0.27016(14) 0.3027(3)
H26 H 0.5904 0.2573 0.3055
C35 C 0.6442(3) 0.27306(14) 0.2410(3)
H27 H 0.6047 0.2613 0.2026
C36 C 0.7001(3) 0.69908(14) 0.2321(2)
H28 H 0.6666 0.7244 0.2113
H29 H 0.7500 0.7019 0.2243
C37 C 0.7165(3) 0.69891(12) 0.3061(2)
C38 C 0.6591(3) 0.71107(14) 0.3307(3)
H30 H 0.6100 0.7215 0.3008
C39 C 0.6722(3) 0.70821(15) 0.3980(3)
H31 H 0.6318 0.7164 0.4139
C40 C 0.7434(3) 0.69358(13) 0.4426(2)
C41 C 0.8014(3) 0.68294(14) 0.4190(2)
H32 H 0.8510 0.6735 0.4492
C42 C 0.7886(3) 0.68576(14) 0.3516(2)
H33 H 0.8299 0.6786 0.3363
C43 C 0.1068(2) 0.53392(15) 0.2427(2)
H34 H 0.0897 0.5637 0.2485
H35 H 0.0734 0.5130 0.2553
C44 C 0.2168(2) 0.48736(14) 0.3077(2)
H36 H 0.1803 0.4641 0.2997
C45 C 0.2951(2) 0.47968(13) 0.3411(2)
H37 H 0.3125 0.4510 0.3555
C46 C 0.3495(2) 0.51364(12) 0.35438(19)
C47 C 0.3199(2) 0.55518(13) 0.3328(2)
H38 H 0.3545 0.5794 0.3413
C48 C 0.2412(2) 0.56101(14) 0.2994(2)
H39 H 0.2217 0.5894 0.2852
C49 C 0.4343(2) 0.50558(12) 0.39017(19)
C50 C 0.4660(2) 0.46406(12) 0.39105(18)
H40 H 0.4326 0.4408 0.3685
C51 C 0.5465(2) 0.45622(12) 0.42492(18)
C52 C 0.5941(2) 0.49099(12) 0.45690(18)
H41 H 0.6485 0.4861 0.4806
C53 C 0.5635(2) 0.53291(12) 0.45484(19)
C54 C 0.4836(2) 0.53957(12) 0.42173(18)
H42 H 0.4623 0.5679 0.4207
C55 C 0.5797(2) 0.41246(13) 0.42671(18)
C56 C 0.5334(2) 0.37542(13) 0.4006(2)
H43 H 0.4780 0.3784 0.3812
C57 C 0.5664(3) 0.33559(14) 0.4025(2)
H44 H 0.5337 0.3112 0.3841
C58 C 0.6907(3) 0.36421(17) 0.4561(3)
H45 H 0.7458 0.3601 0.4761
C59 C 0.6600(3) 0.40496(15) 0.4548(3)
H46 H 0.6944 0.4286 0.4734
C60 C 0.6803(3) 0.28673(15) 0.4246(3)
H47 H 0.7306 0.2828 0.4624
H48 H 0.6443 0.2630 0.4259
C61 C 0.6164(2) 0.57053(12) 0.48305(19)
C62 C 0.6951(2) 0.56898(14) 0.4925(2)
H49 H 0.7181 0.5421 0.4878
C63 C 0.7408(3) 0.60587(14) 0.5086(2)
H50 H 0.7950 0.6042 0.5150
C64 C 0.6347(3) 0.64610(15) 0.5114(2)
H51 H 0.6143 0.6730 0.5195
C65 C 0.5874(3) 0.61024(14) 0.4962(2)
H52 H 0.5348 0.6122 0.4945
C66 C 0.7536(3) 0.68503(14) 0.5144(2)
H53 H 0.8100 0.6815 0.5419
H54 H 0.7324 0.7096 0.5325
C85? C 0.4216(11) 0.4459(9) 0.2252(15)
H67? H 0.3781 0.4645 0.2197
C86? C 0.4100(11) 0.4019(10) 0.207(2)
H68? H 0.3601 0.3919 0.1775
C87? C 0.4739(14) 0.3726(8) 0.2316(16)
H69? H 0.4653 0.3423 0.2343
C88? C 0.5507(12) 0.3897(9) 0.252(3)
H70? H 0.5939 0.3705 0.2611
C89? C 0.5642(11) 0.4346(9) 0.2605(17)
C90? C 0.6410(11) 0.4522(9) 0.279(2)
H71? H 0.6820 0.4368 0.2715
C91? C 0.6539(10) 0.4938(9) 0.3095(15)
H72? H 0.7044 0.5023 0.3394
C92? C 0.5887(11) 0.5223(8) 0.2936(14)
C93? C 0.5982(11) 0.5665(9) 0.3134(14)
H73? H 0.6495 0.5781 0.3344
C94? C 0.5317(14) 0.5938(10) 0.302(2)
H74? H 0.5369 0.6212 0.3236
C95? C 0.4585(10) 0.5794(8) 0.2583(14)
C96? C 0.3948(14) 0.6091(9) 0.2366(18)
H75? H 0.4011 0.6380 0.2533
C97? C 0.3226(14) 0.5953(11) 0.1903(14)
H76? H 0.2832 0.6161 0.1684
C98? C 0.3084(12) 0.5508(13) 0.1761(19)
H77? H 0.2567 0.5406 0.1522
C99? C 0.3715(14) 0.5215(10) 0.1977(14)
H78? H 0.3642 0.4924 0.1819
C100? C 0.4458(10) 0.5348(9) 0.243(2)
C101? C 0.5116(10) 0.5071(8) 0.2583(15)
C102? C 0.4994(11) 0.4621(8) 0.253(2)
P6? P 0.3692(9) 0.6889(2) 0.3933(4)
F31? F 0.3423(18) 0.7325(4) 0.3546(6)
F32? F 0.2905(10) 0.6857(7) 0.4051(7)
F33? F 0.3987(12) 0.6454(5) 0.4292(10)
F34? F 0.4497(14) 0.6932(7) 0.3843(9)
F35? F 0.4028(16) 0.7149(5) 0.4604(6)
F36? F 0.3335(12) 0.6639(5) 0.3260(8)
F43? F 0.2320(8) 0.3139(5) -0.0327(8)
F44? F 0.3404(10) 0.2828(4) 0.0227(7)
F45? F 0.4172(6) 0.3248(5) -0.0064(6)
F46? F 0.3044(19) 0.3684(4) -0.0628(6)
F47? F 0.3496(12) 0.3534(7) 0.0506(8)
F48? F 0.3072(12) 0.3099(7) -0.0865(7)

#END

