
#######################################################################
#
#                 Cambridge Crystallographic Data Centre
#                                CCDC 
#
#######################################################################
#
# If this CIF has been generated directly or indirectly from an entry in the 
# Cambridge Structural Database, then it will include bibliographic, chemical, 
# crystal, experimental, refinement or atomic coordinate data resulting from 
# the CCDC's data processing and validation procedures. Files generated from 
# CSD entries are Copyright 2015 Cambridge Crystallographic Data Centre. They 
# may be used in bona fide research applications only, and may not be copied or 
# further disseminated in any form, whether machine-readable or not, except for 
# the purposes of generating routine backup copies on your local computer 
# system.
# 
# Files arising from any other source may also contain material that is the 
# copyright of third parties, including the originator, and you should check 
# with the originator concerning the permitted uses of the information 
# contained in this CIF.
#
# For further information on the CCDC and the free tools enCIFer and Mercury
# for validating and visualising CIF files, please visit www.ccdc.cam.ac.uk
#
#######################################################################

data_COMTOO
_audit_creation_date             2009-07-17
_database_code_depnum_ccdc_archive 'CCDC 714051'
_chemical_formula_moiety         'C48 H66 N6 6+,6(I1 1-),3(H2 O1)'
_chemical_name_systematic        
'2,16,18,32,45,47-hexamethyl-5,13,21,29,34,42-hexaazoniaheptacyclo[15.15.11.1^3,31^.1^7,11^.1^15,19^.1^23,27^.1^36,40^]octatetraconta-1,3(45),7(48),8,10,15(47),16,18,23(46),24,26,31,36(44),37,39-pentadecaene hexaiodide trihydrate clathrate'
_journal_coden_Cambridge         35
_journal_volume                  73
_journal_year                    2008
_journal_page_first              9144
_journal_name_full               J.Org.Chem.
loop_
_publ_author_name
M.Arunachalam
I.Ravikumar
P.Ghosh
_chemical_absolute_configuration unk
_diffrn_ambient_temperature      100
_exptl_crystal_density_meas      1.678
_exptl_crystal_density_diffrn    1.685
#These two values have been output from a single CSD field.
_refine_ls_R_factor_gt           0.0665
_refine_ls_wR_factor_gt          0.0665
_diffrn_radiation_probe          x-ray
_symmetry_cell_setting           monoclinic
_symmetry_space_group_name_H-M   'P 21/n'
_symmetry_Int_Tables_number      14
loop_
_symmetry_equiv_pos_site_id
_symmetry_equiv_pos_as_xyz
1 x,y,z
2 1/2-x,1/2+y,1/2-z
3 -x,-y,-z
4 1/2+x,1/2-y,1/2+z
_cell_length_a                   11.8913(15)
_cell_length_b                   12.9733(17)
_cell_length_c                   39.452(5)
_cell_angle_alpha                90
_cell_angle_beta                 92.078(2)
_cell_angle_gamma                90
_cell_volume                     6082.23
_exptl_crystal_colour            'pale brown'
_exptl_crystal_description       block
_cell_formula_units_Z            4
loop_
_atom_site_label
_atom_site_type_symbol
_atom_site_fract_x
_atom_site_fract_y
_atom_site_fract_z
I1 I 0.84327(5) 0.50590(4) 0.215967(16)
I2 I 0.22263(5) 0.51220(5) 0.226115(19)
I3 I 0.00441(5) 0.23235(5) 0.160892(16)
I4 I 0.52234(6) 0.50516(5) 0.13505(2)
I5 I 0.49584(8) 0.39800(8) 0.40381(2)
I6 I 0.33288(10) 0.79346(9) 0.02355(2)
C1 C 0.2786(7) 0.0485(7) 0.1560(2)
H1 H 0.2385 0.1127 0.1556
H2 H 0.2886 0.0252 0.1790
H3 H 0.2363 -0.0019 0.1431
C2 C 0.3944(6) 0.0635(6) 0.14047(19)
C3 C 0.4910(6) 0.0599(5) 0.16123(18)
C4 C 0.4813(8) 0.0399(6) 0.1989(2)
H4 H 0.5522 0.0129 0.2080
H5 H 0.4238 -0.0118 0.2022
N1 N 0.4515(6) 0.1377(5) 0.21811(17)
H6 H 0.3920 0.1678 0.2074
H7 H 0.4303 0.1198 0.2390
C5 C 0.5432(7) 0.2140(6) 0.2216(2)
H8 H 0.5556 0.2441 0.1995
H9 H 0.6118 0.1788 0.2290
C6 C 0.5203(6) 0.2988(6) 0.24614(19)
C7 C 0.4908(6) 0.2765(6) 0.2794(2)
H10 H 0.4767 0.2088 0.2857
C8 C 0.4826(6) 0.3543(6) 0.3028(2)
H11 H 0.4625 0.3389 0.3248
C9 C 0.5039(6) 0.4542(7) 0.2940(2)
H12 H 0.4998 0.5060 0.3103
C10 C 0.5318(6) 0.4794(6) 0.2608(2)
C11 C 0.5374(6) 0.4002(6) 0.2372(2)
H13 H 0.5530 0.4160 0.2149
C12 C 0.5555(7) 0.5884(6) 0.2510(2)
H14 H 0.6184 0.6138 0.2650
H15 H 0.5776 0.5898 0.2276
N2 N 0.4585(5) 0.6581(5) 0.25480(15)
H16 H 0.4403 0.6585 0.2767
H17 H 0.3994 0.6321 0.2427
C13 C 0.4768(7) 0.7699(6) 0.24347(19)
H18 H 0.4098 0.8098 0.2477
H19 H 0.5387 0.7995 0.2569
C14 C 0.5024(6) 0.7773(5) 0.20631(19)
C15 C 0.6129(6) 0.7795(5) 0.1960(2)
C16 C 0.7135(7) 0.7840(7) 0.2214(2)
H20 H 0.7415 0.7156 0.2256
H21 H 0.6902 0.8138 0.2423
H22 H 0.7719 0.8256 0.2122
C17 C 0.6351(6) 0.7815(5) 0.1616(2)
C18 C 0.7525(7) 0.7687(7) 0.1503(3)
H23 H 0.8050 0.7982 0.1670
H24 H 0.7614 0.8044 0.1290
N3 N 0.7772(5) 0.6532(5) 0.14597(18)
H25 H 0.7833 0.6244 0.1667
H26 H 0.7175 0.6241 0.1350
C19 C 0.8801(7) 0.6262(7) 0.1273(3)
H27 H 0.9328 0.5899 0.1423
H28 H 0.9162 0.6888 0.1197
C20 C 0.8495(7) 0.5588(7) 0.0968(2)
C21 C 0.8144(9) 0.6059(8) 0.0670(3)
H29 H 0.8128 0.6774 0.0653
C22 C 0.7824(10) 0.5466(9) 0.0405(3)
H30 H 0.7579 0.5784 0.0204
C23 C 0.7845(9) 0.4365(10) 0.0419(3)
H31 H 0.7643 0.3961 0.0232
C24 C 0.8185(7) 0.3930(7) 0.0729(2)
C25 C 0.8536(7) 0.4529(7) 0.0992(2)
H32 H 0.8808 0.4223 0.1192
C26 C 0.8183(8) 0.2751(7) 0.0759(2)
H33 H 0.8174 0.2451 0.0533
H34 H 0.8868 0.2530 0.0878
N4 N 0.7195(6) 0.2369(5) 0.09422(18)
H35 H 0.6563 0.2589 0.0833
H36 H 0.7211 0.2648 0.1151
C27 C 0.7142(8) 0.1228(7) 0.0975(3)
H37 H 0.7767 0.0988 0.1119
H38 H 0.7206 0.0914 0.0753
C28 C 0.6053(7) 0.0913(6) 0.1124(2)
C29 C 0.5982(7) 0.0713(6) 0.1469(2)
C30 C 0.7058(7) 0.0632(7) 0.1683(2)
H39 H 0.7634 0.0322 0.1553
H40 H 0.6929 0.0216 0.1879
H41 H 0.7295 0.1309 0.1755
C31 C 0.5085(8) 0.0866(6) 0.0913(2)
C32 C 0.5207(11) 0.0888(9) 0.0535(2)
H42 H 0.4884 0.0273 0.0437
H43 H 0.5990 0.0923 0.0485
H44 H 0.4824 0.1480 0.0441
C33 C 0.4026(7) 0.0755(6) 0.1056(2)
C34 C 0.2963(9) 0.0776(7) 0.0825(2)
H45 H 0.3066 0.0337 0.0630
H46 H 0.2329 0.0515 0.0947
N5 N 0.2728(8) 0.1861(7) 0.0710(2)
H47 H 0.3368 0.2130 0.0633
H48 H 0.2223 0.1840 0.0535
C35 C 0.2308(11) 0.2546(9) 0.0965(3)
H49 H 0.2885 0.2627 0.1143
H50 H 0.1662 0.2225 0.1065
C36 C 0.1963(8) 0.3613(7) 0.0837(2)
C37 C 0.1329(9) 0.3785(7) 0.0538(2)
H51 H 0.1129 0.3231 0.0400
C38 C 0.1007(9) 0.4727(8) 0.0450(3)
H52 H 0.0606 0.4828 0.0246
C39 C 0.1258(8) 0.5555(8) 0.0655(3)
H53 H 0.1007 0.6209 0.0593
C40 C 0.1886(8) 0.5420(7) 0.0956(2)
C41 C 0.2206(8) 0.4430(7) 0.1045(2)
H54 H 0.2593 0.4319 0.1251
C42 C 0.2180(9) 0.6357(8) 0.1181(3)
H55 H 0.1539 0.6818 0.1185
H56 H 0.2355 0.6129 0.1411
N6 N 0.3142(6) 0.6900(5) 0.10498(18)
H57 H 0.3019 0.6996 0.0826
H58 H 0.3752 0.6494 0.1077
C43 C 0.3402(7) 0.7926(6) 0.1210(2)
H59 H 0.2726 0.8193 0.1309
H60 H 0.3622 0.8404 0.1035
C44 C 0.4326(6) 0.7875(6) 0.1481(2)
C45 C 0.4108(6) 0.7819(5) 0.1823(2)
C46 C 0.2939(6) 0.7845(7) 0.1941(2)
H61 H 0.2502 0.8320 0.1805
H62 H 0.2945 0.8062 0.2174
H63 H 0.2615 0.7169 0.1922
C47 C 0.5452(7) 0.7865(6) 0.1370(2)
C48 C 0.5708(8) 0.7886(8) 0.1002(2)
H64 H 0.5721 0.8587 0.0924
H65 H 0.5140 0.7510 0.0875
H66 H 0.6429 0.7575 0.0970
O1 O 0.7160(6) 0.3141(5) 0.16029(17)
O2 O 0.2673(12) 0.2665(11) 0.2011(4)
O4 O 0.4904(8) 0.3341(8) 0.0681(3)
O3? O 0.2988(13) 0.2831(11) 0.1865(4)
O5? O 0.475(2) 0.403(2) 0.0398(6)

#END

