
#######################################################################
#
#                 Cambridge Crystallographic Data Centre
#                                CCDC 
#
#######################################################################
#
# If this CIF has been generated directly or indirectly from an entry in the 
# Cambridge Structural Database, then it will include bibliographic, chemical, 
# crystal, experimental, refinement or atomic coordinate data resulting from 
# the CCDC's data processing and validation procedures. Files generated from 
# CSD entries are Copyright 2015 Cambridge Crystallographic Data Centre. They 
# may be used in bona fide research applications only, and may not be copied or 
# further disseminated in any form, whether machine-readable or not, except for 
# the purposes of generating routine backup copies on your local computer 
# system.
# 
# Files arising from any other source may also contain material that is the 
# copyright of third parties, including the originator, and you should check 
# with the originator concerning the permitted uses of the information 
# contained in this CIF.
#
# For further information on the CCDC and the free tools enCIFer and Mercury
# for validating and visualising CIF files, please visit www.ccdc.cam.ac.uk
#
#######################################################################

data_COMTII
_audit_creation_date             2009-07-17
_database_code_depnum_ccdc_archive 'CCDC 714050'
_chemical_formula_moiety         'C48 H66 N6 6+,6(Cl1 1-),9(H2 O1)'
_chemical_name_systematic        
'2,16,18,32,45,47-hexamethyl-5,13,21,29,34,42-hexaazoniaheptacyclo[15.15.11.1^3,31^.1^7,11^.1^15,19^.1^23,27^.1^36,40^]octatetraconta-1,3(45),7(48),8,10,15(47),16,18,23(46),24,26,31,36(44),37,39-pentadecaene hexachloride nonahydrate clathrate'
_journal_coden_Cambridge         35
_journal_volume                  73
_journal_year                    2008
_journal_page_first              9144
_journal_name_full               J.Org.Chem.
loop_
_publ_author_name
M.Arunachalam
I.Ravikumar
P.Ghosh
_chemical_absolute_configuration unk
_diffrn_ambient_temperature      100
_exptl_crystal_density_meas      1.348
_exptl_crystal_density_diffrn    1.353
#These two values have been output from a single CSD field.
_refine_ls_R_factor_gt           0.0439
_refine_ls_wR_factor_gt          0.0439
_diffrn_radiation_probe          x-ray
_symmetry_cell_setting           monoclinic
_symmetry_space_group_name_H-M   'P 21/n'
_symmetry_Int_Tables_number      14
loop_
_symmetry_equiv_pos_site_id
_symmetry_equiv_pos_as_xyz
1 x,y,z
2 1/2-x,1/2+y,1/2-z
3 -x,-y,-z
4 1/2+x,1/2-y,1/2+z
_cell_length_a                   17.3385(7)
_cell_length_b                   16.9020(7)
_cell_length_c                   18.5010(8)
_cell_angle_alpha                90
_cell_angle_beta                 93.732(2)
_cell_angle_gamma                90
_cell_volume                     5410.32
_exptl_crystal_colour            colorless
_exptl_crystal_description       block
_cell_formula_units_Z            4
loop_
_atom_site_label
_atom_site_type_symbol
_atom_site_fract_x
_atom_site_fract_y
_atom_site_fract_z
Cl1 Cl 0.04296(4) 0.70613(4) 0.09424(4)
Cl2 Cl 0.40249(4) 0.59745(5) 0.16317(4)
Cl3 Cl 0.22904(4) 0.93307(5) 0.22549(4)
Cl4 Cl 0.82926(4) 0.39099(5) 0.41940(4)
Cl5 Cl 0.62798(5) 0.98396(6) 0.29815(4)
Cl6 Cl 0.64715(5) 0.60902(5) 0.12650(5)
C1 C 0.38279(15) 0.17519(16) 0.14060(14)
C2 C 0.45077(15) 0.17664(17) 0.18685(15)
C3 C 0.48544(15) 0.24878(18) 0.20840(14)
C4 C 0.45133(15) 0.32041(17) 0.18473(14)
C5 C 0.38343(15) 0.31979(17) 0.13771(14)
C6 C 0.34973(15) 0.24714(17) 0.11682(14)
C7 C 0.34879(17) 0.09729(18) 0.11436(17)
C8 C 0.56064(16) 0.2490(2) 0.25455(17)
C9 C 0.35021(17) 0.39609(18) 0.10761(17)
C10 C 0.27962(15) 0.24572(18) 0.06328(15)
C11 C 0.17762(16) 0.29922(18) 0.14139(16)
C12 C 0.09955(15) 0.28395(16) 0.17066(15)
C13 C 0.03635(16) 0.26177(18) 0.12464(16)
C14 C -0.03519(16) 0.2504(2) 0.15203(16)
C15 C -0.04485(16) 0.2625(2) 0.22450(16)
C16 C 0.01717(15) 0.28553(17) 0.27110(15)
C17 C 0.08964(15) 0.29517(17) 0.24332(15)
C18 C 0.00580(17) 0.30218(18) 0.34954(15)
C19 C -0.02552(15) 0.23948(19) 0.46881(15)
C20 C 0.04877(14) 0.24528(17) 0.51636(14)
C21 C 0.07921(15) 0.31826(17) 0.53774(14)
C22 C 0.14767(15) 0.32127(17) 0.58390(14)
C23 C 0.18327(14) 0.25180(17) 0.60909(14)
C24 C 0.15193(15) 0.17818(17) 0.58756(14)
C25 C 0.08433(15) 0.17389(17) 0.54146(14)
C26 C 0.04769(17) 0.09539(18) 0.52025(17)
C27 C 0.25290(16) 0.2539(2) 0.66332(17)
C28 C 0.04005(17) 0.39555(19) 0.51537(17)
C29 C 0.17954(17) 0.40149(19) 0.60665(16)
C30 C 0.31073(15) 0.41094(19) 0.55496(16)
C31 C 0.35742(15) 0.45416(17) 0.50175(15)
C32 C 0.37386(16) 0.53457(18) 0.51128(16)
C33 C 0.42127(16) 0.57262(19) 0.46499(16)
C34 C 0.45235(16) 0.53211(18) 0.40884(16)
C35 C 0.43533(15) 0.45245(17) 0.39783(15)
C36 C 0.38805(15) 0.41410(19) 0.44442(15)
C37 C 0.47145(17) 0.40669(19) 0.33928(16)
C38 C 0.48919(16) 0.39837(18) 0.20453(16)
C39 C 0.48909(16) 0.09992(18) 0.21041(15)
C40 C 0.39754(16) 0.03651(19) 0.29334(16)
C41 C 0.38782(15) 0.01022(17) 0.36966(15)
C42 C 0.44219(16) -0.03848(18) 0.40569(16)
C43 C 0.43124(17) -0.06449(18) 0.47541(16)
C44 C 0.36535(17) -0.04327(18) 0.50905(16)
C45 C 0.31075(15) 0.00645(17) 0.47385(15)
C46 C 0.32246(16) 0.03237(18) 0.40440(16)
C47 C 0.23964(16) 0.03068(19) 0.51052(16)
C48 C 0.19139(16) 0.10411(19) 0.61771(16)
N1 N 0.20404(13) 0.23196(15) 0.09693(14)
N2 N -0.01310(14) 0.22810(15) 0.38950(13)
N3 N 0.22804(13) 0.43823(16) 0.55056(14)
N4 N 0.45409(15) 0.44179(16) 0.26575(13)
N5 N 0.47417(13) 0.07563(16) 0.28635(13)
N6 N 0.25991(13) 0.08049(16) 0.57606(13)
H1 H 0.2049(17) 0.190(2) 0.1251(17)
H2 H 0.171(2) 0.225(2) 0.061(2)
H5 H 0.023(2) 0.190(2) 0.3822(18)
H6 H -0.0582(19) 0.2054(18) 0.3684(17)
H9 H 0.2086(18) 0.4259(19) 0.5031(19)
H10 H 0.2260(18) 0.490(2) 0.5582(17)
H11 H 0.404(2) 0.443(2) 0.2591(19)
H12 H 0.4749(18) 0.489(2) 0.2648(17)
H15 H 0.510(2) 0.044(2) 0.3005(18)
H16 H 0.476(2) 0.120(2) 0.315(2)
H17 H 0.2827(18) 0.124(2) 0.5602(17)
H18 H 0.292(2) 0.054(2) 0.609(2)
H21 H 0.338(2) 0.061(2) 0.150(2)
H22 H 0.379(2) 0.071(2) 0.080(2)
H23 H 0.299(3) 0.099(2) 0.088(2)
H26 H 0.600(3) 0.278(3) 0.234(2)
H27 H 0.581(3) 0.198(3) 0.267(2)
H28 H 0.559(3) 0.281(3) 0.298(3)
H31 H 0.376(2) 0.445(2) 0.125(2)
H32 H 0.353(2) 0.399(2) 0.059(2)
H33 H 0.296(2) 0.401(2) 0.117(2)
H34 H 0.2842(15) 0.2048(17) 0.0283(15)
H35 H 0.2734(15) 0.2962(17) 0.0368(14)
H36 H 0.1756(16) 0.3445(18) 0.1125(16)
H37 H 0.2167(18) 0.3065(19) 0.1797(17)
H38 H 0.0433(16) 0.2550(16) 0.0721(16)
H39 H -0.077(2) 0.233(2) 0.1210(19)
H40 H -0.096(2) 0.255(2) 0.2445(19)
H41 H 0.1319(16) 0.3113(16) 0.2745(15)
H42 H -0.0382(17) 0.3389(18) 0.3540(15)
H43 H 0.0499(18) 0.3217(18) 0.3739(16)
H44 H -0.0574(17) 0.2873(19) 0.4736(16)
H45 H -0.0541(16) 0.1949(18) 0.4823(15)
H46 H 0.0708(19) 0.048(2) 0.5427(18)
H47 H 0.048(2) 0.085(2) 0.468(2)
H48 H 0.000(3) 0.093(2) 0.538(2)
H49 H 0.277(2) 0.304(3) 0.668(2)
H50 H 0.289(2) 0.212(2) 0.655(2)
H51 H 0.241(2) 0.242(2) 0.710(2)
H52 H -0.003(2) 0.389(2) 0.486(2)
H53 H 0.027(2) 0.425(2) 0.558(2)
H54 H 0.072(2) 0.429(2) 0.487(2)
H55 H 0.2120(17) 0.4013(17) 0.6529(16)
H56 H 0.1402(17) 0.4365(18) 0.6121(16)
H57 H 0.3079(16) 0.3522(19) 0.5439(16)
H58 H 0.3305(16) 0.4196(17) 0.6041(16)
H59 H 0.3532(19) 0.565(2) 0.5505(18)
H60 H 0.4345(18) 0.625(2) 0.4744(17)
H61 H 0.4852(17) 0.5595(18) 0.3782(16)
H62 H 0.3786(18) 0.361(2) 0.4405(17)
H63 H 0.523(2) 0.4076(19) 0.3460(18)
H64 H 0.4537(17) 0.3490(19) 0.3366(16)
H65 H 0.4851(17) 0.4375(19) 0.1621(17)
H66 H 0.5432(18) 0.3948(17) 0.2214(16)
H67 H 0.4729(15) 0.0558(17) 0.1798(15)
H68 H 0.546(2) 0.1001(19) 0.2074(17)
H69 H 0.3590(18) 0.0721(19) 0.2760(16)
H70 H 0.396(2) -0.009(2) 0.2624(19)
H71 H 0.4853(18) -0.0538(19) 0.3824(17)
H72 H 0.4664(18) -0.0995(19) 0.4977(17)
H73 H 0.3567(19) -0.063(2) 0.5569(19)
H74 H 0.2884(17) 0.0652(18) 0.3814(16)
H75 H 0.2150(18) -0.013(2) 0.5266(17)
H76 H 0.2044(17) 0.0611(18) 0.4778(16)
H77 H 0.2109(16) 0.1112(17) 0.6673(17)
H78 H 0.1581(17) 0.0579(18) 0.6188(15)
O1 O 0.18955(15) 0.75198(17) 0.19871(14)
H3 H 0.151(3) 0.744(3) 0.179(3)
H4 H 0.191(2) 0.801(3) 0.204(2)
O2 O 0.29202(14) 0.72890(16) 0.10033(13)
H7 H 0.318(3) 0.689(3) 0.115(2)
H8 H 0.262(3) 0.731(3) 0.136(3)
O3 O 0.37329(16) 0.74074(16) 0.53883(13)
H79 H 0.407(3) 0.754(3) 0.554(2)
H80 H 0.341(3) 0.746(3) 0.576(3)
O4 O 0.31621(13) 0.89057(17) 0.08802(13)
H13 H 0.310(2) 0.843(2) 0.0865(19)
H14 H 0.288(2) 0.909(2) 0.120(2)
O5 O 0.27212(15) 0.75292(18) 0.64401(14)
O6 O 0.58322(15) 0.54427(17) 0.27554(15)
H19 H 0.590(3) 0.566(3) 0.236(3)
H20 H 0.630(3) 0.512(3) 0.276(3)
O7 O 0.32086(15) 0.21068(14) 0.50987(13)
H24 H 0.287(2) 0.216(2) 0.484(2)
H25 H 0.361(3) 0.201(3) 0.489(2)
O8 O 0.19789(16) 0.11680(17) 0.20079(15)
H29 H 0.205(2) 0.068(3) 0.201(2)
H30 H 0.174(2) 0.120(3) 0.230(2)
O9 O 0.72198(15) 0.45932(17) 0.29099(13)

#END

