
#######################################################################
#
#                 Cambridge Crystallographic Data Centre
#                                CCDC 
#
#######################################################################
#
# If this CIF has been generated directly or indirectly from an entry in the 
# Cambridge Structural Database, then it will include bibliographic, chemical, 
# crystal, experimental, refinement or atomic coordinate data resulting from 
# the CCDC's data processing and validation procedures. Files generated from 
# CSD entries are Copyright 2015 Cambridge Crystallographic Data Centre. They 
# may be used in bona fide research applications only, and may not be copied or 
# further disseminated in any form, whether machine-readable or not, except for 
# the purposes of generating routine backup copies on your local computer 
# system.
# 
# Files arising from any other source may also contain material that is the 
# copyright of third parties, including the originator, and you should check 
# with the originator concerning the permitted uses of the information 
# contained in this CIF.
#
# For further information on the CCDC and the free tools enCIFer and Mercury
# for validating and visualising CIF files, please visit www.ccdc.cam.ac.uk
#
#######################################################################

data_COMTUU
_audit_creation_date             2009-07-17
_database_code_depnum_ccdc_archive 'CCDC 714052'
_chemical_formula_moiety         'C48 H60 N6,2(C3 H6 O1)'
_chemical_name_systematic        
'2,16,18,32,45,47-hexamethyl-5,13,21,29,34,42-hexaazaheptacyclo[15.15.11.1^3,31^.1^7,11^.1^15,19^.1^23,27^.1^36,40^]octatetraconta-1,3(45),7(48),8,10,15(47),16,18,23(46),24,26,31,36(44),37,39-pentadecaene bis(acetone) clathrate'
_journal_coden_Cambridge         35
_journal_volume                  73
_journal_year                    2008
_journal_page_first              9144
_journal_name_full               J.Org.Chem.
loop_
_publ_author_name
M.Arunachalam
I.Ravikumar
P.Ghosh
_chemical_absolute_configuration unk
_diffrn_ambient_temperature      100
_exptl_crystal_density_meas      1.142
_exptl_crystal_density_diffrn    1.142
#These two values have been output from a single CSD field.
_refine_ls_R_factor_gt           0.0816
_refine_ls_wR_factor_gt          0.0816
_diffrn_radiation_probe          x-ray
_symmetry_cell_setting           monoclinic
_symmetry_space_group_name_H-M   'P 21/n'
_symmetry_Int_Tables_number      14
loop_
_symmetry_equiv_pos_site_id
_symmetry_equiv_pos_as_xyz
1 x,y,z
2 1/2-x,1/2+y,1/2-z
3 -x,-y,-z
4 1/2+x,1/2-y,1/2+z
_cell_length_a                   15.395(4)
_cell_length_b                   16.012(4)
_cell_length_c                   20.202(5)
_cell_angle_alpha                90
_cell_angle_beta                 102.086(4)
_cell_angle_gamma                90
_cell_volume                     4869.51
_exptl_crystal_colour            colorless
_exptl_crystal_description       block
_cell_formula_units_Z            4
_exptl_crystal_recrystallization_method acetone
loop_
_atom_site_label
_atom_site_type_symbol
_atom_site_fract_x
_atom_site_fract_y
_atom_site_fract_z
C1 C 0.7927(3) 0.6763(3) 0.6737(2)
C2 C 0.8656(3) 0.7089(3) 0.6524(2)
C3 C 0.8774(3) 0.7951(3) 0.65123(19)
C4 C 0.8166(3) 0.8482(3) 0.67126(19)
C5 C 0.7431(3) 0.8159(3) 0.69258(19)
C6 C 0.7321(3) 0.7296(3) 0.69533(19)
C7 C 0.7767(4) 0.5831(3) 0.6718(3)
H1 H 0.7907 0.5602 0.6313
H2 H 0.7155 0.5722 0.6721
H3 H 0.8138 0.5576 0.7106
C8 C 0.9562(3) 0.8308(4) 0.6263(3)
H4 H 0.9380 0.8800 0.5998
H5 H 0.9779 0.7900 0.5990
H6 H 1.0024 0.8451 0.6644
C9 C 0.6754(3) 0.8742(3) 0.7109(3)
H7 H 0.6941 0.8910 0.7573
H8 H 0.6191 0.8461 0.7050
H9 H 0.6696 0.9225 0.6822
C10 C 0.9319(3) 0.6526(3) 0.6305(2)
H10 H 0.9912 0.6745 0.6471
H11 H 0.9288 0.5977 0.6502
N1 N 0.9153(3) 0.6451(3) 0.5569(2)
C11 C 0.9899(4) 0.6118(4) 0.5340(2)
H12 H 0.9957 0.5530 0.5458
H13 H 1.0432 0.6399 0.5576
C12 C 0.9837(3) 0.6205(3) 0.4589(2)
C13 C 1.0608(4) 0.6284(4) 0.4353(3)
H14 H 1.1154 0.6286 0.4655
C14 C 1.0575(4) 0.6361(4) 0.3680(3)
H15 H 1.1101 0.6394 0.3525
C15 C 0.9792(4) 0.6391(4) 0.3233(3)
H16 H 0.9785 0.6454 0.2775
C16 C 0.9011(3) 0.6330(3) 0.3446(2)
C17 C 0.9043(3) 0.6228(3) 0.4129(2)
H17 H 0.8515 0.6175 0.4281
C18 C 0.8152(3) 0.6374(4) 0.2940(3)
H18 H 0.8252 0.6656 0.2537
H19 H 0.7955 0.5811 0.2811
N2 N 0.7462(3) 0.6800(4) 0.3179(2)
C19 C 0.6661(3) 0.6924(4) 0.2644(2)
H20 H 0.6445 0.6386 0.2458
H21 H 0.6811 0.7255 0.2282
C20 C 0.5945(3) 0.7356(4) 0.2915(2)
C21 C 0.5888(3) 0.8231(4) 0.2911(2)
C22 C 0.5217(3) 0.8614(3) 0.3154(2)
C23 C 0.4589(3) 0.8141(4) 0.3396(2)
C24 C 0.4634(3) 0.7279(4) 0.3385(2)
C25 C 0.5326(4) 0.6884(3) 0.3166(2)
C26 C 0.6552(4) 0.8742(4) 0.2641(3)
H22 H 0.6300 0.8914 0.2186
H23 H 0.7075 0.8414 0.2644
H24 H 0.6708 0.9227 0.2921
C27 C 0.3861(4) 0.8564(4) 0.3678(3)
H25 H 0.4084 0.9075 0.3900
H26 H 0.3672 0.8200 0.3999
H27 H 0.3366 0.8685 0.3315
C28 C 0.5425(4) 0.5950(4) 0.3223(3)
H28 H 0.5173 0.5753 0.3591
H29 H 0.6043 0.5805 0.3305
H30 H 0.5121 0.5695 0.2809
C29 C 0.5185(4) 0.9554(4) 0.3175(3)
H31 H 0.5328 0.9779 0.2765
H32 H 0.4588 0.9732 0.3193
N3 N 0.5811(4) 0.9882(3) 0.3763(3)
C30 C 0.5830(5) 1.0751(4) 0.3824(3)
H33 H 0.5302 1.0928 0.3976
H34 H 0.5801 1.0990 0.3378
C31 C 0.6619(4) 1.1101(4) 0.4292(3)
C32 C 0.7015(6) 1.1820(4) 0.4127(3)
H35 H 0.6777 1.2093 0.3724
C33 C 0.7740(7) 1.2132(4) 0.4541(4)
H36 H 0.7999 1.2618 0.4419
C34 C 0.8102(5) 1.1748(4) 0.5135(3)
H37 H 0.8600 1.1976 0.5418
C35 C 0.7732(4) 1.1020(3) 0.5321(2)
C36 C 0.6992(4) 1.0708(3) 0.4902(2)
H38 H 0.6731 1.0224 0.5024
C37 C 0.8149(3) 1.0615(3) 0.5978(2)
H39 H 0.8788 1.0621 0.6024
H40 H 0.8011 1.0947 0.6344
N4 N 0.7869(3) 0.9770(3) 0.6052(2)
C38 C 0.8304(3) 0.9412(3) 0.6698(2)
H41 H 0.8070 0.9670 0.7058
H42 H 0.8936 0.9530 0.6778
C39 C 0.6563(3) 0.6941(3) 0.7221(2)
H43 H 0.6754 0.6427 0.7463
H44 H 0.6398 0.7332 0.7540
N5 N 0.5786(3) 0.6767(3) 0.6687(2)
C40 C 0.5030(4) 0.6474(4) 0.6939(3)
H45 H 0.4841 0.6916 0.7206
H46 H 0.5218 0.6006 0.7240
C41 C 0.4254(3) 0.6208(3) 0.6413(2)
C42 C 0.3502(4) 0.5923(3) 0.6603(3)
H47 H 0.3467 0.5936 0.7057
C43 C 0.2804(4) 0.5619(4) 0.6133(4)
H48 H 0.2308 0.5410 0.6272
C44 C 0.2825(4) 0.5619(4) 0.5462(3)
H49 H 0.2351 0.5400 0.5149
C45 C 0.3542(4) 0.5939(4) 0.5250(3)
C46 C 0.4259(4) 0.6216(4) 0.5728(3)
H50 H 0.4759 0.6413 0.5587
C47 C 0.3505(5) 0.5989(6) 0.4506(3)
H51 H 0.3627 0.5439 0.4344
H52 H 0.2907 0.6143 0.4279
N6 N 0.4118(3) 0.6574(4) 0.4321(2)
C48 C 0.3918(4) 0.6763(4) 0.3595(2)
H53 H 0.3359 0.7063 0.3482
H54 H 0.3849 0.6244 0.3342
H67 H 0.566(4) 0.715(4) 0.645(3)
H68 H 0.416(4) 0.709(4) 0.455(3)
H69 H 0.906(4) 0.689(3) 0.536(3)
H70 H 0.763(5) 0.719(5) 0.340(4)
H71 H 0.802(4) 0.945(4) 0.571(4)
H72 H 0.618(6) 0.955(6) 0.391(5)
C49 C 0.5970(6) 0.8112(7) 0.5194(4)
H55 H 0.6017 0.8709 0.5214
H56 H 0.5989 0.7896 0.5641
H57 H 0.5418 0.7956 0.4902
C50 C 0.6689(9) 0.7775(10) 0.4937(4)
C51 C 0.6679(6) 0.6801(8) 0.4929(4)
H58 H 0.6246 0.6609 0.4546
H59 H 0.6529 0.6598 0.5338
H60 H 0.7255 0.6597 0.4897
O1 O 0.7322(9) 0.8131(9) 0.4763(6)
C52 C 0.4154(10) 0.6442(7) 0.9076(11)
H61 H 0.4773 0.6498 0.9280
H62 H 0.3803 0.6575 0.9403
H63 H 0.4006 0.6817 0.8698
C53 C 0.3961(12) 0.5538(18) 0.8829(6)
C54 C 0.3779(16) 0.5150(12) 0.9210(12)
H64 H 0.4302 0.4999 0.9538
H65 H 0.3493 0.4654 0.9004
H66 H 0.3378 0.5449 0.9430
O2 O 0.4307(9) 0.5513(9) 0.8361(6)

#END

