
#######################################################################
#
#                 Cambridge Crystallographic Data Centre
#                                CCDC 
#
#######################################################################
#
# If this CIF has been generated directly or indirectly from an entry in the 
# Cambridge Structural Database, then it will include bibliographic, chemical, 
# crystal, experimental, refinement or atomic coordinate data resulting from 
# the CCDC's data processing and validation procedures. Files generated from 
# CSD entries are Copyright 2015 Cambridge Crystallographic Data Centre. They 
# may be used in bona fide research applications only, and may not be copied or 
# further disseminated in any form, whether machine-readable or not, except for 
# the purposes of generating routine backup copies on your local computer 
# system.
# 
# Files arising from any other source may also contain material that is the 
# copyright of third parties, including the originator, and you should check 
# with the originator concerning the permitted uses of the information 
# contained in this CIF.
#
# For further information on the CCDC and the free tools enCIFer and Mercury
# for validating and visualising CIF files, please visit www.ccdc.cam.ac.uk
#
#######################################################################

data_TUXXUG
_audit_creation_date             2010-10-28
_database_code_depnum_ccdc_archive 'CCDC 777204'
_chemical_formula_moiety         'C51 H75 N9 6+,6(N1 O3 1-),7(H2 O1)'
_chemical_name_systematic        
'2,16,18,32,45,47-Hexaethyl-44,46,48-triaza-5,13,21,29,34,42-hexaazonia-heptacyclo[15.15.11.1^3,31^.1^7,11^.1^15,19^.1^23,27^.1^36,40^]octatetraconta-1,3(45),7(48),8,10,15(47),16,18,23(46),24,26,31,36(44),37,39-pentadecaene hexanitrate heptahydrate'
_journal_coden_Cambridge         35
_journal_volume                  74
_journal_year                    2009
_journal_page_first              8638
_journal_name_full               J.Org.Chem.
loop_
_publ_author_name
P.Mateus
R.Delgado
P.Brandao
V.Felix
_chemical_absolute_configuration unk
_diffrn_ambient_temperature      150
_exptl_crystal_density_meas      1.377
_exptl_crystal_density_diffrn    1.377
#These two values have been output from a single CSD field.
_refine_ls_R_factor_gt           0.0729
_refine_ls_wR_factor_gt          0.0729
_diffrn_radiation_probe          x-ray
_symmetry_cell_setting           orthorhombic
_symmetry_space_group_name_H-M   'P 21 21 21'
_symmetry_Int_Tables_number      19
loop_
_symmetry_equiv_pos_site_id
_symmetry_equiv_pos_as_xyz
1 x,y,z
2 1/2-x,-y,1/2+z
3 -x,1/2+y,1/2-z
4 1/2+x,1/2-y,-z
_cell_length_a                   12.17(2)
_cell_length_b                   17.79(3)
_cell_length_c                   29.23(5)
_cell_angle_alpha                90
_cell_angle_beta                 90
_cell_angle_gamma                90
_cell_volume                     6328.42
_exptl_crystal_colour            colorless
_exptl_crystal_description       plate
_cell_formula_units_Z            4
loop_
_atom_site_label
_atom_site_type_symbol
_atom_site_fract_x
_atom_site_fract_y
_atom_site_fract_z
N1 N 0.2814(3) 0.26268(19) 0.68617(12)
H1 H 0.3142 0.2172 0.6923
H2 H 0.3167 0.2991 0.7030
N2 N 0.4853(4) 0.2803(2) 0.65184(14)
N3 N 0.6187(3) 0.2676(2) 0.72308(12)
H3 H 0.5710 0.3065 0.7290
H4 H 0.5788 0.2237 0.7223
N4 N 0.4953(3) 0.07328(18) 0.89907(13)
H5 H 0.4712 0.0695 0.8693
H6 H 0.4450 0.1013 0.9152
N5 N 0.3125(3) -0.00959(19) 0.90419(14)
N6 N 0.1586(3) 0.07713(19) 0.86440(12)
H7 H 0.2126 0.0705 0.8428
H8 H 0.1870 0.1056 0.8878
N7 N 0.1588(3) 0.43903(19) 0.86620(13)
H9 H 0.2196 0.4369 0.8475
H10 H 0.1751 0.4136 0.8928
N8 N 0.3164(3) 0.51990(18) 0.90890(13)
N9 N 0.4941(3) 0.43157(18) 0.90980(13)
H11 H 0.4674 0.4394 0.8807
H12 H 0.4461 0.4003 0.9250
C1 C 0.2906(4) 0.2802(3) 0.63632(17)
H13 H 0.2645 0.3322 0.6307
H14 H 0.2430 0.2455 0.6188
C2 C 0.4075(4) 0.2727(2) 0.61992(17)
C3 C 0.4304(4) 0.2585(3) 0.57438(17)
H15 H 0.3733 0.2532 0.5525
C4 C 0.5396(5) 0.2525(3) 0.56206(18)
H16 H 0.5585 0.2434 0.5310
C5 C 0.6220(4) 0.2595(3) 0.59460(16)
H17 H 0.6973 0.2556 0.5863
C6 C 0.5913(4) 0.2722(2) 0.63974(16)
C7 C 0.6725(4) 0.2801(2) 0.67744(15)
H18 H 0.7051 0.3311 0.6766
H19 H 0.7324 0.2431 0.6732
C8 C 0.7029(4) 0.2631(3) 0.76069(15)
H20 H 0.7514 0.3075 0.7585
H21 H 0.7488 0.2180 0.7554
C9 C 0.6574(3) 0.2593(2) 0.80855(15)
C10 C 0.6399(4) 0.1889(2) 0.82974(15)
C11 C 0.6095(4) 0.1872(2) 0.87610(16)
C12 C 0.6044(4) 0.1113(2) 0.90015(16)
H22 H 0.6592 0.0775 0.8859
H23 H 0.6262 0.1184 0.9325
C13 C 0.5043(4) -0.0032(2) 0.91953(18)
H24 H 0.5508 -0.0010 0.9473
H25 H 0.5397 -0.0376 0.8974
C14 C 0.3926(4) -0.0326(2) 0.93184(18)
C15 C 0.3744(4) -0.0786(2) 0.96923(17)
H26 H 0.4332 -0.0936 0.9886
C16 C 0.2657(5) -0.1025(3) 0.97777(19)
H27 H 0.2499 -0.1351 1.0027
C17 C 0.1829(4) -0.0778(2) 0.94947(16)
H28 H 0.1091 -0.0931 0.9544
C18 C 0.2091(4) -0.0303(2) 0.91379(16)
C19 C 0.1224(4) 0.0020(2) 0.88250(17)
H29 H 0.1093 -0.0329 0.8567
H30 H 0.0526 0.0078 0.8995
C20 C 0.0617(4) 0.1171(2) 0.84334(16)
H31 H 0.0072 0.1276 0.8677
H32 H 0.0265 0.0830 0.8209
C21 C 0.0897(4) 0.1910(2) 0.81929(15)
C22 C 0.1208(4) 0.1908(2) 0.77358(16)
C23 C 0.1386(3) 0.2584(2) 0.75050(14)
C24 C 0.1629(4) 0.2598(2) 0.69915(15)
H33 H 0.1300 0.2144 0.6852
H34 H 0.1256 0.3040 0.6857
C25 C 0.1226(4) 0.3274(2) 0.77274(15)
C26 C 0.0916(4) 0.3273(2) 0.81960(16)
C27 C 0.0762(3) 0.2588(2) 0.84307(15)
C28 C 0.0643(4) 0.4016(2) 0.84296(16)
H35 H 0.0341 0.4364 0.8198
H36 H 0.0060 0.3924 0.8659
C29 C 0.1338(4) 0.5198(2) 0.87730(17)
H37 H 0.0582 0.5239 0.8896
H38 H 0.1383 0.5505 0.8491
C30 C 0.2147(4) 0.5488(2) 0.91219(17)
C31 C 0.1852(5) 0.5979(2) 0.94639(17)
H39 H 0.1128 0.6177 0.9478
C32 C 0.2627(5) 0.6178(3) 0.9785(2)
H40 H 0.2452 0.6532 1.0017
C33 C 0.3650(5) 0.5862(3) 0.97675(18)
H41 H 0.4181 0.5965 0.9997
C34 C 0.3892(4) 0.5389(2) 0.94059(16)
C35 C 0.5021(4) 0.5055(2) 0.93468(17)
H42 H 0.5490 0.5405 0.9171
H43 H 0.5364 0.4976 0.9650
C36 C 0.6058(4) 0.3951(2) 0.90714(16)
H44 H 0.6309 0.3837 0.9386
H45 H 0.6582 0.4316 0.8938
C37 C 0.6097(4) 0.3230(2) 0.87901(16)
C38 C 0.5925(3) 0.2536(2) 0.90054(15)
C39 C 0.5646(4) 0.2510(2) 0.95177(14)
H46 H 0.5207 0.2959 0.9599
H47 H 0.5194 0.2060 0.9581
C40 C 0.6686(4) 0.2487(2) 0.98160(15)
H48 H 0.7118 0.2944 0.9765
H49 H 0.7126 0.2046 0.9734
H50 H 0.6475 0.2456 1.0139
C41 C 0.6419(4) 0.3265(2) 0.83273(15)
C42 C 0.6623(4) 0.4020(2) 0.80985(17)
H51 H 0.6126 0.4402 0.8232
H52 H 0.6456 0.3981 0.7768
C43 C 0.7825(4) 0.4272(3) 0.81621(18)
H53 H 0.8318 0.3867 0.8066
H54 H 0.7956 0.4390 0.8485
H55 H 0.7964 0.4720 0.7976
C44 C 0.6617(4) 0.1166(2) 0.80390(17)
H56 H 0.6444 0.1243 0.7711
H57 H 0.6125 0.0768 0.8157
C45 C 0.7815(4) 0.0907(3) 0.80856(17)
H58 H 0.7953 0.0747 0.8401
H59 H 0.8308 0.1324 0.8008
H60 H 0.7950 0.0485 0.7878
C46 C 0.1334(4) 0.1170(2) 0.74669(16)
H61 H 0.1506 0.0756 0.7681
H62 H 0.1953 0.1218 0.7249
C47 C 0.0266(4) 0.0978(2) 0.71995(16)
H63 H 0.0107 0.1380 0.6980
H64 H -0.0347 0.0930 0.7415
H65 H 0.0365 0.0503 0.7035
C48 C 0.1329(4) 0.3998(2) 0.74608(16)
H66 H 0.1919 0.3945 0.7230
H67 H 0.1539 0.4409 0.7672
C49 C 0.0248(4) 0.4207(3) 0.72187(17)
H68 H -0.0311 0.4330 0.7448
H69 H -0.0003 0.3781 0.7034
H70 H 0.0371 0.4643 0.7020
C50 C 0.0414(4) 0.2590(2) 0.89325(15)
H71 H 0.0734 0.3037 0.9084
H72 H 0.0718 0.2138 0.9084
C51 C -0.0838(4) 0.2601(3) 0.89980(18)
H73 H -0.1165 0.2170 0.8840
H74 H -0.1139 0.3068 0.8871
H75 H -0.1011 0.2572 0.9325
N10 N 0.3846(4) 0.0737(2) 1.02662(14)
O1 O 0.2876(3) 0.07862(19) 1.01428(13)
O2 O 0.4595(3) 0.0977(2) 1.00096(12)
O3 O 0.4092(4) 0.0454(2) 1.06492(12)
N11 N 0.3806(4) 0.5541(2) 0.81097(14)
O4 O 0.3661(4) 0.62013(18) 0.81456(13)
O5 O 0.3115(4) 0.5101(2) 0.79641(14)
O6 O 0.4726(4) 0.5254(2) 0.82332(16)
N12 N -0.0884(4) 0.0941(2) 0.97089(16)
O7 O -0.1278(3) 0.11512(18) 1.00827(12)
O8 O 0.0135(4) 0.0898(3) 0.96652(15)
O9 O -0.1512(4) 0.0778(2) 0.93846(14)
N13 N 0.3652(4) -0.0076(2) 0.80587(14)
O10 O 0.2744(3) -0.03837(19) 0.79677(12)
O11 O 0.4503(4) -0.0453(2) 0.80906(14)
O12 O 0.3677(3) 0.06136(16) 0.81272(11)
N14 N 0.3467(3) 0.2990(2) 0.85863(14)
O13 O 0.3246(3) 0.30308(17) 0.90094(11)
O14 O 0.3610(3) 0.35976(16) 0.83711(11)
O15 O 0.3538(3) 0.23735(17) 0.83975(11)
N15 N 0.0398(9) 0.2565(4) 0.5846(4)
O16 O 0.0185(11) 0.3164(5) 0.5916(6)
O17 O 0.0943(17) 0.2513(13) 0.5538(3)
O18 O 0.0275(8) 0.2009(5) 0.6028(3)
O19 O -0.3389(3) 0.09351(18) 1.04333(11)
O20 O 0.2944(3) 0.15327(16) 0.92713(11)
O21 O 0.4268(3) 0.18555(17) 0.75366(11)
O22 O 0.5823(3) 0.85829(18) 0.75457(12)
O23 O 0.6631(3) 0.61418(19) 0.83354(13)
O24 O 0.8391(5) 0.9363(3) 0.89234(18)
O25 O 0.7944(5) 0.5844(3) 0.90668(17)

#END

