
#######################################################################
#
#                 Cambridge Crystallographic Data Centre
#                                CCDC 
#
#######################################################################
#
# If this CIF has been generated directly or indirectly from an entry in the 
# Cambridge Structural Database, then it will include bibliographic, chemical, 
# crystal, experimental, refinement or atomic coordinate data resulting from 
# the CCDC's data processing and validation procedures. Files generated from 
# CSD entries are Copyright 2015 Cambridge Crystallographic Data Centre. They 
# may be used in bona fide research applications only, and may not be copied or 
# further disseminated in any form, whether machine-readable or not, except for 
# the purposes of generating routine backup copies on your local computer 
# system.
# 
# Files arising from any other source may also contain material that is the 
# copyright of third parties, including the originator, and you should check 
# with the originator concerning the permitted uses of the information 
# contained in this CIF.
#
# For further information on the CCDC and the free tools enCIFer and Mercury
# for validating and visualising CIF files, please visit www.ccdc.cam.ac.uk
#
#######################################################################

data_TUXYER
_audit_creation_date             2010-10-28
_database_code_depnum_ccdc_archive 'CCDC 777206'
_chemical_formula_moiety         
'C51 H75 N9 6+,2(H1 O4 S1 1-),2(O4 S1 2-),10(H2 O1)'
_chemical_name_systematic        
'2,16,18,32,45,47-Hexaethyl-44,46,48-triaza-5,13,21,29,34,42-hexaazonia-heptacyclo[15.15.11.1^3,31^.1^7,11^.1^15,19^.1^23,27^.1^36,40^]octatetraconta-1,3(45),7(48),8,10,15(47),16,18,23(46),24,26,31,36(44),37,39-pentadecaene bis(hydrogen sulfate) bis(sulfate) decahydrate'
_journal_coden_Cambridge         35
_journal_volume                  74
_journal_year                    2009
_journal_page_first              8638
_journal_name_full               J.Org.Chem.
loop_
_publ_author_name
P.Mateus
R.Delgado
P.Brandao
V.Felix
_chemical_absolute_configuration unk
_diffrn_ambient_temperature      150
_exptl_crystal_density_meas      1.413
_exptl_crystal_density_diffrn    1.415
#These two values have been output from a single CSD field.
_refine_ls_R_factor_gt           0.0494
_refine_ls_wR_factor_gt          0.0494
_diffrn_radiation_probe          x-ray
_symmetry_cell_setting           monoclinic
_symmetry_space_group_name_H-M   'P 21/n'
_symmetry_Int_Tables_number      14
loop_
_symmetry_equiv_pos_site_id
_symmetry_equiv_pos_as_xyz
1 x,y,z
2 1/2-x,1/2+y,1/2-z
3 -x,-y,-z
4 1/2+x,1/2-y,1/2+z
_cell_length_a                   12.8516(17)
_cell_length_b                   15.2203(19)
_cell_length_c                   33.144(4)
_cell_angle_alpha                90
_cell_angle_beta                 91.517(6)
_cell_angle_gamma                90
_cell_volume                     6480.87
_exptl_crystal_colour            colorless
_exptl_crystal_description       block
_cell_formula_units_Z            4
loop_
_atom_site_label
_atom_site_type_symbol
_atom_site_fract_x
_atom_site_fract_y
_atom_site_fract_z
N1 N 0.94038(12) 0.14391(12) 0.26443(4)
H1 H 0.9217 0.2016 0.2602
H2 H 0.8933 0.1088 0.2506
N2 N 0.77055(12) 0.19388(12) 0.30239(4)
N3 N 0.60989(12) 0.22118(12) 0.24648(4)
H3 H 0.6098 0.1610 0.2492
H4 H 0.6705 0.2372 0.2343
N4 N 0.70840(12) 0.34832(12) 0.07706(4)
H5 H 0.7179 0.3750 0.1018
H6 H 0.7596 0.3067 0.0743
N5 N 0.89722(13) 0.43201(12) 0.06605(4)
N6 N 1.05205(13) 0.35154(12) 0.10703(5)
H7 H 1.0243 0.3120 0.0887
H8 H 1.0018 0.3644 0.1254
N7 N 0.98626(12) -0.02450(12) 0.09126(5)
H9 H 0.9337 -0.0273 0.1095
H10 H 0.9757 0.0250 0.0758
N8 N 0.80686(13) -0.12137(12) 0.08978(5)
N9 N 0.64249(12) -0.04985(12) 0.13843(5)
H11 H 0.6995 -0.0201 0.1292
H12 H 0.6456 -0.0486 0.1662
C1 C 0.93856(15) 0.12335(17) 0.30830(5)
H13 H 0.9951 0.1559 0.3226
H14 H 0.9513 0.0598 0.3123
C2 C 0.83616(15) 0.14759(14) 0.32597(5)
C3 C 0.81251(16) 0.12221(16) 0.36526(5)
H15 H 0.8613 0.0907 0.3817
C4 C 0.71526(17) 0.14463(16) 0.37944(6)
H16 H 0.6968 0.1288 0.4060
C5 C 0.64497(16) 0.19027(16) 0.35471(6)
H17 H 0.5775 0.2048 0.3636
C6 C 0.67675(15) 0.21392(14) 0.31651(5)
C7 C 0.60605(15) 0.26306(15) 0.28744(5)
H18 H 0.5338 0.2618 0.2971
H19 H 0.6285 0.3252 0.2858
C8 C 0.51735(14) 0.24925(15) 0.22029(5)
H20 H 0.5118 0.3141 0.2202
H21 H 0.4526 0.2250 0.2314
C9 C 0.53025(14) 0.21639(14) 0.17749(5)
C10 C 0.55405(14) 0.27603(14) 0.14643(5)
C11 C 0.58215(14) 0.24195(14) 0.10865(5)
C12 C 0.60260(14) 0.30523(15) 0.07447(5)
H22 H 0.5959 0.2731 0.0486
H23 H 0.5486 0.3516 0.0743
C13 C 0.71513(16) 0.41465(15) 0.04438(6)
H24 H 0.6564 0.4563 0.0466
H25 H 0.7072 0.3845 0.0180
C14 C 0.81554(15) 0.46582(14) 0.04509(5)
C15 C 0.82100(16) 0.54425(15) 0.02327(5)
H26 H 0.7622 0.5657 0.0083
C16 C 0.91470(17) 0.58994(15) 0.02402(6)
H27 H 0.9206 0.6440 0.0099
C17 C 0.99925(16) 0.55581(15) 0.04548(6)
H28 H 1.0638 0.5862 0.0467
C18 C 0.98725(15) 0.47583(15) 0.06520(5)
C19 C 1.08130(15) 0.43306(15) 0.08557(6)
H29 H 1.1333 0.4189 0.0650
H30 H 1.1137 0.4748 0.1051
C20 C 1.14450(15) 0.31043(15) 0.12880(6)
H31 H 1.1696 0.3503 0.1505
H32 H 1.2016 0.3026 0.1096
C21 C 1.11707(14) 0.22241(15) 0.14683(5)
C22 C 1.08560(14) 0.21842(14) 0.18710(5)
C23 C 1.06051(14) 0.13640(14) 0.20388(5)
C24 C 1.04817(14) 0.12824(15) 0.24914(5)
H33 H 1.0704 0.0685 0.2575
H34 H 1.0962 0.1705 0.2626
C25 C 1.05733(13) 0.06059(14) 0.17984(5)
C26 C 1.09053(14) 0.06552(14) 0.13974(5)
C27 C 1.12381(13) 0.14536(15) 0.12356(5)
C28 C 1.08933(14) -0.01669(15) 0.11386(5)
H35 H 1.1464 -0.0140 0.0944
H36 H 1.1005 -0.0690 0.1312
C29 C 0.98063(16) -0.10342(16) 0.06470(6)
H37 H 1.0222 -0.1515 0.0771
H38 H 1.0107 -0.0893 0.0383
C30 C 0.86910(15) -0.13346(14) 0.05837(5)
C31 C 0.83670(16) -0.17667(15) 0.02316(6)
H39 H 0.8827 -0.1839 0.0014
C32 C 0.73596(17) -0.20875(17) 0.02059(6)
H40 H 0.7120 -0.2391 -0.0029
C33 C 0.66994(16) -0.19624(16) 0.05277(6)
H41 H 0.6002 -0.2169 0.0515
C34 C 0.70912(15) -0.15258(14) 0.08673(5)
C35 C 0.64682(16) -0.14344(14) 0.12441(6)
H42 H 0.5752 -0.1651 0.1190
H43 H 0.6786 -0.1802 0.1461
C36 C 0.54453(15) -0.00385(14) 0.12361(6)
H44 H 0.5349 -0.0136 0.0942
H45 H 0.4838 -0.0292 0.1372
C37 C 0.54974(14) 0.09359(14) 0.13197(5)
C38 C 0.58536(14) 0.15105(14) 0.10197(5)
C39 C 0.62141(15) 0.11429(16) 0.06199(5)
H46 H 0.6555 0.0568 0.0669
H47 H 0.6739 0.1545 0.0508
C40 C 0.53203(17) 0.10230(18) 0.03081(6)
H48 H 0.4810 0.0609 0.0413
H49 H 0.5597 0.0792 0.0057
H50 H 0.4984 0.1591 0.0256
C41 C 0.51969(13) 0.12636(14) 0.16960(5)
C42 C 0.46712(15) 0.06759(15) 0.20029(6)
H51 H 0.4881 0.0866 0.2279
H52 H 0.4908 0.0062 0.1967
C43 C 0.34814(16) 0.07127(18) 0.19552(6)
H53 H 0.3253 0.1327 0.1955
H54 H 0.3168 0.0401 0.2180
H55 H 0.3264 0.0434 0.1700
C44 C 0.53770(15) 0.37397(15) 0.15241(6)
H56 H 0.5751 0.4069 0.1315
H57 H 0.5667 0.3917 0.1792
C45 C 0.42120(17) 0.39664(18) 0.14965(7)
H58 H 0.3923 0.3780 0.1234
H59 H 0.4122 0.4602 0.1527
H60 H 0.3848 0.3661 0.1712
C46 C 1.08316(16) 0.30059(16) 0.21281(6)
H61 H 1.0312 0.2927 0.2340
H62 H 1.0603 0.3507 0.1957
C47 C 1.18872(19) 0.32286(19) 0.23290(7)
H63 H 1.2128 0.2730 0.2494
H64 H 1.1814 0.3747 0.2501
H65 H 1.2395 0.3351 0.2121
C48 C 1.02462(15) -0.02704(15) 0.19746(6)
H66 H 0.9885 -0.0623 0.1763
H67 H 0.9752 -0.0167 0.2194
C49 C 1.11928(16) -0.07865(16) 0.21429(6)
H68 H 1.1721 -0.0826 0.1936
H69 H 1.0974 -0.1379 0.2219
H70 H 1.1486 -0.0483 0.2381
C50 C 1.17438(15) 0.14748(16) 0.08261(5)
H71 H 1.1633 0.2059 0.0701
H72 H 1.1413 0.1029 0.0647
C51 C 1.29138(17) 0.1290(2) 0.08681(7)
H73 H 1.3238 0.1721 0.1052
H74 H 1.3229 0.1333 0.0603
H75 H 1.3023 0.0697 0.0977
S1 S 0.90273(4) 0.19601(4) 0.044170(13)
O1 O 0.99521(11) 0.25225(11) 0.04063(4)
O2 O 0.85791(12) 0.20861(11) 0.08455(4)
O3 O 0.82279(12) 0.21946(13) 0.01308(5)
O4 O 0.93175(13) 0.10257(11) 0.03837(4)
S2 S 0.72767(3) -0.00090(4) 0.244649(12)
O5 O 0.64132(11) 0.03944(11) 0.26672(4)
O6 O 0.68640(12) -0.07582(11) 0.21991(4)
O7 O 0.80828(11) -0.03409(11) 0.27334(4)
O8 O 0.77448(12) 0.06527(11) 0.21792(4)
S3 S 0.42039(4) 0.60111(4) 0.070251(16)
O9 O 0.30835(13) 0.56885(13) 0.05861(5)
O10 O 0.48568(15) 0.52421(15) 0.06668(6)
O11 O 0.41635(14) 0.63400(16) 0.11153(5)
O12 O 0.44593(15) 0.67097(14) 0.04218(6)
S4 S 0.16638(4) 0.67183(4) 0.164054(15)
O13 O 0.12176(17) 0.59920(15) 0.14117(6)
O14 O 0.28522(15) 0.65212(18) 0.17062(6)
O15 O 0.12665(16) 0.67933(15) 0.20408(5)
O16 O 0.15769(18) 0.75256(14) 0.14031(6)
O17 O 0.81886(11) 0.06307(11) 0.13502(4)
H76 H 0.808(2) 0.0766(15) 0.1585(3)
H77 H 0.829(2) 0.1087(11) 0.1224(6)
O18 O 0.97427(13) 0.48194(12) 0.16759(5)
H78 H 0.9481(18) 0.4942(17) 0.1893(5)
H79 H 1.0216(16) 0.5188(15) 0.1643(7)
O19 O 0.77741(12) 0.41123(12) 0.15357(4)
H80 H 0.8332(14) 0.4380(19) 0.1506(8)
H81 H 0.7520(19) 0.4321(19) 0.1744(6)
O20 O 0.18442(15) 0.70045(14) 0.05894(5)
H82 H 0.186(3) 0.7356(15) 0.0395(5)
H83 H 0.183(3) 0.7317(15) 0.0796(5)
O21 O 0.80746(13) 0.28387(12) 0.22059(5)
H84 H 0.807(2) 0.3236(12) 0.2380(5)
H85 H 0.808(2) 0.3099(15) 0.1985(4)
O22 O 0.39949(15) 0.37369(15) 0.01951(6)
H86 H 0.442(2) 0.372(2) 0.0014(7)
H87 H 0.406(2) 0.4200(13) 0.0318(8)
O23 O 0.51212(16) 0.81502(14) 0.19814(6)
H88 H 0.4624(17) 0.8411(17) 0.1855(9)
H89 H 0.545(2) 0.8577(14) 0.2092(9)
O24 O 0.23184(18) 0.94853(18) 0.02625(6)
H90 H 0.200(3) 0.9131(16) 0.0108(8)
H91 H 0.233(3) 0.9953(13) 0.0127(9)
O25 O 1.39480(19) -0.15018(17) 0.06929(6)
H92 H 1.346(2) -0.1259(19) 0.0566(9)
H93 H 1.401(3) -0.1998(12) 0.0584(10)
O26 O 1.34166(17) -0.13633(16) 0.14891(6)
H94 H 1.358(2) -0.142(2) 0.1244(3)
H95 H 1.390(2) -0.164(2) 0.1613(7)

#END

