
#######################################################################
#
#                 Cambridge Crystallographic Data Centre
#                                CCDC 
#
#######################################################################
#
# If this CIF has been generated directly or indirectly from an entry in the 
# Cambridge Structural Database, then it will include bibliographic, chemical, 
# crystal, experimental, refinement or atomic coordinate data resulting from 
# the CCDC's data processing and validation procedures. Files generated from 
# CSD entries are Copyright 2015 Cambridge Crystallographic Data Centre. They 
# may be used in bona fide research applications only, and may not be copied or 
# further disseminated in any form, whether machine-readable or not, except for 
# the purposes of generating routine backup copies on your local computer 
# system.
# 
# Files arising from any other source may also contain material that is the 
# copyright of third parties, including the originator, and you should check 
# with the originator concerning the permitted uses of the information 
# contained in this CIF.
#
# For further information on the CCDC and the free tools enCIFer and Mercury
# for validating and visualising CIF files, please visit www.ccdc.cam.ac.uk
#
#######################################################################

data_TUXYAN
_audit_creation_date             2010-10-28
_database_code_depnum_ccdc_archive 'CCDC 777205'
_chemical_formula_moiety         
'C51 H75 N9 6+,2(H2 O4 P1 1-),2(H1 O4 P1 2-),18(H2 O1)'
_chemical_name_systematic        
'2,16,18,32,45,47-Hexaethyl-44,46,48-triaza-5,13,21,29,34,42-hexaazonia-heptacyclo[15.15.11.1^3,31^.1^7,11^.1^15,19^.1^23,27^.1^36,40^]octatetraconta-1,3(45),7(48),8,10,15(47),16,18,23(46),24,26,31,36(44),37,39-pentadecaene bis(dihydrogen phosphate) bis(hydrogen phosphate) octadecahydrate'
_journal_coden_Cambridge         35
_journal_volume                  74
_journal_year                    2009
_journal_page_first              8638
_journal_name_full               J.Org.Chem.
loop_
_publ_author_name
P.Mateus
R.Delgado
P.Brandao
V.Felix
_chemical_absolute_configuration unk
_diffrn_ambient_temperature      150
_exptl_crystal_density_meas      1.362
_exptl_crystal_density_diffrn    1.384
#These two values have been output from a single CSD field.
_refine_ls_R_factor_gt           0.0745
_refine_ls_wR_factor_gt          0.0745
_diffrn_radiation_probe          x-ray
_symmetry_cell_setting           triclinic
_symmetry_space_group_name_H-M   'P -1'
_symmetry_Int_Tables_number      2
loop_
_symmetry_equiv_pos_site_id
_symmetry_equiv_pos_as_xyz
1 x,y,z
2 -x,-y,-z
_cell_length_a                   13.1972(4)
_cell_length_b                   15.0825(5)
_cell_length_c                   19.0406(5)
_cell_angle_alpha                84.423(2)
_cell_angle_beta                 79.896(2)
_cell_angle_gamma                79.271(2)
_cell_volume                     3657.8
_exptl_crystal_colour            colorless
_exptl_crystal_description       block
_cell_formula_units_Z            2
loop_
_atom_site_label
_atom_site_type_symbol
_atom_site_fract_x
_atom_site_fract_y
_atom_site_fract_z
N1 N -0.0985(3) 0.7346(2) 0.11180(17)
H1 H -0.1502 0.7325 0.1510
H2 H -0.0352 0.7180 0.1275
N2 N 0.0611(3) 0.5791(2) 0.06608(17)
N3 N 0.1922(3) 0.5251(2) 0.15998(16)
H3 H 0.1330 0.5683 0.1592
H4 H 0.2455 0.5541 0.1655
N4 N 0.2512(2) 0.7160(2) 0.38222(16)
H5 H 0.2831 0.6977 0.3378
H6 H 0.1976 0.7631 0.3760
N5 N 0.3364(3) 0.8542(2) 0.31379(17)
N6 N 0.2236(3) 0.9347(2) 0.21032(18)
H7 H 0.1811 0.9554 0.2512
H8 H 0.2284 0.8729 0.2123
N7 N -0.1832(3) 0.9993(2) 0.33983(16)
H9 H -0.1818 0.9397 0.3323
H10 H -0.1197 1.0034 0.3517
N8 N -0.2880(2) 0.8712(2) 0.40592(17)
N9 N -0.2035(2) 0.6890(2) 0.35054(17)
H11 H -0.2080 0.6804 0.3041
H12 H -0.1634 0.7331 0.3494
C1 C -0.1081(3) 0.6678(3) 0.0608(2)
H13 H -0.1515 0.6986 0.0252
H14 H -0.1435 0.6194 0.0875
C2 C -0.0022(3) 0.6262(3) 0.0226(2)
C3 C 0.0266(4) 0.6334(3) -0.0507(2)
H15 H -0.0206 0.6658 -0.0804
C4 C 0.1253(4) 0.5924(3) -0.0800(2)
H16 H 0.1474 0.5976 -0.1302
C5 C 0.1920(4) 0.5438(3) -0.0358(2)
H17 H 0.2602 0.5148 -0.0548
C6 C 0.1560(3) 0.5389(3) 0.0369(2)
C7 C 0.2195(3) 0.4833(3) 0.0896(2)
H18 H 0.2048 0.4208 0.0956
H19 H 0.2949 0.4808 0.0714
C8 C 0.1733(3) 0.4593(3) 0.2241(2)
H20 H 0.2404 0.4220 0.2332
H21 H 0.1272 0.4184 0.2148
C9 C 0.1223(3) 0.5120(2) 0.2886(2)
C10 C 0.1849(3) 0.5415(3) 0.3305(2)
C11 C 0.1377(3) 0.5997(3) 0.3846(2)
C12 C 0.2073(3) 0.6387(3) 0.4253(2)
H22 H 0.1660 0.6602 0.4710
H23 H 0.2654 0.5907 0.4366
C13 C 0.3280(3) 0.7475(3) 0.4178(2)
H24 H 0.3863 0.6970 0.4238
H25 H 0.2940 0.7662 0.4660
C14 C 0.3712(3) 0.8263(3) 0.3750(2)
C15 C 0.4412(3) 0.8667(3) 0.4015(2)
H26 H 0.4646 0.8445 0.4453
C16 C 0.4762(3) 0.9402(3) 0.3624(2)
H27 H 0.5245 0.9694 0.3791
C17 C 0.4404(3) 0.9711(3) 0.2989(2)
H28 H 0.4631 1.0218 0.2713
C18 C 0.3708(3) 0.9261(3) 0.2767(2)
C19 C 0.3292(3) 0.9570(3) 0.2077(2)
H29 H 0.3259 1.0231 0.1989
H30 H 0.3776 0.9274 0.1676
C20 C 0.1755(3) 0.9763(3) 0.1461(2)
H31 H 0.2156 0.9474 0.1028
H32 H 0.1797 1.0415 0.1400
C21 C 0.0623(3) 0.9651(3) 0.1535(2)
C22 C 0.0328(3) 0.9021(2) 0.1152(2)
C23 C -0.0731(3) 0.8922(2) 0.12482(19)
C24 C -0.1069(3) 0.8299(3) 0.0793(2)
H33 H -0.1801 0.8530 0.0728
H34 H -0.0628 0.8302 0.0315
C25 C -0.1483(3) 0.9410(3) 0.17570(19)
C26 C -0.1168(3) 1.0056(3) 0.2123(2)
C27 C -0.0139(3) 1.0206(3) 0.19920(19)
C28 C -0.1944(3) 1.0543(3) 0.2709(2)
H35 H -0.1795 1.1156 0.2737
H36 H -0.2665 1.0600 0.2608
C29 C -0.2662(3) 1.0249(3) 0.4022(2)
H37 H -0.3310 1.0570 0.3854
H38 H -0.2428 1.0654 0.4316
C30 C -0.2864(3) 0.9391(3) 0.4458(2)
C31 C -0.3048(4) 0.9317(3) 0.5197(2)
H39 H -0.3000 0.9802 0.5466
C32 C -0.3303(5) 0.8514(4) 0.5532(3)
H40 H -0.3453 0.8446 0.6039
C33 C -0.3339(4) 0.7811(3) 0.5126(2)
H41 H -0.3516 0.7256 0.5348
C34 C -0.3110(3) 0.7933(3) 0.4390(2)
C35 C -0.3120(3) 0.7217(3) 0.3900(2)
H42 H -0.3591 0.7463 0.3550
H43 H -0.3393 0.6700 0.4181
C36 C -0.1504(3) 0.6028(3) 0.3840(2)
H44 H -0.1791 0.5517 0.3709
H45 H -0.1663 0.6048 0.4366
C37 C -0.0330(3) 0.5857(2) 0.36124(19)
C38 C 0.0291(3) 0.6222(2) 0.40013(19)
C39 C -0.0226(3) 0.6804(3) 0.4620(2)
H46 H -0.0922 0.7120 0.4526
H47 H 0.0202 0.7269 0.4650
C40 C -0.0353(4) 0.6244(3) 0.5334(2)
H48 H -0.0767 0.5776 0.5303
H49 H -0.0710 0.6639 0.5714
H50 H 0.0337 0.5957 0.5441
C41 C 0.0128(3) 0.5343(3) 0.30365(19)
C42 C -0.0541(3) 0.4980(3) 0.2596(2)
H51 H -0.0204 0.4987 0.2089
H52 H -0.1232 0.5378 0.2625
C43 C -0.0692(3) 0.4015(3) 0.2861(2)
H53 H -0.0009 0.3619 0.2828
H54 H -0.1122 0.3800 0.2566
H55 H -0.1041 0.4010 0.3360
C44 C 0.3009(3) 0.5023(3) 0.3217(2)
H56 H 0.3385 0.5430 0.3410
H57 H 0.3296 0.4970 0.2704
C45 C 0.3170(3) 0.4087(3) 0.3617(2)
H58 H 0.2920 0.4147 0.4129
H59 H 0.3916 0.3825 0.3543
H60 H 0.2779 0.3692 0.3435
C46 C 0.1129(3) 0.8471(3) 0.0611(2)
H61 H 0.0892 0.7899 0.0558
H62 H 0.1805 0.8316 0.0790
C47 C 0.1283(4) 0.8999(3) -0.0122(2)
H63 H 0.0614 0.9152 -0.0300
H64 H 0.1792 0.8626 -0.0459
H65 H 0.1539 0.9556 -0.0072
C48 C -0.2607(3) 0.9252(3) 0.1899(2)
H66 H -0.2885 0.9305 0.2414
H67 H -0.2622 0.8629 0.1784
C49 C -0.3315(3) 0.9926(3) 0.1459(2)
H68 H -0.3316 1.0543 0.1579
H69 H -0.4029 0.9796 0.1569
H70 H -0.3053 0.9867 0.0948
C50 C 0.0133(3) 1.1008(3) 0.2295(2)
H71 H 0.0884 1.0893 0.2337
H72 H -0.0278 1.1099 0.2778
C51 C -0.0113(4) 1.1855(3) 0.1799(2)
H73 H 0.0273 1.1751 0.1317
H74 H 0.0096 1.2369 0.1980
H75 H -0.0864 1.1987 0.1783
P1 P 0.35235(8) 0.69958(7) 0.17546(5)
O1 O 0.2449(2) 0.75582(18) 0.18968(15)
O2 O 0.3877(2) 0.66998(19) 0.25073(14)
O3 O 0.4321(2) 0.7552(2) 0.13258(15)
O4 O 0.3527(2) 0.61352(19) 0.13901(15)
P2 P -0.34038(9) 0.66701(9) 0.20199(6)
O5 O -0.4223(2) 0.6587(2) 0.26620(15)
O6 O -0.2418(2) 0.6923(2) 0.21891(15)
O7 O -0.3829(3) 0.7408(4) 0.1471(2)
O8 O -0.3111(4) 0.5820(4) 0.1594(3)
P3 P 0.08004(8) 0.94399(8) 0.39964(6)
O9 O -0.0330(2) 0.9927(2) 0.41648(15)
O10 O 0.1437(2) 0.9990(2) 0.34414(17)
O11 O 0.0874(2) 0.8498(2) 0.37459(18)
O12 O 0.1267(3) 0.9305(3) 0.47173(18)
P4 P 0.58983(9) 0.47239(8) 0.40859(6)
O13 O 0.5220(3) 0.4079(2) 0.44779(17)
O14 O 0.6351(2) 0.5193(2) 0.46423(16)
O15 O 0.5145(2) 0.5508(2) 0.37280(16)
O16 O 0.6801(3) 0.4344(3) 0.3546(2)
O17 O 0.9391(2) 0.81413(19) 0.31195(16)
O18 O 0.5726(3) 0.2287(2) 0.4223(2)
O19 O 0.0646(2) 0.70318(19) 0.19789(15)
O20 O 0.4170(3) 0.8803(2) 0.01896(19)
O21 O 0.5433(3) 0.3901(3) 0.0019(2)
O22 O 0.6458(3) 0.6624(3) 0.00508(18)
O23 O 0.7648(4) 0.7847(4) -0.0715(3)
O24 O 0.7739(4) 0.7705(4) -0.2147(3)
O25 O 0.5916(4) 0.2316(3) 0.0846(2)
O26 O 0.1359(4) 0.1732(3) 0.3519(2)
O27 O 0.5426(3) 0.1791(3) 0.2933(2)
O28 O 0.4227(3) 0.2802(3) 0.1976(2)
O29 O 0.7057(3) 0.2424(3) 0.1922(2)
O30 O 0.4817(4) 0.4502(3) 0.1534(3)
O31 O 0.7657(3) 0.2552(3) 0.3515(3)
O32 O -0.3405(3) 0.4279(3) 0.2206(2)
O33 O 0.9288(4) 0.2135(4) 0.4225(3)
O34 O 0.3805(5) 0.0662(3) 0.0328(3)

#END

