
#######################################################################
#
#                 Cambridge Crystallographic Data Centre
#                                CCDC 
#
#######################################################################
#
# If this CIF has been generated directly or indirectly from an entry in the 
# Cambridge Structural Database, then it will include bibliographic, chemical, 
# crystal, experimental, refinement or atomic coordinate data resulting from 
# the CCDC's data processing and validation procedures. Files generated from 
# CSD entries are Copyright 2015 Cambridge Crystallographic Data Centre. They 
# may be used in bona fide research applications only, and may not be copied or 
# further disseminated in any form, whether machine-readable or not, except for 
# the purposes of generating routine backup copies on your local computer 
# system.
# 
# Files arising from any other source may also contain material that is the 
# copyright of third parties, including the originator, and you should check 
# with the originator concerning the permitted uses of the information 
# contained in this CIF.
#
# For further information on the CCDC and the free tools enCIFer and Mercury
# for validating and visualising CIF files, please visit www.ccdc.cam.ac.uk
#
#######################################################################

data_MULZAV
_audit_creation_date             2010-06-29
_database_code_depnum_ccdc_archive 'CCDC 734450'
_chemical_formula_moiety         'C54 H78 N6 6+,3(O4 S1 2-),15.5(H2 O1)'
_chemical_name_systematic        
'2,16,18,32,45,47-Hexaethyl-5,13,21,29,34,42-hexaazoniaheptacyclo[15.15.11.1^3,31^.1^7,11^.1^15,19^.1^23,27^.1^36,40^]octatetraconta-1,3(45),7(48),8,10,15(47),16,18,23(46),24,26,31,36(44),37,39-pentadecaene cryptate sulfate hexa-aqua clathrate disulfate hydrate'
_journal_coden_Cambridge         177
_journal_volume                  7
_journal_year                    2009
_journal_page_first              4661
_journal_name_full               Org.Biomol.Chem.
loop_
_publ_author_name
P.Mateus
R.Delgado
P.Brandao
S.Carvalho
V.Felix
_chemical_absolute_configuration unk
_diffrn_ambient_temperature      150
_exptl_crystal_density_meas      1.329
_exptl_crystal_density_diffrn    1.329
#These two values have been output from a single CSD field.
_refine_ls_R_factor_gt           0.0761
_refine_ls_wR_factor_gt          0.0761
_diffrn_radiation_probe          x-ray
_symmetry_cell_setting           triclinic
_symmetry_space_group_name_H-M   'P -1'
_symmetry_Int_Tables_number      2
loop_
_symmetry_equiv_pos_site_id
_symmetry_equiv_pos_as_xyz
1 x,y,z
2 -x,-y,-z
_cell_length_a                   12.5490(5)
_cell_length_b                   15.0384(6)
_cell_length_c                   19.0959(7)
_cell_angle_alpha                99.510(2)
_cell_angle_beta                 99.578(2)
_cell_angle_gamma                98.598(2)
_cell_volume                     3446.12
_exptl_crystal_colour            colorless
_exptl_crystal_description       block
_cell_formula_units_Z            2
loop_
_atom_site_label
_atom_site_type_symbol
_atom_site_fract_x
_atom_site_fract_y
_atom_site_fract_z
N1 N 0.7660(3) 0.1517(2) -0.01721(16)
H1 H 0.8157 0.1227 -0.0381
H2 H 0.7912 0.1644 0.0321
N2 N 0.6540(2) -0.28138(18) -0.08803(15)
H3 H 0.5874 -0.2822 -0.0738
H4 H 0.6532 -0.2493 -0.1251
N3 N 0.4866(2) -0.2849(2) -0.37273(16)
H5 H 0.4485 -0.2687 -0.3368
H6 H 0.5548 -0.2478 -0.3609
N4 N 0.5072(2) 0.1348(2) -0.32883(16)
H7 H 0.5093 0.1038 -0.2911
H8 H 0.4357 0.1418 -0.3430
N5 N 1.0117(2) 0.15622(18) -0.27272(15)
H9 H 0.9468 0.1209 -0.2992
H10 H 1.0579 0.1664 -0.3044
N6 N 0.9684(2) -0.28368(18) -0.27952(14)
H11 H 0.9392 -0.2538 -0.2433
H12 H 1.0405 -0.2844 -0.2604
C1 C 0.6586(4) 0.0881(3) -0.0338(2)
H13 H 0.6368 0.0650 -0.0867
H14 H 0.6016 0.1212 -0.0181
C2 C 0.6665(4) 0.0080(2) 0.00468(19)
C3 C 0.6360(3) 0.0131(2) 0.07183(18)
H15 H 0.6132 0.0666 0.0937
C4 C 0.6394(3) -0.0612(3) 0.10670(19)
H16 H 0.6173 -0.0586 0.1521
C5 C 0.6745(4) -0.1386(3) 0.0758(2)
H17 H 0.6754 -0.1889 0.0999
C6 C 0.7086(3) -0.1436(3) 0.0094(2)
C7 C 0.7040(3) -0.0699(3) -0.02568(19)
H18 H 0.7266 -0.0724 -0.0709
C8 C 0.7435(3) -0.2293(3) -0.0249(2)
H19 H 0.7571 -0.2685 0.0113
H20 H 0.8126 -0.2129 -0.0422
C9 C 0.6634(3) -0.3792(2) -0.11753(19)
H21 H 0.7279 -0.3955 -0.0883
H22 H 0.5970 -0.4214 -0.1138
C10 C 0.6758(3) -0.3899(2) -0.19578(18)
C11 C 0.5843(3) -0.3918(2) -0.24958(19)
C12 C 0.4712(3) -0.3931(2) -0.2298(2)
H23 H 0.4802 -0.3587 -0.1797
H24 H 0.4273 -0.3615 -0.2624
C13 C 0.4089(4) -0.4896(3) -0.2353(3)
H25 H 0.4012 -0.5245 -0.2845
H26 H 0.3358 -0.4864 -0.2242
H27 H 0.4494 -0.5199 -0.2007
C14 C 0.5976(3) -0.3914(2) -0.32082(18)
C15 C 0.5000(3) -0.3838(3) -0.3768(2)
H28 H 0.5108 -0.4094 -0.4258
H29 H 0.4325 -0.4201 -0.3683
C16 C 0.4271(3) -0.2704(3) -0.44232(19)
H30 H 0.3570 -0.3149 -0.4569
H31 H 0.4715 -0.2836 -0.4798
C17 C 0.4024(3) -0.1751(3) -0.44069(17)
C18 C 0.2984(3) -0.1679(3) -0.47369(19)
H32 H 0.2434 -0.2215 -0.4903
C19 C 0.2732(3) -0.0843(3) -0.4829(2)
H33 H 0.2021 -0.0804 -0.5073
C20 C 0.3526(3) -0.0052(3) -0.4564(2)
H34 H 0.3356 0.0526 -0.4633
C21 C 0.4563(3) -0.0102(3) -0.41981(18)
C22 C 0.4817(3) -0.0951(3) -0.41286(17)
H35 H 0.5531 -0.0993 -0.3892
C23 C 0.5398(3) 0.0775(2) -0.39057(17)
H36 H 0.6127 0.0622 -0.3741
H37 H 0.5457 0.1127 -0.4296
C24 C 0.5781(3) 0.2292(2) -0.30138(19)
H38 H 0.5996 0.2535 -0.3431
H39 H 0.5338 0.2708 -0.2788
C25 C 0.6809(3) 0.2302(2) -0.24684(17)
C26 C 0.6728(3) 0.2306(2) -0.17404(19)
C27 C 0.5632(4) 0.2377(3) -0.1520(2)
H40 H 0.5570 0.2073 -0.1103
H41 H 0.5026 0.2061 -0.1927
C28 C 0.5534(4) 0.3390(3) -0.1314(3)
H42 H 0.6125 0.3698 -0.0905
H43 H 0.4821 0.3429 -0.1177
H44 H 0.5593 0.3688 -0.1729
C29 C 0.7675(3) 0.2351(2) -0.12236(18)
C30 C 0.7622(4) 0.2414(2) -0.04324(19)
H45 H 0.6934 0.2624 -0.0349
H46 H 0.8245 0.2883 -0.0139
C31 C 0.8717(3) 0.2402(2) -0.14178(18)
C32 C 0.9760(4) 0.2555(2) -0.08449(19)
H47 H 1.0315 0.2248 -0.1050
H48 H 0.9596 0.2279 -0.0430
C33 C 1.0230(4) 0.3584(3) -0.0579(2)
H49 H 1.0386 0.3859 -0.0990
H50 H 1.0910 0.3662 -0.0220
H51 H 0.9692 0.3884 -0.0358
C34 C 0.8795(3) 0.2392(2) -0.21473(17)
C35 C 0.7841(3) 0.2354(2) -0.26692(16)
C36 C 0.7954(3) 0.2460(2) -0.34309(17)
H52 H 0.7288 0.2113 -0.3778
H53 H 0.8594 0.2201 -0.3555
C37 C 0.8107(3) 0.3476(2) -0.3501(2)
H54 H 0.7457 0.3726 -0.3403
H55 H 0.8203 0.3526 -0.3993
H56 H 0.8757 0.3824 -0.3152
C38 C 0.9887(3) 0.2473(2) -0.23769(18)
H57 H 1.0475 0.2744 -0.1948
H58 H 0.9908 0.2895 -0.2723
C39 C 1.0628(3) 0.1036(2) -0.21986(19)
H59 H 1.1288 0.1432 -0.1878
H60 H 1.0099 0.0856 -0.1893
C40 C 1.0946(3) 0.0192(2) -0.25864(18)
C41 C 1.0204(3) -0.0632(2) -0.27849(18)
H61 H 0.9493 -0.0660 -0.2670
C42 C 1.0484(3) -0.1414(2) -0.31492(17)
C43 C 1.1532(3) -0.1373(2) -0.3299(2)
H62 H 1.1736 -0.1909 -0.3537
C44 C 1.2286(3) -0.0555(3) -0.3104(2)
H63 H 1.3004 -0.0534 -0.3206
C45 C 1.1989(3) 0.0227(2) -0.2763(2)
H64 H 1.2494 0.0791 -0.2647
C46 C 0.9664(3) -0.2299(2) -0.33816(19)
H65 H 0.8917 -0.2162 -0.3515
H66 H 0.9834 -0.2668 -0.3815
C47 C 0.9067(3) -0.3822(2) -0.30192(18)
H67 H 0.9019 -0.4037 -0.3544
H68 H 0.9474 -0.4220 -0.2756
C48 C 0.7925(2) -0.3893(2) -0.28560(17)
C49 C 0.7018(3) -0.3891(2) -0.33981(17)
C50 C 0.7156(3) -0.3851(2) -0.41631(18)
H69 H 0.7897 -0.3505 -0.4150
H70 H 0.6609 -0.3514 -0.4381
C51 C 0.7015(4) -0.4799(3) -0.4642(2)
H71 H 0.7626 -0.5098 -0.4476
H72 H 0.7008 -0.4734 -0.5145
H73 H 0.6320 -0.5173 -0.4611
C52 C 0.7803(3) -0.3885(2) -0.21325(17)
C53 C 0.8793(3) -0.3863(2) -0.15473(18)
H74 H 0.8726 -0.3463 -0.1095
H75 H 0.9466 -0.3592 -0.1698
C54 C 0.8907(3) -0.4811(3) -0.1397(2)
H76 H 0.8231 -0.5093 -0.1266
H77 H 0.9528 -0.4755 -0.0996
H78 H 0.9035 -0.5194 -0.1831

#END

