
#######################################################################
#
#                 Cambridge Crystallographic Data Centre
#                                CCDC 
#
#######################################################################
#
# If this CIF has been generated directly or indirectly from an entry in the 
# Cambridge Structural Database, then it will include bibliographic, chemical, 
# crystal, experimental, refinement or atomic coordinate data resulting from 
# the CCDC's data processing and validation procedures. Files generated from 
# CSD entries are Copyright 2015 Cambridge Crystallographic Data Centre. They 
# may be used in bona fide research applications only, and may not be copied or 
# further disseminated in any form, whether machine-readable or not, except for 
# the purposes of generating routine backup copies on your local computer 
# system.
# 
# Files arising from any other source may also contain material that is the 
# copyright of third parties, including the originator, and you should check 
# with the originator concerning the permitted uses of the information 
# contained in this CIF.
#
# For further information on the CCDC and the free tools enCIFer and Mercury
# for validating and visualising CIF files, please visit www.ccdc.cam.ac.uk
#
#######################################################################

data_FIFTIZ
_audit_creation_date             2013-08-09
_database_code_depnum_ccdc_archive 'CCDC 955294'
_chemical_formula_moiety         'C180 H240 N12 O12,19.5(C1 H1 Cl3)'
_chemical_name_systematic        
'5,8,16,19,27,30,38,41,46,49,54,57-dodecakis(Tricyclo[3.3.1.13,7]dec-1-ylcarbonyl)-5,8,16,19,27,30,38,41,46,49,54,57-dodecaazaheptacyclo[21.21.6.6^12,34^.1^3,43^.1^10,14^.1^21,25^.1^32,36^]hexaconta-1,3(51),10(60),11,13,21(59),22,24,32(52),33,35,43-dodecaene chloroform solvate'
_journal_coden_Cambridge         4
_journal_volume                  135
_journal_year                    2013
_journal_page_first              10007
_journal_name_full               J.Am.Chem.Soc.
loop_
_publ_author_name
J.L.Culshaw
'Ge Cheng'
M.Schmidtmann
T.Hasell
'Ming Liu'
D.J.Adams
A.I.Cooper
_chemical_absolute_configuration unk
_diffrn_special_details          twin
_diffrn_ambient_temperature      90
_exptl_crystal_density_meas      1.406
_exptl_crystal_density_diffrn    1.406
#These two values have been output from a single CSD field.
_refine_ls_R_factor_gt           0.1282
_refine_ls_wR_factor_gt          0.1282
_diffrn_radiation_probe          x-ray
_symmetry_cell_setting           tetragonal
_symmetry_space_group_name_H-M   'I -4'
_symmetry_Int_Tables_number      82
loop_
_symmetry_equiv_pos_site_id
_symmetry_equiv_pos_as_xyz
1 x,y,z
2 -x,-y,z
3 y,-x,-z
4 -y,x,-z
5 1/2+x,1/2+y,1/2+z
6 1/2-x,1/2-y,1/2+z
7 1/2+y,1/2-x,1/2-z
8 1/2-y,1/2+x,1/2-z
_cell_length_a                   33.479(3)
_cell_length_b                   33.479(3)
_cell_length_c                   42.914(5)
_cell_angle_alpha                90
_cell_angle_beta                 90
_cell_angle_gamma                90
_cell_volume                     48099.9
_exptl_crystal_colour            colorless
_exptl_crystal_description       block
_cell_formula_units_Z            8
loop_
_atom_site_label
_atom_site_type_symbol
_atom_site_fract_x
_atom_site_fract_y
_atom_site_fract_z
O1 O 0.69297(18) 0.24154(18) 0.51891(17)
O2 O 0.81197(17) 0.23209(17) 0.52133(14)
O3 O 0.62677(18) 0.10206(17) 0.32720(16)
O4 O 0.57221(17) 0.15810(19) 0.40743(15)
O5 O 0.75007(16) 0.19952(17) 0.22651(14)
O6 O 0.76051(18) 0.31654(16) 0.23480(15)
O7 O 0.8774(2) 0.40165(17) 0.33946(16)
O8 O 0.9285(2) 0.3309(3) 0.4099(3)
O9 O 0.6607(3) 0.4189(3) 0.3409(2)
O10 O 0.5998(3) 0.3671(3) 0.4234(2)
O11 O 0.8263(2) 0.07202(17) 0.33637(17)
O12 O 0.90171(16) 0.11750(16) 0.41000(14)
N1 N 0.73713(19) 0.28080(18) 0.49481(14)
N2 N 0.76896(19) 0.19312(18) 0.49450(15)
N3 N 0.64939(19) 0.11114(19) 0.37556(16)
N4 N 0.59695(17) 0.18403(17) 0.36320(15)
N5 N 0.71140(17) 0.24078(19) 0.25516(15)
N6 N 0.79946(19) 0.27039(18) 0.25676(14)
N7 N 0.8902(2) 0.3364(2) 0.33893(18)
N8 N 0.86837(19) 0.3586(2) 0.40634(17)
N9 N 0.6835(2) 0.3962(2) 0.38765(19)
N10 N 0.6100(3) 0.3424(2) 0.3749(2)
N11 N 0.85797(18) 0.12965(18) 0.34171(16)
N12 N 0.83584(18) 0.10737(18) 0.40914(15)
C1 C 0.73036(18) 0.3813(2) 0.43204(17)
C2 C 0.7306(2) 0.3544(2) 0.45579(16)
H1 H 0.7063 0.3461 0.4652
C3 C 0.7675(2) 0.3390(2) 0.46630(17)
C4 C 0.80273(19) 0.3518(2) 0.45219(17)
H2 H 0.8277 0.3427 0.4599
C5 C 0.8016(2) 0.37791(19) 0.42681(17)
C6 C 0.7653(2) 0.3924(2) 0.41689(18)
H3 H 0.7641 0.4100 0.3996
C7 C 0.6898(2) 0.4008(2) 0.42165(18)
H4 H 0.6675 0.3880 0.4330
H5 H 0.6900 0.4295 0.4271
C8 C 0.76938(19) 0.3109(2) 0.49415(19)
H6 H 0.7954 0.2969 0.4939
H7 H 0.7681 0.3270 0.5135
C9 C 0.8400(2) 0.3898(2) 0.4112(2)
H8 H 0.8335 0.4017 0.3907
H9 H 0.8528 0.4109 0.4239
C10 C 0.6138(2) 0.2312(2) 0.32083(17)
C11 C 0.60261(19) 0.2659(2) 0.33603(16)
H10 H 0.5848 0.2643 0.3532
C12 C 0.6168(2) 0.3024(2) 0.32671(17)
C13 C 0.6432(2) 0.30418(19) 0.30158(17)
H11 H 0.6529 0.3294 0.2949
C14 C 0.6557(2) 0.2696(2) 0.28602(16)
C15 C 0.6406(2) 0.2329(2) 0.29618(17)
H12 H 0.6487 0.2090 0.2861
C16 C 0.5959(2) 0.1912(2) 0.33008(17)
H13 H 0.5678 0.1901 0.3229
H14 H 0.6107 0.1696 0.3194
C17 C 0.6040(2) 0.3414(2) 0.34219(18)
H15 H 0.6191 0.3637 0.3326
H16 H 0.5753 0.3460 0.3379
C18 C 0.6828(2) 0.2735(2) 0.2583(2)
H17 H 0.6663 0.2747 0.2392
H18 H 0.6977 0.2989 0.2599
C19 C 0.7638(2) 0.1014(2) 0.42333(17)
C20 C 0.7679(2) 0.1243(2) 0.44985(18)
H19 H 0.7934 0.1288 0.4588
C21 C 0.7333(2) 0.1411(2) 0.46352(18)
C22 C 0.6966(2) 0.1336(2) 0.44962(19)
H20 H 0.6732 0.1448 0.4586
C23 C 0.6931(2) 0.11096(19) 0.42374(19)
C24 C 0.7265(2) 0.0946(2) 0.41003(18)
H21 H 0.7242 0.0789 0.3917
C25 C 0.8006(2) 0.0821(2) 0.40806(18)
H22 H 0.8065 0.0566 0.4188
H23 H 0.7943 0.0758 0.3860
C26 C 0.7354(2) 0.1653(2) 0.49383(19)
H24 H 0.7102 0.1804 0.4964
H25 H 0.7378 0.1466 0.5117
C27 C 0.6513(2) 0.1026(2) 0.4087(2)
H26 H 0.6444 0.0742 0.4121
H27 H 0.6310 0.1190 0.4196
C28 C 0.8953(2) 0.2666(2) 0.32379(18)
C29 C 0.9017(2) 0.2303(3) 0.33813(19)
H28 H 0.9172 0.2289 0.3566
C30 C 0.8852(2) 0.1956(2) 0.32516(18)
C31 C 0.8612(2) 0.1985(2) 0.29850(19)
H29 H 0.8499 0.1751 0.2895
C32 C 0.8539(2) 0.2356(2) 0.28525(17)
C33 C 0.8718(2) 0.2695(2) 0.29776(18)
H30 H 0.8678 0.2947 0.2882
C34 C 0.9147(2) 0.3029(2) 0.33851(17)
H31 H 0.9225 0.2963 0.3602
H32 H 0.9394 0.3094 0.3269
C35 C 0.8934(2) 0.1557(3) 0.3405(2)
H33 H 0.9149 0.1418 0.3289
H34 H 0.9031 0.1604 0.3620
C36 C 0.8290(2) 0.2375(2) 0.25588(18)
H35 H 0.8469 0.2413 0.2377
H36 H 0.8148 0.2118 0.2531
C37 C 0.7374(3) 0.2532(2) 0.4682(2)
H37 H 0.7401 0.2690 0.4488
H38 H 0.7113 0.2394 0.4673
C38 C 0.7705(3) 0.2218(2) 0.46901(18)
H39 H 0.7699 0.2069 0.4491
H40 H 0.7965 0.2359 0.4700
C39 C 0.6638(2) 0.1512(2) 0.3666(2)
H41 H 0.6660 0.1524 0.3436
H42 H 0.6909 0.1551 0.3753
C40 C 0.6370(2) 0.1851(2) 0.37762(18)
H43 H 0.6341 0.1835 0.4005
H44 H 0.6499 0.2109 0.3726
C41 C 0.7400(2) 0.2367(2) 0.28111(18)
H45 H 0.7537 0.2106 0.2791
H46 H 0.7248 0.2363 0.3009
C42 C 0.7715(3) 0.2691(3) 0.28336(19)
H47 H 0.7580 0.2953 0.2851
H48 H 0.7871 0.2650 0.3027
C43 C 0.8518(2) 0.3315(3) 0.3551(2)
H49 H 0.8365 0.3099 0.3447
H50 H 0.8362 0.3564 0.3529
C44 C 0.8557(3) 0.3219(3) 0.3885(2)
H51 H 0.8757 0.3005 0.3913
H52 H 0.8298 0.3122 0.3966
C45 C 0.6845(3) 0.3563(3) 0.3758(3)
H53 H 0.7098 0.3438 0.3825
H54 H 0.6848 0.3577 0.3528
C46 C 0.6498(3) 0.3287(3) 0.3857(2)
H55 H 0.6549 0.3016 0.3773
H56 H 0.6496 0.3267 0.4087
C47 C 0.8241(2) 0.1453(2) 0.3595(2)
H57 H 0.8004 0.1285 0.3551
H58 H 0.8182 0.1727 0.3521
C48 C 0.8309(2) 0.1465(2) 0.3945(2)
H59 H 0.8550 0.1627 0.3987
H60 H 0.8079 0.1601 0.4043
C49 C 0.7127(2) 0.2727(2) 0.5194(2)
C50 C 0.7072(2) 0.3009(2) 0.54618(18)
C51 C 0.6961(3) 0.3440(2) 0.53600(19)
H61 H 0.7178 0.3552 0.5231
H62 H 0.6714 0.3434 0.5233
C52 C 0.6896(3) 0.3701(3) 0.5644(2)
H63 H 0.6832 0.3979 0.5575
C53 C 0.7245(4) 0.3709(3) 0.5842(3)
H64 H 0.7193 0.3885 0.6022
H65 H 0.7473 0.3821 0.5724
C54 C 0.7356(3) 0.3281(3) 0.5961(2)
H66 H 0.7598 0.3299 0.6098
C55 C 0.7446(3) 0.3012(2) 0.5691(2)
H67 H 0.7500 0.2738 0.5766
H68 H 0.7686 0.3109 0.5579
C56 C 0.6725(3) 0.2844(3) 0.5662(2)
H69 H 0.6483 0.2818 0.5531
H70 H 0.6796 0.2575 0.5739
C57 C 0.6535(3) 0.3529(3) 0.5838(2)
H71 H 0.6489 0.3695 0.6025
H72 H 0.6289 0.3530 0.5710
C58 C 0.7005(3) 0.3115(4) 0.6151(3)
H73 H 0.6954 0.3286 0.6335
H74 H 0.7066 0.2841 0.6225
C59 C 0.6636(3) 0.3110(3) 0.5932(2)
H75 H 0.6404 0.2996 0.6049
C60 C 0.7915(3) 0.2003(2) 0.5209(2)
C61 C 0.7949(2) 0.1711(2) 0.54750(19)
C62 C 0.8291(3) 0.1849(2) 0.5684(2)
H76 H 0.8231 0.2119 0.5766
H77 H 0.8540 0.1865 0.5561
C63 C 0.8349(3) 0.1554(3) 0.5959(2)
H78 H 0.8575 0.1649 0.6093
C64 C 0.8449(3) 0.1138(3) 0.5831(2)
H79 H 0.8700 0.1150 0.5710
H80 H 0.8489 0.0949 0.6006
C65 C 0.8125(4) 0.0998(3) 0.5633(2)
H81 H 0.8195 0.0727 0.5552
C66 C 0.8071(3) 0.1286(2) 0.53515(19)
H82 H 0.7860 0.1182 0.5211
H83 H 0.8323 0.1304 0.5232
C67 C 0.7573(3) 0.1678(3) 0.5676(2)
H84 H 0.7510 0.1942 0.5767
H85 H 0.7345 0.1596 0.5544
C68 C 0.7959(4) 0.1545(4) 0.6157(3)
H86 H 0.7889 0.1816 0.6230
H87 H 0.7992 0.1369 0.6341
C69 C 0.7731(4) 0.0971(3) 0.5808(2)
H88 H 0.7517 0.0878 0.5666
H89 H 0.7755 0.0777 0.5981
C70 C 0.7626(4) 0.1378(3) 0.5936(2)
H90 H 0.7370 0.1358 0.6055
C71 C 0.6317(2) 0.0889(2) 0.3527(2)
C72 C 0.6173(2) 0.0452(2) 0.3592(2)
C73 C 0.6525(3) 0.0179(3) 0.3703(3)
H91 H 0.6742 0.0183 0.3546
H92 H 0.6633 0.0281 0.3902
C74 C 0.6376(3) -0.0250(3) 0.3747(3)
H93 H 0.6598 -0.0425 0.3821
C75 C 0.6220(4) -0.0394(3) 0.3414(3)
H94 H 0.6443 -0.0384 0.3263
H95 H 0.6128 -0.0674 0.3429
C76 C 0.5890(4) -0.0143(3) 0.3299(4)
H96 H 0.5799 -0.0237 0.3090
C77 C 0.6031(4) 0.0282(3) 0.3281(3)
H97 H 0.5811 0.0451 0.3201
H98 H 0.6254 0.0298 0.3129
C78 C 0.5830(3) 0.0431(3) 0.3840(3)
H99 H 0.5928 0.0526 0.4044
H100 H 0.5603 0.0602 0.3775
C79 C 0.6033(3) -0.0257(3) 0.3977(3)
H101 H 0.5942 -0.0535 0.4007
H102 H 0.6126 -0.0154 0.4181
C80 C 0.5561(5) -0.0140(4) 0.3513(5)
H103 H 0.5441 -0.0410 0.3521
H104 H 0.5355 0.0047 0.3436
C81 C 0.5694(3) -0.0009(3) 0.3864(4)
H105 H 0.5462 -0.0032 0.4009
C82 C 0.5653(2) 0.1713(2) 0.3824(2)
C83 C 0.5213(2) 0.1747(3) 0.3704(2)
C84 C 0.5122(2) 0.1405(2) 0.3470(2)
H106 H 0.5192 0.1143 0.3564
H107 H 0.5282 0.1440 0.3278
C85 C 0.4660(3) 0.1420(3) 0.3391(3)
H108 H 0.4588 0.1194 0.3249
C86 C 0.4589(3) 0.1810(3) 0.3232(3)
H109 H 0.4309 0.1822 0.3158
H110 H 0.4766 0.1832 0.3048
C87 C 0.4668(3) 0.2160(3) 0.3452(4)
H111 H 0.4609 0.2421 0.3349
C88 C 0.5101(3) 0.2141(3) 0.3569(3)
H112 H 0.5283 0.2203 0.3394
H113 H 0.5139 0.2350 0.3730
C89 C 0.4945(3) 0.1695(4) 0.3997(3)
H114 H 0.4999 0.1432 0.4095
H115 H 0.5007 0.1906 0.4151
C90 C 0.4420(3) 0.1390(3) 0.3695(3)
H116 H 0.4131 0.1385 0.3646
H117 H 0.4488 0.1137 0.3802
C91 C 0.4415(3) 0.2104(4) 0.3759(4)
H118 H 0.4479 0.2321 0.3907
H119 H 0.4127 0.2119 0.3709
C92 C 0.4503(3) 0.1722(4) 0.3900(3)
H120 H 0.4334 0.1693 0.4091
C93 C 0.7191(2) 0.2201(2) 0.22813(19)
C94 C 0.6886(2) 0.2194(2) 0.20109(19)
C95 C 0.6466(2) 0.2078(2) 0.21195(19)
H121 H 0.6474 0.1818 0.2228
H122 H 0.6363 0.2281 0.2267
C96 C 0.6191(3) 0.2052(3) 0.1838(2)
H123 H 0.5915 0.1988 0.1911
C97 C 0.6329(2) 0.1721(3) 0.1619(2)
H124 H 0.6147 0.1702 0.1438
H125 H 0.6328 0.1461 0.1729
C98 C 0.6754(3) 0.1823(3) 0.1509(2)
H126 H 0.6850 0.1604 0.1370
C99 C 0.7033(2) 0.1850(3) 0.1790(2)
H127 H 0.7309 0.1905 0.1719
H128 H 0.7033 0.1593 0.1904
C100 C 0.6903(2) 0.2589(2) 0.18246(19)
H129 H 0.7177 0.2639 0.1748
H130 H 0.6820 0.2816 0.1957
C101 C 0.6181(3) 0.2454(3) 0.1661(2)
H131 H 0.5992 0.2439 0.1485
H132 H 0.6094 0.2671 0.1803
C102 C 0.6737(3) 0.2209(3) 0.1320(2)
H133 H 0.7004 0.2272 0.1232
H134 H 0.6545 0.2183 0.1146
C103 C 0.6605(3) 0.2537(3) 0.1542(2)
H135 H 0.6599 0.2794 0.1423
C104 C 0.7909(2) 0.2964(2) 0.2335(2)
C105 C 0.8187(3) 0.3026(3) 0.20538(19)
C106 C 0.8210(3) 0.2674(4) 0.1828(2)
H136 H 0.7940 0.2607 0.1750
H137 H 0.8320 0.2437 0.1935
C107 C 0.8488(4) 0.2796(4) 0.1549(3)
H138 H 0.8511 0.2559 0.1409
C108 C 0.8919(3) 0.2887(4) 0.1681(2)
H139 H 0.9016 0.2658 0.1805
H140 H 0.9108 0.2935 0.1508
C109 C 0.8887(3) 0.3249(4) 0.1880(2)
H141 H 0.9160 0.3323 0.1955
C110 C 0.8616(3) 0.3146(3) 0.21711(19)
H142 H 0.8735 0.2923 0.2290
H143 H 0.8598 0.3381 0.2310
C111 C 0.8028(3) 0.3380(3) 0.1861(2)
H144 H 0.7755 0.3315 0.1788
H145 H 0.8007 0.3617 0.1999
C112 C 0.8311(5) 0.3117(6) 0.1368(3)
H146 H 0.8043 0.3038 0.1293
H147 H 0.8481 0.3179 0.1185
C113 C 0.8713(4) 0.3597(5) 0.1700(3)
H148 H 0.8885 0.3659 0.1519
H149 H 0.8703 0.3836 0.1835
C114 C 0.8279(4) 0.3490(5) 0.1584(3)
H150 H 0.8158 0.3720 0.1469
C115 C 0.9016(3) 0.3745(3) 0.3328(2)
C116 C 0.9424(3) 0.3825(3) 0.3147(3)
C117 C 0.9430(4) 0.3604(4) 0.2824(3)
H151 H 0.9204 0.3695 0.2693
H152 H 0.9408 0.3312 0.2854
C118 C 0.9847(4) 0.3714(4) 0.2662(3)
H153 H 0.9872 0.3558 0.2464
C119 C 1.0208(4) 0.3618(5) 0.2872(3)
H154 H 1.0212 0.3330 0.2923
H155 H 1.0460 0.3686 0.2764
C120 C 1.0169(4) 0.3865(4) 0.3171(3)
H156 H 1.0406 0.3808 0.3305
C121 C 0.9786(3) 0.3754(3) 0.3360(3)
H157 H 0.9797 0.3471 0.3425
H158 H 0.9766 0.3923 0.3548
C122 C 0.9425(4) 0.4282(3) 0.3073(4)
H159 H 0.9172 0.4350 0.2965
H160 H 0.9430 0.4431 0.3272
C123 C 0.9835(4) 0.4141(5) 0.2585(3)
H161 H 0.9617 0.4188 0.2434
H162 H 1.0089 0.4216 0.2482
C124 C 1.0172(5) 0.4309(5) 0.3094(4)
H163 H 1.0419 0.4377 0.2979
H164 H 1.0166 0.4467 0.3289
C125 C 0.9770(4) 0.4420(4) 0.2874(3)
H165 H 0.9755 0.4710 0.2818
C126 C 0.9088(3) 0.3556(4) 0.4170(3)
C127 C 0.9252(3) 0.3895(4) 0.4379(3)
C128 C 0.9668(4) 0.3750(5) 0.4472(4)
H166 H 0.9834 0.3718 0.4283
H167 H 0.9646 0.3487 0.4575
C129 C 0.9877(4) 0.4048(5) 0.4696(5)
H168 H 1.0142 0.3946 0.4768
C130 C 0.9624(5) 0.4173(6) 0.4960(5)
H169 H 0.9763 0.4387 0.5075
H170 H 0.9591 0.3944 0.5103
C131 C 0.9219(4) 0.4321(5) 0.4866(4)
H171 H 0.9054 0.4383 0.5054
C132 C 0.9013(4) 0.4007(4) 0.4665(3)
H172 H 0.8967 0.3764 0.4792
H173 H 0.8750 0.4110 0.4598
C133 C 0.9317(3) 0.4277(4) 0.4181(3)
H174 H 0.9474 0.4208 0.3993
H175 H 0.9055 0.4381 0.4112
C134 C 0.9922(4) 0.4455(5) 0.4465(4)
H176 H 1.0056 0.4672 0.4582
H177 H 1.0089 0.4388 0.4282
C135 C 0.9258(4) 0.4689(5) 0.4659(4)
H178 H 0.9379 0.4910 0.4779
H179 H 0.8990 0.4775 0.4588
C136 C 0.9532(4) 0.4590(4) 0.4361(4)
H180 H 0.9562 0.4835 0.4230
C137 C 0.6707(4) 0.4271(3) 0.3675(3)
C138 C 0.6744(4) 0.4710(3) 0.3782(3)
C139 C 0.7147(4) 0.4814(4) 0.3918(4)
H181 H 0.7199 0.4638 0.4099
H182 H 0.7355 0.4760 0.3760
C140 C 0.7178(4) 0.5245(4) 0.4021(4)
H183 H 0.7437 0.5303 0.4128
C141 C 0.6811(5) 0.5353(4) 0.4227(4)
H184 H 0.6828 0.5198 0.4423
H185 H 0.6829 0.5639 0.4283
C142 C 0.6429(4) 0.5282(4) 0.4091(3)
H186 H 0.6205 0.5379 0.4225
C143 C 0.6396(4) 0.4812(3) 0.4015(3)
H187 H 0.6424 0.4654 0.4208
H188 H 0.6134 0.4750 0.3919
C144 C 0.6710(7) 0.4969(4) 0.3491(4)
H189 H 0.6451 0.4916 0.3387
H190 H 0.6926 0.4898 0.3343
C145 C 0.7147(6) 0.5459(5) 0.3673(5)
H191 H 0.7262 0.5732 0.3682
H192 H 0.7301 0.5302 0.3519
C146 C 0.6465(6) 0.5503(4) 0.3810(4)
H193 H 0.6208 0.5464 0.3702
H194 H 0.6469 0.5786 0.3877
C147 C 0.6745(6) 0.5477(5) 0.3585(5)
H195 H 0.6694 0.5659 0.3405
C148 C 0.5869(3) 0.3603(3) 0.3979(3)
C149 C 0.5435(3) 0.3708(4) 0.3899(3)
C150 C 0.5194(4) 0.3361(5) 0.3775(5)
H196 H 0.5204 0.3142 0.3931
H197 H 0.5324 0.3262 0.3583
C151 C 0.4751(4) 0.3451(7) 0.3701(5)
H198 H 0.4601 0.3221 0.3610
C152 C 0.4750(5) 0.3839(6) 0.3493(5)
H199 H 0.4873 0.3774 0.3289
H200 H 0.4470 0.3918 0.3453
C153 C 0.4953(4) 0.4166(6) 0.3622(4)
H201 H 0.4922 0.4403 0.3482
C154 C 0.5416(3) 0.4070(4) 0.3663(3)
H202 H 0.5538 0.3995 0.3461
H203 H 0.5560 0.4304 0.3748
C155 C 0.5236(4) 0.3845(7) 0.4204(4)
H204 H 0.5376 0.4084 0.4286
H205 H 0.5257 0.3630 0.4362
C156 C 0.4607(6) 0.3578(8) 0.4055(6)
H206 H 0.4312 0.3573 0.4065
H207 H 0.4710 0.3379 0.4205
C157 C 0.4768(6) 0.4255(7) 0.3928(5)
H208 H 0.4921 0.4476 0.4024
H209 H 0.4495 0.4355 0.3889
C158 C 0.4743(5) 0.3956(8) 0.4139(6)
H210 H 0.4610 0.4050 0.4335
C159 C 0.8555(2) 0.0920(2) 0.3305(2)
C160 C 0.8888(3) 0.0723(3) 0.3091(3)
C161 C 0.9023(4) 0.1006(4) 0.2810(3)
H211 H 0.8793 0.1069 0.2675
H212 H 0.9136 0.1259 0.2891
C162 C 0.9326(5) 0.0785(5) 0.2636(4)
H213 H 0.9414 0.0952 0.2456
C163 C 0.9162(7) 0.0403(6) 0.2513(5)
H214 H 0.9379 0.0262 0.2401
H215 H 0.8953 0.0468 0.2358
C164 C 0.8986(6) 0.0119(5) 0.2747(4)
H216 H 0.8859 -0.0124 0.2655
C165 C 0.8733(5) 0.0348(4) 0.2953(4)
H217 H 0.8653 0.0170 0.3127
H218 H 0.8486 0.0415 0.2836
C166 C 0.9252(3) 0.0618(4) 0.3293(4)
H219 H 0.9367 0.0866 0.3383
H220 H 0.9166 0.0445 0.3468
C167 C 0.9676(4) 0.0682(5) 0.2820(4)
H221 H 0.9800 0.0930 0.2900
H222 H 0.9874 0.0547 0.2684
C168 C 0.9399(5) 0.0027(5) 0.2975(5)
H223 H 0.9322 -0.0150 0.3150
H224 H 0.9604 -0.0113 0.2850
C169 C 0.9569(4) 0.0403(4) 0.3100(4)
H225 H 0.9811 0.0347 0.3229
C170 C 0.8737(2) 0.0953(2) 0.41626(17)
C171 C 0.8812(2) 0.0553(2) 0.43384(19)
C172 C 0.8731(3) 0.0185(2) 0.41301(18)
H226 H 0.8446 0.0179 0.4070
H227 H 0.8893 0.0204 0.3938
C173 C 0.8838(3) -0.0205(3) 0.4305(2)
H228 H 0.8781 -0.0441 0.4170
C174 C 0.8576(3) -0.0226(2) 0.4608(2)
H229 H 0.8290 -0.0224 0.4551
H230 H 0.8634 -0.0476 0.4722
C175 C 0.8667(3) 0.0125(3) 0.48105(19)
H231 H 0.8504 0.0104 0.5005
C176 C 0.8568(3) 0.0523(2) 0.46468(19)
H232 H 0.8636 0.0749 0.4785
H233 H 0.8279 0.0535 0.4600
C177 C 0.9257(2) 0.0547(3) 0.4424(2)
H234 H 0.9322 0.0784 0.4552
H235 H 0.9420 0.0558 0.4231
C178 C 0.9271(3) -0.0200(3) 0.4395(3)
H236 H 0.9438 -0.0179 0.4205
H237 H 0.9340 -0.0452 0.4503
C179 C 0.9112(3) 0.0139(3) 0.4900(2)
H238 H 0.9165 0.0378 0.5030
H239 H 0.9183 -0.0101 0.5023
C180 C 0.9356(3) 0.0155(3) 0.4611(3)
H240 H 0.9646 0.0155 0.4668

#END

