
#######################################################################
#
#                 Cambridge Crystallographic Data Centre
#                                CCDC 
#
#######################################################################
#
# If this CIF has been generated directly or indirectly from an entry in the 
# Cambridge Structural Database, then it will include bibliographic, chemical, 
# crystal, experimental, refinement or atomic coordinate data resulting from 
# the CCDC's data processing and validation procedures. Files generated from 
# CSD entries are Copyright 2015 Cambridge Crystallographic Data Centre. They 
# may be used in bona fide research applications only, and may not be copied or 
# further disseminated in any form, whether machine-readable or not, except for 
# the purposes of generating routine backup copies on your local computer 
# system.
# 
# Files arising from any other source may also contain material that is the 
# copyright of third parties, including the originator, and you should check 
# with the originator concerning the permitted uses of the information 
# contained in this CIF.
#
# For further information on the CCDC and the free tools enCIFer and Mercury
# for validating and visualising CIF files, please visit www.ccdc.cam.ac.uk
#
#######################################################################

data_UJEPAB
_audit_creation_date             2011-04-19
_database_code_depnum_ccdc_archive 'CCDC 661900'
_chemical_formula_moiety         'C36 H30 N6 O6,6(H2 O1)'
_chemical_name_systematic        
'4,11,18,26,30,34-Hexamethyl-4,11,18,26,30,34-hexaaza-heptacyclo[13.13.2.2^8,22^.1^3,27^.1^6,10^.1^13,17^.1^20,24^]hexatriaconta-1,3(31),6(36),7,9,13(35),14,16,20(32),21,23,27-dodecaene-5,12,19,25,29,33-hexone hexahydrate'
_journal_coden_Cambridge         1350
_journal_volume                  13
_journal_year                    2011
_journal_page_first              406
_journal_name_full               CrystEngComm
loop_
_publ_author_name
H.Masu
Y.Sagara
F.Imabeppu
H.Takayanagi
K.Katagiri
M.Kawahata
M.Tominaga
H.Kagechika
K.Yamaguchi
I.Azumaya
_chemical_absolute_configuration unk
_diffrn_ambient_temperature      120
_exptl_crystal_density_meas      1.374
_exptl_crystal_density_diffrn    1.374
#These two values have been output from a single CSD field.
_refine_ls_R_factor_gt           0.0577
_refine_ls_wR_factor_gt          0.0577
_diffrn_radiation_probe          x-ray
_symmetry_cell_setting           monoclinic
_symmetry_space_group_name_H-M   'P 21/c'
_symmetry_Int_Tables_number      14
loop_
_symmetry_equiv_pos_site_id
_symmetry_equiv_pos_as_xyz
1 x,y,z
2 -x,1/2+y,1/2-z
3 -x,-y,-z
4 x,1/2-y,1/2+z
_cell_length_a                   9.207(1)
_cell_length_b                   24.232(3)
_cell_length_c                   17.811(2)
_cell_angle_alpha                90
_cell_angle_beta                 114.068(5)
_cell_angle_gamma                90
_cell_volume                     3628.24
_exptl_crystal_colour            colorless
_exptl_crystal_description       needle
_cell_formula_units_Z            4
loop_
_atom_site_label
_atom_site_type_symbol
_atom_site_fract_x
_atom_site_fract_y
_atom_site_fract_z
O1 O 0.2164(2) 0.70792(8) 0.38216(11)
O2 O -0.4886(2) 0.83895(11) 0.39707(13)
O3 O -0.2762(2) 0.92901(8) 0.71126(12)
O4 O -0.1453(2) 0.68534(8) 0.67780(13)
O5 O 0.7210(2) 0.81003(8) 0.82068(12)
O6 O 0.2836(3) 1.01852(8) 0.55420(12)
N1 N 0.3744(3) 0.72450(9) 0.51654(13)
N2 N -0.2624(3) 0.83388(9) 0.37592(13)
N3 N -0.0134(3) 0.94146(9) 0.74208(14)
N4 N 0.1109(3) 0.70176(9) 0.70202(13)
N5 N 0.5207(3) 0.86967(9) 0.80694(13)
N6 N 0.2352(3) 0.93789(9) 0.48451(14)
C1 C 0.2340(3) 0.94149(10) 0.62156(16)
C2 C 0.2282(3) 0.73001(10) 0.68210(16)
C3 C 0.2473(3) 0.96930(11) 0.54930(17)
C4 C 0.4607(3) 0.78782(10) 0.72178(16)
C5 C 0.1090(3) 0.95139(11) 0.64449(17)
H1 H 0.0181 0.9713 0.6090
C6 C 0.1177(3) 0.93202(11) 0.71935(17)
C7 C 0.4777(3) 0.77357(11) 0.65005(16)
H2 H 0.5655 0.7869 0.6403
C8 C -0.0111(3) 0.88422(12) 0.43713(16)
H3 H -0.0686 0.9169 0.4362
C9 C 0.2502(3) 0.73655(11) 0.44428(17)
C10 C 0.3651(3) 0.73973(11) 0.59308(16)
C11 C 0.1580(3) 0.78810(11) 0.44270(16)
C12 C -0.0947(3) 0.77202(11) 0.63426(17)
C13 C -0.0433(3) 0.71633(11) 0.67219(16)
C14 C 0.2524(3) 0.90534(11) 0.77369(17)
H4 H 0.2599 0.8942 0.8263
C15 C -0.3432(3) 0.83334(12) 0.42431(18)
C16 C 0.5798(3) 0.82394(11) 0.78585(16)
C17 C -0.0073(3) 0.78672(11) 0.41008(16)
H5 H -0.0627 0.7534 0.3884
C18 C 0.3356(3) 0.76586(11) 0.73787(16)
H6 H 0.3244 0.7755 0.7869
C19 C -0.2488(3) 0.82664(11) 0.51494(17)
C20 C 0.3767(3) 0.89502(11) 0.75038(16)
C21 C 0.3667(3) 0.91242(10) 0.67418(16)
H7 H 0.4508 0.9045 0.6579
C22 C 0.2392(3) 0.83752(11) 0.47035(15)
H8 H 0.3521 0.8384 0.4919
C23 C -0.0801(3) 0.81762(11) 0.68454(16)
H9 H -0.0186 0.8150 0.7421
C24 C -0.2420(3) 0.87098(11) 0.56598(17)
H10 H -0.2970 0.9042 0.5429
C25 C -0.1553(3) 0.86690(11) 0.65038(16)
C26 C 0.2419(3) 0.71692(11) 0.60921(17)
H11 H 0.1678 0.6926 0.5707
C27 C 0.6253(3) 0.90376(12) 0.87571(17)
H12 H 0.6915 0.8799 0.9212
H13 H 0.5607 0.9279 0.8941
H14 H 0.6937 0.9263 0.8578
C28 C -0.0904(3) 0.83463(11) 0.40954(16)
C29 C 0.1606(3) 0.64829(11) 0.74386(18)
H15 H 0.0872 0.6375 0.7685
H16 H 0.2684 0.6515 0.7870
H17 H 0.1592 0.6203 0.7039
C30 C -0.1537(3) 0.91518(11) 0.70320(17)
C31 C 0.1541(3) 0.88534(11) 0.46621(16)
C32 C -0.3461(3) 0.84371(13) 0.28723(17)
H18 H -0.4604 0.8377 0.2703
H19 H -0.3061 0.8182 0.2574
H20 H -0.3277 0.8818 0.2748
C33 C 0.2837(4) 0.95950(12) 0.42099(18)
H21 H 0.1889 0.9693 0.3719
H22 H 0.3444 0.9312 0.4068
H23 H 0.3500 0.9924 0.4420
C34 C -0.1770(3) 0.77693(12) 0.54957(17)
H24 H -0.1842 0.7462 0.5151
C35 C 0.4773(4) 0.67727(12) 0.52014(19)
H25 H 0.4245 0.6430 0.5241
H26 H 0.5784 0.6809 0.5684
H27 H 0.4976 0.6765 0.4703
C36 C 0.0042(4) 0.98524(12) 0.80261(18)
H28 H -0.0117 1.0213 0.7756
H29 H 0.1112 0.9835 0.8469
H30 H -0.0751 0.9800 0.8256
O7 O 0.8060(3) 0.90911(10) 0.07999(15)
O8 O 1.0019(3) 0.63266(9) 0.40980(14)
O9 O 0.0367(3) 0.94603(9) 0.02878(14)
O10 O 0.4232(3) 0.96756(9) 0.28549(14)
O11 O 0.3623(3) 0.93145(11) 0.12759(16)
O12 O 0.5775(4) 0.98104(11) 0.07862(18)

#END

