
#######################################################################
#
#                 Cambridge Crystallographic Data Centre
#                                CCDC 
#
#######################################################################
#
# If this CIF has been generated directly or indirectly from an entry in the 
# Cambridge Structural Database, then it will include bibliographic, chemical, 
# crystal, experimental, refinement or atomic coordinate data resulting from 
# the CCDC's data processing and validation procedures. Files generated from 
# CSD entries are Copyright 2015 Cambridge Crystallographic Data Centre. They 
# may be used in bona fide research applications only, and may not be copied or 
# further disseminated in any form, whether machine-readable or not, except for 
# the purposes of generating routine backup copies on your local computer 
# system.
# 
# Files arising from any other source may also contain material that is the 
# copyright of third parties, including the originator, and you should check 
# with the originator concerning the permitted uses of the information 
# contained in this CIF.
#
# For further information on the CCDC and the free tools enCIFer and Mercury
# for validating and visualising CIF files, please visit www.ccdc.cam.ac.uk
#
#######################################################################

data_YOHXOK
_audit_creation_date             2014-08-22
_database_code_depnum_ccdc_archive 'CCDC 999558'
_chemical_formula_moiety         'C144 H132,4.6(C2 H3 N1),2(C1 H2 Cl2)'
_chemical_name_systematic        
'2^5^,5^5^,7^5^,10^5^,12^5^,15^5^,17^5^,20^5^,21^5^,24^5^,25^5^,28^5^-Dodecapropyl-1,6,11,16(1,3,5)-2,5,7,10,12,15,17,20,21,24,25,28(1,3)-hexadecabenzenatricyclo[14.4.4.46,11]octacosa-3,8,13,18,22,26-hexayne acetonitrile dichloromethane solvate'
_journal_coden_Cambridge         179
_journal_volume                  53
_journal_year                    2014
_journal_page_first              10663
_journal_name_full               Angew.Chem.,Int.Ed.
loop_
_publ_author_name
'Qi Wang'
'Chenxi Zhang'
B.C.Noll
'Hai Long'
'Yinghua Jin'
'Wei Zhang'
_chemical_absolute_configuration unk
_diffrn_ambient_temperature      130
_exptl_crystal_density_meas      1.1
_exptl_crystal_density_diffrn    1.1
#These two values have been output from a single CSD field.
_refine_ls_R_factor_gt           0.1139
_refine_ls_wR_factor_gt          0.1139
_diffrn_radiation_probe          x-ray
_symmetry_cell_setting           monoclinic
_symmetry_space_group_name_H-M   'P 21/c'
_symmetry_Int_Tables_number      14
loop_
_symmetry_equiv_pos_site_id
_symmetry_equiv_pos_as_xyz
1 x,y,z
2 -x,1/2+y,1/2-z
3 -x,-y,-z
4 x,1/2-y,1/2+z
_cell_length_a                   16.4702(12)
_cell_length_b                   11.9661(8)
_cell_length_c                   34.019(2)
_cell_angle_alpha                90
_cell_angle_beta                 91.009(3)
_cell_angle_gamma                90
_cell_volume                     6703.56
_exptl_crystal_colour            colorless
_exptl_crystal_description       Acicular
_cell_formula_units_Z            2
_exptl_crystal_recrystallization_method acetonitrile/dichloromethane
loop_
_atom_site_label
_atom_site_type_symbol
_atom_site_fract_x
_atom_site_fract_y
_atom_site_fract_z
C1 C -0.1285(3) 1.0172(5) 0.63743(15)
C2 C -0.0779(3) 1.0272(5) 0.60516(16)
H1 H -0.0963 1.067 0.5825
C3 C -0.0010(3) 0.9797(5) 0.60574(16)
C4 C 0.0253(3) 0.9238(5) 0.63953(15)
H2 H 0.0785 0.8932 0.6404
C5 C -0.0243(3) 0.9114(5) 0.67218(15)
C6 C -0.1010(3) 0.9592(5) 0.67049(15)
H3 H -0.1355 0.9523 0.6924
C7 C 0.0520(3) 0.9868(5) 0.57042(14)
C8 C 0.0512(3) 1.0797(5) 0.54592(15)
H4 H 0.016 1.1403 0.5515
C9 C 0.1009(3) 1.0858(5) 0.51337(15)
C10 C 0.1529(3) 0.9960(5) 0.50568(15)
H5 H 0.1886 0.9997 0.4841
C11 C 0.1525(3) 0.9013(5) 0.52945(15)
C12 C 0.1025(3) 0.8963(5) 0.56161(15)
H6 H 0.1024 0.8316 0.5778
C13 C 0.1023(4) 1.1874(5) 0.48756(16)
H7 H 0.1058 1.1629 0.4598
H8 H 0.0503 1.228 0.4904
C14 C 0.1707(4) 1.2668(5) 0.49624(19)
H9 H 0.2227 1.226 0.4943
H10 H 0.1661 1.2937 0.5236
C15 C 0.1724(4) 1.3689(6) 0.4684(2)
H11 H 0.1733 1.3431 0.4411
H12 H 0.2212 1.4135 0.4741
H13 H 0.124 1.4148 0.4724
C16 C 0.2046(4) 0.8061(6) 0.52091(15)
C17 C 0.2466(4) 0.7262(5) 0.51462(16)
C18 C 0.2973(3) 0.6330(5) 0.50835(16)
C19 C 0.3407(3) 0.6214(5) 0.47402(15)
H14 H 0.3347 0.6765 0.4541
C20 C 0.3926(3) 0.5317(5) 0.46783(15)
C21 C 0.3993(3) 0.4507(5) 0.49733(15)
H15 H 0.4348 0.3892 0.4937
C22 C 0.3550(3) 0.4573(5) 0.53228(15)
C23 C 0.3041(3) 0.5485(5) 0.53748(16)
H16 H 0.2734 0.5543 0.5608
C24 C 0.4413(4) 0.5244(5) 0.43145(15)
H17 H 0.48 0.4616 0.4344
H18 H 0.4735 0.5938 0.429
C25 C 0.3926(4) 0.5077(6) 0.39367(16)
H19 H 0.3542 0.5707 0.3902
H20 H 0.3604 0.4382 0.3957
C26 C 0.4461(5) 0.5002(6) 0.35769(18)
H21 H 0.4803 0.567 0.3563
H22 H 0.4118 0.4952 0.3339
H23 H 0.4806 0.4336 0.3597
C27 C 0.3613(3) 0.3689(5) 0.56277(15)
C28 C 0.3822(3) 0.2607(5) 0.55299(15)
H24 H 0.393 0.2434 0.5263
C29 C 0.3879(3) 0.1754(5) 0.58128(15)
C30 C 0.3703(3) 0.2020(5) 0.62021(16)
H25 H 0.373 0.1452 0.6397
C31 C 0.3493(3) 0.3094(5) 0.63098(16)
C32 C 0.3454(3) 0.3930(5) 0.60239(16)
H26 H 0.332 0.4672 0.6098
C33 C 0.3287(4) 0.3391(5) 0.67243(15)
C34 C 0.3634(4) 0.2817(6) 0.70390(17)
H27 H 0.4006 0.223 0.6988
C35 C 0.3456(5) 0.3071(7) 0.74276(18)
C36 C 0.2906(4) 0.3929(6) 0.74945(17)
H28 H 0.2772 0.4112 0.7757
C37 C 0.2550(3) 0.4521(5) 0.71911(16)
C38 C 0.2752(3) 0.4249(5) 0.68006(16)
H29 H 0.2517 0.4661 0.6589
C39 C 0.3940(7) 0.2574(12) 0.7764(3)
H30 H 0.3638 0.2707 0.8008
H31 H 0.3964 0.1755 0.7724
C40 C 0.4763(7) 0.2974(14) 0.7826(4)
H32 H 0.5078 0.2847 0.7585
H33 H 0.5025 0.2544 0.8042
C41 C 0.4778(7) 0.4222(11) 0.7929(4)
H34 H 0.4404 0.4626 0.7753
H35 H 0.5329 0.4514 0.7898
H36 H 0.4611 0.4324 0.8202
C42 C 0.1985(4) 0.5415(6) 0.72588(15)
C43 C 0.1500(4) 0.6152(6) 0.73078(15)
C44 C 0.0906(3) 0.7018(5) 0.73606(16)
C45 C 0.0585(4) 0.7260(5) 0.77243(16)
H37 H 0.0766 0.6841 0.7946
C46 C 0.0018(4) 0.8078(6) 0.77755(16)
C47 C -0.0240(4) 0.8702(5) 0.74490(16)
H38 H -0.0618 0.9293 0.7483
C48 C 0.0051(3) 0.8471(5) 0.70679(15)
C49 C 0.0626(3) 0.7622(5) 0.70286(16)
H39 H 0.083 0.745 0.6776
C50 C -0.0320(4) 0.8319(6) 0.81812(17)
H40 H 0.0136 0.8356 0.8374
H41 H -0.059 0.9058 0.8177
C51 C -0.0921(5) 0.7446(7) 0.8314(2)
H42 H -0.1401 0.7463 0.8135
H43 H -0.0668 0.6699 0.8291
C52 C -0.1196(5) 0.7603(8) 0.8725(2)
H44 H -0.0723 0.7621 0.8904
H45 H -0.1552 0.6983 0.8797
H46 H -0.1494 0.8309 0.8745
C53 C -0.2123(3) 1.0675(5) 0.63503(15)
C54 C -0.2540(3) 1.0689(5) 0.59965(15)
H47 H -0.2301 1.0357 0.5773
C55 C -0.3313(3) 1.1183(5) 0.59571(15)
C56 C -0.3644(4) 1.1683(5) 0.62847(16)
H48 H -0.4163 1.2027 0.6264
C57 C -0.3225(4) 1.1688(5) 0.66448(17)
C58 C -0.2481(3) 1.1160(5) 0.66713(16)
H49 H -0.2206 1.1131 0.6919
C59 C -0.3558(5) 1.2298(8) 0.6997(2)
H50 H -0.3571 1.1788 0.7226
H51 H -0.412 1.255 0.6939
C60 C -0.2981(6) 1.3382(8) 0.7101(2)
H52 H -0.2416 1.3128 0.715
H53 H -0.2981 1.3898 0.6874
C61 C -0.3284(8) 1.3993(12) 0.7460(4)
H54 H -0.3878 1.4044 0.7446
H55 H -0.3051 1.4747 0.7468
H56 H -0.3118 1.3584 0.7698
C62 C -0.3702(3) 1.1118(5) 0.55784(19)
C63 C -0.3929(3) 1.1019(5) 0.52378(18)
C64 C -0.4135(3) 1.0772(5) 0.48427(16)
C65 C -0.3889(3) 0.9736(5) 0.46932(15)
H57 H -0.3569 0.9255 0.4855
C66 C -0.4099(3) 0.9397(5) 0.43183(15)
C67 C -0.4535(3) 1.0139(5) 0.40810(16)
H58 H -0.4675 0.9924 0.382
C68 C -0.4774(4) 1.1186(5) 0.42150(16)
C69 C -0.4585(3) 1.1486(5) 0.45954(16)
H59 H -0.4762 1.2188 0.4693
C70 C -0.5231(4) 1.1991(6) 0.39497(19)
H60 H -0.5159 1.2757 0.4055
H61 H -0.4986 1.1971 0.3686
C71 C -0.6118(5) 1.1760(6) 0.3906(2)
H62 H -0.6354 1.2281 0.3709
H63 H -0.6193 1.0991 0.3804
C72 C -0.6563(4) 1.1875(6) 0.42753(19)
H64 H -0.6365 1.1316 0.4465
H65 H -0.7144 1.176 0.4224
H66 H -0.6475 1.2625 0.4383
C1B C 0.1285 -0.0172 0.36257
C2B C 0.0779 -0.0272 0.39484
H1B H 0.0963 -0.067 0.4175
C3B C 0.001 0.0203 0.39426
C4B C -0.0253 0.0762 0.36047
H2B H -0.0785 0.1068 0.3596
C5B C 0.0243 0.0886 0.32782
C6B C 0.101 0.0408 0.32951
H3B H 0.1355 0.0477 0.3076
C7B C -0.052 0.0132 0.42958
C8B C -0.0512 -0.0797 0.45408
H4B H -0.016 -0.1403 0.4485
C9B C -0.1009 -0.0858 0.48663
C10B C -0.1529 0.004 0.49432
H5B H -0.1886 0.0003 0.5159
C11B C -0.1525 0.0987 0.47055
C12B C -0.1025 0.1037 0.43839
H6B H -0.1024 0.1684 0.4222
C13B C -0.1023 -0.1874 0.51244
H7B H -0.1058 -0.1629 0.5402
H8B H -0.0503 -0.228 0.5096
C14B C -0.1707 -0.2668 0.50376
H9B H -0.2227 -0.226 0.5057
H10B H -0.1661 -0.2937 0.4764
C15B C -0.1724 -0.3689 0.5316
H11B H -0.1733 -0.3431 0.5589
H12B H -0.2212 -0.4135 0.5259
H13B H -0.124 -0.4148 0.5276
C16B C -0.2046 0.1939 0.47909
C17B C -0.2466 0.2738 0.48538
C18B C -0.2973 0.367 0.49165
C19B C -0.3407 0.3786 0.52598
H14B H -0.3347 0.3235 0.5459
C20B C -0.3926 0.4683 0.53217
C21B C -0.3993 0.5493 0.50267
H15B H -0.4348 0.6108 0.5063
C22B C -0.355 0.5427 0.46772
C23B C -0.3041 0.4515 0.46252
H16B H -0.2734 0.4457 0.4392
C24B C -0.4413 0.4756 0.56855
H17B H -0.48 0.5384 0.5656
H18B H -0.4735 0.4062 0.571
C25B C -0.3926 0.4923 0.60633
H19B H -0.3542 0.4293 0.6098
H20B H -0.3604 0.5618 0.6043
C26B C -0.4461 0.4998 0.64231
H21B H -0.4803 0.433 0.6437
H22B H -0.4118 0.5048 0.6661
H23B H -0.4806 0.5664 0.6403
C27B C -0.3613 0.6311 0.43723
C28B C -0.3822 0.7393 0.44701
H24B H -0.393 0.7566 0.4737
C29B C -0.3879 0.8246 0.41872
C30B C -0.3703 0.798 0.37979
H25B H -0.373 0.8548 0.3603
C31B C -0.3493 0.6906 0.36902
C32B C -0.3454 0.607 0.39761
H26B H -0.332 0.5328 0.3902
C33B C -0.3287 0.6609 0.32757
C34B C -0.3634 0.7183 0.2961
H27B H -0.4006 0.777 0.3012
C35B C -0.3456 0.6929 0.25724
C36B C -0.2906 0.6071 0.25055
H28B H -0.2772 0.5888 0.2243
C37B C -0.255 0.5479 0.28089
C38B C -0.2752 0.5751 0.31994
H29B H -0.2517 0.5339 0.3411
C39B C -0.394 0.7426 0.2236
H30B H -0.3638 0.7293 0.1992
H31B H -0.3964 0.8245 0.2276
C40B C -0.4763 0.7026 0.2174
H32B H -0.5078 0.7153 0.2415
H33B H -0.5025 0.7456 0.1958
C41B C -0.4778 0.5778 0.2071
H34B H -0.4404 0.5374 0.2247
H35B H -0.5329 0.5486 0.2102
H36B H -0.4611 0.5676 0.1798
C42B C -0.1985 0.4585 0.27412
C43B C -0.15 0.3848 0.26922
C44B C -0.0906 0.2982 0.26394
C45B C -0.0585 0.274 0.22757
H37B H -0.0766 0.3159 0.2054
C46B C -0.0018 0.1922 0.22245
C47B C 0.024 0.1298 0.2551
H38B H 0.0618 0.0707 0.2517
C48B C -0.0051 0.1529 0.29321
C49B C -0.0626 0.2378 0.29714
H39B H -0.083 0.255 0.3224
C50B C 0.032 0.1681 0.18188
H40B H -0.0136 0.1644 0.1626
H41B H 0.059 0.0942 0.1823
C51B C 0.0921 0.2554 0.1686
H42B H 0.1401 0.2537 0.1865
H43B H 0.0668 0.3301 0.1709
C52B C 0.1196 0.2397 0.1275
H44B H 0.0723 0.2379 0.1096
H45B H 0.1552 0.3017 0.1203
H46B H 0.1494 0.1691 0.1255
C53B C 0.2123 -0.0675 0.36497
C54B C 0.254 -0.0689 0.40035
H47B H 0.2301 -0.0357 0.4227
C55B C 0.3313 -0.1183 0.40429
C56B C 0.3644 -0.1683 0.37153
H48B H 0.4163 -0.2027 0.3736
C57B C 0.3225 -0.1688 0.33552
C58B C 0.2481 -0.116 0.33287
H49B H 0.2206 -0.1131 0.3081
C59B C 0.3558 -0.2298 0.3003
H50B H 0.3571 -0.1788 0.2774
H51B H 0.412 -0.255 0.3061
C60B C 0.2981 -0.3382 0.2899
H52B H 0.2416 -0.3128 0.285
H53B H 0.2981 -0.3898 0.3126
C61B C 0.3284 -0.3993 0.254
H54B H 0.3878 -0.4044 0.2554
H55B H 0.3051 -0.4747 0.2532
H56B H 0.3118 -0.3584 0.2302
C62B C 0.3702 -0.1118 0.44216
C63B C 0.3929 -0.1019 0.47622
C64B C 0.4135 -0.0772 0.51573
C65B C 0.3889 0.0264 0.53068
H57B H 0.3569 0.0745 0.5145
C66B C 0.4099 0.0603 0.56817
C67B C 0.4535 -0.0139 0.5919
H58B H 0.4675 0.0076 0.618
C68B C 0.4774 -0.1186 0.5785
C69B C 0.4585 -0.1486 0.54046
H59B H 0.4762 -0.2188 0.5307
C70B C 0.5231 -0.1991 0.60503
H60B H 0.5159 -0.2757 0.5945
H61B H 0.4986 -0.1971 0.6314
C71B C 0.6118 -0.176 0.6094
H62B H 0.6354 -0.2281 0.6291
H63B H 0.6193 -0.0991 0.6196
C72B C 0.6563 -0.1875 0.57247
H64B H 0.6365 -0.1316 0.5535
H65B H 0.7144 -0.176 0.5776
H66B H 0.6475 -0.2625 0.5617

#END

