
#######################################################################
#
#                 Cambridge Crystallographic Data Centre
#                                CCDC 
#
#######################################################################
#
# If this CIF has been generated directly or indirectly from an entry in the 
# Cambridge Structural Database, then it will include bibliographic, chemical, 
# crystal, experimental, refinement or atomic coordinate data resulting from 
# the CCDC's data processing and validation procedures. Files generated from 
# CSD entries are Copyright 2015 Cambridge Crystallographic Data Centre. They 
# may be used in bona fide research applications only, and may not be copied or 
# further disseminated in any form, whether machine-readable or not, except for 
# the purposes of generating routine backup copies on your local computer 
# system.
# 
# Files arising from any other source may also contain material that is the 
# copyright of third parties, including the originator, and you should check 
# with the originator concerning the permitted uses of the information 
# contained in this CIF.
#
# For further information on the CCDC and the free tools enCIFer and Mercury
# for validating and visualising CIF files, please visit www.ccdc.cam.ac.uk
#
#######################################################################

data_PUTREC
_audit_creation_date             2010-10-28
_database_code_depnum_ccdc_archive 'CCDC 780527'
_chemical_formula_moiety         'C132 H144 N6,2(C4 H8 O2),2(C6 H14)'
_chemical_name_systematic        
'1^2^,1^4^,1^6^,9^2^,9^4^,9^6^-hexahexyl-3,7,11,15,18,22-hexaaza-5,13,20(1,8)-trianthracena-1,9(1,3,5),2,8,10,16,17,23(1,4)-octabenzenacyclotricosaphane ethyl acetate hexane solvate'
_journal_coden_Cambridge         179
_journal_volume                  49
_journal_year                    2010
_journal_page_first              6348
_journal_name_full               Angew.Chem.,Int.Ed.
loop_
_publ_author_name
'Yinghua Jin'
B.A.Voss
R.D.Noble
'Wei Zhang'
_chemical_absolute_configuration unk
_diffrn_ambient_temperature      100
_exptl_crystal_density_meas      1.132
_exptl_crystal_density_diffrn    1.132
#These two values have been output from a single CSD field.
_refine_ls_R_factor_gt           0.0625
_refine_ls_wR_factor_gt          0.0625
_diffrn_radiation_probe          x-ray
_symmetry_cell_setting           monoclinic
_symmetry_space_group_name_H-M   'C 2/c'
_symmetry_Int_Tables_number      15
loop_
_symmetry_equiv_pos_site_id
_symmetry_equiv_pos_as_xyz
1 x,y,z
2 -x,y,1/2-z
3 1/2+x,1/2+y,z
4 1/2-x,1/2+y,1/2-z
5 -x,-y,-z
6 x,-y,1/2+z
7 1/2-x,1/2-y,-z
8 1/2+x,1/2-y,1/2+z
_cell_length_a                   38.258(12)
_cell_length_b                   18.145(5)
_cell_length_c                   20.400(7)
_cell_angle_alpha                90
_cell_angle_beta                 116.349(8)
_cell_angle_gamma                90
_cell_volume                     12690.2
_exptl_crystal_colour            'pale yellow'
_exptl_crystal_description       block
_cell_formula_units_Z            4
_exptl_crystal_recrystallization_method 'dichloromethane/ethyl acetate/hexane'
loop_
_atom_site_label
_atom_site_type_symbol
_atom_site_fract_x
_atom_site_fract_y
_atom_site_fract_z
C1 C 0.99914(11) 0.5523(2) 0.1135(2)
C2 C 1.03050(11) 0.6017(2) 0.1473(2)
C3 C 1.02279(11) 0.6781(2) 0.1427(2)
C4 C 0.98479(11) 0.7045(2) 0.1013(2)
C5 C 0.95400(10) 0.6552(2) 0.0669(2)
C6 C 0.96078(11) 0.5786(2) 0.0738(2)
C7 C 1.00644(11) 0.4702(2) 0.1224(2)
C8 C 0.99957(10) 0.4239(2) 0.0634(2)
H1 H 0.9905 0.4445 0.0158
C9 C 1.00574(11) 0.3483(2) 0.0724(2)
H2 H 1.0006 0.3179 0.0312
C10 C 1.01936(12) 0.3170(2) 0.1414(2)
N1 N 1.02370(13) 0.2403(2) 0.1508(3)
H3 H 1.0230(13) 0.220(2) 0.119(2)
C11 C 1.02766(12) 0.3625(2) 0.2006(2)
H4 H 1.0382 0.3424 0.2485
C12 C 1.02066(11) 0.4379(2) 0.1901(2)
H5 H 1.0259 0.4682 0.2315
C13 C 1.05539(14) 0.2097(2) 0.2145(3)
H6 H 1.0541 0.2282 0.2591
H7 H 1.0805 0.2259 0.2163
C14 C 1.05345(15) 0.1256(3) 0.2130(3)
C15 C 1.02595(15) 0.0892(2) 0.2307(2)
C16 C 1.02550(15) 0.0087(2) 0.2292(2)
C17 C 1.05070(18) -0.0284(3) 0.2080(3)
H8 H 1.0500 -0.0808 0.2064
C18 C 1.07589(18) 0.0068(3) 0.1898(3)
H9 H 1.0925 -0.0202 0.1752
C19 C 1.07742(16) 0.0866(3) 0.1927(3)
H10 H 1.0954 0.1120 0.1803
C20 C 1.0000 0.1244(3) 0.2500
H11 H 1.0000 0.1768 0.2500
C21 C 1.0000 -0.0264(4) 0.2500
H12 H 1.0000 -0.0788 0.2500
C22 C 1.07199(11) 0.5730(2) 0.1872(2)
H13 H 1.0728 0.5325 0.2203
H14 H 1.0891 0.6130 0.2175
C23 C 1.08740(11) 0.5449(2) 0.1345(2)
H15 H 1.0893 0.5869 0.1052
H16 H 1.0684 0.5093 0.1003
C24 C 1.12747(12) 0.5074(3) 0.1725(2)
H17 H 1.1367 0.4961 0.1353
H18 H 1.1462 0.5425 0.2078
C25 C 1.12772(12) 0.4368(3) 0.2128(3)
H19 H 1.1084 0.4023 0.1776
H20 H 1.1191 0.4485 0.2507
C26 C 1.16716(14) 0.3977(3) 0.2493(3)
H21 H 1.1749 0.3829 0.2109
H22 H 1.1869 0.4332 0.2818
C27 C 1.16798(17) 0.3318(3) 0.2926(3)
H23 H 1.1623 0.3462 0.3331
H24 H 1.1939 0.3090 0.3121
H25 H 1.1483 0.2964 0.2612
C28 C 1.05505(11) 0.7307(2) 0.1872(2)
C29 C 1.08145(12) 0.7610(2) 0.1650(2)
H26 H 1.0797 0.7479 0.1186
C30 C 1.11041(12) 0.8101(2) 0.2089(3)
H27 H 1.1279 0.8296 0.1918
C31 C 1.11415(11) 0.8310(2) 0.2772(2)
C32 C 1.08792(12) 0.8012(2) 0.3002(2)
H28 H 1.0897 0.8143 0.3467
C33 C 1.05912(12) 0.7522(2) 0.2556(2)
H29 H 1.0416 0.7328 0.2727
N2 N 1.14366(10) 0.8794(2) 0.3222(2)
H30 H 1.1520(13) 0.908(3) 0.296(2)
C34 C 1.13859(11) 0.9216(2) 0.3776(2)
H31 H 1.1393 0.8880 0.4164
H32 H 1.1128 0.9462 0.3555
C35 C 1.17025(12) 0.9787(2) 0.4106(2)
C36 C 1.20783(12) 0.9616(2) 0.4697(2)
C37 C 1.23750(14) 1.0178(2) 0.4968(3)
C38 C 1.22800(16) 1.0889(3) 0.4648(3)
H33 H 1.2472 1.1267 0.4818
C39 C 1.19233(18) 1.1040(3) 0.4109(3)
H34 H 1.1867 1.1524 0.3910
C40 C 1.16298(15) 1.0486(3) 0.3833(3)
H35 H 1.1380 1.0605 0.3453
C41 C 1.21736(12) 0.8926(2) 0.5032(2)
H36 H 1.1980 0.8551 0.4863
C42 C 1.27361(14) 1.0014(3) 0.5522(3)
H37 H 1.2928 1.0391 0.5695
C43 C 0.97665(11) 0.78725(19) 0.0959(2)
H38 H 0.9501 0.7955 0.0913
H39 H 0.9953 0.8111 0.1417
C44 C 0.97976(13) 0.8241(2) 0.0314(2)
H40 H 0.9605 0.8013 -0.0145
H41 H 1.0060 0.8145 0.0351
C45 C 0.97280(16) 0.9081(2) 0.0273(3)
H42 H 0.9930 0.9312 0.0720
H43 H 0.9760 0.9279 -0.0150
C46 C 0.9337(2) 0.9295(3) 0.0197(4)
H44 H 0.9321 0.9160 0.0653
H45 H 0.9137 0.9006 -0.0206
C47 C 0.9240(5) 1.0112(5) 0.0047(7)
H46 H 0.9370 1.0274 -0.0254
H47 H 0.8956 1.0134 -0.0276
C48 C 0.9301(5) 1.0565(5) 0.0474(8)
H48 H 0.9108 1.0536 0.0667
H49 H 0.9283 1.1048 0.0247
H50 H 0.9563 1.0499 0.0875
C49 C 0.91323(12) 0.6826(2) 0.0242(2)
C50 C 0.89812(12) 0.7043(2) -0.0485(2)
H51 H 0.9143 0.7020 -0.0728
C51 C 0.85992(12) 0.7292(2) -0.0868(2)
H52 H 0.8506 0.7438 -0.1364
C52 C 0.83555(12) 0.7331(2) -0.0541(2)
C53 C 0.85027(13) 0.7105(2) 0.0187(3)
H53 H 0.8339 0.7116 0.0427
C54 C 0.88857(12) 0.6866(2) 0.0564(2)
H54 H 0.8980 0.6724 0.1062
N3 N 0.79779(11) 0.7606(2) -0.0927(2)
H55 H 0.7915(11) 0.767(2) -0.139(2)
C55 C 0.76673(12) 0.7440(2) -0.0718(3)
H56 H 0.7782 0.7377 -0.0181
H57 H 0.7541 0.6970 -0.0948
C56 C 0.73623(12) 0.8044(2) -0.0949(2)
C57 C 0.74626(11) 0.8755(2) -0.0601(2)
C58 C 0.71670(12) 0.9314(2) -0.0843(2)
C59 C 0.67890(13) 0.9142(3) -0.1395(3)
H58 H 0.6592 0.9510 -0.1559
C60 C 0.67046(12) 0.8459(3) -0.1692(3)
H59 H 0.6448 0.8349 -0.2053
C61 C 0.69969(12) 0.7909(2) -0.1467(3)
H60 H 0.6934 0.7435 -0.1686
C62 C 0.92653(11) 0.5259(2) 0.0438(2)
H61 H 0.9333 0.4830 0.0217
H62 H 0.9039 0.5509 0.0047
C63 C 0.91513(12) 0.4988(2) 0.1020(2)
H63 H 0.9372 0.4708 0.1392
H64 H 0.9104 0.5420 0.1267
C64 C 0.87935(15) 0.4506(3) 0.0728(3)
H65 H 0.8734 0.4381 0.1140
H66 H 0.8572 0.4800 0.0374
C65 C 0.8811(2) 0.3806(4) 0.0363(4)
H67 H 0.8546 0.3589 0.0123
H68 H 0.8893 0.3918 -0.0023
C66 C 0.9067(3) 0.3288(5) 0.0844(5)
H69 H 0.9011 0.3244 0.1272
H70 H 0.9337 0.3479 0.1024
C67 C 0.9052(4) 0.2492(5) 0.0518(6)
H71 H 0.8798 0.2267 0.0399
H72 H 0.9260 0.2187 0.0879
H73 H 0.9089 0.2529 0.0074
C1A C 1.00086 0.5523 0.3865
C2A C 0.9695 0.6017 0.3527
C3A C 0.97721 0.6781 0.3573
C4A C 1.01521 0.7045 0.3987
C5A C 1.046 0.6552 0.4331
C6A C 1.03922 0.5786 0.4262
C7A C 0.99356 0.4702 0.3776
C8A C 1.00043 0.4239 0.4366
H1A H 1.0095 0.4445 0.4842
C9A C 0.99426 0.3483 0.4276
H2A H 0.9994 0.3179 0.4688
C10A C 0.98064 0.317 0.3586
N1A N 0.9763 0.2403 0.3492
H3A H 0.977 0.22 0.381
C11A C 0.97234 0.3625 0.2994
H4A H 0.9618 0.3424 0.2515
C12A C 0.97934 0.4379 0.3099
H5A H 0.9741 0.4682 0.2685
C13A C 0.94461 0.2097 0.2855
H6A H 0.9459 0.2282 0.2409
H7A H 0.9195 0.2259 0.2837
C14A C 0.94655 0.1256 0.287
C15A C 0.97405 0.0892 0.2693
C16A C 0.9745 0.0087 0.2708
C17A C 0.9493 -0.0284 0.292
H8A H 0.95 -0.0808 0.2936
C18A C 0.92411 0.0068 0.3102
H9A H 0.9075 -0.0202 0.3248
C19A C 0.92258 0.0866 0.3073
H10A H 0.9046 0.112 0.3197
C22A C 0.92801 0.573 0.3128
H13A H 0.9272 0.5325 0.2797
H14A H 0.9109 0.613 0.2825
C23A C 0.9126 0.5449 0.3655
H15A H 0.9107 0.5869 0.3948
H16A H 0.9316 0.5093 0.3997
C24A C 0.87253 0.5074 0.3275
H17A H 0.8633 0.4961 0.3647
H18A H 0.8538 0.5425 0.2922
C25A C 0.87228 0.4368 0.2872
H19A H 0.8916 0.4023 0.3224
H20A H 0.8809 0.4485 0.2493
C26A C 0.83284 0.3977 0.2507
H21A H 0.8251 0.3829 0.2891
H22A H 0.8131 0.4332 0.2182
C27A C 0.83202 0.3318 0.2074
H23A H 0.8377 0.3462 0.1669
H24A H 0.8061 0.309 0.1879
H25A H 0.8517 0.2964 0.2388
C28A C 0.94495 0.7307 0.3128
C29A C 0.91855 0.761 0.335
H26A H 0.9203 0.7479 0.3814
C30A C 0.88959 0.8101 0.2911
H27A H 0.8721 0.8296 0.3082
C31A C 0.88585 0.831 0.2228
C32A C 0.91208 0.8012 0.1998
H28A H 0.9103 0.8143 0.1533
C33A C 0.94088 0.7522 0.2444
H29A H 0.9584 0.7328 0.2273
N2A N 0.85634 0.8794 0.1778
H30A H 0.848 0.908 0.204
C34A C 0.86141 0.9216 0.1224
H31A H 0.8607 0.888 0.0836
H32A H 0.8872 0.9462 0.1445
C35A C 0.82975 0.9787 0.0894
C36A C 0.79217 0.9616 0.0303
C37A C 0.7625 1.0178 0.0032
C38A C 0.772 1.0889 0.0352
H33A H 0.7528 1.1267 0.0182
C39A C 0.80767 1.104 0.0891
H34A H 0.8133 1.1524 0.109
C40A C 0.83702 1.0486 0.1167
H35A H 0.862 1.0605 0.1547
C41A C 0.78264 0.8926 -0.0032
H36A H 0.802 0.8551 0.0137
C42A C 0.72639 1.0014 -0.0522
H37A H 0.7072 1.0391 -0.0695
C43A C 1.02335 0.78725 0.4041
H38A H 1.0499 0.7955 0.4087
H39A H 1.0047 0.8111 0.3583
C44A C 1.02024 0.8241 0.4686
H40A H 1.0395 0.8013 0.5145
H41A H 0.994 0.8145 0.4649
C45A C 1.0272 0.9081 0.4727
H42A H 1.007 0.9312 0.428
H43A H 1.024 0.9279 0.515
C46A C 1.0663 0.9295 0.4803
H44A H 1.0679 0.916 0.4347
H45A H 1.0863 0.9006 0.5206
C47A C 1.076 1.0112 0.4953
H46A H 1.063 1.0274 0.5254
H47A H 1.1044 1.0134 0.5276
C48A C 1.0699 1.0565 0.4526
H48A H 1.0892 1.0536 0.4333
H49A H 1.0717 1.1048 0.4753
H50A H 1.0437 1.0499 0.4125
C49A C 1.08677 0.6826 0.4758
C50A C 1.10188 0.7043 0.5485
H51A H 1.0857 0.702 0.5728
C51A C 1.14008 0.7292 0.5868
H52A H 1.1494 0.7438 0.6364
C52A C 1.16445 0.7331 0.5541
C53A C 1.14973 0.7105 0.4813
H53A H 1.1661 0.7116 0.4573
C54A C 1.11143 0.6866 0.4436
H54A H 1.102 0.6724 0.3938
N3A N 1.20221 0.7606 0.5927
H55A H 1.2085 0.767 0.639
C55A C 1.23327 0.744 0.5718
H56A H 1.2218 0.7377 0.5181
H57A H 1.2459 0.697 0.5948
C56A C 1.26377 0.8044 0.5949
C57A C 1.25374 0.8755 0.5601
C58A C 1.2833 0.9314 0.5843
C59A C 1.3211 0.9142 0.6395
H58A H 1.3408 0.951 0.6559
C60A C 1.32954 0.8459 0.6692
H59A H 1.3552 0.8349 0.7053
C61A C 1.30031 0.7909 0.6467
H60A H 1.3066 0.7435 0.6686
C62A C 1.07347 0.5259 0.4562
H61A H 1.0667 0.483 0.4783
H62A H 1.0961 0.5509 0.4953
C63A C 1.08487 0.4988 0.398
H63A H 1.0628 0.4708 0.3608
H64A H 1.0896 0.542 0.3733
C64A C 1.12065 0.4506 0.4272
H65A H 1.1266 0.4381 0.386
H66A H 1.1428 0.48 0.4626
C65A C 1.1189 0.3806 0.4637
H67A H 1.1454 0.3589 0.4877
H68A H 1.1107 0.3918 0.5023
C66A C 1.0933 0.3288 0.4156
H69A H 1.0989 0.3244 0.3728
H70A H 1.0663 0.3479 0.3976
C67A C 1.0948 0.2492 0.4482
H71A H 1.1202 0.2267 0.4601
H72A H 1.074 0.2187 0.4121
H73A H 1.0911 0.2529 0.4926

#END

