
#######################################################################
#
#                 Cambridge Crystallographic Data Centre
#                                CCDC 
#
#######################################################################
#
# If this CIF has been generated directly or indirectly from an entry in the 
# Cambridge Structural Database, then it will include bibliographic, chemical, 
# crystal, experimental, refinement or atomic coordinate data resulting from 
# the CCDC's data processing and validation procedures. Files generated from 
# CSD entries are Copyright 2015 Cambridge Crystallographic Data Centre. They 
# may be used in bona fide research applications only, and may not be copied or 
# further disseminated in any form, whether machine-readable or not, except for 
# the purposes of generating routine backup copies on your local computer 
# system.
# 
# Files arising from any other source may also contain material that is the 
# copyright of third parties, including the originator, and you should check 
# with the originator concerning the permitted uses of the information 
# contained in this CIF.
#
# For further information on the CCDC and the free tools enCIFer and Mercury
# for validating and visualising CIF files, please visit www.ccdc.cam.ac.uk
#
#######################################################################

data_VOMPIY
_audit_creation_date             2014-08-21
_database_code_depnum_ccdc_archive 'CCDC 1020550'
_chemical_formula_moiety         'C72 H108 N12,14.68(H2 O1)'
_chemical_name_systematic        
'5,12,20,27,35,42,50,57,62,69,74,81-dodecaazatridecacyclo[29.29.10.10^16,46^.1^3,59^.1^14,18^.1^29,33^.1^44,48^.0^6,11^.0^21,26^.0^36,41^.0^51,56^.0^63,68^.0^75,80^]tetraoctaconta-1,3(71),14(84),15,17,29(83),30,32,44(72),45,47,59-dodecaene hydrate'
_journal_coden_Cambridge         4
_journal_volume                  136
_journal_year                    2014
_journal_page_first              7583
_journal_name_full               J.Am.Chem.Soc.
loop_
_publ_author_name
'Ming Liu'
M.A.Little
K.E.Jelfs
J.T.A.Jones
M.Schmidtmann
'Samantha Y.Chong'
T.Hasell
A.I.Cooper
_chemical_absolute_configuration unk
_diffrn_ambient_temperature      295
_exptl_crystal_density_meas      1.092
_exptl_crystal_density_diffrn    1.099
#These two values have been output from a single CSD field.
_refine_ls_R_factor_gt           0.0863
_refine_ls_wR_factor_gt          0.0863
_diffrn_radiation_probe          x-ray
_symmetry_cell_setting           cubic
_symmetry_space_group_name_H-M   'F 41 3 2'
_symmetry_Int_Tables_number      210
loop_
_symmetry_equiv_pos_site_id
_symmetry_equiv_pos_as_xyz
1 x,y,z
2 -x,1/2-y,1/2+z
3 1/2-x,1/2+y,-z
4 1/2+x,-y,1/2-z
5 z,x,y
6 1/2+z,-x,1/2-y
7 -z,1/2-x,1/2+y
8 1/2-z,1/2+x,-y
9 y,z,x
10 1/2-y,1/2+z,-x
11 1/2+y,-z,1/2-x
12 -y,1/2-z,1/2+x
13 3/4+y,1/4+x,3/4-z
14 1/4-y,1/4-x,1/4-z
15 1/4+y,3/4-x,3/4+z
16 3/4-y,3/4+x,1/4+z
17 3/4+x,1/4+z,3/4-y
18 3/4-x,3/4+z,1/4+y
19 1/4-x,1/4-z,1/4-y
20 1/4+x,3/4-z,3/4+y
21 3/4+z,1/4+y,3/4-x
22 1/4+z,3/4-y,3/4+x
23 3/4-z,3/4+y,1/4+x
24 1/4-z,1/4-y,1/4-x
25 x,1/2+y,1/2+z
26 -x,-y,z
27 1/2-x,y,1/2-z
28 1/2+x,1/2-y,-z
29 z,1/2+x,1/2+y
30 1/2+z,1/2-x,-y
31 -z,-x,y
32 1/2-z,x,1/2-y
33 y,1/2+z,1/2+x
34 1/2-y,z,1/2-x
35 1/2+y,1/2-z,-x
36 -y,-z,x
37 3/4+y,3/4+x,1/4-z
38 1/4-y,3/4-x,3/4-z
39 1/4+y,1/4-x,1/4+z
40 3/4-y,1/4+x,3/4+z
41 3/4+x,3/4+z,1/4-y
42 3/4-x,1/4+z,3/4+y
43 1/4-x,3/4-z,3/4-y
44 1/4+x,1/4-z,1/4+y
45 3/4+z,3/4+y,1/4-x
46 1/4+z,1/4-y,1/4+x
47 3/4-z,1/4+y,3/4+x
48 1/4-z,3/4-y,3/4-x
49 1/2+x,y,1/2+z
50 1/2-x,1/2-y,z
51 -x,1/2+y,1/2-z
52 x,-y,-z
53 1/2+z,x,1/2+y
54 z,-x,-y
55 1/2-z,1/2-x,y
56 -z,1/2+x,1/2-y
57 1/2+y,z,1/2+x
58 -y,1/2+z,1/2-x
59 y,-z,-x
60 1/2-y,1/2-z,x
61 1/4+y,1/4+x,1/4-z
62 3/4-y,1/4-x,3/4-z
63 3/4+y,3/4-x,1/4+z
64 1/4-y,3/4+x,3/4+z
65 1/4+x,1/4+z,1/4-y
66 1/4-x,3/4+z,3/4+y
67 3/4-x,1/4-z,3/4-y
68 3/4+x,3/4-z,1/4+y
69 1/4+z,1/4+y,1/4-x
70 3/4+z,3/4-y,1/4+x
71 1/4-z,3/4+y,3/4+x
72 3/4-z,1/4-y,3/4-x
73 1/2+x,1/2+y,z
74 1/2-x,-y,1/2+z
75 -x,y,-z
76 x,1/2-y,1/2-z
77 1/2+z,1/2+x,y
78 z,1/2-x,1/2-y
79 1/2-z,-x,1/2+y
80 -z,x,-y
81 1/2+y,1/2+z,x
82 -y,z,-x
83 y,1/2-z,1/2-x
84 1/2-y,-z,1/2+x
85 1/4+y,3/4+x,3/4-z
86 3/4-y,3/4-x,1/4-z
87 3/4+y,1/4-x,3/4+z
88 1/4-y,1/4+x,1/4+z
89 1/4+x,3/4+z,3/4-y
90 1/4-x,1/4+z,1/4+y
91 3/4-x,3/4-z,1/4-y
92 3/4+x,1/4-z,3/4+y
93 1/4+z,3/4+y,3/4-x
94 3/4+z,1/4-y,3/4+x
95 1/4-z,1/4+y,1/4+x
96 3/4-z,3/4-y,1/4-x
_cell_length_a                   25.712(11)
_cell_length_b                   25.712(11)
_cell_length_c                   25.712(11)
_cell_angle_alpha                90
_cell_angle_beta                 90
_cell_angle_gamma                90
_cell_volume                     16998.4
_cell_formula_units_Z            8
loop_
_atom_site_label
_atom_site_type_symbol
_atom_site_fract_x
_atom_site_fract_y
_atom_site_fract_z
N1 N 0.54315(12) 0.21510(11) 0.46480(10)
H1 H 0.530(2) 0.190(2) 0.478(2)
C1 C 0.62679(13) 0.14289(12) 0.42906(12)
H2 H 0.6359 0.1631 0.4577
C2 C 0.58330(13) 0.15658(12) 0.39975(12)
C3 C 0.55319(18) 0.20542(16) 0.41051(13)
H3 H 0.5723 0.2347 0.3964
H4 H 0.5202 0.2035 0.3923
C4 C 0.51186(11) 0.26257(10) 0.47276(10)
H5 H 0.4835 0.2626 0.4473
C5 C 0.54427(13) 0.31202(12) 0.46472(13)
H6 H 0.5734 0.3118 0.4887
H7 H 0.5581 0.3122 0.4296
C6 C 0.51237(15) 0.36133(12) 0.47330(12)
H8 H 0.5347 0.3915 0.4698
H9 H 0.4854 0.3636 0.4470
N1HA N 0.7151 0.0352 0.45685
H1HA H 0.69 0.022 0.47
C1HA C 0.64289 0.07094 0.37321
H2HA H 0.6631 0.0423 0.3641
C2HA C 0.65658 0.10025 0.4167
C3HA C 0.70542 0.08949 0.44681
H3HA H 0.7347 0.1036 0.4277
H4HA H 0.7035 0.1077 0.4798
C4HA C 0.76257 0.02724 0.48814
H5HA H 0.7626 0.0527 0.5165
C5HA C 0.81202 0.03528 0.45573
H6HA H 0.8118 0.0113 0.4266
H7HA H 0.8122 0.0704 0.4419
C6HA C 0.86133 0.0267 0.48763
H8HA H 0.8915 0.0302 0.4653
H9HA H 0.8636 0.053 0.5146
N1CB N 0.5352 0.04315 0.2849
H1CB H 0.522 0.03 0.31
C1CB C 0.57094 0.12679 0.35711
H2CB H 0.5423 0.1359 0.3369
C2CB C 0.60025 0.0833 0.34342
C3CB C 0.58949 0.05319 0.29458
H3CB H 0.6036 0.0723 0.2653
H4CB H 0.6077 0.0202 0.2965
C4CB C 0.52724 0.01186 0.23743
H5CB H 0.5527 -0.0165 0.2374
C5CB C 0.53528 0.04427 0.18798
H6CB H 0.5113 0.0734 0.1882
H7CB H 0.5704 0.0581 0.1878
C6CB C 0.5267 0.01237 0.13867
H8CB H 0.5302 0.0347 0.1085
H9CB H 0.553 -0.0146 0.1364
N1VB N 0.45685 0.2151 0.5352
H1VB H 0.47 0.19 0.522
C1VB C 0.37321 0.14289 0.57094
H2VB H 0.3641 0.1631 0.5423
C2VB C 0.4167 0.15658 0.60025
C3VB C 0.44681 0.20542 0.58949
H3VB H 0.4277 0.2347 0.6036
H4VB H 0.4798 0.2035 0.6077
C4VB C 0.48814 0.26257 0.52724
H5VB H 0.5165 0.2626 0.5527
C5VB C 0.45573 0.31202 0.53528
H6VB H 0.4266 0.3118 0.5113
H7VB H 0.4419 0.3122 0.5704
C6VB C 0.48763 0.36133 0.5267
H8VB H 0.4653 0.3915 0.5302
H9VB H 0.5146 0.3636 0.553
N1BA N 0.4648 0.04315 0.7151
H1BA H 0.478 0.03 0.69
C1BA C 0.42906 0.12679 0.64289
H2BA H 0.4577 0.1359 0.6631
C2BA C 0.39975 0.0833 0.65658
C3BA C 0.41051 0.05319 0.70542
H3BA H 0.3964 0.0723 0.7347
H4BA H 0.3923 0.0202 0.7035
C4BA C 0.47276 0.01186 0.76257
H5BA H 0.4473 -0.0165 0.7626
C5BA C 0.46472 0.04427 0.81202
H6BA H 0.4887 0.0734 0.8118
H7BA H 0.4296 0.0581 0.8122
C6BA C 0.4733 0.01237 0.86133
H8BA H 0.4698 0.0347 0.8915
H9BA H 0.447 -0.0146 0.8636
N1GB N 0.2849 0.0352 0.54315
H1GB H 0.31 0.022 0.53
C1GB C 0.35711 0.07094 0.62679
H2GB H 0.3369 0.0423 0.6359
C2GB C 0.34342 0.10025 0.5833
C3GB C 0.29458 0.08949 0.55319
H3GB H 0.2653 0.1036 0.5723
H4GB H 0.2965 0.1077 0.5202
C4GB C 0.23743 0.02724 0.51186
H5GB H 0.2374 0.0527 0.4835
C5GB C 0.18798 0.03528 0.54427
H6GB H 0.1882 0.0113 0.5734
H7GB H 0.1878 0.0704 0.5581
C6GB C 0.13867 0.0267 0.51237
H8GB H 0.1085 0.0302 0.5347
H9GB H 0.1364 0.053 0.4854
N1YB N 0.4648 -0.04315 0.2849
H1YB H 0.478 -0.03 0.31
C1YB C 0.42906 -0.12679 0.35711
H2YB H 0.4577 -0.1359 0.3369
C2YB C 0.39975 -0.0833 0.34342
C3YB C 0.41051 -0.05319 0.29458
H3YB H 0.3964 -0.0723 0.2653
H4YB H 0.3923 -0.0202 0.2965
C4YB C 0.47276 -0.01186 0.23743
H5YB H 0.4473 0.0165 0.2374
C5YB C 0.46472 -0.04427 0.18798
H6YB H 0.4887 -0.0734 0.1882
H7YB H 0.4296 -0.0581 0.1878
C6YB C 0.4733 -0.01237 0.13867
H8YB H 0.4698 -0.0347 0.1085
H9YB H 0.447 0.0146 0.1364
N1BC N 0.7151 -0.0352 0.54315
H1BC H 0.69 -0.022 0.53
C1BC C 0.64289 -0.07094 0.62679
H2BC H 0.6631 -0.0423 0.6359
C2BC C 0.65658 -0.10025 0.5833
C3BC C 0.70542 -0.08949 0.55319
H3BC H 0.7347 -0.1036 0.5723
H4BC H 0.7035 -0.1077 0.5202
C4BC C 0.76257 -0.02724 0.51186
H5BC H 0.7626 -0.0527 0.4835
C5BC C 0.81202 -0.03528 0.54427
H6BC H 0.8118 -0.0113 0.5734
H7BC H 0.8122 -0.0704 0.5581
C6BC C 0.86133 -0.0267 0.51237
H8BC H 0.8915 -0.0302 0.5347
H9BC H 0.8636 -0.053 0.4854
N1F N 0.5352 -0.04315 0.7151
H1F H 0.522 -0.03 0.69
C1F C 0.57094 -0.12679 0.64289
H2F H 0.5423 -0.1359 0.6631
C2F C 0.60025 -0.0833 0.65658
C3F C 0.58949 -0.05319 0.70542
H3F H 0.6036 -0.0723 0.7347
H4F H 0.6077 -0.0202 0.7035
C4F C 0.52724 -0.01186 0.76257
H5F H 0.5527 0.0165 0.7626
C5F C 0.53528 -0.04427 0.81202
H6F H 0.5113 -0.0734 0.8118
H7F H 0.5704 -0.0581 0.8122
C6F C 0.5267 -0.01237 0.86133
H8F H 0.5302 -0.0347 0.8915
H9F H 0.553 0.0146 0.8636
N1I N 0.2849 -0.0352 0.45685
H1I H 0.31 -0.022 0.47
C1I C 0.35711 -0.07094 0.37321
H2I H 0.3369 -0.0423 0.3641
C2I C 0.34342 -0.10025 0.4167
C3I C 0.29458 -0.08949 0.44681
H3I H 0.2653 -0.1036 0.4277
H4I H 0.2965 -0.1077 0.4798
C4I C 0.23743 -0.02724 0.48814
H5I H 0.2374 -0.0527 0.5165
C5I C 0.18798 -0.03528 0.45573
H6I H 0.1882 -0.0113 0.4266
H7I H 0.1878 -0.0704 0.4419
C6I C 0.13867 -0.0267 0.48763
H8I H 0.1085 -0.0302 0.4653
H9I H 0.1364 -0.053 0.5146
N1Y N 0.45685 -0.2151 0.4648
H1Y H 0.47 -0.19 0.478
C1Y C 0.37321 -0.14289 0.42906
H2Y H 0.3641 -0.1631 0.4577
C2Y C 0.4167 -0.15658 0.39975
C3Y C 0.44681 -0.20542 0.41051
H3Y H 0.4277 -0.2347 0.3964
H4Y H 0.4798 -0.2035 0.3923
C4Y C 0.48814 -0.26257 0.47276
H5Y H 0.5165 -0.2626 0.4473
C5Y C 0.45573 -0.31202 0.46472
H6Y H 0.4266 -0.3118 0.4887
H7Y H 0.4419 -0.3122 0.4296
C6Y C 0.48763 -0.36133 0.4733
H8Y H 0.4653 -0.3915 0.4698
H9Y H 0.5146 -0.3636 0.447
N1YA N 0.54315 -0.2151 0.5352
H1YA H 0.53 -0.19 0.522
C1YA C 0.62679 -0.14289 0.57094
H2YA H 0.6359 -0.1631 0.5423
C2YA C 0.5833 -0.15658 0.60025
C3YA C 0.55319 -0.20542 0.58949
H3YA H 0.5723 -0.2347 0.6036
H4YA H 0.5202 -0.2035 0.6077
C4YA C 0.51186 -0.26257 0.52724
H5YA H 0.4835 -0.2626 0.5527
C5YA C 0.54427 -0.31202 0.53528
H6YA H 0.5734 -0.3118 0.5113
H7YA H 0.5581 -0.3122 0.5704
C6YA C 0.51237 -0.36133 0.5267
H8YA H 0.5347 -0.3915 0.5302
H9YA H 0.4854 -0.3636 0.553

#END

