
#######################################################################
#
#                 Cambridge Crystallographic Data Centre
#                                CCDC 
#
#######################################################################
#
# If this CIF has been generated directly or indirectly from an entry in the 
# Cambridge Structural Database, then it will include bibliographic, chemical, 
# crystal, experimental, refinement or atomic coordinate data resulting from 
# the CCDC's data processing and validation procedures. Files generated from 
# CSD entries are Copyright 2015 Cambridge Crystallographic Data Centre. They 
# may be used in bona fide research applications only, and may not be copied or 
# further disseminated in any form, whether machine-readable or not, except for 
# the purposes of generating routine backup copies on your local computer 
# system.
# 
# Files arising from any other source may also contain material that is the 
# copyright of third parties, including the originator, and you should check 
# with the originator concerning the permitted uses of the information 
# contained in this CIF.
#
# For further information on the CCDC and the free tools enCIFer and Mercury
# for validating and visualising CIF files, please visit www.ccdc.cam.ac.uk
#
#######################################################################

data_VOMPAQ
_audit_creation_date             2014-08-21
_database_code_depnum_ccdc_archive 'CCDC 1020548'
_chemical_formula_moiety         'C78 H108 N12,4(C1 H4 O1),2(C1 H1 Cl3)'
_chemical_name_systematic        
'5,12,20,23,31,34,42,49,54,57,64,67-dodecaazapentadecacyclo[25.25.6.616,38.13,51.15,12.114,18.120,23.125,29.131,34.136,40.142,49.154,57.164,67.06,11.043,48]tetraheptaconta-1,3(60),14(72),15,17,25(70),26,28,36(62),37,39,51-dodecaene methanol chloroform solvate'
_journal_coden_Cambridge         4
_journal_volume                  136
_journal_year                    2014
_journal_page_first              7583
_journal_name_full               J.Am.Chem.Soc.
loop_
_publ_author_name
'Ming Liu'
M.A.Little
K.E.Jelfs
J.T.A.Jones
M.Schmidtmann
'Samantha Y.Chong'
T.Hasell
A.I.Cooper
_chemical_absolute_configuration unk
_diffrn_ambient_temperature      30
_exptl_crystal_density_meas      1.286
_exptl_crystal_density_diffrn    1.286
#These two values have been output from a single CSD field.
_refine_ls_R_factor_gt           0.172
_refine_ls_wR_factor_gt          0.172
_diffrn_radiation_probe          x-ray
_symmetry_cell_setting           cubic
_symmetry_space_group_name_H-M   'F 41 3 2'
_symmetry_Int_Tables_number      210
loop_
_symmetry_equiv_pos_site_id
_symmetry_equiv_pos_as_xyz
1 x,y,z
2 1/4+x,1/4-z,1/4+y
3 1/4+x,1/4+z,1/4-y
4 1/4+z,1/4+y,1/4-x
5 1/4-z,1/4+y,1/4+x
6 1/4-y,1/4+x,1/4+z
7 1/4+y,1/4-x,1/4+z
8 z,x,y
9 y,z,x
10 -y,-z,x
11 z,-x,-y
12 -y,z,-x
13 -z,-x,y
14 -z,x,-y
15 y,-z,-x
16 x,-y,-z
17 -x,y,-z
18 -x,-y,z
19 1/4+y,1/4+x,1/4-z
20 1/4-y,1/4-x,1/4-z
21 1/4+z,1/4-y,1/4+x
22 1/4-z,1/4-y,1/4-x
23 1/4-x,1/4+z,1/4+y
24 1/4-x,1/4-z,1/4-y
25 x,1/2+y,1/2+z
26 1/4+x,3/4-z,3/4+y
27 1/4+x,3/4+z,3/4-y
28 1/4+z,3/4+y,3/4-x
29 1/4-z,3/4+y,3/4+x
30 1/4-y,3/4+x,3/4+z
31 1/4+y,3/4-x,3/4+z
32 z,1/2+x,1/2+y
33 y,1/2+z,1/2+x
34 -y,1/2-z,1/2+x
35 z,1/2-x,1/2-y
36 -y,1/2+z,1/2-x
37 -z,1/2-x,1/2+y
38 -z,1/2+x,1/2-y
39 y,1/2-z,1/2-x
40 x,1/2-y,1/2-z
41 -x,1/2+y,1/2-z
42 -x,1/2-y,1/2+z
43 1/4+y,3/4+x,3/4-z
44 1/4-y,3/4-x,3/4-z
45 1/4+z,3/4-y,3/4+x
46 1/4-z,3/4-y,3/4-x
47 1/4-x,3/4+z,3/4+y
48 1/4-x,3/4-z,3/4-y
49 1/2+x,y,1/2+z
50 3/4+x,1/4-z,3/4+y
51 3/4+x,1/4+z,3/4-y
52 3/4+z,1/4+y,3/4-x
53 3/4-z,1/4+y,3/4+x
54 3/4-y,1/4+x,3/4+z
55 3/4+y,1/4-x,3/4+z
56 1/2+z,x,1/2+y
57 1/2+y,z,1/2+x
58 1/2-y,-z,1/2+x
59 1/2+z,-x,1/2-y
60 1/2-y,z,1/2-x
61 1/2-z,-x,1/2+y
62 1/2-z,x,1/2-y
63 1/2+y,-z,1/2-x
64 1/2+x,-y,1/2-z
65 1/2-x,y,1/2-z
66 1/2-x,-y,1/2+z
67 3/4+y,1/4+x,3/4-z
68 3/4-y,1/4-x,3/4-z
69 3/4+z,1/4-y,3/4+x
70 3/4-z,1/4-y,3/4-x
71 3/4-x,1/4+z,3/4+y
72 3/4-x,1/4-z,3/4-y
73 1/2+x,1/2+y,z
74 3/4+x,3/4-z,1/4+y
75 3/4+x,3/4+z,1/4-y
76 3/4+z,3/4+y,1/4-x
77 3/4-z,3/4+y,1/4+x
78 3/4-y,3/4+x,1/4+z
79 3/4+y,3/4-x,1/4+z
80 1/2+z,1/2+x,y
81 1/2+y,1/2+z,x
82 1/2-y,1/2-z,x
83 1/2+z,1/2-x,-y
84 1/2-y,1/2+z,-x
85 1/2-z,1/2-x,y
86 1/2-z,1/2+x,-y
87 1/2+y,1/2-z,-x
88 1/2+x,1/2-y,-z
89 1/2-x,1/2+y,-z
90 1/2-x,1/2-y,z
91 3/4+y,3/4+x,1/4-z
92 3/4-y,3/4-x,1/4-z
93 3/4+z,3/4-y,1/4+x
94 3/4-z,3/4-y,1/4-x
95 3/4-x,3/4+z,1/4+y
96 3/4-x,3/4-z,1/4-y
_cell_length_a                   25.370(3)
_cell_length_b                   25.370(3)
_cell_length_c                   25.370(3)
_cell_angle_alpha                90
_cell_angle_beta                 90
_cell_angle_gamma                90
_cell_volume                     16329.1
_cell_formula_units_Z            8
loop_
_atom_site_label
_atom_site_type_symbol
_atom_site_fract_x
_atom_site_fract_y
_atom_site_fract_z
C1 C 0.4734(3) 0.5119(4) 0.3633(3)
H1 H 0.4693 0.5341 0.3951
H2 H 0.4467 0.4834 0.3652
C2 C 0.4628(3) 0.5457(4) 0.3140(3)
H3 H 0.4261 0.5588 0.3140
H4 H 0.4870 0.5763 0.3130
C3 C 0.4722(2) 0.5100(3) 0.2667(2)
H5 H 0.4476 0.4794 0.2688
N1 N 0.4680(2) 0.5339(2) 0.21462(18)
C4 C 0.4135(3) 0.5383(3) 0.1971(3)
H6 H 0.3921 0.5526 0.2264
H7 H 0.4001 0.5025 0.1892
C5 C 0.4051(2) 0.5734(2) 0.1479(3)
C6 C 0.3628(2) 0.5620(2) 0.1149(3)
H8 H 0.3416 0.5317 0.1210
C7 C 0.5000 0.5000 0.1801(4)
H9 H 0.5230 0.5218 0.1573
C1Q C 0.5266 0.4881 0.3633
H1Q H 0.5307 0.4659 0.3951
H2Q H 0.5533 0.5166 0.3652
C2Q C 0.5372 0.4543 0.314
H3Q H 0.5739 0.4412 0.314
H4Q H 0.513 0.4237 0.313
C3Q C 0.5278 0.49 0.2667
H5Q H 0.5524 0.5206 0.2688
N1Q N 0.532 0.4661 0.21462
C4Q C 0.5865 0.4617 0.1971
H6Q H 0.6079 0.4474 0.2264
H7Q H 0.5999 0.4975 0.1892
C5Q C 0.5949 0.4266 0.1479
C6Q C 0.6372 0.438 0.1149
H8Q H 0.6584 0.4683 0.121
H9Q H 0.477 0.4782 0.1573
C1IA C 0.4881 0.8633 0.0266
H1IA H 0.4659 0.8951 0.0307
H2IA H 0.5166 0.8652 0.0533
C2IA C 0.4543 0.814 0.0372
H3IA H 0.4412 0.814 0.0739
H4IA H 0.4237 0.813 0.013
C3IA C 0.49 0.7667 0.0278
H5IA H 0.5206 0.7688 0.0524
N1IA N 0.4661 0.71462 0.032
C4IA C 0.4617 0.6971 0.0865
H6IA H 0.4474 0.7264 0.1079
H7IA H 0.4975 0.6892 0.0999
C5IA C 0.4266 0.6479 0.0949
C6IA C 0.438 0.6149 0.1372
H8IA H 0.4683 0.621 0.1584
C7FA C 0.5 0.6801 0
H9IA H 0.4782 0.6573 -0.023
C1HB C 0.1367 0.5266 0.0119
H1HB H 0.1049 0.5307 0.0341
H2HB H 0.1348 0.5533 -0.0166
C2HB C 0.186 0.5372 0.0457
H3HB H 0.186 0.5739 0.0588
H4HB H 0.187 0.513 0.0763
C3HB C 0.2333 0.5278 0.01
H5HB H 0.2312 0.5524 -0.0206
N1HB N 0.28538 0.532 0.0339
C4HB C 0.3029 0.5865 0.0383
H6HB H 0.2736 0.6079 0.0526
H7HB H 0.3108 0.5999 0.0025
C5HB C 0.3521 0.5949 0.0734
C6HB C 0.3851 0.6372 0.062
H8HB H 0.379 0.6584 0.0317
C7HB C 0.3199 0.5 0
H9HB H 0.3427 0.477 0.0218
C1FA C 0.5119 0.8633 -0.0266
H1FA H 0.5341 0.8951 -0.0307
H2FA H 0.4834 0.8652 -0.0533
C2FA C 0.5457 0.814 -0.0372
H3FA H 0.5588 0.814 -0.0739
H4FA H 0.5763 0.813 -0.013
C3FA C 0.51 0.7667 -0.0278
H5FA H 0.4794 0.7688 -0.0524
N1FA N 0.5339 0.71462 -0.032
C4FA C 0.5383 0.6971 -0.0865
H6FA H 0.5526 0.7264 -0.1079
H7FA H 0.5025 0.6892 -0.0999
C5FA C 0.5734 0.6479 -0.0949
C6FA C 0.562 0.6149 -0.1372
H8FA H 0.5317 0.621 -0.1584
H9FA H 0.5218 0.6573 0.023
C1LA C 0.5119 0.1367 0.0266
H1LA H 0.5341 0.1049 0.0307
H2LA H 0.4834 0.1348 0.0533
C2LA C 0.5457 0.186 0.0372
H3LA H 0.5588 0.186 0.0739
H4LA H 0.5763 0.187 0.013
C3LA C 0.51 0.2333 0.0278
H5LA H 0.4794 0.2312 0.0524
N1LA N 0.5339 0.28538 0.032
C4LA C 0.5383 0.3029 0.0865
H6LA H 0.5526 0.2736 0.1079
H7LA H 0.5025 0.3108 0.0999
C5LA C 0.5734 0.3521 0.0949
C6LA C 0.562 0.3851 0.1372
H8LA H 0.5317 0.379 0.1584
C7GA C 0.5 0.3199 0
H9LA H 0.5218 0.3427 -0.023
C1CB C 0.8633 0.4734 0.0119
H1CB H 0.8951 0.4693 0.0341
H2CB H 0.8652 0.4467 -0.0166
C2CB C 0.814 0.4628 0.0457
H3CB H 0.814 0.4261 0.0588
H4CB H 0.813 0.487 0.0763
C3CB C 0.7667 0.4722 0.01
H5CB H 0.7688 0.4476 -0.0206
N1CB N 0.71462 0.468 0.0339
C4CB C 0.6971 0.4135 0.0383
H6CB H 0.7264 0.3921 0.0526
H7CB H 0.6892 0.4001 0.0025
C5CB C 0.6479 0.4051 0.0734
C6CB C 0.6149 0.3628 0.062
H8CB H 0.621 0.3416 0.0317
C7CB C 0.6801 0.5 0
H9CB H 0.6573 0.523 0.0218
C1FB C 0.8633 0.5266 -0.0119
H1FB H 0.8951 0.5307 -0.0341
H2FB H 0.8652 0.5533 0.0166
C2FB C 0.814 0.5372 -0.0457
H3FB H 0.814 0.5739 -0.0588
H4FB H 0.813 0.513 -0.0763
C3FB C 0.7667 0.5278 -0.01
H5FB H 0.7688 0.5524 0.0206
N1FB N 0.71462 0.532 -0.0339
C4FB C 0.6971 0.5865 -0.0383
H6FB H 0.7264 0.6079 -0.0526
H7FB H 0.6892 0.5999 -0.0025
C5FB C 0.6479 0.5949 -0.0734
C6FB C 0.6149 0.6372 -0.062
H8FB H 0.621 0.6584 -0.0317
H9FB H 0.6573 0.477 -0.0218
C1IB C 0.1367 0.4734 -0.0119
H1IB H 0.1049 0.4693 -0.0341
H2IB H 0.1348 0.4467 0.0166
C2IB C 0.186 0.4628 -0.0457
H3IB H 0.186 0.4261 -0.0588
H4IB H 0.187 0.487 -0.0763
C3IB C 0.2333 0.4722 -0.01
H5IB H 0.2312 0.4476 0.0206
N1IB N 0.28538 0.468 -0.0339
C4IB C 0.3029 0.4135 -0.0383
H6IB H 0.2736 0.3921 -0.0526
H7IB H 0.3108 0.4001 -0.0025
C5IB C 0.3521 0.4051 -0.0734
C6IB C 0.3851 0.3628 -0.062
H8IB H 0.379 0.3416 -0.0317
H9IB H 0.3427 0.523 -0.0218
C1O C 0.4734 0.4881 -0.3633
H1O H 0.4693 0.4659 -0.3951
H2O H 0.4467 0.5166 -0.3652
C2O C 0.4628 0.4543 -0.314
H3O H 0.4261 0.4412 -0.314
H4O H 0.487 0.4237 -0.313
C3O C 0.4722 0.49 -0.2667
H5O H 0.4476 0.5206 -0.2688
N1O N 0.468 0.4661 -0.21462
C4O C 0.4135 0.4617 -0.1971
H6O H 0.3921 0.4474 -0.2264
H7O H 0.4001 0.4975 -0.1892
C5O C 0.4051 0.4266 -0.1479
C6O C 0.3628 0.438 -0.1149
H8O H 0.3416 0.4683 -0.121
C7O C 0.5 0.5 -0.1801
H9O H 0.523 0.4782 -0.1573
C1P C 0.5266 0.5119 -0.3633
H1P H 0.5307 0.5341 -0.3951
H2P H 0.5533 0.4834 -0.3652
C2P C 0.5372 0.5457 -0.314
H3P H 0.5739 0.5588 -0.314
H4P H 0.513 0.5763 -0.313
C3P C 0.5278 0.51 -0.2667
H5P H 0.5524 0.4794 -0.2688
N1P N 0.532 0.5339 -0.21462
C4P C 0.5865 0.5383 -0.1971
H6P H 0.6079 0.5526 -0.2264
H7P H 0.5999 0.5025 -0.1892
C5P C 0.5949 0.5734 -0.1479
C6P C 0.6372 0.562 -0.1149
H8P H 0.6584 0.5317 -0.121
H9P H 0.477 0.5218 -0.1573
C1GA C 0.4881 0.1367 -0.0266
H1GA H 0.4659 0.1049 -0.0307
H2GA H 0.5166 0.1348 -0.0533
C2GA C 0.4543 0.186 -0.0372
H3GA H 0.4412 0.186 -0.0739
H4GA H 0.4237 0.187 -0.013
C3GA C 0.49 0.2333 -0.0278
H5GA H 0.5206 0.2312 -0.0524
N1GA N 0.4661 0.28538 -0.032
C4GA C 0.4617 0.3029 -0.0865
H6GA H 0.4474 0.2736 -0.1079
H7GA H 0.4975 0.3108 -0.0999
C5GA C 0.4266 0.3521 -0.0949
C6GA C 0.438 0.3851 -0.1372
H8GA H 0.4683 0.379 -0.1584
H9GA H 0.4782 0.3427 0.023

#END

