
#######################################################################
#
#                 Cambridge Crystallographic Data Centre
#                                CCDC 
#
#######################################################################
#
# If this CIF has been generated directly or indirectly from an entry in the 
# Cambridge Structural Database, then it will include bibliographic, chemical, 
# crystal, experimental, refinement or atomic coordinate data resulting from 
# the CCDC's data processing and validation procedures. Files generated from 
# CSD entries are Copyright 2015 Cambridge Crystallographic Data Centre. They 
# may be used in bona fide research applications only, and may not be copied or 
# further disseminated in any form, whether machine-readable or not, except for 
# the purposes of generating routine backup copies on your local computer 
# system.
# 
# Files arising from any other source may also contain material that is the 
# copyright of third parties, including the originator, and you should check 
# with the originator concerning the permitted uses of the information 
# contained in this CIF.
#
# For further information on the CCDC and the free tools enCIFer and Mercury
# for validating and visualising CIF files, please visit www.ccdc.cam.ac.uk
#
#######################################################################

data_VOMNUI
_audit_creation_date             2014-08-21
_database_code_depnum_ccdc_archive 'CCDC 1020547'
_chemical_formula_moiety         'C75 H112 N12'
_chemical_name_systematic        
85,85-dimethyl-5,12,20,27,35,42,50,57,62,69,74,81-dodecaazatetradecacyclo[29.29.10.10^16,46^.1^3,59^.1^5,12^.1^14,18^.1^29,33^.1^44,48^.0^6,11^.0^21,26^.0^36,41^.0^51,56^.0^63,68^.0^75,80^]pentaoctaconta-1,3(71),14(84),15,17,29(83),30,32,44(72),45,47,59-dodecaene
_journal_coden_Cambridge         4
_journal_volume                  136
_journal_year                    2014
_journal_page_first              7583
_journal_name_full               J.Am.Chem.Soc.
loop_
_publ_author_name
'Ming Liu'
M.A.Little
K.E.Jelfs
J.T.A.Jones
M.Schmidtmann
'Samantha Y.Chong'
T.Hasell
A.I.Cooper
_chemical_absolute_configuration unk
_diffrn_ambient_temperature      295
_exptl_crystal_density_diffrn    1.109
#These two values have been output from a single CSD field.
_refine_ls_R_factor_gt           0.0829
_refine_ls_wR_factor_gt          0.0829
_diffrn_radiation_probe          x-ray
_symmetry_cell_setting           orthorhombic
_symmetry_space_group_name_H-M   'P 21 21 21'
_symmetry_Int_Tables_number      19
loop_
_symmetry_equiv_pos_site_id
_symmetry_equiv_pos_as_xyz
1 x,y,z
2 1/2-x,-y,1/2+z
3 1/2+x,1/2-y,-z
4 -x,1/2+y,1/2-z
_cell_length_a                   14.763(5)
_cell_length_b                   17.458(6)
_cell_length_c                   27.451(10)
_cell_angle_alpha                90
_cell_angle_beta                 90
_cell_angle_gamma                90
_cell_volume                     7075.01
_cell_formula_units_Z            4
loop_
_atom_site_label
_atom_site_type_symbol
_atom_site_fract_x
_atom_site_fract_y
_atom_site_fract_z
N1 N 0.4634(4) 0.0500(3) 0.43678(19)
H1 H 0.4527 0.0386 0.4061
N2 N 0.2880(4) -0.0169(3) 0.44781(19)
H2 H 0.2851 0.0334 0.4489
N3 N -0.1215(4) 0.1557(3) 0.43794(19)
H3 H -0.1309 0.1576 0.4063
N4 N -0.1181(4) 0.3130(4) 0.4213(2)
H4 H -0.0628 0.3029 0.4314
N5 N 0.1908(4) 0.1133(3) 0.28037(19)
N6 N 0.2993(4) 0.2101(4) 0.2629(2)
N7 N 0.2658(4) 0.4704(4) 0.3776(2)
H5 H 0.2785 0.4480 0.3498
N8 N 0.4410(4) 0.4053(4) 0.3940(2)
H6 H 0.4101 0.3763 0.4143
N9 N 0.1385(4) 0.4022(4) 0.2111(2)
H7 H 0.1825 0.3852 0.2298
N10 N 0.2949(5) 0.4775(5) 0.1762(4)
H8 H 0.2641 0.5113 0.1932
N11 N 0.7207(5) 0.3131(5) 0.2080(4)
H9 H 0.7121 0.3520 0.2279
C1 C 0.5033(5) 0.2462(5) 0.4046(2)
H10 H 0.4540 0.2635 0.4239
C2 C 0.5364(5) 0.1732(5) 0.4116(2)
C3 C 0.6064(5) 0.1493(4) 0.3821(2)
H11 H 0.6308 0.0994 0.3865
C4 C 0.6424(5) 0.1962(5) 0.3462(3)
C5 C 0.6094(5) 0.2696(5) 0.3408(3)
H12 H 0.6344 0.3025 0.3167
C6 C 0.5406(5) 0.2951(5) 0.3700(3)
C7 C 0.5025(5) 0.1235(5) 0.4525(2)
H13 H 0.5534 0.1130 0.4750
H14 H 0.4559 0.1522 0.4709
C8 C 0.7174(6) 0.1683(5) 0.3119(3)
H15 H 0.6945 0.1246 0.2925
C9 C 0.5096(6) 0.3758(5) 0.3610(3)
H16 H 0.5631 0.4099 0.3627
H17 H 0.4856 0.3788 0.3273
C10 C 0.4347(6) 0.2827(5) 0.2398(3)
C11 C 0.5176(5) 0.2664(4) 0.2206(3)
H18 H 0.5461 0.2198 0.2300
C12 C 0.5625(5) 0.3132(5) 0.1885(3)
C13 C 0.5208(5) 0.3803(5) 0.1738(3)
H19 H 0.5502 0.4133 0.1512
C14 C 0.4364(6) 0.3994(5) 0.1918(3)
C15 C 0.3947(5) 0.3511(6) 0.2258(3)
H20 H 0.3381 0.3655 0.2395
C16 C 0.3889(5) 0.2338(5) 0.2776(3)
H21 H 0.4263 0.1877 0.2837
H22 H 0.3846 0.2629 0.3084
C17 C 0.6560(5) 0.2934(5) 0.1708(3)
H23 H 0.6597 0.2380 0.1635
H24 H 0.6696 0.3221 0.1406
C18 C 0.3950(6) 0.4754(6) 0.1769(5)
H25 H 0.4168 0.5154 0.1997
H26 H 0.4175 0.4888 0.1440
C19 C 0.0244(5) 0.4128(4) 0.3858(3)
H27 H 0.0184 0.4124 0.4203
C20 C -0.0478(5) 0.3888(4) 0.3578(3)
C21 C -0.0370(5) 0.3889(5) 0.3068(3)
H28 H -0.0857 0.3724 0.2867
C22 C 0.0426(5) 0.4125(4) 0.2855(3)
C23 C 0.1135(5) 0.4374(5) 0.3149(3)
H29 H 0.1684 0.4545 0.3004
C24 C 0.1043(5) 0.4374(4) 0.3658(3)
C25 C -0.1352(5) 0.3635(5) 0.3808(3)
H30 H -0.1692 0.4089 0.3922
H31 H -0.1727 0.3367 0.3562
C26 C 0.0499(5) 0.4168(5) 0.2286(2)
H32 H 0.0077 0.3791 0.2141
H33 H 0.0307 0.4684 0.2177
C27 C 0.1754(5) 0.4699(5) 0.3978(3)
H34 H 0.1583 0.5232 0.4060
H35 H 0.1764 0.4403 0.4285
C28 C 0.0861(5) 0.0706(5) 0.3474(2)
C29 C 0.0201(5) 0.0988(4) 0.3784(2)
H36 H -0.0192 0.1385 0.3676
C30 C 0.0107(5) 0.0696(4) 0.4252(2)
C31 C 0.0712(5) 0.0142(4) 0.4414(3)
H37 H 0.0659 -0.0055 0.4735
C32 C 0.1393(5) -0.0125(4) 0.4110(3)
C33 C 0.1448(5) 0.0160(4) 0.3633(2)
H38 H 0.1900 -0.0032 0.3419
C34 C 0.0984(5) 0.1032(5) 0.2959(2)
H39 H 0.0678 0.0684 0.2726
H40 H 0.0673 0.1533 0.2942
C35 C -0.0602(5) 0.1009(5) 0.4600(2)
H41 H -0.0960 0.0575 0.4731
H42 H -0.0290 0.1257 0.4878
C36 C 0.2118(5) -0.0640(4) 0.4304(3)
H43 H 0.1875 -0.0951 0.4576
H44 H 0.2328 -0.0991 0.4045
C37 C 0.4441(5) -0.0020(4) 0.4768(2)
H45 H 0.4225 0.0291 0.5051
C38 C 0.5285(5) -0.0452(5) 0.4923(3)
H46 H 0.5511 -0.0759 0.4645
H47 H 0.5763 -0.0080 0.5013
C39 C 0.5107(5) -0.0977(5) 0.5351(3)
H48 H 0.5666 -0.1261 0.5435
H49 H 0.4926 -0.0670 0.5639
C40 C 0.4363(6) -0.1533(5) 0.5222(3)
H50 H 0.4573 -0.1869 0.4955
H51 H 0.4231 -0.1860 0.5508
C41 C 0.3507(5) -0.1132(5) 0.5067(2)
H52 H 0.3263 -0.0832 0.5343
H53 H 0.3048 -0.1518 0.4972
C42 C 0.3692(5) -0.0592(4) 0.4632(2)
H54 H 0.3908 -0.0908 0.4351
C43 C -0.1670(5) 0.2081(4) 0.4721(2)
H55 H -0.1210 0.2247 0.4966
C44 C -0.2437(5) 0.1705(4) 0.4995(2)
H56 H -0.2196 0.1271 0.5188
H57 H -0.2881 0.1497 0.4759
C45 C -0.2917(5) 0.2269(5) 0.5337(3)
H58 H -0.3443 0.2012 0.5490
H59 H -0.2496 0.2424 0.5599
C46 C -0.3234(5) 0.2964(5) 0.5072(3)
H60 H -0.3493 0.3333 0.5308
H61 H -0.3718 0.2818 0.4840
C47 C -0.2461(5) 0.3345(5) 0.4795(3)
H62 H -0.2015 0.3548 0.5031
H63 H -0.2703 0.3782 0.4606
C48 C -0.1983(5) 0.2792(4) 0.4449(3)
H64 H -0.2421 0.2633 0.4190
C49 C 0.4289(5) 0.4883(5) 0.3898(3)
H65 H 0.4355 0.5028 0.3548
C50 C 0.4991(5) 0.5308(6) 0.4184(3)
H66 H 0.5600 0.5159 0.4067
H67 H 0.4944 0.5161 0.4532
C51 C 0.4881(6) 0.6167(6) 0.4138(3)
H68 H 0.4972 0.6323 0.3795
H69 H 0.5343 0.6429 0.4340
C52 C 0.3941(6) 0.6398(6) 0.4305(3)
H70 H 0.3885 0.6303 0.4659
H71 H 0.3858 0.6954 0.4249
C53 C 0.3209(5) 0.5966(5) 0.4041(3)
H72 H 0.3195 0.6132 0.3696
H73 H 0.2615 0.6092 0.4188
C54 C 0.3352(5) 0.5105(5) 0.4062(3)
H74 H 0.3284 0.4942 0.4410
C55 C 0.2497(6) 0.4207(6) 0.1458(3)
H75 H 0.2767 0.3694 0.1529
C56 C 0.1504(5) 0.4182(5) 0.1588(3)
H76 H 0.1244 0.4700 0.1521
C57 C 0.0994(6) 0.3604(5) 0.1271(3)
H77 H 0.0337 0.3646 0.1338
H78 H 0.1188 0.3079 0.1360
C58 C 0.1168(6) 0.3737(6) 0.0718(3)
H79 H 0.0893 0.3315 0.0529
H80 H 0.0877 0.4222 0.0616
C59 C 0.2191(8) 0.3777(8) 0.0610(4)
H81 H 0.2472 0.3271 0.0674
H82 H 0.2288 0.3905 0.0263
C60 C 0.2631(7) 0.4376(8) 0.0927(4)
H83 H 0.3288 0.4396 0.0854
H84 H 0.2369 0.4884 0.0850
C61 C 0.2929(5) 0.1548(4) 0.2231(2)
H85 H 0.3358 0.1115 0.2293
C62 C 0.1973(5) 0.1264(4) 0.2275(2)
H86 H 0.1548 0.1685 0.2181
C63 C 0.1805(5) 0.0588(5) 0.1955(2)
H87 H 0.1184 0.0390 0.2006
H88 H 0.2241 0.0174 0.2030
C64 C 0.1925(6) 0.0859(5) 0.1426(3)
H89 H 0.1851 0.0419 0.1202
H90 H 0.1453 0.1242 0.1346
C65 C 0.2855(6) 0.1213(5) 0.1353(3)
H91 H 0.3318 0.0807 0.1390
H92 H 0.2896 0.1409 0.1015
C66 C 0.3075(6) 0.1859(5) 0.1701(2)
H93 H 0.2672 0.2302 0.1640
H94 H 0.3710 0.2026 0.1657
C67 C 0.7800(6) 0.1867(7) 0.2294(3)
C68 C 0.8662(5) 0.1398(7) 0.2389(3)
H95 H 0.9027 0.1647 0.2646
H96 H 0.8499 0.0877 0.2501
C69 C 0.9207(5) 0.1349(5) 0.1923(3)
H97 H 0.9781 0.1075 0.1989
H98 H 0.8863 0.1051 0.1679
C70 C 0.9413(6) 0.2119(5) 0.1722(4)
H99 H 0.9723 0.2062 0.1405
H100 H 0.9828 0.2391 0.1946
C71 C 0.8557(6) 0.2594(5) 0.1654(4)
H101 H 0.8725 0.3117 0.1547
H102 H 0.8181 0.2360 0.1395
C72 C 0.8022(5) 0.2642(6) 0.2110(4)
H103 H 0.8427 0.2882 0.2359
C73 C 0.2432(5) 0.1767(4) 0.3043(2)
C74 C 0.3004(5) 0.1426(5) 0.3448(3)
H104 H 0.2608 0.1211 0.3699
H105 H 0.3386 0.1826 0.3591
H106 H 0.3389 0.1019 0.3314
C75 C 0.1871(6) 0.2421(5) 0.3253(3)
H107 H 0.1407 0.2573 0.3017
H108 H 0.2267 0.2858 0.3322
H109 H 0.1580 0.2252 0.3555
N12 N 0.7484(9) 0.2289(8) 0.2788(5)
H110 H 0.7495 0.2784 0.2848
H111 H 0.7376 0.1176 0.3240
H112 H 0.7592 0.1621 0.1984
N13? N 0.7013(8) 0.1610(8) 0.2644(5)
H113? H 0.7693 0.1499 0.3315
H114? H 0.7310 0.1592 0.2112
H115? H 0.7693 0.2037 0.3156
H116? H 0.6496 0.1430 0.2532

#END

