
#######################################################################
#
#                 Cambridge Crystallographic Data Centre
#                                CCDC 
#
#######################################################################
#
# If this CIF has been generated directly or indirectly from an entry in the 
# Cambridge Structural Database, then it will include bibliographic, chemical, 
# crystal, experimental, refinement or atomic coordinate data resulting from 
# the CCDC's data processing and validation procedures. Files generated from 
# CSD entries are Copyright 2015 Cambridge Crystallographic Data Centre. They 
# may be used in bona fide research applications only, and may not be copied or 
# further disseminated in any form, whether machine-readable or not, except for 
# the purposes of generating routine backup copies on your local computer 
# system.
# 
# Files arising from any other source may also contain material that is the 
# copyright of third parties, including the originator, and you should check 
# with the originator concerning the permitted uses of the information 
# contained in this CIF.
#
# For further information on the CCDC and the free tools enCIFer and Mercury
# for validating and visualising CIF files, please visit www.ccdc.cam.ac.uk
#
#######################################################################

data_ZIRCIO
_audit_creation_date             2014-01-09
_database_code_depnum_ccdc_archive 'CCDC 948612'
_chemical_formula_moiety         'C336 H240 B24 O48'
_chemical_name_systematic        
'dodecakis(22,25-Diethyl-5,7,15,17-tetraoxa-6,16-diboraheptacyclo[9.9.6.02,10.04,8.012,20.014,18.021,26]hexacosa-2(10),3,8,12(20),13,18,21,23,25-nonaene-6,16-diyl)octakis(benzene-1,3,5-triyl) unknown solvate'
_journal_coden_Cambridge         179
_journal_volume                  53
_journal_year                    2014
_journal_page_first              1516
_journal_name_full               Angew.Chem.,Int.Ed.
loop_
_publ_author_name
'Gang Zhang'
O.Presly
F.White
I.M.Oppel
M.Mastalerz
_chemical_absolute_configuration unk
_diffrn_ambient_temperature      90
_exptl_crystal_density_meas      0.457
_exptl_crystal_density_diffrn    0.457
#These two values have been output from a single CSD field.
_refine_ls_R_factor_gt           0.125
_refine_ls_wR_factor_gt          0.125
_diffrn_radiation_probe          x-ray
_symmetry_cell_setting           triclinic
_symmetry_space_group_name_H-M   'P -1'
_symmetry_Int_Tables_number      2
loop_
_symmetry_equiv_pos_site_id
_symmetry_equiv_pos_as_xyz
1 x,y,z
2 -x,-y,-z
_cell_length_a                   27.7864(11)
_cell_length_b                   27.8540(17)
_cell_length_c                   29.3623(19)
_cell_angle_alpha                111.469(6)
_cell_angle_beta                 101.316(4)
_cell_angle_gamma                105.397(4)
_cell_volume                     19268.5
_exptl_crystal_colour            'dark red'
_cell_formula_units_Z            1
loop_
_atom_site_label
_atom_site_type_symbol
_atom_site_fract_x
_atom_site_fract_y
_atom_site_fract_z
C1 C 0.6460(2) 0.1879(2) 0.0955(2)
C2 C 0.6903(2) 0.1878(2) 0.0804(2)
C3 C 0.7402(2) 0.2249(3) 0.1148(3)
H1 H 0.7699 0.2248 0.1047
C4 C 0.7457(2) 0.2621(2) 0.1642(2)
H2 H 0.7790 0.2869 0.1872
C5 C 0.7013(2) 0.2622(2) 0.1793(2)
C6 C 0.6514(2) 0.2251(3) 0.1450(2)
C7 C 0.5886(3) 0.1509(3) 0.0619(3)
H3 H 0.5835 0.1242 0.0268
C8 C 0.6849(4) 0.1470(4) 0.0270(3)
H4 H 0.7170 0.1593 0.0192
H5 H 0.6559 0.1458 0.0016
C9 C 0.6745(7) 0.0879(5) 0.0232(6)
H6 H 0.6668 0.0622 -0.0121
H7 H 0.6451 0.0773 0.0346
H8 H 0.7053 0.0878 0.0446
C10 C 0.7087(4) 0.2964(5) 0.2356(3)
H9 H 0.7455 0.3101 0.2565
H10 H 0.6874 0.2741 0.2483
C11 C 0.6914(7) 0.3447(6) 0.2380(6)
H11 H 0.7048 0.3596 0.2162
H12 H 0.7050 0.3732 0.2730
H13 H 0.6535 0.3318 0.2262
C12 C 0.6021(3) 0.2231(3) 0.1589(3)
H14 H 0.6073 0.2492 0.1943
C13 C 0.3879(3) 0.6625(3) 0.2673(3)
C14 C 0.4280(3) 0.7080(4) 0.3092(3)
C15 C 0.4382(3) 0.7608(3) 0.3121(3)
H15 H 0.4650 0.7913 0.3402
C16 C 0.4084(4) 0.7682(3) 0.2731(4)
H16 H 0.4152 0.8035 0.2750
C17 C 0.3683(4) 0.7227(4) 0.2312(3)
C18 C 0.3580(3) 0.6698(3) 0.2283(3)
C19 C 0.3712(4) 0.6016(4) 0.2575(4)
H17 H 0.3921 0.5959 0.2847
C20 C 0.4628(5) 0.7015(5) 0.3508(5)
H18 H 0.4953 0.7339 0.3690
H19 H 0.4717 0.6692 0.3354
C21 C 0.4334(9) 0.6947(9) 0.3895(7)
H20 H 0.4039 0.6600 0.3724
H21 H 0.4210 0.7246 0.4015
H22 H 0.4572 0.6954 0.4184
C22 C 0.3423(5) 0.7308(5) 0.1874(5)
H23 H 0.3387 0.7010 0.1551
H24 H 0.3640 0.7655 0.1892
C23 C 0.2883(6) 0.7319(7) 0.1882(6)
H25 H 0.2650 0.7166 0.1533
H26 H 0.2912 0.7695 0.2069
H27 H 0.2743 0.7102 0.2049
C24 C 0.3138(4) 0.6205(4) 0.1846(4)
H28 H 0.2929 0.6268 0.1579
C25 C 0.0691(4) 0.3985(4) 0.5807(4)
C26 C 0.0491(4) 0.4265(5) 0.6175(4)
C27 C 0.0832(6) 0.4735(5) 0.6623(4)
H29 H 0.0698 0.4922 0.6870
C28 C 0.1371(5) 0.4924(4) 0.6703(4)
H30 H 0.1599 0.5239 0.7003
C29 C 0.1570(4) 0.4644(5) 0.6335(4)
C30 C 0.1230(4) 0.4174(4) 0.5887(4)
C31 C 0.0357(4) 0.3543(4) 0.5260(4)
H31 H -0.0028 0.3423 0.5166
C32 C -0.0081(6) 0.4026(8) 0.6120(8)
H32 H -0.0125 0.4133 0.6459
H33 H -0.0213 0.3624 0.5940
C33 C -0.0389(9) 0.4258(15) 0.5805(13)
H34 H -0.0510 0.4514 0.6028
H35 H -0.0687 0.3957 0.5526
H36 H -0.0160 0.4446 0.5667
C34 C 0.2151(5) 0.4890(7) 0.6443(6)
H37 H 0.2249 0.5259 0.6461
H38 H 0.2255 0.4661 0.6172
C35 C 0.2418(12) 0.492(3) 0.6962(18)
H39 H 0.2345 0.4546 0.6930
H40 H 0.2284 0.5113 0.7219
H41 H 0.2792 0.5106 0.7065
C36 C 0.1413(4) 0.3873(5) 0.5455(5)
H42 H 0.1799 0.3999 0.5550
C37 C 0.3775(3) -0.0698(3) 0.4815(2)
C38 C 0.3900(3) -0.0990(2) 0.5085(3)
C39 C 0.4300(3) -0.0714(4) 0.5562(3)
H43 H 0.4383 -0.0910 0.5743
C40 C 0.4574(3) -0.0146(4) 0.5769(2)
H44 H 0.4841 0.0039 0.6088
C41 C 0.4449(3) 0.0147(3) 0.5498(3)
C42 C 0.4050(3) -0.0129(3) 0.5021(3)
C43 C 0.3335(3) -0.0939(3) 0.4306(3)
H45 H 0.3150 -0.1342 0.4151
C44 C 0.3586(5) -0.1596(4) 0.4901(5)
H46 H 0.3211 -0.1666 0.4786
H47 H 0.3658 -0.1697 0.5183
C45 C 0.3739(11) -0.1952(7) 0.4446(9)
H48 H 0.3502 -0.2023 0.4122
H49 H 0.3716 -0.2298 0.4456
H50 H 0.4094 -0.1754 0.4478
C46 C 0.4700(5) 0.0760(4) 0.5776(5)
H51 H 0.4856 0.0876 0.6143
H52 H 0.4438 0.0924 0.5732
C47 C 0.5123(5) 0.0949(5) 0.5558(5)
H53 H 0.4962 0.0865 0.5203
H54 H 0.5363 0.0759 0.5576
H55 H 0.5312 0.1342 0.5756
C48 C 0.3871(4) 0.0167(3) 0.4728(3)
H56 H 0.4065 0.0568 0.4881
C49 C 0.2818(3) 0.2319(2) -0.3746(3)
C50 C 0.3125(3) 0.2302(3) -0.4069(3)
C51 C 0.3223(3) 0.2699(3) -0.4254(2)
H57 H 0.3428 0.2687 -0.4470
C52 C 0.3016(3) 0.3113(3) -0.4116(3)
H58 H 0.3082 0.3379 -0.4240
C53 C 0.2710(3) 0.3131(2) -0.3793(3)
C54 C 0.2611(2) 0.2733(3) -0.3608(2)
C55 C 0.2699(4) 0.1931(3) -0.3501(3)
H59 H 0.2854 0.1645 -0.3588
C56 C 0.3340(5) 0.1845(4) -0.4227(4)
H60 H 0.3439 0.1819 -0.4532
H61 H 0.3064 0.1494 -0.4319
C57 C 0.3822(5) 0.1940(5) -0.3797(5)
H62 H 0.4102 0.1898 -0.3935
H63 H 0.3727 0.1673 -0.3664
H64 H 0.3939 0.2307 -0.3522
C58 C 0.2514(4) 0.3595(4) -0.3642(4)
H65 H 0.2150 0.3457 -0.3654
H66 H 0.2527 0.3759 -0.3882
C59 C 0.2864(5) 0.4037(5) -0.3088(4)
H67 H 0.3209 0.4218 -0.3091
H68 H 0.2895 0.3860 -0.2863
H69 H 0.2707 0.4306 -0.2965
C60 C 0.2256(3) 0.2700(3) -0.3292(3)
H70 H 0.2107 0.2992 -0.3207
C61 C 0.2865(3) -0.4537(2) -0.1320(3)
C62 C 0.3145(3) -0.4810(3) -0.1592(2)
C63 C 0.3200(3) -0.5275(3) -0.1550(3)
H71 H 0.3388 -0.5457 -0.1732
C64 C 0.2976(3) -0.5467(2) -0.1237(3)
H72 H 0.3013 -0.5778 -0.1209
C65 C 0.2696(3) -0.5195(3) -0.0965(3)
C66 C 0.2640(3) -0.4730(3) -0.1007(2)
C67 C 0.2787(4) -0.4013(3) -0.1317(4)
H73 H 0.2949 -0.3864 -0.1529
C68 C 0.3373(4) -0.4603(4) -0.1934(4)
H74 H 0.3144 -0.4450 -0.2081
H75 H 0.3387 -0.4912 -0.2218
C69 C 0.3933(5) -0.4154(5) -0.1637(5)
H76 H 0.4050 -0.4000 -0.1858
H77 H 0.4171 -0.4317 -0.1532
H78 H 0.3926 -0.3865 -0.1337
C70 C 0.2526(5) -0.5366(5) -0.0580(4)
H79 H 0.2577 -0.5042 -0.0270
H80 H 0.2729 -0.5569 -0.0484
C71 C 0.1944(7) -0.5733(9) -0.0836(9)
H81 H 0.1777 -0.5607 -0.1064
H82 H 0.1779 -0.5714 -0.0575
H83 H 0.1909 -0.6109 -0.1031
C72 C 0.2366(4) -0.4399(4) -0.0704(4)
H84 H 0.2206 -0.4546 -0.0491
C73 C 0.4151(3) -0.0820(4) 0.2076(2)
C74 C 0.4453(3) -0.0385(2) 0.2003(3)
H85 H 0.4610 -0.0029 0.2275
C75 C 0.4520(2) -0.0483(3) 0.1525(3)
C76 C 0.4285(3) -0.1015(4) 0.1119(2)
H86 H 0.4330 -0.1081 0.0799
C77 C 0.3983(3) -0.1450(2) 0.1191(3)
C78 C 0.3916(2) -0.1352(3) 0.1670(3)
H87 H 0.3714 -0.1643 0.1718
B1 B 0.4069(5) -0.0736(5) 0.2571(4)
O1 O 0.3788(2) -0.1132(2) 0.2696(2)
C79 C 0.3773(3) -0.0898(3) 0.31871(18)
C80 C 0.3538(2) -0.11024(19) 0.3488(3)
H88 H 0.3352 -0.1481 0.3359
C81 C 0.3581(2) -0.0741(3) 0.3983(3)
C82 C 0.3859(3) -0.0175(3) 0.41757(18)
C83 C 0.4094(2) 0.00300(18) 0.3874(3)
H89 H 0.4280 0.0409 0.4004
C84 C 0.4051(2) -0.0331(3) 0.3380(2)
O2 O 0.4230(2) -0.0209(3) 0.3020(2)
B2 B 0.4838(5) -0.0013(5) 0.1424(5)
O3 O 0.5062(2) 0.0553(3) 0.1822(2)
C85 C 0.5296(2) 0.0829(3) 0.1564(2)
C86 C 0.5552(3) 0.1399(3) 0.17582(18)
H90 H 0.5597 0.1633 0.2098
C87 C 0.5740(2) 0.16207(18) 0.1445(3)
C88 C 0.5673(2) 0.1272(3) 0.0938(3)
C89 C 0.5417(2) 0.0701(3) 0.07438(18)
H91 H 0.5372 0.0468 0.0404
C90 C 0.5229(2) 0.04801(18) 0.1057(3)
O4 O 0.4948(2) -0.0036(2) 0.0992(2)
B3 B 0.3736(5) -0.2059(5) 0.0727(4)
O5 O 0.3765(2) -0.2152(2) 0.0260(2)
C91 C 0.3449(2) -0.2717(2) -0.0041(3)
C92 C 0.3306(3) -0.3080(3) -0.0562(3)
H92 H 0.3447 -0.2960 -0.0781
C93 C 0.2951(3) -0.3621(3) -0.07550(19)
C94 C 0.2740(2) -0.3800(2) -0.0428(3)
C95 C 0.2883(3) -0.3437(3) 0.0093(3)
H93 H 0.2742 -0.3557 0.0312
C96 C 0.3238(3) -0.2896(3) 0.02859(19)
O6 O 0.3395(3) -0.2487(3) 0.0776(2)
C97 C 0.3993(3) 0.3938(2) 0.0276(3)
C98 C 0.4285(3) 0.3665(3) 0.0446(2)
H94 H 0.4437 0.3782 0.0799
C99 C 0.4350(2) 0.3216(3) 0.0088(3)
C100 C 0.4123(3) 0.3040(2) -0.0439(3)
H95 H 0.4166 0.2740 -0.0678
C101 C 0.3831(3) 0.3313(3) -0.0608(2)
C102 C 0.3766(2) 0.3762(3) -0.0251(4)
H96 H 0.3571 0.3945 -0.0364
B4 B 0.3928(5) 0.4435(5) 0.0682(5)
O7 O 0.3607(3) 0.4722(3) 0.0547(3)
C103 C 0.3622(3) 0.5065(3) 0.1029(2)
C104 C 0.3372(3) 0.5444(3) 0.1146(3)
H97 H 0.3171 0.5488 0.0882
C105 C 0.3423(3) 0.5757(3) 0.1658(4)
C106 C 0.3723(3) 0.5691(3) 0.2053(2)
C107 C 0.3973(3) 0.5312(3) 0.1936(3)
H98 H 0.4174 0.5267 0.2200
C108 C 0.3923(3) 0.4999(3) 0.1424(4)
O8 O 0.4111(3) 0.4597(3) 0.1203(3)
B5 B 0.4687(5) 0.2928(5) 0.0297(5)
O9 O 0.4902(3) 0.3095(2) 0.0820(3)
C109 C 0.5162(2) 0.2745(2) 0.0837(3)
C110 C 0.5457(3) 0.2701(2) 0.1251(2)
H99 H 0.5502 0.2939 0.1588
C111 C 0.5685(2) 0.2302(3) 0.1159(2)
C112 C 0.5618(2) 0.1947(2) 0.0654(3)
C113 C 0.5323(3) 0.1991(2) 0.0241(2)
H100 H 0.5278 0.1753 -0.0097
C114 C 0.5095(2) 0.2390(3) 0.0332(2)
O10 O 0.4795(2) 0.2485(2) -0.0033(2)
B6 B 0.3561(5) 0.3104(5) -0.1161(5)
O11 O 0.3592(2) 0.2663(3) -0.1573(3)
C115 C 0.3286(2) 0.2618(3) -0.2023(3)
C116 C 0.3171(3) 0.2246(2) -0.2536(3)
H101 H 0.3315 0.1972 -0.2613
C117 C 0.2840(3) 0.2284(3) -0.2932(2)
C118 C 0.2625(2) 0.2693(3) -0.2817(3)
C119 C 0.2740(3) 0.3064(3) -0.2304(3)
H102 H 0.2596 0.3338 -0.2227
C120 C 0.3070(3) 0.3027(3) -0.1908(2)
O12 O 0.3235(3) 0.3339(2) -0.1381(2)
C121 C 0.0727(4) 0.0838(2) 0.4773(2)
C122 C 0.1181(2) 0.0716(3) 0.4776(2)
H103 H 0.1507 0.1000 0.4891
C123 C 0.1148(3) 0.0169(4) 0.4608(2)
C124 C 0.0661(3) -0.0256(2) 0.4437(2)
H104 H 0.0639 -0.0622 0.4325
C125 C 0.0207(2) -0.0134(3) 0.4434(2)
C126 C 0.0240(3) 0.0413(4) 0.4602(2)
H105 H -0.0064 0.0494 0.4601
B7 B 0.0801(5) 0.1467(5) 0.4969(5)
O13 O 0.0343(3) 0.1619(3) 0.4938(3)
C127 C 0.0575(3) 0.2179(3) 0.5096(3)
C128 C 0.0327(3) 0.2559(4) 0.5149(3)
H106 H -0.0034 0.2446 0.5098
C129 C 0.0617(4) 0.3108(4) 0.5279(3)
C130 C 0.1156(4) 0.3276(3) 0.5356(3)
C131 C 0.1405(2) 0.2896(4) 0.5302(3)
H107 H 0.1765 0.3009 0.5353
C132 C 0.1114(4) 0.2347(3) 0.5172(3)
O14 O 0.1247(3) 0.1875(3) 0.5058(2)
B8 B 0.1660(4) 0.0038(5) 0.4625(4)
O15 O 0.2138(3) 0.0454(3) 0.4779(2)
C133 C 0.2480(3) 0.0171(3) 0.4685(2)
C134 C 0.3019(3) 0.0354(2) 0.4766(2)
H108 H 0.3215 0.0731 0.4900
C135 C 0.3267(2) -0.0027(4) 0.4645(3)
C136 C 0.2975(3) -0.0591(3) 0.4445(2)
C137 C 0.2435(3) -0.0774(2) 0.4364(2)
H109 H 0.2240 -0.1152 0.4230
C138 C 0.2187(2) -0.0393(3) 0.4485(3)
O16 O 0.1658(2) -0.0504(3) 0.4422(2)
C139 C 0.0063(3) 0.4551(3) 0.2537(3)
C140 C 0.0124(3) 0.4401(2) 0.2941(4)
H110 H -0.0172 0.4238 0.3013
C141 C 0.0625(4) 0.4494(3) 0.3237(2)
C142 C 0.1067(3) 0.4738(3) 0.3129(3)
H111 H 0.1402 0.4800 0.3327
C143 C 0.1006(3) 0.4888(3) 0.2725(4)
C144 C 0.0505(5) 0.4794(3) 0.2429(2)
H112 H 0.0465 0.4894 0.2159
B9 B 0.0671(4) 0.4332(6) 0.3652(5)
O17 O 0.0261(3) 0.4079(3) 0.3802(2)
C145 C 0.0471(3) 0.4008(3) 0.4219(2)
C146 C 0.0278(2) 0.3799(3) 0.4537(3)
H113 H -0.0083 0.3674 0.4485
C147 C 0.0625(4) 0.3775(2) 0.4933(3)
C148 C 0.1164(3) 0.3961(3) 0.5010(2)
C149 C 0.1356(2) 0.4171(3) 0.4692(3)
H114 H 0.1717 0.4296 0.4744
C150 C 0.1010(4) 0.4195(3) 0.4296(3)
O18 O 0.1155(3) 0.4358(3) 0.3946(3)
B10 B 0.1507(4) 0.5147(5) 0.2621(4)
O19 O 0.2012(3) 0.5222(3) 0.2899(3)
C151 C 0.2324(3) 0.5467(2) 0.2674(3)
C152 C 0.2871(3) 0.5634(3) 0.2805(2)
H115 H 0.3063 0.5590 0.3073
C153 C 0.3129(2) 0.5869(3) 0.2534(3)
C154 C 0.2842(4) 0.5935(2) 0.2132(3)
C155 C 0.2296(3) 0.5768(3) 0.2002(2)
H116 H 0.2104 0.5813 0.1733
C156 C 0.2037(2) 0.5534(3) 0.2273(3)
O20 O 0.1519(3) 0.5328(3) 0.2239(3)
B11 B 0.0327(5) 0.0582(5) -0.4229(5)
O21 O 0.0453(3) 0.1148(3) -0.4031(2)
C157 C 0.0984(2) 0.1407(3) -0.3885(2)
C158 C 0.1312(3) 0.1963(3) -0.3666(2)
H117 H 0.1169 0.2237 -0.3591
C159 C 0.1855(3) 0.2108(2) -0.3559(2)
C160 C 0.2069(2) 0.1698(4) -0.3672(3)
C161 C 0.1741(3) 0.1142(3) -0.3891(2)
H118 H 0.1885 0.0868 -0.3966
C162 C 0.1199(3) 0.0997(2) -0.3998(2)
O22 O 0.0813(3) 0.0482(2) -0.4209(2)
B12 B 0.0503(4) -0.4514(5) -0.2211(4)
O23 O 0.0564(3) -0.4643(3) -0.1801(3)
C163 C 0.1119(2) -0.4485(3) -0.1621(3)
C164 C 0.1441(3) -0.4534(2) -0.1227(3)
H119 H 0.1296 -0.4668 -0.1018
C165 C 0.1981(3) -0.4383(3) -0.1146(2)
C166 C 0.2198(2) -0.4184(2) -0.1460(3)
C167 C 0.1875(3) -0.4134(2) -0.1853(2)
H120 H 0.2020 -0.4001 -0.2063
C168 C 0.1336(3) -0.4285(3) -0.1934(2)
O24 O 0.0941(3) -0.4275(3) -0.2303(2)
C1A C -0.646 -0.1879 -0.0955
C2A C -0.6903 -0.1878 -0.0804
C3A C -0.7402 -0.2249 -0.1148
H1A H -0.7699 -0.2248 -0.1047
C4A C -0.7457 -0.2621 -0.1642
H2A H -0.779 -0.2869 -0.1872
C5A C -0.7013 -0.2622 -0.1793
C6A C -0.6514 -0.2251 -0.145
C7A C -0.5886 -0.1509 -0.0619
H3A H -0.5835 -0.1242 -0.0268
C8A C -0.6849 -0.147 -0.027
H4A H -0.717 -0.1593 -0.0192
H5A H -0.6559 -0.1458 -0.0016
C9A C -0.6745 -0.0879 -0.0232
H6A H -0.6668 -0.0622 0.0121
H7A H -0.6451 -0.0773 -0.0346
H8A H -0.7053 -0.0878 -0.0446
C10A C -0.7087 -0.2964 -0.2356
H9A H -0.7455 -0.3101 -0.2565
H10A H -0.6874 -0.2741 -0.2483
C11A C -0.6914 -0.3447 -0.238
H11A H -0.7048 -0.3596 -0.2162
H12A H -0.705 -0.3732 -0.273
H13A H -0.6535 -0.3318 -0.2262
C12A C -0.6021 -0.2231 -0.1589
H14A H -0.6073 -0.2492 -0.1943
C13A C -0.3879 -0.6625 -0.2673
C14A C -0.428 -0.708 -0.3092
C15A C -0.4382 -0.7608 -0.3121
H15A H -0.465 -0.7913 -0.3402
C16A C -0.4084 -0.7682 -0.2731
H16A H -0.4152 -0.8035 -0.275
C17A C -0.3683 -0.7227 -0.2312
C18A C -0.358 -0.6698 -0.2283
C19A C -0.3712 -0.6016 -0.2575
H17A H -0.3921 -0.5959 -0.2847
C20A C -0.4628 -0.7015 -0.3508
H18A H -0.4953 -0.7339 -0.369
H19A H -0.4717 -0.6692 -0.3354
C21A C -0.4334 -0.6947 -0.3895
H20A H -0.4039 -0.66 -0.3724
H21A H -0.421 -0.7246 -0.4015
H22A H -0.4572 -0.6954 -0.4184
C22A C -0.3423 -0.7308 -0.1874
H23A H -0.3387 -0.701 -0.1551
H24A H -0.364 -0.7655 -0.1892
C23A C -0.2883 -0.7319 -0.1882
H25A H -0.265 -0.7166 -0.1533
H26A H -0.2912 -0.7695 -0.2069
H27A H -0.2743 -0.7102 -0.2049
C24A C -0.3138 -0.6205 -0.1846
H28A H -0.2929 -0.6268 -0.1579
C25A C -0.0691 -0.3985 -0.5807
C26A C -0.0491 -0.4265 -0.6175
C27A C -0.0832 -0.4735 -0.6623
H29A H -0.0698 -0.4922 -0.687
C28A C -0.1371 -0.4924 -0.6703
H30A H -0.1599 -0.5239 -0.7003
C29A C -0.157 -0.4644 -0.6335
C30A C -0.123 -0.4174 -0.5887
C31A C -0.0357 -0.3543 -0.526
H31A H 0.0028 -0.3423 -0.5166
C32A C 0.0081 -0.4026 -0.612
H32A H 0.0125 -0.4133 -0.6459
H33A H 0.0213 -0.3624 -0.594
C33A C 0.0389 -0.4258 -0.5805
H34A H 0.051 -0.4514 -0.6028
H35A H 0.0687 -0.3957 -0.5526
H36A H 0.016 -0.4446 -0.5667
C34A C -0.2151 -0.489 -0.6443
H37A H -0.2249 -0.5259 -0.6461
H38A H -0.2255 -0.4661 -0.6172
C35A C -0.2418 -0.492 -0.6962
H39A H -0.2345 -0.4546 -0.693
H40A H -0.2284 -0.5113 -0.7219
H41A H -0.2792 -0.5106 -0.7065
C36A C -0.1413 -0.3873 -0.5455
H42A H -0.1799 -0.3999 -0.555
C37A C -0.3775 0.0698 -0.4815
C38A C -0.39 0.099 -0.5085
C39A C -0.43 0.0714 -0.5562
H43A H -0.4383 0.091 -0.5743
C40A C -0.4574 0.0146 -0.5769
H44A H -0.4841 -0.0039 -0.6088
C41A C -0.4449 -0.0147 -0.5498
C42A C -0.405 0.0129 -0.5021
C43A C -0.3335 0.0939 -0.4306
H45A H -0.315 0.1342 -0.4151
C44A C -0.3586 0.1596 -0.4901
H46A H -0.3211 0.1666 -0.4786
H47A H -0.3658 0.1697 -0.5183
C45A C -0.3739 0.1952 -0.4446
H48A H -0.3502 0.2023 -0.4122
H49A H -0.3716 0.2298 -0.4456
H50A H -0.4094 0.1754 -0.4478
C46A C -0.47 -0.076 -0.5776
H51A H -0.4856 -0.0876 -0.6143
H52A H -0.4438 -0.0924 -0.5732
C47A C -0.5123 -0.0949 -0.5558
H53A H -0.4962 -0.0865 -0.5203
H54A H -0.5363 -0.0759 -0.5576
H55A H -0.5312 -0.1342 -0.5756
C48A C -0.3871 -0.0167 -0.4728
H56A H -0.4065 -0.0568 -0.4881
C49A C -0.2818 -0.2319 0.3746
C50A C -0.3125 -0.2302 0.4069
C51A C -0.3223 -0.2699 0.4254
H57A H -0.3428 -0.2687 0.447
C52A C -0.3016 -0.3113 0.4116
H58A H -0.3082 -0.3379 0.424
C53A C -0.271 -0.3131 0.3793
C54A C -0.2611 -0.2733 0.3608
C55A C -0.2699 -0.1931 0.3501
H59A H -0.2854 -0.1645 0.3588
C56A C -0.334 -0.1845 0.4227
H60A H -0.3439 -0.1819 0.4532
H61A H -0.3064 -0.1494 0.4319
C57A C -0.3822 -0.194 0.3797
H62A H -0.4102 -0.1898 0.3935
H63A H -0.3727 -0.1673 0.3664
H64A H -0.3939 -0.2307 0.3522
C58A C -0.2514 -0.3595 0.3642
H65A H -0.215 -0.3457 0.3654
H66A H -0.2527 -0.3759 0.3882
C59A C -0.2864 -0.4037 0.3088
H67A H -0.3209 -0.4218 0.3091
H68A H -0.2895 -0.386 0.2863
H69A H -0.2707 -0.4306 0.2965
C60A C -0.2256 -0.27 0.3292
H70A H -0.2107 -0.2992 0.3207
C61A C -0.2865 0.4537 0.132
C62A C -0.3145 0.481 0.1592
C63A C -0.32 0.5275 0.155
H71A H -0.3388 0.5457 0.1732
C64A C -0.2976 0.5467 0.1237
H72A H -0.3013 0.5778 0.1209
C65A C -0.2696 0.5195 0.0965
C66A C -0.264 0.473 0.1007
C67A C -0.2787 0.4013 0.1317
H73A H -0.2949 0.3864 0.1529
C68A C -0.3373 0.4603 0.1934
H74A H -0.3144 0.445 0.2081
H75A H -0.3387 0.4912 0.2218
C69A C -0.3933 0.4154 0.1637
H76A H -0.405 0.4 0.1858
H77A H -0.4171 0.4317 0.1532
H78A H -0.3926 0.3865 0.1337
C70A C -0.2526 0.5366 0.058
H79A H -0.2577 0.5042 0.027
H80A H -0.2729 0.5569 0.0484
C71A C -0.1944 0.5733 0.0836
H81A H -0.1777 0.5607 0.1064
H82A H -0.1779 0.5714 0.0575
H83A H -0.1909 0.6109 0.1031
C72A C -0.2366 0.4399 0.0704
H84A H -0.2206 0.4546 0.0491
C73A C -0.4151 0.082 -0.2076
C74A C -0.4453 0.0385 -0.2003
H85A H -0.461 0.0029 -0.2275
C75A C -0.452 0.0483 -0.1525
C76A C -0.4285 0.1015 -0.1119
H86A H -0.433 0.1081 -0.0799
C77A C -0.3983 0.145 -0.1191
C78A C -0.3916 0.1352 -0.167
H87A H -0.3714 0.1643 -0.1718
B1A B -0.4069 0.0736 -0.2571
O1A O -0.3788 0.1132 -0.2696
C79A C -0.3773 0.0898 -0.31871
C80A C -0.3538 0.11024 -0.3488
H88A H -0.3352 0.1481 -0.3359
C81A C -0.3581 0.0741 -0.3983
C82A C -0.3859 0.0175 -0.41757
C83A C -0.4094 -0.003 -0.3874
H89A H -0.428 -0.0409 -0.4004
C84A C -0.4051 0.0331 -0.338
O2A O -0.423 0.0209 -0.302
B2A B -0.4838 0.0013 -0.1424
O3A O -0.5062 -0.0553 -0.1822
C85A C -0.5296 -0.0829 -0.1564
C86A C -0.5552 -0.1399 -0.17582
H90A H -0.5597 -0.1633 -0.2098
C87A C -0.574 -0.16207 -0.1445
C88A C -0.5673 -0.1272 -0.0938
C89A C -0.5417 -0.0701 -0.07438
H91A H -0.5372 -0.0468 -0.0404
C90A C -0.5229 -0.04801 -0.1057
O4A O -0.4948 0.0036 -0.0992
B3A B -0.3736 0.2059 -0.0727
O5A O -0.3765 0.2152 -0.026
C91A C -0.3449 0.2717 0.0041
C92A C -0.3306 0.308 0.0562
H92A H -0.3447 0.296 0.0781
C93A C -0.2951 0.3621 0.0755
C94A C -0.274 0.38 0.0428
C95A C -0.2883 0.3437 -0.0093
H93A H -0.2742 0.3557 -0.0312
C96A C -0.3238 0.2896 -0.02859
O6A O -0.3395 0.2487 -0.0776
C97A C -0.3993 -0.3938 -0.0276
C98A C -0.4285 -0.3665 -0.0446
H94A H -0.4437 -0.3782 -0.0799
C99A C -0.435 -0.3216 -0.0088
C100A C -0.4123 -0.304 0.0439
H95A H -0.4166 -0.274 0.0678
C101A C -0.3831 -0.3313 0.0608
C102A C -0.3766 -0.3762 0.0251
H96A H -0.3571 -0.3945 0.0364
B4A B -0.3928 -0.4435 -0.0682
O7A O -0.3607 -0.4722 -0.0547
C103A C -0.3622 -0.5065 -0.1029
C104A C -0.3372 -0.5444 -0.1146
H97A H -0.3171 -0.5488 -0.0882
C105A C -0.3423 -0.5757 -0.1658
C106A C -0.3723 -0.5691 -0.2053
C107A C -0.3973 -0.5312 -0.1936
H98A H -0.4174 -0.5267 -0.22
C108A C -0.3923 -0.4999 -0.1424
O8A O -0.4111 -0.4597 -0.1203
B5A B -0.4687 -0.2928 -0.0297
O9A O -0.4902 -0.3095 -0.082
C109A C -0.5162 -0.2745 -0.0837
C110A C -0.5457 -0.2701 -0.1251
H99A H -0.5502 -0.2939 -0.1588
C111A C -0.5685 -0.2302 -0.1159
C112A C -0.5618 -0.1947 -0.0654
C113A C -0.5323 -0.1991 -0.0241
H100A H -0.5278 -0.1753 0.0097
C114A C -0.5095 -0.239 -0.0332
O10A O -0.4795 -0.2485 0.0033
B6A B -0.3561 -0.3104 0.1161
O11A O -0.3592 -0.2663 0.1573
C115A C -0.3286 -0.2618 0.2023
C116A C -0.3171 -0.2246 0.2536
H101A H -0.3315 -0.1972 0.2613
C117A C -0.284 -0.2284 0.2932
C118A C -0.2625 -0.2693 0.2817
C119A C -0.274 -0.3064 0.2304
H102A H -0.2596 -0.3338 0.2227
C120A C -0.307 -0.3027 0.1908
O12A O -0.3235 -0.3339 0.1381
C121A C -0.0727 -0.0838 -0.4773
C122A C -0.1181 -0.0716 -0.4776
H103A H -0.1507 -0.1 -0.4891
C123A C -0.1148 -0.0169 -0.4608
C124A C -0.0661 0.0256 -0.4437
H104A H -0.0639 0.0622 -0.4325
C125A C -0.0207 0.0134 -0.4434
C126A C -0.024 -0.0413 -0.4602
H105A H 0.0064 -0.0494 -0.4601
B7A B -0.0801 -0.1467 -0.4969
O13A O -0.0343 -0.1619 -0.4938
C127A C -0.0575 -0.2179 -0.5096
C128A C -0.0327 -0.2559 -0.5149
H106A H 0.0034 -0.2446 -0.5098
C129A C -0.0617 -0.3108 -0.5279
C130A C -0.1156 -0.3276 -0.5356
C131A C -0.1405 -0.2896 -0.5302
H107A H -0.1765 -0.3009 -0.5353
C132A C -0.1114 -0.2347 -0.5172
O14A O -0.1247 -0.1875 -0.5058
B8A B -0.166 -0.0038 -0.4625
O15A O -0.2138 -0.0454 -0.4779
C133A C -0.248 -0.0171 -0.4685
C134A C -0.3019 -0.0354 -0.4766
H108A H -0.3215 -0.0731 -0.49
C135A C -0.3267 0.0027 -0.4645
C136A C -0.2975 0.0591 -0.4445
C137A C -0.2435 0.0774 -0.4364
H109A H -0.224 0.1152 -0.423
C138A C -0.2187 0.0393 -0.4485
O16A O -0.1658 0.0504 -0.4422
C139A C -0.0063 -0.4551 -0.2537
C140A C -0.0124 -0.4401 -0.2941
H110A H 0.0172 -0.4238 -0.3013
C141A C -0.0625 -0.4494 -0.3237
C142A C -0.1067 -0.4738 -0.3129
H111A H -0.1402 -0.48 -0.3327
C143A C -0.1006 -0.4888 -0.2725
C144A C -0.0505 -0.4794 -0.2429
H112A H -0.0465 -0.4894 -0.2159
B9A B -0.0671 -0.4332 -0.3652
O17A O -0.0261 -0.4079 -0.3802
C145A C -0.0471 -0.4008 -0.4219
C146A C -0.0278 -0.3799 -0.4537
H113A H 0.0083 -0.3674 -0.4485
C147A C -0.0625 -0.3775 -0.4933
C148A C -0.1164 -0.3961 -0.501
C149A C -0.1356 -0.4171 -0.4692
H114A H -0.1717 -0.4296 -0.4744
C150A C -0.101 -0.4195 -0.4296
O18A O -0.1155 -0.4358 -0.3946
B10A B -0.1507 -0.5147 -0.2621
O19A O -0.2012 -0.5222 -0.2899
C151A C -0.2324 -0.5467 -0.2674
C152A C -0.2871 -0.5634 -0.2805
H115A H -0.3063 -0.559 -0.3073
C153A C -0.3129 -0.5869 -0.2534
C154A C -0.2842 -0.5935 -0.2132
C155A C -0.2296 -0.5768 -0.2002
H116A H -0.2104 -0.5813 -0.1733
C156A C -0.2037 -0.5534 -0.2273
O20A O -0.1519 -0.5328 -0.2239
B11A B -0.0327 -0.0582 0.4229
O21A O -0.0453 -0.1148 0.4031
C157A C -0.0984 -0.1407 0.3885
C158A C -0.1312 -0.1963 0.3666
H117A H -0.1169 -0.2237 0.3591
C159A C -0.1855 -0.2108 0.3559
C160A C -0.2069 -0.1698 0.3672
C161A C -0.1741 -0.1142 0.3891
H118A H -0.1885 -0.0868 0.3966
C162A C -0.1199 -0.0997 0.3998
O22A O -0.0813 -0.0482 0.4209
B12A B -0.0503 0.4514 0.2211
O23A O -0.0564 0.4643 0.1801
C163A C -0.1119 0.4485 0.1621
C164A C -0.1441 0.4534 0.1227
H119A H -0.1296 0.4668 0.1018
C165A C -0.1981 0.4383 0.1146
C166A C -0.2198 0.4184 0.146
C167A C -0.1875 0.4134 0.1853
H120A H -0.202 0.4001 0.2063
C168A C -0.1336 0.4285 0.1934
O24A O -0.0941 0.4275 0.2303

#END

