
#######################################################################
#
#                 Cambridge Crystallographic Data Centre
#                                CCDC 
#
#######################################################################
#
# If this CIF has been generated directly or indirectly from an entry in the 
# Cambridge Structural Database, then it will include bibliographic, chemical, 
# crystal, experimental, refinement or atomic coordinate data resulting from 
# the CCDC's data processing and validation procedures. Files generated from 
# CSD entries are Copyright 2015 Cambridge Crystallographic Data Centre. They 
# may be used in bona fide research applications only, and may not be copied or 
# further disseminated in any form, whether machine-readable or not, except for 
# the purposes of generating routine backup copies on your local computer 
# system.
# 
# Files arising from any other source may also contain material that is the 
# copyright of third parties, including the originator, and you should check 
# with the originator concerning the permitted uses of the information 
# contained in this CIF.
#
# For further information on the CCDC and the free tools enCIFer and Mercury
# for validating and visualising CIF files, please visit www.ccdc.cam.ac.uk
#
#######################################################################

data_AVAFIN
_audit_creation_date             2011-08-29
_database_code_depnum_ccdc_archive 'CCDC 836254'
_chemical_formula_moiety         'C272 H352 N16 O32,9(C1 H1 Cl3),4.5(C1 H4 O1)'
_chemical_name_systematic        
"rac-(5,5':5'',5''':11,11':11'',11''':17,17'':17',23'':23,17''',23',23'''-octakis((Ethane-1,2-diyldinitrilo)dimethyl)-tetrakis(2,8,14,20-tetra-n-pentyl-4,24:6,10:12,16:18,24-O,O'-tetrakis(propane-1,3-diyl)calix[4]resorcinarene) tetra-cavitand) tris(chloroform) tris(methanol) clathrate chloroform methanol solvate"
_journal_coden_Cambridge         4
_journal_volume                  133
_journal_year                    2011
_journal_page_first              3268
_journal_name_full               J.Am.Chem.Soc.
loop_
_publ_author_name
'Junling Sun'
J.L.Bennett
T.J.Emge
R.Warmuth
_chemical_absolute_configuration unk
_diffrn_ambient_temperature      100
_exptl_crystal_density_meas      1.28
_exptl_crystal_density_diffrn    1.281
#These two values have been output from a single CSD field.
_refine_ls_R_factor_gt           0.124
_refine_ls_wR_factor_gt          0.124
_diffrn_radiation_probe          x-ray
_symmetry_cell_setting           triclinic
_symmetry_space_group_name_H-M   'P -1'
_symmetry_Int_Tables_number      2
loop_
_symmetry_equiv_pos_site_id
_symmetry_equiv_pos_as_xyz
1 x,y,z
2 -x,-y,-z
_cell_length_a                   19.4713(12)
_cell_length_b                   21.8175(13)
_cell_length_c                   38.491(2)
_cell_angle_alpha                77.593(1)
_cell_angle_beta                 87.137(1)
_cell_angle_gamma                64.968(1)
_cell_volume                     14454.2
_exptl_crystal_colour            colorless
_exptl_crystal_description       lathe
_cell_formula_units_Z            2
_exptl_crystal_recrystallization_method chloroform/methanol
loop_
_atom_site_label
_atom_site_type_symbol
_atom_site_fract_x
_atom_site_fract_y
_atom_site_fract_z
O1 O -0.07143(13) 0.36657(13) 0.93965(7)
O2 O -0.03940(15) 0.50417(13) 0.82848(7)
O3 O 0.11580(15) 0.41648(13) 0.80999(7)
O4 O 0.29341(16) 0.20744(14) 0.77904(7)
O5 O 0.32870(16) 0.06732(13) 0.76155(7)
O6 O 0.28014(16) -0.07176(13) 0.86709(8)
O7 O 0.23858(14) 0.01928(13) 0.91957(7)
O8 O 0.07490(15) 0.23942(13) 0.94568(7)
O9 O 0.15013(18) 0.77178(16) 0.74058(10)
O10 O 0.1241(2) 0.92132(18) 0.62498(13)
O11 O 0.17486(19) 0.82280(16) 0.56939(10)
O12 O 0.13737(15) 0.64989(13) 0.52588(7)
O13 O 0.04838(14) 0.57218(13) 0.51655(7)
O14 O 0.05493(13) 0.43398(12) 0.63448(6)
O15 O 0.15349(13) 0.46532(12) 0.67702(7)
O16 O 0.20169(16) 0.62433(15) 0.72889(9)
O17 O 0.04626(16) 0.75852(15) 0.88638(9)
O18 O 0.06827(15) 0.55044(13) 0.96866(7)
O19 O 0.19055(13) 0.40280(12) 1.00446(7)
O20 O 0.43675(15) 0.28673(13) 0.95918(8)
O21 O 0.52356(17) 0.34625(13) 0.89531(8)
O22 O 0.41783(14) 0.72884(13) 0.81687(7)
O23 O 0.15411(17) 0.83691(19) 0.84637(9)
O24 O 0.64387(16) 0.34816(14) 0.65300(8)
O25 O 0.65789(15) 0.14767(15) 0.73529(7)
O26 O 0.67886(16) -0.00287(14) 0.74928(8)
O27 O 0.49988(15) -0.02934(13) 0.67749(8)
O28 O 0.37201(15) 0.09855(14) 0.62047(8)
O29 O 0.33121(14) 0.31467(13) 0.54108(7)
O30 O 0.41908(14) 0.42052(14) 0.52398(8)
O31 O 0.63572(15) 0.42027(13) 0.57902(7)
N1 N -0.11442(17) 0.56077(17) 0.88674(10)
N2 N 0.31825(19) 0.33305(18) 0.77532(10)
N3 N 0.29147(18) 0.47454(17) 0.74326(10)
N4 N 0.4261(2) -0.07554(17) 0.78919(10)
N5 N 0.5648(2) -0.11352(17) 0.74810(10)
N6 N 0.24746(18) 0.15315(17) 0.96318(9)
N7 N 0.2423(3) 0.8681(3) 0.70010(18)
N8 N 0.3019(2) 0.85202(16) 0.77345(9)
N9 N 0.28082(19) 0.65925(17) 0.53278(9)
N10 N 0.43476(19) 0.54082(17) 0.55272(10)
N11 N 0.06700(17) 0.38471(16) 0.57130(8)
N12 N 0.21729(17) 0.26624(16) 0.56041(10)
N13 N 0.5761(3) 0.3654(2) 0.82591(14)
N14 N 0.6445(3) 0.2766(2) 0.75187(11)
C1 C -0.0582(2) 0.43833(19) 0.88447(10)
C2 C -0.0402(2) 0.44439(19) 0.84839(10)
C3 C -0.0254(2) 0.3894(2) 0.83165(11)
C4 C -0.0272(2) 0.3300(2) 0.85090(11)
H1 H -0.0188 0.2936 0.8391
C5 C -0.0410(2) 0.3202(2) 0.88750(11)
C6 C -0.05423(19) 0.3743(2) 0.90387(10)
C7 C -0.09042(19) 0.49819(18) 0.90175(10)
H2 H -0.0932 0.4881 0.9269
C8 C 0.0185(2) 0.5225(2) 0.83835(11)
H3 H 0.0550 0.4836 0.8561
H4 H -0.0048 0.5633 0.8494
C9 C 0.0601(3) 0.5390(2) 0.80587(12)
H5 H 0.0239 0.5812 0.7897
H6 H 0.1005 0.5499 0.8137
C10 C 0.0953(2) 0.4830(2) 0.78514(11)
H7 H 0.0588 0.4888 0.7663
H8 H 0.1410 0.4854 0.7737
C11 C -0.0112(2) 0.3962(2) 0.79196(10)
H9 H -0.0148 0.4440 0.7829
C12 C -0.0726(2) 0.3908(2) 0.77145(12)
H10 H -0.0579 0.3904 0.7465
H11 H -0.0748 0.3461 0.7818
C13 C -0.1501(3) 0.4479(3) 0.77148(14)
H12 H -0.1647 0.4475 0.7965
H13 H -0.1470 0.4925 0.7618
C14 C -0.2121(3) 0.4459(3) 0.75101(14)
H14 H -0.1972 0.4455 0.7261
H15 H -0.2159 0.4017 0.7610
C15 C -0.2887(3) 0.5036(4) 0.75069(16)
H16 H -0.2855 0.5479 0.7404
H17 H -0.3040 0.5043 0.7756
C16 C -0.3501(4) 0.4991(3) 0.72984(18)
H18 H -0.3983 0.5392 0.7305
H19 H -0.3555 0.4564 0.7405
H20 H -0.3359 0.4988 0.7051
C17 C -0.0457(2) 0.2535(2) 0.90705(11)
H21 H -0.0582 0.2585 0.9321
C18 C -0.1128(2) 0.2469(2) 0.89092(12)
H22 H -0.1574 0.2923 0.8870
H23 H -0.0991 0.2345 0.8674
C19 C -0.1345(3) 0.1923(2) 0.91469(15)
H24 H -0.0874 0.1503 0.9234
H25 H -0.1593 0.2103 0.9357
C20 C -0.1859(3) 0.1716(3) 0.89742(17)
H26 H -0.1590 0.1497 0.8777
H27 H -0.1950 0.1358 0.9151
C21 C -0.2552(3) 0.2232(3) 0.88395(17)
H28 H -0.2470 0.2566 0.8643
H29 H -0.2808 0.2483 0.9028
C22 C -0.3100(3) 0.1952(4) 0.8694(2)
H30 H -0.3581 0.2344 0.8600
H31 H -0.3198 0.1632 0.8889
H32 H -0.2855 0.1711 0.8503
C23 C -0.0155(2) 0.36132(19) 0.96481(10)
H33 H -0.0375 0.4009 0.9768
H34 H 0.0287 0.3641 0.9518
C24 C 0.0113(2) 0.2942(2) 0.99271(11)
H35 H 0.0227 0.3028 1.0155
H36 H -0.0303 0.2790 0.9965
C25 C 0.0806(3) 0.2368(2) 0.98260(12)
H37 H 0.1267 0.2421 0.9881
H38 H 0.0848 0.1915 0.9965
C26 C -0.1594(4) 0.6121(3) 0.91172(18)
H39 H -0.2144 0.6314 0.9056
H40 H -0.1507 0.5858 0.9367
C27 C -0.1377(3) 0.6688(3) 0.90902(19)
H41 H -0.1769 0.7049 0.9199
H42 H -0.1371 0.6894 0.8835
N15 N -0.0641(3) 0.6496(2) 0.92593(13)
C28 C -0.0258(3) 0.6720(3) 0.91619(18)
H43 H -0.0273 0.6748 0.8902
C29 C 0.2054(2) 0.3169(2) 0.79012(10)
C30 C 0.2204(2) 0.2554(2) 0.77903(10)
C31 C 0.1604(2) 0.2396(2) 0.77128(11)
C32 C 0.0873(2) 0.2859(2) 0.77465(10)
H44 H 0.0469 0.2763 0.7683
C33 C 0.0693(2) 0.3469(2) 0.78698(10)
C34 C 0.1305(2) 0.3597(2) 0.79512(10)
C35 C 0.2644(2) 0.3392(2) 0.79566(11)
H45 H 0.2618 0.3592 0.8156
C36 C 0.3294(2) 0.2046(2) 0.74505(11)
H46 H 0.3425 0.2445 0.7374
H47 H 0.2946 0.2063 0.7266
C37 C 0.4012(3) 0.1368(2) 0.74998(13)
H48 H 0.4159 0.1251 0.7264
H49 H 0.4430 0.1434 0.7599
C38 C 0.3915(3) 0.0764(2) 0.77459(12)
H50 H 0.4387 0.0335 0.7758
H51 H 0.3820 0.0855 0.7989
C39 C 0.1768(3) 0.1734(2) 0.75790(12)
H52 H 0.2177 0.1690 0.7405
C40 C 0.1109(3) 0.1773(2) 0.73768(13)
H53 H 0.0832 0.2246 0.7231
H54 H 0.0754 0.1661 0.7544
C41 C 0.1439(4) 0.1222(3) 0.7125(2)
H55 H 0.1815 0.1319 0.6968
H56 H 0.1695 0.0747 0.7272
C42 C 0.0805(4) 0.1276(4) 0.6910(2)
H57 H 0.0556 0.1755 0.6766
H58 H 0.0428 0.1193 0.7072
C43 C 0.1040(5) 0.0766(4) 0.6657(2)
H59 H 0.0574 0.0789 0.6552
H60 H 0.1318 0.0291 0.6800
C44 C 0.1546(4) 0.0900(3) 0.63484(16)
H61 H 0.1683 0.0544 0.6208
H62 H 0.2008 0.0883 0.6449
H63 H 0.1263 0.1358 0.6195
C45 C 0.3688(2) 0.3635(2) 0.78161(13)
H64 H 0.4211 0.3269 0.7870
H65 H 0.3524 0.3856 0.8024
C46 C 0.3675(2) 0.4173(2) 0.74891(13)
H66 H 0.4054 0.4349 0.7523
H67 H 0.3805 0.3961 0.7278
C47 C 0.3067(2) -0.0056(2) 0.81369(11)
C48 C 0.2573(2) -0.0126(2) 0.84090(11)
C49 C 0.1844(2) 0.0391(2) 0.84137(11)
C50 C 0.1625(2) 0.0986(2) 0.81460(11)
H68 H 0.1129 0.1343 0.8147
C51 C 0.2095(2) 0.1084(2) 0.78766(11)
C52 C 0.2829(2) 0.0563(2) 0.78803(11)
C53 C 0.3752(2) -0.0702(2) 0.81068(11)
H69 H 0.3804 -0.1115 0.8270
C54 C 0.3407(2) -0.0827(2) 0.89173(11)
H70 H 0.3494 -0.0402 0.8878
H71 H 0.3882 -0.1208 0.8868
C55 C 0.3224(3) -0.1000(2) 0.92926(12)
H72 H 0.3633 -0.1034 0.9449
H73 H 0.3214 -0.1461 0.9339
C56 C 0.2477(2) -0.0484(2) 0.93905(11)
H74 H 0.2057 -0.0585 0.9325
H75 H 0.2478 -0.0505 0.9650
C57 C 0.1294(2) 0.0293(2) 0.86857(11)
H76 H 0.1562 -0.0181 0.8838
C58 C 0.0597(2) 0.0309(2) 0.85092(12)
H77 H 0.0270 0.0794 0.8394
H78 H 0.0769 0.0041 0.8320
C59 C 0.0137(3) 0.0033(3) 0.87484(14)
H79 H -0.0029 0.0296 0.8940
H80 H 0.0461 -0.0455 0.8861
C60 C -0.0567(3) 0.0061(3) 0.85711(16)
H81 H -0.0911 0.0552 0.8475
H82 H -0.0405 -0.0169 0.8367
C61 C -0.0979(4) -0.0252(5) 0.8796(2)
H83 H -0.1087 -0.0067 0.9016
H84 H -0.0663 -0.0757 0.8866
C62 C -0.1741(5) -0.0122(7) 0.8616(4)
H85 H -0.2000 -0.0354 0.8781
H86 H -0.1637 -0.0307 0.8399
H87 H -0.2064 0.0376 0.8555
C63 C 0.4805(2) -0.1476(2) 0.78903(13)
H88 H 0.4652 -0.1633 0.7697
H89 H 0.4792 -0.1782 0.8119
C64 C 0.5591(2) -0.1535(2) 0.78384(13)
H90 H 0.5948 -0.2028 0.7862
H91 H 0.5737 -0.1356 0.8025
C65 C 0.1572(2) 0.12341(19) 0.93643(10)
C66 C 0.0882(2) 0.1835(2) 0.93146(11)
C67 C 0.0297(2) 0.1905(2) 0.90911(11)
C68 C 0.0436(2) 0.13897(19) 0.89037(10)
H92 H 0.0042 0.1441 0.8748
C69 C 0.1115(2) 0.08064(19) 0.89308(11)
C70 C 0.1672(2) 0.07323(18) 0.91730(11)
C71 C 0.2222(2) 0.1092(2) 0.95981(11)
H93 H 0.2475 0.0634 0.9736
C72 C 0.3219(4) 0.1186(4) 0.9847(2)
C73 C 0.3232(4) 0.1633(3) 1.01037(18)
N16 N 0.3419(3) 0.2210(3) 0.98990(14)
C74 C 0.3114(3) 0.2757(3) 0.99501(15)
C75 C 0.1421(3) 0.8444(3) 0.68286(17)
C76 C 0.1100(3) 0.8696(2) 0.64854(17)
C77 C 0.0622(3) 0.8465(2) 0.63581(15)
C78 C 0.0439(3) 0.7987(2) 0.65930(14)
H94 H 0.0105 0.7829 0.6511
C79 C 0.0727(3) 0.7723(2) 0.69511(14)
C80 C 0.1225(3) 0.7960(2) 0.70540(15)
C81 C 0.1899(5) 0.8748(4) 0.69427(19)
H95 H 0.1566 0.9198 0.6974
C82 C 0.1945(4) 0.9065(3) 0.60791(19)
H96 H 0.2185 0.9329 0.6164
H97 H 0.1821 0.9262 0.5821
C83 C 0.2524(4) 0.8357(3) 0.6113(2)
H98 H 0.2697 0.8168 0.6367
H99 H 0.2964 0.8373 0.5978
C84 C 0.2293(3) 0.7859(3) 0.59892(16)
H100 H 0.2744 0.7488 0.5915
H101 H 0.2068 0.7642 0.6186
C85 C 0.0288(3) 0.8744(2) 0.59627(15)
H102 H 0.0518 0.9063 0.5843
C86 C -0.0554(4) 0.9168(3) 0.59424(15)
H103 H -0.0687 0.9490 0.6106
H104 H -0.0813 0.8859 0.6018
C87 C -0.0827(4) 0.9582(3) 0.55602(18)
H105 H -0.0537 0.9863 0.5484
H106 H -0.0705 0.9252 0.5401
C88 C -0.1620(4) 1.0033(4) 0.5512(2)
H107 H -0.1765 1.0326 0.5691
H108 H -0.1917 0.9753 0.5549
C89 C -0.1814(5) 1.0514(4) 0.5122(2)
H109 H -0.1493 1.0772 0.5080
H110 H -0.1697 1.0221 0.4944
C90 C -0.2617(5) 1.1008(4) 0.5077(3)
H111 H -0.2718 1.1300 0.4836
H112 H -0.2733 1.1299 0.5253
H113 H -0.2935 1.0753 0.5112
C91 C 0.0485(3) 0.7226(2) 0.71957(13)
H114 H 0.0768 0.7122 0.7427
C92 C -0.0378(3) 0.7522(3) 0.72911(17)
H115 H -0.0697 0.7765 0.7068
H116 H -0.0503 0.7131 0.7404
C93 C -0.0567(4) 0.8010(3) 0.7535(2)
H117 H -0.0548 0.8446 0.7406
H118 H -0.0183 0.7804 0.7736
C94 C -0.1365(5) 0.8174(5) 0.7685(3)
H119 H -0.1746 0.8387 0.7483
H120 H -0.1385 0.7734 0.7806
C95 C -0.1584(5) 0.8653(5) 0.7943(3)
H121 H -0.1724 0.9136 0.7813
H122 H -0.1151 0.8517 0.8112
C96 C -0.2270(7) 0.8598(8) 0.8149(4)
H123 H -0.2417 0.8901 0.8320
H124 H -0.2126 0.8118 0.8277
H125 H -0.2698 0.8740 0.7981
C97 C 0.2310(3) 0.7242(2) 0.74652(17)
H126 H 0.2583 0.7489 0.7541
H127 H 0.2512 0.7122 0.7236
C98 C 0.2484(4) 0.6582(3) 0.77378(19)
H128 H 0.3036 0.6286 0.7744
H129 H 0.2360 0.6696 0.7975
C99 C 0.2065(3) 0.6175(3) 0.76719(16)
H130 H 0.2340 0.5682 0.7792
H131 H 0.1550 0.6359 0.7765
C100 C 0.2825(2) 0.9026(2) 0.70971(12)
H132 H 0.2678 0.9472 0.6923
H133 H 0.3372 0.8746 0.7073
C101 C 0.2719(2) 0.9175(2) 0.74678(10)
H134 H 0.2988 0.9458 0.7498
H135 H 0.2173 0.9440 0.7502
C102 C 0.1544(2) 0.7394(2) 0.54532(12)
C103 C 0.1085(2) 0.70783(19) 0.54068(11)
C104 C 0.0350(2) 0.73041(19) 0.55144(11)
C105 C 0.0103(3) 0.7841(2) 0.56982(12)
H136 H -0.0399 0.8001 0.5779
C106 C 0.0554(3) 0.8148(2) 0.57682(14)
C107 C 0.1274(3) 0.7930(2) 0.56338(13)
C108 C 0.2309(2) 0.7207(2) 0.53068(11)
H137 H 0.2434 0.7574 0.5189
C109 C 0.1271(2) 0.6609(2) 0.48766(11)
H138 H 0.1615 0.6805 0.4753
H139 H 0.0742 0.6934 0.4797
C110 C 0.1456(2) 0.5910(2) 0.47961(11)
H140 H 0.1172 0.5980 0.4574
H141 H 0.2004 0.5689 0.4752
C111 C 0.1275(2) 0.54310(19) 0.50821(11)
H142 H 0.1402 0.4992 0.5006
H143 H 0.1593 0.5324 0.5299
C112 C -0.0148(2) 0.69723(19) 0.54269(11)
H144 H -0.0040 0.6902 0.5178
C113 C -0.1005(2) 0.7416(2) 0.54313(12)
H145 H -0.1128 0.7519 0.5671
H146 H -0.1280 0.7147 0.5387
C114 C -0.1287(3) 0.8111(3) 0.51493(14)
H147 H -0.1152 0.8445 0.5235
H148 H -0.1034 0.8030 0.4923
C115 C -0.2141(4) 0.8411(4) 0.50843(18)
H149 H -0.2395 0.8478 0.5311
H150 H -0.2276 0.8087 0.4989
C116 C -0.2420(4) 0.9132(4) 0.4808(2)
H151 H -0.2974 0.9382 0.4829
H152 H -0.2181 0.9404 0.4885
C117 C -0.2287(6) 0.9146(7) 0.4440(3)
H153 H -0.2524 0.9625 0.4304
H154 H -0.2506 0.8871 0.4356
H155 H -0.1739 0.8951 0.4406
C118 C 0.3503(2) 0.6510(2) 0.51541(12)
H156 H 0.3470 0.6972 0.5036
H157 H 0.3565 0.6243 0.4968
C119 C 0.4191(2) 0.6145(2) 0.54071(13)
H158 H 0.4635 0.6186 0.5286
H159 H 0.4101 0.6364 0.5615
C120 C 0.04827(19) 0.50078(18) 0.57440(10)
C121 C 0.03905(19) 0.49617(19) 0.61146(10)
C122 C 0.01112(19) 0.55575(19) 0.62559(10)
C123 C -0.00489(19) 0.61855(19) 0.60292(10)
H160 H -0.0245 0.6590 0.6126
C124 C 0.0062(2) 0.62598(19) 0.56643(10)
C125 C 0.0350(2) 0.56636(19) 0.55300(10)
C126 C 0.06368(19) 0.44318(18) 0.55702(10)
H161 H 0.0721 0.4510 0.5323
C127 C 0.1346(2) 0.3845(2) 0.63863(10)
H162 H 0.1668 0.4079 0.6278
H163 H 0.1426 0.3468 0.6263
C128 C 0.1567(2) 0.3547(2) 0.67786(10)
H164 H 0.1266 0.3286 0.6877
H165 H 0.2108 0.3214 0.6803
C129 C 0.1452(2) 0.40753(19) 0.69982(10)
H166 H 0.0940 0.4229 0.7095
H167 H 0.1833 0.3871 0.7200
C130 C -0.00322(19) 0.5521(2) 0.66531(10)
H168 H 0.0093 0.5026 0.6766
C131 C -0.0889(2) 0.5947(2) 0.67064(11)
H169 H -0.0964 0.5949 0.6963
H170 H -0.1044 0.6432 0.6576
C132 C -0.1393(2) 0.5662(2) 0.65775(11)
H171 H -0.1283 0.5618 0.6328
H172 H -0.1271 0.5193 0.6724
C133 C -0.2215(2) 0.6106(2) 0.65974(13)
H173 H -0.2337 0.6575 0.6451
H174 H -0.2326 0.6150 0.6847
C134 C -0.2728(2) 0.5811(2) 0.64655(13)
H175 H -0.2592 0.5738 0.6221
H176 H -0.2625 0.5353 0.6621
C135 C -0.3562(3) 0.6271(3) 0.64622(19)
H177 H -0.3853 0.6057 0.6375
H178 H -0.3671 0.6722 0.6305
H179 H -0.3705 0.6333 0.6704
C136 C 0.0792(2) 0.33562(18) 0.54870(10)
H180 H 0.0926 0.3536 0.5248
H181 H 0.0316 0.3306 0.5460
C137 C 0.1417(2) 0.2659(2) 0.56434(13)
H182 H 0.1336 0.2526 0.5899
H183 H 0.1396 0.2309 0.5523
C138 C 0.1776(2) 0.5408(2) 0.70670(10)
C139 C 0.1506(2) 0.6054(2) 0.71544(11)
C140 C 0.0761(2) 0.6524(2) 0.70919(12)
C141 C 0.0256(2) 0.6343(2) 0.69329(11)
H184 H -0.0264 0.6659 0.6897
C142 C 0.0492(2) 0.5725(2) 0.68280(10)
C143 C 0.1259(2) 0.5259(2) 0.68936(10)
C144 C 0.2564(2) 0.4867(2) 0.71444(11)
H185 H 0.2808 0.4605 0.6971
C145 C 0.0574(2) 0.65315(19) 0.92517(11)
C146 C 0.0982(2) 0.59598(19) 0.95229(10)
C147 C 0.1664(2) 0.58690(18) 0.96701(10)
C148 C 0.1935(2) 0.63715(19) 0.95291(10)
H186 H 0.2400 0.6318 0.9627
C149 C 0.1563(2) 0.69385(19) 0.92566(11)
C150 C 0.0885(2) 0.7000(2) 0.91212(11)
C151 C 0.0534(2) 0.50991(19) 0.94714(12)
H187 H 0.0391 0.5375 0.9225
H188 H 0.0098 0.5005 0.9566
C152 C 0.1193(2) 0.4431(2) 0.94641(11)
H189 H 0.1071 0.4214 0.9290
H190 H 0.1632 0.4528 0.9378
C153 C 0.14214(19) 0.39266(19) 0.98100(11)
H191 H 0.0957 0.3950 0.9935
H192 H 0.1689 0.3455 0.9763
C154 C 0.2082(2) 0.52697(19) 0.99746(10)
H193 H 0.1692 0.5128 1.0099
C155 C 0.2437(2) 0.54739(19) 1.02532(10)
H194 H 0.2827 0.5620 1.0140
H195 H 0.2038 0.5876 1.0332
C156 C 0.2804(2) 0.4889(2) 1.05810(10)
H196 H 0.2422 0.4722 1.0683
H197 H 0.3223 0.4499 1.0502
C157 C 0.3119(2) 0.5086(2) 1.08758(12)
H198 H 0.3427 0.4658 1.1051
H199 H 0.3461 0.5299 1.0770
C158 C 0.2525(3) 0.5577(3) 1.10695(14)
H200 H 0.2236 0.6018 1.0899
H201 H 0.2165 0.5377 1.1166
C159 C 0.2855(3) 0.5723(3) 1.13688(14)
H202 H 0.2445 0.6042 1.1488
H203 H 0.3200 0.5933 1.1274
H204 H 0.3135 0.5289 1.1540
C160 C 0.1818(2) 0.7520(2) 0.91426(11)
H205 H 0.1360 0.7941 0.9030
C161 C 0.2075(2) 0.7699(2) 0.94625(11)
H206 H 0.2539 0.7295 0.9575
H207 H 0.2217 0.8088 0.9372
C162 C 0.1505(3) 0.7897(2) 0.97495(13)
H208 H 0.1379 0.7501 0.9849
H209 H 0.1749 0.7976 0.9945
C163 C 0.0772(3) 0.8536(3) 0.96250(15)
H210 H 0.0470 0.8425 0.9470
H211 H 0.0896 0.8907 0.9481
C164 C 0.0294(3) 0.8804(3) 0.99330(16)
H212 H 0.0207 0.8421 1.0089
H213 H 0.0580 0.8953 1.0076
C165 C -0.0469(4) 0.9407(4) 0.9808(2)
H214 H -0.0751 0.9556 1.0015
H215 H -0.0759 0.9260 0.9670
H216 H -0.0387 0.9792 0.9658
C166 C 0.0421(4) 0.7485(5) 0.8512(2)
H217 H -0.0049 0.7860 0.8387
H218 H 0.0384 0.7041 0.8529
C167 C 0.1084(5) 0.7477(4) 0.8295(3)
H219 H 0.1549 0.7135 0.8437
H220 H 0.1060 0.7297 0.8082
C168 C 0.1179(4) 0.8092(4) 0.8174(2)
H221 H 0.0677 0.8467 0.8083
H222 H 0.1511 0.8030 0.7969
C169 C 0.3142(2) 0.34163(19) 0.98289(10)
C170 C 0.3804(2) 0.34472(18) 0.96808(10)
C171 C 0.3934(2) 0.40390(18) 0.96413(9)
C172 C 0.33573(19) 0.46186(18) 0.97294(9)
H223 H 0.3436 0.5027 0.9703
C173 C 0.26671(19) 0.46340(18) 0.98547(9)
C174 C 0.2573(2) 0.40267(19) 0.99044(10)
C175 C 0.4106(4) 0.2771(4) 0.92353(19)
H224 H 0.4477 0.2322 0.9188
H225 H 0.3612 0.2743 0.9271
C176 C 0.4024(4) 0.3318(3) 0.89160(19)
H226 H 0.3688 0.3302 0.8737
H227 H 0.3766 0.3773 0.8983
C177 C 0.4703(4) 0.3283(4) 0.8753(2)
H228 H 0.4566 0.3599 0.8516
H229 H 0.4992 0.2807 0.8715
C178 C 0.4709(2) 0.40053(18) 0.95469(10)
H230 H 0.5024 0.3518 0.9522
C179 C 0.50655(19) 0.40958(18) 0.98735(10)
H231 H 0.4782 0.4578 0.9904
H232 H 0.5005 0.3785 1.0089
C180 C 0.5901(2) 0.39422(19) 0.98445(11)
H233 H 0.6105 0.3913 1.0081
H234 H 0.5945 0.4336 0.9678
C181 C 0.6391(2) 0.3281(2) 0.97193(12)
H235 H 0.6928 0.3206 0.9734
H236 H 0.6252 0.3345 0.9466
C182 C 0.6322(2) 0.2636(2) 0.99299(12)
H237 H 0.5781 0.2719 0.9930
H238 H 0.6502 0.2546 1.0180
C183 C 0.6783(3) 0.1996(2) 0.97740(14)
H239 H 0.6719 0.1595 0.9915
H240 H 0.7321 0.1904 0.9780
H241 H 0.6603 0.2082 0.9527
C184 C 0.5149(3) 0.4543(2) 0.85869(12)
C185 C 0.4684(2) 0.55659(19) 0.88474(10)
C186 C 0.46095(18) 0.51531(18) 0.91627(9)
H242 H 0.4443 0.5356 0.9364
C187 C 0.47648(19) 0.44630(17) 0.91981(9)
C188 C 0.5025(2) 0.4170(2) 0.89063(11)
C189 C 0.5604(4) 0.4208(3) 0.83058(15)
H243 H 0.5795 0.4482 0.8140
C190 C 0.4811(5) 0.5309(4) 0.8547(2)
O32 O 0.4745(3) 0.5737(3) 0.82113(15)
C191 C 0.5372(5) 0.5915(4) 0.8085(2)
H244 H 0.5758 0.5545 0.7979
H245 H 0.5617 0.5987 0.8283
C192 C 0.4997(4) 0.6584(4) 0.7806(2)
H246 H 0.5074 0.6456 0.7571
H247 H 0.5286 0.6861 0.7813
C193 C 0.4153(5) 0.7069(4) 0.7814(3)
H248 H 0.3825 0.6822 0.7824
H249 H 0.3987 0.7469 0.7609
C194 C 0.4550(2) 0.63223(18) 0.88189(10)
H250 H 0.4860 0.6418 0.8618
C195 C 0.4865(3) 0.6426(3) 0.91375(15)
C196 C 0.5047(4) 0.7069(3) 0.90468(19)
H251 H 0.5436 0.6992 0.8865
H252 H 0.4583 0.7474 0.8937
C197 C 0.5322(4) 0.7249(4) 0.9348(2)
H253 H 0.5745 0.6826 0.9478
H254 H 0.4906 0.7387 0.9514
C198 C 0.5592(3) 0.7818(3) 0.9253(2)
H255 H 0.5233 0.8198 0.9070
H256 H 0.5577 0.8006 0.9467
C199 C 0.6234(4) 0.7638(5) 0.9141(3)
H257 H 0.6369 0.8032 0.9092
H258 H 0.6250 0.7476 0.8921
H259 H 0.6596 0.7262 0.9320
C200 C 0.6300(4) 0.3417(3) 0.79574(16)
H260 H 0.6399 0.3803 0.7813
H261 H 0.6788 0.3028 0.8054
C201 C 0.5888(3) 0.3209(3) 0.77583(16)
H262 H 0.5478 0.3618 0.7612
H263 H 0.5657 0.2935 0.7918
C202 C 0.2849(2) 0.7851(2) 0.82969(11)
C203 C 0.2275(2) 0.7867(2) 0.85438(11)
C204 C 0.2422(2) 0.7406(2) 0.88668(11)
C205 C 0.3158(2) 0.68991(19) 0.89392(10)
H264 H 0.3268 0.6572 0.9159
C206 C 0.3745(2) 0.68403(18) 0.87083(10)
C207 C 0.3582(2) 0.73285(19) 0.83807(10)
C208 C 0.2650(2) 0.8459(2) 0.79944(11)
H265 H 0.2182 0.8844 0.8005
C209 C 0.6609(2) 0.2473(2) 0.69521(11)
C210 C 0.6714(2) 0.2776(2) 0.66119(11)
C211 C 0.7026(2) 0.2391(2) 0.63522(11)
C212 C 0.7232(2) 0.1684(2) 0.64522(10)
H266 H 0.7458 0.1413 0.6280
C213 C 0.7132(2) 0.1342(2) 0.67885(10)
C214 C 0.6800(2) 0.1759(2) 0.70349(11)
C215 C 0.6212(3) 0.2901(2) 0.72062(12)
H267 H 0.5754 0.3301 0.7128
C216 C 0.6990(3) 0.3765(2) 0.65160(12)
H268 H 0.7436 0.3508 0.6387
H269 H 0.7163 0.3733 0.6759
C217 C 0.6597(3) 0.4518(2) 0.63213(13)
H270 H 0.6333 0.4803 0.6496
H271 H 0.6987 0.4671 0.6216
C218 C 0.6050(3) 0.4646(2) 0.60398(12)
H272 H 0.5609 0.4577 0.6149
H273 H 0.5865 0.5134 0.5910
C219 C 0.7091(2) 0.2736(2) 0.59716(11)
H274 H 0.7277 0.3091 0.5989
C220 C 0.7645(2) 0.2269(2) 0.57504(11)
H275 H 0.7582 0.2531 0.5501
H276 H 0.7515 0.1875 0.5753
C221 C 0.8480(2) 0.1980(2) 0.58733(12)
H277 H 0.8611 0.2372 0.5873
H278 H 0.8548 0.1710 0.6121
C222 C 0.9013(2) 0.1529(2) 0.56464(14)
H279 H 0.8889 0.1777 0.5394
H280 H 0.8924 0.1107 0.5674
C223 C 0.9840(3) 0.1312(3) 0.57257(16)
H281 H 0.9971 0.1050 0.5975
H282 H 0.9930 0.1733 0.5704
C224 C 1.0366(3) 0.0868(3) 0.5482(2)
H283 H 1.0894 0.0755 0.5546
H284 H 1.0243 0.1123 0.5234
H285 H 1.0300 0.0439 0.5511
C225 C 0.7131(2) 0.1096(2) 0.76396(11)
H286 H 0.7233 0.1415 0.7754
H287 H 0.7612 0.0786 0.7551
C226 C 0.6803(3) 0.0672(2) 0.79055(12)
H288 H 0.7226 0.0271 0.8051
H289 H 0.6482 0.0962 0.8068
C227 C 0.6340(3) 0.0411(2) 0.77304(12)
H290 H 0.6140 0.0146 0.7916
H291 H 0.5902 0.0810 0.7594
C228 C 0.7330(2) 0.0584(2) 0.68742(11)
H292 H 0.7532 0.0413 0.7127
C229 C 0.7973(3) 0.0170(2) 0.66540(13)
H293 H 0.8076 -0.0326 0.6729
H294 H 0.7797 0.0324 0.6400
C230 C 0.8710(3) 0.0240(3) 0.66883(13)
H295 H 0.9052 0.0033 0.6505
H296 H 0.8597 0.0738 0.6638
C231 C 0.9111(3) -0.0091(3) 0.70402(15)
H297 H 0.9235 -0.0592 0.7090
H298 H 0.8770 0.0111 0.7225
C232 C 0.9852(3) 0.0002(3) 0.70647(15)
H299 H 1.0191 -0.0196 0.6879
H300 H 0.9729 0.0502 0.7018
C233 C 1.0258(3) -0.0340(4) 0.74197(18)
H301 H 1.0719 -0.0265 0.7423
H302 H 1.0394 -0.0838 0.7465
H303 H 0.9926 -0.0141 0.7605
C234 C 0.5896(2) -0.0175(2) 0.71448(13)
C235 C 0.5520(2) -0.00406(19) 0.68185(12)
C236 C 0.5695(2) 0.03322(19) 0.65125(12)
C237 C 0.6263(2) 0.0546(2) 0.65445(12)
H304 H 0.6395 0.0790 0.6337
C238 C 0.6646(2) 0.0422(2) 0.68647(11)
C239 C 0.6424(2) 0.0090(2) 0.71654(11)
C240 C 0.5807(2) -0.0642(2) 0.74768(13)
H305 H 0.5879 -0.0550 0.7700
C241 C 0.4336(2) -0.0134(2) 0.69936(12)
H306 H 0.4395 0.0090 0.7181
H307 H 0.4302 -0.0570 0.7112
C242 C 0.3633(2) 0.0326(2) 0.67791(12)
H308 H 0.3201 0.0427 0.6938
H309 H 0.3555 0.0080 0.6607
C243 C 0.3627(2) 0.1011(2) 0.65742(11)
H310 H 0.3141 0.1400 0.6604
H311 H 0.4045 0.1084 0.6667
C244 C 0.5329(2) 0.0444(2) 0.61510(12)
H312 H 0.5008 0.0181 0.6191
C245 C 0.5897(3) 0.0138(3) 0.58814(15)
H313 H 0.6210 0.0403 0.5839
H314 H 0.5597 0.0260 0.5657
C246 C 0.6453(4) -0.0621(4) 0.5922(2)
H315 H 0.6158 -0.0902 0.5970
H316 H 0.6688 -0.0682 0.5690
C247 C 0.7072(5) -0.0912(4) 0.6200(2)
H317 H 0.6849 -0.0962 0.6436
H318 H 0.7291 -0.0574 0.6190
C248 C 0.7535(9) -0.1794(8) 0.6102(3)
H319 H 0.7752 -0.1813 0.5865
H320 H 0.7234 -0.2070 0.6158
C249 C 0.8223(6) -0.1933(6) 0.6474(3)
H321 H 0.8665 -0.2377 0.6487
H322 H 0.7972 -0.1935 0.6701
H323 H 0.8389 -0.1558 0.6426
C250 C 0.3488(2) 0.20848(19) 0.58225(10)
C251 C 0.3790(2) 0.25214(18) 0.56167(10)
C252 C 0.4554(2) 0.23114(18) 0.55900(10)
C253 C 0.5042(2) 0.16581(19) 0.57803(11)
H324 H 0.5573 0.1515 0.5762
C254 C 0.4784(2) 0.12054(19) 0.59963(11)
C255 C 0.4006(2) 0.14316(19) 0.60146(11)
C256 C 0.2673(2) 0.2233(2) 0.58256(11)
H325 H 0.2519 0.1971 0.6017
C257 C 0.2876(2) 0.36773(19) 0.56046(11)
H326 H 0.2687 0.3468 0.5820
H327 H 0.2431 0.4033 0.5453
C258 C 0.3334(2) 0.4021(2) 0.57148(12)
H328 H 0.3058 0.4273 0.5900
H329 H 0.3820 0.3652 0.5828
C259 C 0.3514(2) 0.4517(2) 0.54345(14)
H330 H 0.3074 0.4774 0.5261
H331 H 0.3575 0.4858 0.5548
C260 C 0.4872(2) 0.2751(2) 0.53275(11)
H332 H 0.4425 0.3119 0.5176
C261 C 0.5393(2) 0.2329(2) 0.50729(12)
H333 H 0.5610 0.2618 0.4916
H334 H 0.5819 0.1925 0.5214
C262 C 0.5010(3) 0.2070(3) 0.48431(13)
H335 H 0.4814 0.1764 0.5001
H336 H 0.4569 0.2472 0.4711
C263 C 0.5505(3) 0.1684(3) 0.45804(16)
H337 H 0.5961 0.1299 0.4712
H338 H 0.5678 0.2000 0.4415
C264 C 0.5140(5) 0.1383(4) 0.4359(2)
H339 H 0.4684 0.1762 0.4225
H340 H 0.4978 0.1055 0.4520
C265 C 0.5704(5) 0.0998(4) 0.4090(2)
H341 H 0.5446 0.0831 0.3946
H342 H 0.6142 0.0604 0.4222
H343 H 0.5876 0.1318 0.3933
C266 C 0.5252(2) 0.4219(2) 0.55381(11)
C267 C 0.5951(2) 0.3858(2) 0.57142(11)
C268 C 0.6305(2) 0.3129(2) 0.57898(11)
C269 C 0.5919(2) 0.2787(2) 0.56763(10)
H344 H 0.6151 0.2295 0.5726
C270 C 0.5210(2) 0.3131(2) 0.54938(10)
C271 C 0.4866(2) 0.3856(2) 0.54363(11)
C272 C 0.4960(2) 0.49838(19) 0.54329(11)
H345 H 0.5259 0.5167 0.5282
O33 O -0.4509(4) 0.9491(4) 0.5071(3)
H346 H -0.4421 0.9840 0.5059
C273 C -0.4086(5) 0.9109(7) 0.4803(3)
H347 H -0.3619 0.8721 0.4914
H348 H -0.3959 0.9418 0.4614
H349 H -0.4398 0.8931 0.4701
C274 C 0.7973(4) 0.6315(3) 0.81176(17)
H350 H 0.8432 0.6034 0.8281
Cl1 Cl 0.75199(13) 0.71509(11) 0.82037(6)
Cl2 Cl 0.82344(13) 0.63485(10) 0.76814(5)
Cl3 Cl 0.72987(14) 0.59299(15) 0.82035(8)
C275 C 0.9522(2) 0.36040(19) 0.63101(11)
H351 H 0.9966 0.3693 0.6214
Cl4 Cl 0.95629(8) 0.34832(7) 0.67721(3)
Cl5 Cl 0.86887(8) 0.43156(7) 0.61269(4)
Cl6 Cl 0.95611(7) 0.28619(6) 0.61805(4)
C276 C 0.2536(3) 0.3565(2) 0.46623(14)
H352 H 0.2570 0.3364 0.4924
Cl7 Cl 0.30195(8) 0.41005(7) 0.45845(4)
Cl8 Cl 0.15690(7) 0.40689(6) 0.45257(3)
Cl9 Cl 0.29279(8) 0.28876(7) 0.44363(5)
C277 C 0.8409(5) 0.2101(4) 0.7584(2)
H353 H 0.7862 0.2211 0.7545
Cl10 Cl 0.86733(15) 0.26054(13) 0.72303(6)
Cl11 Cl 0.89452(16) 0.12190(12) 0.76024(8)
Cl12 Cl 0.85232(14) 0.23057(13) 0.79849(6)
C278 C 0.4473(4) 0.2719(4) 0.6496(2)
H354 H 0.4550 0.2570 0.6264
Cl13 Cl 0.35269(9) 0.29995(11) 0.65869(5)
Cl14 Cl 0.47754(9) 0.33934(9) 0.64639(5)
Cl15 Cl 0.50333(11) 0.20167(10) 0.68272(6)
C279 C 0.2754(6) 0.4938(5) 0.8754(4)
H355 H 0.3034 0.4860 0.8981
Cl16 Cl 0.1932(3) 0.5661(2) 0.87321(10)
Cl17 Cl 0.25597(19) 0.42168(17) 0.87724(9)
Cl18 Cl 0.33502(15) 0.50178(15) 0.84018(9)
C280 C 0.5689(5) 0.7953(6) 0.6935(3)
H356 H 0.5570 0.8380 0.7028
Cl19 Cl 0.60706(17) 0.80491(12) 0.65049(8)
Cl20 Cl 0.48974(16) 0.78280(15) 0.69251(8)
Cl21 Cl 0.63663(18) 0.72445(17) 0.72219(9)
C281 C 0.4008(7) 0.5734(6) 0.6506(4)
H357 H 0.3818 0.5645 0.6293
Cl22 Cl 0.44243(19) 0.6296(2) 0.63617(11)
Cl23 Cl 0.32248(19) 0.61046(19) 0.67732(11)
Cl24 Cl 0.4667(3) 0.4951(2) 0.67504(13)
C282 C 0.5498(5) 0.9995(5) 0.8816(3)
H358 H 0.5289 1.0511 0.8746
Cl25 Cl 0.51382(16) 0.97219(14) 0.85386(7)
Cl26 Cl 0.5090(3) 0.9734(3) 0.92931(11)
Cl27 Cl 0.6434(2) 0.9678(3) 0.88897(16)
O34 O 0.3387(2) 0.1821(2) 0.87860(13)
H359 H 0.3401 0.1777 0.9008
C283 C 0.3067(3) 0.1377(3) 0.86944(15)
H360 H 0.3377 0.1129 0.8518
H361 H 0.2547 0.1661 0.8595
H362 H 0.3062 0.1042 0.8909
O35 O 0.4801(4) 0.1501(4) 0.86399(17)
H363 H 0.4366 0.1688 0.8717
C284 C 0.4792(4) 0.1805(4) 0.82648(16)
H364 H 0.5110 0.2059 0.8232
H365 H 0.4270 0.2123 0.8179
H366 H 0.4989 0.1437 0.8130
O36 O 0.22856(17) 0.27277(16) 0.91214(9)
H367 H 0.2210 0.2455 0.9293
C285 C 0.1636(2) 0.3059(2) 0.88786(11)
H368 H 0.1188 0.3312 0.9003
H369 H 0.1556 0.2709 0.8786
H370 H 0.1721 0.3384 0.8681
O37 O 0.4904(6) 0.8822(6) 0.0054(3)
H371 H 0.5059 0.8406 0.0013
C286 C 0.4375(7) 0.8861(7) 0.0278(4)
H372 H 0.4516 0.8625 0.0495
H373 H 0.3954 0.8861 0.0154
H374 H 0.4158 0.9416 0.0284
H375? H -0.0526 0.7204 0.9191
C287? C 0.5056(5) 0.5205(5) 0.8574(2)
O38? O 0.5244(3) 0.5557(3) 0.82747(14)
C288? C 0.4709(5) 0.5842(4) 0.7977(2)
H376? H 0.4190 0.5966 0.8064
H377? H 0.4814 0.5491 0.7832
C289? C 0.4753(5) 0.6453(4) 0.7759(2)
H378? H 0.4658 0.6465 0.7507
H379? H 0.5278 0.6407 0.7783
C290? C 0.4233(6) 0.7113(4) 0.7840(3)
H380? H 0.4333 0.7473 0.7670
H381? H 0.3718 0.7177 0.7774
C291? C 0.7702(7) -0.1594(5) 0.6178(4)
H382? H 0.8009 -0.1512 0.5976
H383? H 0.8032 -0.1759 0.6397
C292? C 0.7532(7) -0.2101(5) 0.6139(3)
H384? H 0.8000 -0.2522 0.6146
H385? H 0.7254 -0.1971 0.5910
H386? H 0.7215 -0.2184 0.6333
C293? C 0.2761(4) 0.5668(4) 0.60050(19)
H387? H 0.2898 0.5792 0.5754
Cl28? Cl 0.19432(18) 0.5621(2) 0.60791(9)
Cl29? Cl 0.3477(2) 0.5092(3) 0.63231(13)
Cl30? Cl 0.2389(5) 0.6456(4) 0.6337(2)
C294? C -0.3386(7) 0.9269(6) 0.4752(3)
C295? C 0.0781(5) 0.7559(5) 0.8489(3)
C296? C 0.0508(4) 0.8314(6) 0.8295(3)
C297? C 0.1066(4) 0.8480(6) 0.8218(3)
C298? C 0.4255(7) 0.2576(6) 0.9334(3)
C299? C 0.4862(6) 0.2561(4) 0.9049(3)
C300? C 0.4852(9) 0.3260(7) 0.8863(4)
C301? C 0.4708(7) 0.6443(6) 0.9216(4)
C302? C 0.4806(7) 0.7132(6) 0.9139(4)
C303? C 0.5560(6) 0.7100(5) 0.8915(4)
C304? C 0.5725(6) 0.7709(5) 0.8895(4)
C305? C 0.6447(8) 0.7627(8) 0.9027(5)
C306? C -0.1520(7) 0.6115(5) 0.9025(3)
C307? C -0.1310(5) 0.6737(5) 0.8927(3)
C308? C 0.8317(8) 0.2131(6) 0.7452(3)
C309? C 0.4699(7) 0.2308(9) 0.6732(3)
C310? C 0.2345(8) 0.5206(8) 0.8845(5)
C311? C -0.0132(6) 0.6701(5) 0.9066(3)
C312? C 0.5389(8) 0.8067(10) 0.6610(3)
C313? C 0.4375(11) 0.5495(7) 0.7016(4)
C314? C 0.1053(9) 0.1242(7) 0.7218(4)
C315? C 0.1375(9) 0.1380(8) 0.6846(4)
C316? C 0.1357(8) 0.0846(7) 0.6636(5)
C317? C 0.3106(8) 0.1339(7) 0.9883(4)
C318? C 0.2862(7) 0.1764(5) 1.0183(3)
C319? C 0.3115(7) 0.2689(7) 1.0018(4)
Cl31? Cl 0.8868(3) 0.1399(3) 0.77574(17)
Cl32? Cl 0.8367(3) 0.2876(2) 0.75154(14)
Cl33? Cl 0.8634(2) 0.2029(2) 0.70136(11)
Cl34? Cl 0.47951(19) 0.25334(19) 0.71468(9)
Cl35? Cl 0.5198(2) 0.2580(2) 0.63995(11)
Cl36? Cl 0.3785(3) 0.2579(2) 0.66026(12)
Cl37? Cl 0.2190(4) 0.4690(4) 0.85902(19)
Cl38? Cl 0.2980(4) 0.5506(4) 0.8630(2)
Cl39? Cl 0.1430(7) 0.5849(7) 0.8798(5)
Cl40? Cl 0.5579(5) 0.8288(5) 0.6174(2)
Cl41? Cl 0.4631(5) 0.7846(5) 0.6668(3)
Cl42? Cl 0.5909(7) 0.8072(7) 0.6951(3)
Cl43? Cl 0.4934(4) 0.4751(4) 0.6908(2)
Cl44? Cl 0.4384(3) 0.5539(3) 0.74543(17)
Cl45? Cl 0.4362(5) 0.6220(4) 0.6723(3)
H388? H -0.3660 0.9704 0.4581
H389? H -0.3627 0.9291 0.4982
H390? H -0.3400 0.8885 0.4664
H391? H 0.1343 0.7324 0.8505
H392? H 0.0586 0.7309 0.8364
H393? H 0.0220 0.8390 0.8073
H394? H 0.0161 0.8616 0.8446
H395? H 0.1351 0.8231 0.8033
H396? H 0.0850 0.8981 0.8108
H397? H 0.3737 0.2852 0.9223
H398? H 0.4311 0.2100 0.9438
H399? H 0.5371 0.2264 0.9166
H400? H 0.4793 0.2336 0.8864
H401? H 0.4949 0.3243 0.8610
H402? H 0.4327 0.3614 0.8870
H403? H 0.4838 0.7257 0.9368
H404? H 0.4349 0.7505 0.9003
H405? H 0.6006 0.6679 0.9028
H406? H 0.5486 0.7059 0.8670
H407? H 0.5659 0.7950 0.8642
H408? H 0.5326 0.8026 0.9024
H409? H 0.6499 0.8063 0.8947
H410? H 0.6858 0.7259 0.8935
H411? H 0.6473 0.7505 0.9288
H412? H 0.7777 0.2196 0.7464
H413? H 0.4931 0.1791 0.6778
H414? H 0.2507 0.4962 0.9098
H415? H 0.5741 0.7572 0.6617
H416? H 0.3856 0.5527 0.6976
H417? H -0.1438 0.5934 0.9285
H418? H -0.2068 0.6283 0.8967
H419? H -0.1461 0.6970 0.8674
H420? H -0.1586 0.7076 0.9076
H421? H -0.0489 0.7059 0.9188
H422? H -0.0066 0.6968 0.8834
H423? H 0.0521 0.1307 0.7198
H424? H 0.1364 0.0770 0.7357
H425? H 0.1902 0.1325 0.6873
H426? H 0.1063 0.1858 0.6714
H427? H 0.1686 0.0375 0.6769
H428? H 0.0833 0.0883 0.6632
N17? N -0.0514(5) 0.6504(5) 0.8983(3)
N18? N 0.2711(5) 0.2508(4) 1.0027(2)

#END

