
#######################################################################
#
#                 Cambridge Crystallographic Data Centre
#                                CCDC 
#
#######################################################################
#
# If this CIF has been generated directly or indirectly from an entry in the 
# Cambridge Structural Database, then it will include bibliographic, chemical, 
# crystal, experimental, refinement or atomic coordinate data resulting from 
# the CCDC's data processing and validation procedures. Files generated from 
# CSD entries are Copyright 2015 Cambridge Crystallographic Data Centre. They 
# may be used in bona fide research applications only, and may not be copied or 
# further disseminated in any form, whether machine-readable or not, except for 
# the purposes of generating routine backup copies on your local computer 
# system.
# 
# Files arising from any other source may also contain material that is the 
# copyright of third parties, including the originator, and you should check 
# with the originator concerning the permitted uses of the information 
# contained in this CIF.
#
# For further information on the CCDC and the free tools enCIFer and Mercury
# for validating and visualising CIF files, please visit www.ccdc.cam.ac.uk
#
#######################################################################

data_EPIRUR
_audit_creation_date             2011-06-16
_database_code_depnum_ccdc_archive 'CCDC 809740'
_chemical_formula_moiety         'C60 H60 N6 O6,6(C1 H2 Cl2)'
_chemical_name_systematic        
'7,16,23,30,39,46-Hexamethoxy-10,13,33,36,48,51-hexaazadecacyclo[22.22.6.3^8,41^.3^18,31^.1^15,19^.1^38,42^.0^3,44^.0^5,55^.0^21,26^.0^28,58^]hexaconta-1(46),2,5,7,9,13,15(60),16,18,21,23,25,28,30,32,36,38(53),39,41,44,47,51,55,57-tetracosaene dichloromethane solvate'
_journal_coden_Cambridge         182
_journal_volume                  47
_journal_year                    2011
_journal_page_first              4511
_journal_name_full               Chem.Commun.
loop_
_publ_author_name
C.Givelet
'Junling Sun'
'Di Xu'
T.J.Emge
A.Dhokte
R.Warmuth
_chemical_absolute_configuration unk
_diffrn_ambient_temperature      100
_exptl_crystal_density_meas      1.372
_exptl_crystal_density_diffrn    1.372
#These two values have been output from a single CSD field.
_refine_ls_R_factor_gt           0.0564
_refine_ls_wR_factor_gt          0.0564
_diffrn_radiation_probe          x-ray
_symmetry_cell_setting           rhombohedral
_symmetry_space_group_name_H-M   'R 3 2'
_symmetry_Int_Tables_number      155
loop_
_symmetry_equiv_pos_site_id
_symmetry_equiv_pos_as_xyz
1 x,y,z
2 -y,x-y,z
3 -x+y,-x,z
4 y,x,-z
5 x-y,-y,-z
6 -x,-x+y,-z
7 2/3+x,1/3+y,1/3+z
8 2/3-y,1/3+x-y,1/3+z
9 2/3-x+y,1/3-x,1/3+z
10 2/3+y,1/3+x,1/3-z
11 2/3+x-y,1/3-y,1/3-z
12 2/3-x,1/3-x+y,1/3-z
13 1/3+x,2/3+y,2/3+z
14 1/3-y,2/3+x-y,2/3+z
15 1/3-x+y,2/3-x,2/3+z
16 1/3+y,2/3+x,2/3-z
17 1/3+x-y,2/3-y,2/3-z
18 1/3-x,2/3-x+y,2/3-z
_cell_length_a                   16.2073(7)
_cell_length_b                   16.2073(7)
_cell_length_c                   23.4757(18)
_cell_angle_alpha                90
_cell_angle_beta                 90
_cell_angle_gamma                120
_cell_volume                     5340.36
_exptl_crystal_colour            colorless
_exptl_crystal_description       lath
_cell_formula_units_Z            3
loop_
_atom_site_label
_atom_site_type_symbol
_atom_site_fract_x
_atom_site_fract_y
_atom_site_fract_z
N1 N -0.35417(16) -0.31877(23) -0.05979(10)
O1 O -0.32745(13) -0.05875(18) -0.06791(8)
C1 C -0.26253(17) -0.06940(24) -0.09972(10)
C2 C -0.26862(17) -0.15904(24) -0.09745(11)
C3 C -0.20547(17) -0.17265(24) -0.13028(11)
H1 H -0.2096 -0.2332 -0.1292
C4 C -0.13632(17) -0.10224(24) -0.16475(11)
C5 C -0.12975(16) -0.01308(23) -0.16576(10)
C6 C -0.19381(17) 0.00210(24) -0.13380(11)
H2 H -0.1903 0.0623 -0.1354
C7 C -0.3230(2) 0.03081(28) -0.07152(14)
H3 H -0.3722 0.0304 -0.0470
H4 H -0.3337 0.0426 -0.1110
H5 H -0.2601 0.0812 -0.0590
C8 C -0.34051(17) -0.23420(25) -0.06069(11)
H6 H -0.3782 -0.2190 -0.0367
C9 C -0.42671(18) -0.38451(27) -0.02020(13)
H7 H -0.4799 -0.4364 -0.0418
H8 H -0.4524 -0.3503 0.0019
C10 C -0.07180(18) -0.12653(25) -0.19945(10)
H9 H -0.0480 -0.0840 -0.2331
H10 H -0.1097 -0.1928 -0.2135
N1A N 0.31877 -0.0354 -0.05979
N1E N 0.35417 0.0354 0.05979
N1C N -0.31877 -0.35417 0.05979
N1D N -0.0354 0.31877 0.05979
N1B N 0.0354 0.35417 -0.05979
O1A O 0.05875 -0.2687 -0.06791
O1E O 0.32745 0.2687 0.06791
O1C O -0.05875 -0.32745 0.06791
O1D O -0.2687 0.05875 0.06791
O1B O 0.2687 0.32745 -0.06791
C1A C 0.0694 -0.19313 -0.09972
C1E C 0.26253 0.19313 0.09972
C1C C -0.0694 -0.26253 0.09972
C1D C -0.19313 0.0694 0.09972
C1B C 0.19313 0.26253 -0.09972
C2A C 0.15904 -0.10958 -0.09745
C2E C 0.26862 0.10958 0.09745
C2C C -0.15904 -0.26862 0.09745
C2D C -0.10958 0.15904 0.09745
C2B C 0.10958 0.26862 -0.09745
C3A C 0.17265 -0.03282 -0.13028
C3E C 0.20547 0.03282 0.13028
C3C C -0.17265 -0.20547 0.13028
C3D C -0.03282 0.17265 0.13028
C3B C 0.03282 0.20547 -0.13028
H1E H 0.2096 -0.0236 0.1292
H1C H -0.2332 -0.2096 0.1292
H1B H -0.0236 0.2096 -0.1292
H1D H 0.0236 0.2332 0.1292
H1A H 0.2332 0.0236 -0.1292
C4A C 0.10224 -0.03408 -0.16475
C4E C 0.13632 0.03408 0.16475
C4C C -0.10224 -0.13632 0.16475
C4D C -0.03408 0.10224 0.16475
C4B C 0.03408 0.13632 -0.16475
C5A C 0.01308 -0.11667 -0.16576
C5E C 0.12975 0.11667 0.16576
C5C C -0.01308 -0.12975 0.16576
C5D C -0.11667 0.01308 0.16576
C5B C 0.11667 0.12975 -0.16576
C6A C -0.0021 -0.19591 -0.1338
C6E C 0.19381 0.19591 0.1338
C6C C 0.0021 -0.19381 0.1338
C6D C -0.19591 -0.0021 0.1338
C6B C 0.19591 0.19381 -0.1338
H2A H -0.0623 -0.2526 -0.1354
H2C H 0.0623 -0.1903 0.1354
H2D H -0.2526 -0.0623 0.1354
H2B H 0.2526 0.1903 -0.1354
H2E H 0.1903 0.2526 0.1354
C7A C -0.03081 -0.35381 -0.07152
C7E C 0.323 0.35381 0.07152
C7C C 0.03081 -0.323 0.07152
C7D C -0.35381 -0.03081 0.07152
C7B C 0.35381 0.323 -0.07152
H3A H -0.0304 -0.4026 -0.047
H3E H 0.3722 0.4026 0.047
H3C H 0.0304 -0.3722 0.047
H3D H -0.4026 -0.0304 0.047
H3B H 0.4026 0.3722 -0.047
H4A H -0.0426 -0.3763 -0.111
H4E H 0.3337 0.3763 0.111
H4C H 0.0426 -0.3337 0.111
H4D H -0.3763 -0.0426 0.111
H4B H 0.3763 0.3337 -0.111
H5A H -0.0812 -0.3413 -0.059
H5E H 0.2601 0.3413 0.059
H5C H 0.0812 -0.2601 0.059
H5D H -0.3413 -0.0812 0.059
H5B H 0.3413 0.2601 -0.059
C8A C 0.2342 -0.10631 -0.06069
C8E C 0.34051 0.10631 0.06069
C8C C -0.2342 -0.34051 0.06069
C8D C -0.10631 0.2342 0.06069
C8B C 0.10631 0.34051 -0.06069
H6C H -0.219 -0.3782 0.0367
H6B H 0.1592 0.3782 -0.0367
H6D H -0.1592 0.219 0.0367
H6E H 0.3782 0.1592 0.0367
H6A H 0.219 -0.1592 -0.0367
C9A C 0.38451 -0.0422 -0.0202
C9E C 0.42671 0.0422 0.0202
C9C C -0.38451 -0.42671 0.0202
C9D C -0.0422 0.38451 0.0202
C9B C 0.0422 0.42671 -0.0202
H7C H -0.4364 -0.4799 0.0418
H7B H 0.0435 0.4799 -0.0418
H7D H -0.0435 0.4364 0.0418
H7E H 0.4799 0.0435 0.0418
H7A H 0.4364 -0.0435 -0.0418
H8C H -0.3503 -0.4524 -0.0019
H8B H 0.1021 0.4524 0.0019
H8D H -0.1021 0.3503 -0.0019
H8E H 0.4524 0.1021 -0.0019
H8A H 0.3503 -0.1021 0.0019
C10E C 0.0718 -0.05473 0.19945
C10C C -0.12653 -0.0718 0.19945
C10B C -0.05473 0.0718 -0.19945
C10A C 0.12653 0.05473 -0.19945
C10D C 0.05473 0.12653 0.19945
H9B H -0.036 0.048 -0.2331
H9A H 0.084 0.036 -0.2331
H9D H 0.036 0.084 0.2331
H9C H -0.084 -0.048 0.2331
H9E H 0.048 -0.036 0.2331
H10B H -0.0831 0.1097 -0.2135
H10A H 0.1928 0.0831 -0.2135
H10D H 0.0831 0.1928 0.2135
H10C H -0.1928 -0.1097 0.2135
H10E H 0.1097 -0.0831 0.2135
C11 C 0.0993(2) 0.4326(2) 0.1667
H11 H 0.0678 0.3923 0.1329
Cl1 Cl 0.21028(7) 0.44272(9) 0.17600(6)
H11I H 0.0589667 0.401133 0.200433
Cl1I Cl 0.109387 0.543613 0.157333
C12? C 0.3333 0.6667 0.0639(3)
H12? H 0.2805 0.6763 0.0457
H13? H 0.3333 0.6667 0.0963
Cl2? Cl 0.4362(5) 0.7614(4) 0.0248(4)
Cl3? Cl 0.3076(5) 0.5591(7) 0.0258(4)
C13? C 0.0000 0.0000 0.0319(5)
H14? H -0.0276 -0.0553 0.0568
H15? H 0.0276 0.0553 0.0568
Cl4? Cl -0.0756(10) 0.0229(8) -0.0069(5)
Cl5? Cl 0.0989(8) 0.0232(6) -0.0024(5)

#END

