
#######################################################################
#
#                 Cambridge Crystallographic Data Centre
#                                CCDC 
#
#######################################################################
#
# If this CIF has been generated directly or indirectly from an entry in the 
# Cambridge Structural Database, then it will include bibliographic, chemical, 
# crystal, experimental, refinement or atomic coordinate data resulting from 
# the CCDC's data processing and validation procedures. Files generated from 
# CSD entries are Copyright 2016 Cambridge Crystallographic Data Centre. They 
# may be used in bona fide research applications only, and may not be copied or 
# further disseminated in any form, whether machine-readable or not, except for 
# the purposes of generating routine backup copies on your local computer 
# system.
# 
# Files arising from any other source may also contain material that is the 
# copyright of third parties, including the originator, and you should check 
# with the originator concerning the permitted uses of the information 
# contained in this CIF.
#
# For further information on the CCDC and the free tools enCIFer and Mercury
# for validating and visualising CIF files, please visit www.ccdc.cam.ac.uk
#
#######################################################################

data_VOMPEU
_audit_creation_date             2014-08-21
_database_code_depnum_ccdc_archive 'CCDC 1020549'
_chemical_formula_moiety         'C75 H112 N12,4.5(H2 O1)'
_chemical_name_systematic        
'85,85-dimethyl-5,12,20,27,35,42,50,57,62,69,74,81-dodecaazatetradecacyclo[29.29.10.10^16,46^.1^3,59^.1^5,12^.1^14,18^.1^29,33^.1^44,48^.0^6,11^.0^21,26^.0^36,41^.0^51,56^.0^63,68^.0^75,80^]pentaoctaconta-1,3(71),14(84),15,17,29(83),30,32,44(72),45,47,59-dodecaene hydrate'
_journal_coden_Cambridge         4
_journal_volume                  136
_journal_year                    2014
_journal_page_first              7583
_journal_name_full               J.Am.Chem.Soc.
loop_
_publ_author_name
'Ming Liu'
M.A.Little
K.E.Jelfs
J.T.A.Jones
M.Schmidtmann
'Samantha Y.Chong'
T.Hasell
A.I.Cooper
_chemical_absolute_configuration unk
_diffrn_ambient_temperature      300
_exptl_crystal_density_meas      0.998
_exptl_crystal_density_diffrn    0.999
#These two values have been output from a single CSD field.
_refine_ls_R_factor_gt           0.0928
_refine_ls_wR_factor_gt          0.0928
_diffrn_radiation_probe          x-ray
_symmetry_cell_setting           cubic
_symmetry_space_group_name_H-M   'F 41 3 2'
_symmetry_Int_Tables_number      210
loop_
_symmetry_equiv_pos_site_id
_symmetry_equiv_pos_as_xyz
1 x,y,z
2 1/4-y,1/4+x,1/4+z
3 -x,-y,z
4 1/4+y,1/4-x,1/4+z
5 1/4+x,1/4-z,1/4+y
6 x,-y,-z
7 1/4+x,1/4+z,1/4-y
8 1/4+z,1/4+y,1/4-x
9 -x,y,-z
10 1/4-z,1/4+y,1/4+x
11 z,x,y
12 y,z,x
13 -y,-z,x
14 z,-x,-y
15 -y,z,-x
16 -z,-x,y
17 -z,x,-y
18 y,-z,-x
19 1/4+y,1/4+x,1/4-z
20 1/4-y,1/4-x,1/4-z
21 1/4-x,1/4+z,1/4+y
22 1/4-x,1/4-z,1/4-y
23 1/4+z,1/4-y,1/4+x
24 1/4-z,1/4-y,1/4-x
25 x,1/2+y,1/2+z
26 1/4-y,3/4+x,3/4+z
27 -x,1/2-y,1/2+z
28 1/4+y,3/4-x,3/4+z
29 1/4+x,3/4-z,3/4+y
30 x,1/2-y,1/2-z
31 1/4+x,3/4+z,3/4-y
32 1/4+z,3/4+y,3/4-x
33 -x,1/2+y,1/2-z
34 1/4-z,3/4+y,3/4+x
35 z,1/2+x,1/2+y
36 y,1/2+z,1/2+x
37 -y,1/2-z,1/2+x
38 z,1/2-x,1/2-y
39 -y,1/2+z,1/2-x
40 -z,1/2-x,1/2+y
41 -z,1/2+x,1/2-y
42 y,1/2-z,1/2-x
43 1/4+y,3/4+x,3/4-z
44 1/4-y,3/4-x,3/4-z
45 1/4-x,3/4+z,3/4+y
46 1/4-x,3/4-z,3/4-y
47 1/4+z,3/4-y,3/4+x
48 1/4-z,3/4-y,3/4-x
49 1/2+x,y,1/2+z
50 3/4-y,1/4+x,3/4+z
51 1/2-x,-y,1/2+z
52 3/4+y,1/4-x,3/4+z
53 3/4+x,1/4-z,3/4+y
54 1/2+x,-y,1/2-z
55 3/4+x,1/4+z,3/4-y
56 3/4+z,1/4+y,3/4-x
57 1/2-x,y,1/2-z
58 3/4-z,1/4+y,3/4+x
59 1/2+z,x,1/2+y
60 1/2+y,z,1/2+x
61 1/2-y,-z,1/2+x
62 1/2+z,-x,1/2-y
63 1/2-y,z,1/2-x
64 1/2-z,-x,1/2+y
65 1/2-z,x,1/2-y
66 1/2+y,-z,1/2-x
67 3/4+y,1/4+x,3/4-z
68 3/4-y,1/4-x,3/4-z
69 3/4-x,1/4+z,3/4+y
70 3/4-x,1/4-z,3/4-y
71 3/4+z,1/4-y,3/4+x
72 3/4-z,1/4-y,3/4-x
73 1/2+x,1/2+y,z
74 3/4-y,3/4+x,1/4+z
75 1/2-x,1/2-y,z
76 3/4+y,3/4-x,1/4+z
77 3/4+x,3/4-z,1/4+y
78 1/2+x,1/2-y,-z
79 3/4+x,3/4+z,1/4-y
80 3/4+z,3/4+y,1/4-x
81 1/2-x,1/2+y,-z
82 3/4-z,3/4+y,1/4+x
83 1/2+z,1/2+x,y
84 1/2+y,1/2+z,x
85 1/2-y,1/2-z,x
86 1/2+z,1/2-x,-y
87 1/2-y,1/2+z,-x
88 1/2-z,1/2-x,y
89 1/2-z,1/2+x,-y
90 1/2+y,1/2-z,-x
91 3/4+y,3/4+x,1/4-z
92 3/4-y,3/4-x,1/4-z
93 3/4-x,3/4+z,1/4+y
94 3/4-x,3/4-z,1/4-y
95 3/4+z,3/4-y,1/4+x
96 3/4-z,3/4-y,1/4-x
_cell_length_a                   25.612(5)
_cell_length_b                   25.612(5)
_cell_length_c                   25.612(5)
_cell_angle_alpha                90
_cell_angle_beta                 90
_cell_angle_gamma                90
_cell_volume                     16800.8
_cell_formula_units_Z            8
loop_
_atom_site_label
_atom_site_type_symbol
_atom_site_fract_x
_atom_site_fract_y
_atom_site_fract_z
O1 O 0.1716(12) 0.1467(14) 0.0903(12)
C1 C 0.15189(16) 0.32872(17) 0.09741(17)
C2 C 0.10974(15) 0.31683(17) 0.12840(18)
H1 H 0.0893 0.2878 0.1208
C3 C 0.2139(2) 0.2939(2) -0.06195(18)
H2 H 0.2373 0.3236 -0.0615
H3 H 0.1783 0.3069 -0.0620
C4 C 0.1617(2) 0.2955(2) 0.0494(2)
C5 C 0.22273(16) 0.26097(17) -0.01387(14)
C6 C 0.22344(19) 0.2614(2) -0.11171(17)
H4 H 0.1978 0.2337 -0.1138
H5 H 0.2193 0.2836 -0.1422
N1 N 0.21654(14) 0.28886(18) 0.03434(15)
H6 H 0.1467 0.2613 0.0553
H7 H 0.1431 0.3111 0.0202
H8 H 0.1979 0.2318 -0.0143
C7 C 0.2500 0.2500 0.0741(12)
C8 C 0.2258(9) 0.2211(9) 0.1154(8)
H9 H 0.2518 0.2011 0.1336
H10 H 0.2001 0.1979 0.1010
H11 H 0.2093 0.2448 0.1393
C1KA C 0.09741 0.34811 0.17128
C2KA C 0.1284 0.39026 0.18317
H1KA H 0.1208 0.4107 0.2122
C3KA C -0.06195 0.2861 0.2061
H2KA H -0.0615 0.2627 0.1764
H3KA H -0.062 0.3217 0.1931
C4KA C 0.0494 0.3383 0.2045
C5KA C -0.01387 0.27727 0.23903
C6KA C -0.11171 0.27656 0.2386
H4KA H -0.1138 0.3022 0.2663
H5KA H -0.1422 0.2807 0.2164
N1KA N 0.03434 0.28346 0.21114
H6KA H 0.0553 0.3533 0.2387
H7KA H 0.0202 0.3569 0.1889
H8KA H -0.0143 0.3021 0.2682
C7J C 0.0741 0.25 0.25
C8KA C 0.1154 0.2742 0.2789
H9KA H 0.1336 0.2482 0.2989
H10KA H 0.101 0.2999 0.3021
H11KA H 0.1393 0.2907 0.2552
C1VB C 0.34811 0.17128 0.09741
C2VB C 0.39026 0.18317 0.1284
H1VB H 0.4107 0.2122 0.1208
C3VB C 0.2861 0.2061 -0.06195
H2VB H 0.2627 0.1764 -0.0615
H3VB H 0.3217 0.1931 -0.062
C4VB C 0.3383 0.2045 0.0494
C5VB C 0.27727 0.23903 -0.01387
C6VB C 0.27656 0.2386 -0.11171
H4VB H 0.3022 0.2663 -0.1138
H5VB H 0.2807 0.2164 -0.1422
N1VB N 0.28346 0.21114 0.03434
H6VB H 0.3533 0.2387 0.0553
H7VB H 0.3569 0.1889 0.0202
H8VB H 0.3021 0.2682 -0.0143
C8VB C 0.2742 0.2789 0.1154
H9VB H 0.2482 0.2989 0.1336
H10VB H 0.2999 0.3021 0.101
H11VB H 0.2907 0.2552 0.1393
C1FC C 0.17128 0.40259 0.15189
C2FC C 0.18317 0.3716 0.10974
H1FC H 0.2122 0.3792 0.0893
C3FC C 0.2061 0.56195 0.2139
H2FC H 0.1764 0.5615 0.2373
H3FC H 0.1931 0.562 0.1783
C4FC C 0.2045 0.4506 0.1617
C5FC C 0.23903 0.51387 0.22273
C6FC C 0.2386 0.61171 0.22344
H4FC H 0.2663 0.6138 0.1978
H5FC H 0.2164 0.6422 0.2193
N1FC N 0.21114 0.46566 0.21654
H6FC H 0.2387 0.4447 0.1467
H7FC H 0.1889 0.4798 0.1431
H8FC H 0.2682 0.5143 0.1979
C7OA C 0.25 0.4259 0.25
C8FC C 0.2789 0.3846 0.2258
H9FC H 0.2989 0.3664 0.2518
H10FC H 0.3021 0.399 0.2001
H11FC H 0.2552 0.3607 0.2093
C1J C 0.09741 0.15189 0.32872
C2J C 0.1284 0.10974 0.31683
H1J H 0.1208 0.0893 0.2878
C3J C -0.06195 0.2139 0.2939
H2J H -0.0615 0.2373 0.3236
H3J H -0.062 0.1783 0.3069
C4J C 0.0494 0.1617 0.2955
C5J C -0.01387 0.22273 0.26097
C6J C -0.11171 0.22344 0.2614
H4J H -0.1138 0.1978 0.2337
H5J H -0.1422 0.2193 0.2836
N1J N 0.03434 0.21654 0.28886
H6J H 0.0553 0.1467 0.2613
H7J H 0.0202 0.1431 0.3111
H8J H -0.0143 0.1979 0.2318
C8J C 0.1154 0.2258 0.2211
H9J H 0.1336 0.2518 0.2011
H10J H 0.101 0.2001 0.1979
H11J H 0.1393 0.2093 0.2448
C1K C 0.32872 0.09741 0.15189
C2K C 0.31683 0.1284 0.10974
H1K H 0.2878 0.1208 0.0893
C3K C 0.2939 -0.06195 0.2139
H2K H 0.3236 -0.0615 0.2373
H3K H 0.3069 -0.062 0.1783
C4K C 0.2955 0.0494 0.1617
C5K C 0.26097 -0.01387 0.22273
C6K C 0.2614 -0.11171 0.22344
H4K H 0.2337 -0.1138 0.1978
H5K H 0.2836 -0.1422 0.2193
N1K N 0.28886 0.03434 0.21654
H6K H 0.2613 0.0553 0.1467
H7K H 0.3111 0.0202 0.1431
H8K H 0.2318 -0.0143 0.1979
C7K C 0.25 0.0741 0.25
C8K C 0.2211 0.1154 0.2258
H9K H 0.2011 0.1336 0.2518
H10K H 0.1979 0.101 0.2001
H11K H 0.2448 0.1393 0.2093
C1CA C 0.15189 0.17128 0.40259
C2CA C 0.10974 0.18317 0.3716
H1CA H 0.0893 0.2122 0.3792
C3CA C 0.2139 0.2061 0.56195
H2CA H 0.2373 0.1764 0.5615
H3CA H 0.1783 0.1931 0.562
C4CA C 0.1617 0.2045 0.4506
C5CA C 0.22273 0.23903 0.51387
C6CA C 0.22344 0.2386 0.61171
H4CA H 0.1978 0.2663 0.6138
H5CA H 0.2193 0.2164 0.6422
N1CA N 0.21654 0.21114 0.46566
H6CA H 0.1467 0.2387 0.4447
H7CA H 0.1431 0.1889 0.4798
H8CA H 0.1979 0.2682 0.5143
C7CA C 0.25 0.25 0.4259
C8CA C 0.2258 0.2789 0.3846
H9CA H 0.2518 0.2989 0.3664
H10CA H 0.2001 0.3021 0.399
H11CA H 0.2093 0.2552 0.3607
C1OA C 0.32872 0.40259 0.34811
C2OA C 0.31683 0.3716 0.39026
H1OA H 0.2878 0.3792 0.4107
C3OA C 0.2939 0.56195 0.2861
H2OA H 0.3236 0.5615 0.2627
H3OA H 0.3069 0.562 0.3217
C4OA C 0.2955 0.4506 0.3383
C5OA C 0.26097 0.51387 0.27727
C6OA C 0.2614 0.61171 0.27656
H4OA H 0.2337 0.6138 0.3022
H5OA H 0.2836 0.6422 0.2807
N1OA N 0.28886 0.46566 0.28346
H6OA H 0.2613 0.4447 0.3533
H7OA H 0.3111 0.4798 0.3569
H8OA H 0.2318 0.5143 0.3021
C8OA C 0.2211 0.3846 0.2742
H9OA H 0.2011 0.3664 0.2482
H10OA H 0.1979 0.399 0.2999
H11OA H 0.2448 0.3607 0.2907
C1DB C 0.34811 0.32872 0.40259
C2DB C 0.39026 0.31683 0.3716
H1DB H 0.4107 0.2878 0.3792
C3DB C 0.2861 0.2939 0.56195
H2DB H 0.2627 0.3236 0.5615
H3DB H 0.3217 0.3069 0.562
C4DB C 0.3383 0.2955 0.4506
C5DB C 0.27727 0.26097 0.51387
C6DB C 0.27656 0.2614 0.61171
H4DB H 0.3022 0.2337 0.6138
H5DB H 0.2807 0.2836 0.6422
N1DB N 0.28346 0.28886 0.46566
H6DB H 0.3533 0.2613 0.4447
H7DB H 0.3569 0.3111 0.4798
H8DB H 0.3021 0.2318 0.5143
C8DB C 0.2742 0.2211 0.3846
H9DB H 0.2482 0.2011 0.3664
H10DB H 0.2999 0.1979 0.399
H11DB H 0.2907 0.2448 0.3607
C1JB C 0.17128 0.09741 0.34811
C2JB C 0.18317 0.1284 0.39026
H1JB H 0.2122 0.1208 0.4107
C3JB C 0.2061 -0.06195 0.2861
H2JB H 0.1764 -0.0615 0.2627
H3JB H 0.1931 -0.062 0.3217
C4JB C 0.2045 0.0494 0.3383
C5JB C 0.23903 -0.01387 0.27727
C6JB C 0.2386 -0.11171 0.27656
H4JB H 0.2663 -0.1138 0.3022
H5JB H 0.2164 -0.1422 0.2807
N1JB N 0.21114 0.03434 0.28346
H6JB H 0.2387 0.0553 0.3533
H7JB H 0.1889 0.0202 0.3569
H8JB H 0.2682 -0.0143 0.3021
C8JB C 0.2789 0.1154 0.2742
H9JB H 0.2989 0.1336 0.2482
H10JB H 0.3021 0.101 0.2999
H11JB H 0.2552 0.1393 0.2907
C1LB C 0.40259 0.15189 0.17128
C2LB C 0.3716 0.10974 0.18317
H1LB H 0.3792 0.0893 0.2122
C3LB C 0.56195 0.2139 0.2061
H2LB H 0.5615 0.2373 0.1764
H3LB H 0.562 0.1783 0.1931
C4LB C 0.4506 0.1617 0.2045
C5LB C 0.51387 0.22273 0.23903
C6LB C 0.61171 0.22344 0.2386
H4LB H 0.6138 0.1978 0.2663
H5LB H 0.6422 0.2193 0.2164
N1LB N 0.46566 0.21654 0.21114
H6LB H 0.4447 0.1467 0.2387
H7LB H 0.4798 0.1431 0.1889
H8LB H 0.5143 0.1979 0.2682
C7LB C 0.4259 0.25 0.25
C8LB C 0.3846 0.2258 0.2789
H9LB H 0.3664 0.2518 0.2989
H10LB H 0.399 0.2001 0.3021
H11LB H 0.3607 0.2093 0.2552
C1IC C 0.40259 0.34811 0.32872
C2IC C 0.3716 0.39026 0.31683
H1IC H 0.3792 0.4107 0.2878
C3IC C 0.56195 0.2861 0.2939
H2IC H 0.5615 0.2627 0.3236
H3IC H 0.562 0.3217 0.3069
C4IC C 0.4506 0.3383 0.2955
C5IC C 0.51387 0.27727 0.26097
C6IC C 0.61171 0.27656 0.2614
H4IC H 0.6138 0.3022 0.2337
H5IC H 0.6422 0.2807 0.2836
N1IC N 0.46566 0.28346 0.28886
H6IC H 0.4447 0.3533 0.2613
H7IC H 0.4798 0.3569 0.3111
H8IC H 0.5143 0.3021 0.2318
C8IC C 0.3846 0.2742 0.2211
H9IC H 0.3664 0.2482 0.2011
H10IC H 0.399 0.2999 0.1979
H11IC H 0.3607 0.2907 0.2448
O2? O 0.2500 0.2500 0.1735(7)
H12? H 0.233(2) 0.270(2) 0.0546(18)
N2? N 0.21654(14) 0.28886(18) 0.03434(15)
H13? H 0.1467 0.2613 0.0553
H14? H 0.1431 0.3111 0.0202
H15? H 0.1979 0.2318 -0.0143

#END

