
#######################################################################
#
#                 Cambridge Crystallographic Data Centre
#                                CCDC 
#
#######################################################################
#
# If this CIF has been generated directly or indirectly from an entry in the 
# Cambridge Structural Database, then it will include bibliographic, chemical, 
# crystal, experimental, refinement or atomic coordinate data resulting from 
# the CCDC's data processing and validation procedures. Files generated from 
# CSD entries are Copyright 2016 Cambridge Crystallographic Data Centre. They 
# may be used in bona fide research applications only, and may not be copied or 
# further disseminated in any form, whether machine-readable or not, except for 
# the purposes of generating routine backup copies on your local computer 
# system.
# 
# Files arising from any other source may also contain material that is the 
# copyright of third parties, including the originator, and you should check 
# with the originator concerning the permitted uses of the information 
# contained in this CIF.
#
# For further information on the CCDC and the free tools enCIFer and Mercury
# for validating and visualising CIF files, please visit www.ccdc.cam.ac.uk
#
#######################################################################

data_OVENEK
_audit_creation_date             2016-09-16
_database_code_depnum_ccdc_archive 'CCDC 1452673'
_chemical_formula_moiety         'C48 H84 N12 12+,6(O4 S1 2-),27.25(H2 O1)'
_chemical_name_systematic        
'5,8,16,19,27,30,38,41,46,49,54,57-dodeca-azoniaheptacyclo[21.21.6.6^12,34^.1^3,43^.1^10,14^.1^21,25^.1^32,36^]hexaconta-1,3(51),10(60),11,13,21(59),22,24,32(52),33,35,43-dodecaene hexakis(sulfate) hydrate'
_journal_volume                  7
_journal_year                    2016
_journal_page_first              12750
loop_
_publ_author_name
'Ming Liu'
'Linjiang Chen'
S.Lewis
'Samantha Y.Chong'
M.A.Little
T.Hasell
I.M.Aldous
C.M.Brown
M.W.Smith
C.A.Morrison
L.J.Hardwick
A.I.Cooper
_chemical_absolute_configuration unk
_diffrn_ambient_temperature      293
_exptl_crystal_density_meas      1.424
_exptl_crystal_density_diffrn    1.424
#These two values have been output from a single CSD field.
_refine_ls_R_factor_gt           0.1051
_refine_ls_wR_factor_gt          0.1051
_diffrn_radiation_probe          x-ray
_symmetry_cell_setting           orthorhombic
_symmetry_space_group_name_H-M   'F d d 2'
_symmetry_Int_Tables_number      43
loop_
_symmetry_equiv_pos_site_id
_symmetry_equiv_pos_as_xyz
1 x,y,z
2 -x,-y,z
3 1/4-x,1/4+y,1/4+z
4 1/4+x,1/4-y,1/4+z
5 x,1/2+y,1/2+z
6 -x,1/2-y,1/2+z
7 1/4-x,3/4+y,3/4+z
8 1/4+x,3/4-y,3/4+z
9 1/2+x,y,1/2+z
10 1/2-x,-y,1/2+z
11 3/4-x,1/4+y,3/4+z
12 3/4+x,1/4-y,3/4+z
13 1/2+x,1/2+y,z
14 1/2-x,1/2-y,z
15 3/4-x,3/4+y,1/4+z
16 3/4+x,3/4-y,1/4+z
_cell_length_a                   32.848(6)
_cell_length_b                   34.298(6)
_cell_length_c                   31.413(5)
_cell_angle_alpha                90
_cell_angle_beta                 90
_cell_angle_gamma                90
_cell_volume                     35390.5
_exptl_crystal_colour            colorless
_exptl_crystal_description       block
_cell_formula_units_Z            16
loop_
_atom_site_label
_atom_site_type_symbol
_atom_site_fract_x
_atom_site_fract_y
_atom_site_fract_z
S1 S 0.44637(10) 0.20608(10) 0.64519(11)
O1 O 0.4093(4) 0.2217(4) 0.6631(4)
O2 O 0.4499(4) 0.2217(4) 0.6006(4)
O3 O 0.4804(4) 0.2181(4) 0.6672(4)
O4 O 0.4436(6) 0.1640(6) 0.6394(7)
S2 S 0.36533(7) 0.25008(8) 0.22841(9)
O5 O 0.3561(3) 0.2117(3) 0.2436(4)
O6 O 0.3457(4) 0.2568(3) 0.1883(4)
O7 O 0.4096(3) 0.2534(3) 0.2244(3)
O8 O 0.3515(4) 0.2772(4) 0.2620(4)
S3 S 0.40212(9) 0.29735(8) 0.44781(9)
O9 O 0.3736(5) 0.2885(5) 0.4790(5)
O10 O 0.4310(6) 0.3278(5) 0.4590(5)
O11 O 0.3838(5) 0.3045(6) 0.4057(5)
O12 O 0.4302(5) 0.2636(4) 0.4394(5)
S4 S 0.66297(9) 0.30005(9) 0.52738(9)
O13 O 0.6569(4) 0.2879(4) 0.5707(4)
O14 O 0.6690(7) 0.3417(7) 0.5321(8)
O15 O 0.6254(3) 0.2905(3) 0.5057(3)
O16 O 0.6961(5) 0.2853(5) 0.5061(5)
S5 S 0.53977(10) 0.19973(9) 0.39289(11)
O17 O 0.5199(3) 0.1718(3) 0.4198(3)
O18 O 0.5480(5) 0.2350(4) 0.4145(5)
O19 O 0.5134(4) 0.2059(4) 0.3559(4)
O20 O 0.5782(4) 0.1885(4) 0.3763(5)
O21 O 0.5122(4) 0.3016(4) 0.4495(4)
O22 O 0.4545(4) 0.1834(3) 0.2343(4)
O23 O 0.2556(9) 0.1941(10) 0.5115(10)
O24 O 0.7505(2) 0.3144(2) 0.4484(3)
O25 O 0.5718(11) 0.1019(11) 0.3838(13)
O26 O 0.5263(9) 0.0239(8) 0.4042(9)
O27 O 0.4535(4) 0.4001(4) 0.3411(6)
O28 O 0.5365(3) 0.1855(2) 0.7260(3)
O29 O 0.5497(4) 0.4013(3) 0.6102(4)
O30 O 0.6215(10) 0.4042(9) 0.5692(11)
O31 O 0.5000 0.5000 0.476(2)
O32 O 0.3756(4) 0.3741(4) 0.3692(5)
O33 O 0.5585(3) 0.3377(3) 0.5101(3)
O34 O 0.3074(5) 0.2758(5) 0.3902(5)
O35 O 0.5109(6) 0.2507(5) 0.5452(6)
O36 O 0.3058(9) 0.3442(8) 0.4769(10)
O37 O 0.6302(4) 0.1036(4) 0.4400(4)
O38 O 0.5130(7) 0.1219(7) 0.3238(8)
O39 O 0.4869(10) 0.0994(9) 0.6375(11)
O40 O 0.4671(3) 0.0265(3) 0.5564(3)
N1 N 0.5782(3) 0.2623(3) 0.5932(3)
H1 H 0.6025 0.2647 0.5809
H2 H 0.5597 0.2607 0.5725
N2 N 0.5191(3) 0.3385(2) 0.6530(3)
H3 H 0.5280 0.3591 0.6385
H4 H 0.5341 0.3366 0.6765
N3 N 0.6715(3) 0.1669(3) 0.4754(3)
H5 H 0.6955 0.1717 0.4633
H6 H 0.6612 0.1456 0.4633
N4 N 0.6284(2) 0.2577(2) 0.4255(3)
H7 H 0.6035 0.2495 0.4188
H8 H 0.6269 0.2700 0.4504
N5 N 0.5137(3) 0.0929(3) 0.5380(3)
H9 H 0.4982 0.0721 0.5426
H10 H 0.4995 0.1138 0.5460
N6 N 0.4893(3) 0.0947(3) 0.4217(3)
H11 H 0.5080 0.0769 0.4153
H12 H 0.4992 0.1179 0.4145
N7 N 0.3345(3) 0.1636(3) 0.4993(3)
H13 H 0.3480 0.1438 0.5109
H14 H 0.3112 0.1663 0.5134
N8 N 0.3839(3) 0.2494(3) 0.5543(3)
H15 H 0.4079 0.2419 0.5647
H16 H 0.3882 0.2603 0.5290
N9 N 0.4399(3) 0.2442(2) 0.3542(2)
H17 H 0.4330 0.2534 0.3797
H18 H 0.4630 0.2309 0.3572
N10 N 0.4885(3) 0.3335(3) 0.3072(3)
H19 H 0.4776 0.3268 0.2824
H20 H 0.4799 0.3576 0.3124
N11 N 0.4407(2) 0.4016(2) 0.4943(3)
H21 H 0.4340 0.3784 0.4837
H22 H 0.4342 0.4195 0.4750
N12 N 0.5512(3) 0.4073(3) 0.4671(3)
H23 H 0.5599 0.3859 0.4804
H24 H 0.5551 0.4274 0.4845
C1 C 0.5895(3) 0.1907(3) 0.5920(3)
C2 C 0.5641(3) 0.1580(3) 0.5897(3)
H25 H 0.5392 0.1580 0.6039
C3 C 0.5762(3) 0.1253(3) 0.5661(3)
C4 C 0.6119(3) 0.1264(3) 0.5440(3)
H26 H 0.6196 0.1050 0.5277
C5 C 0.6375(3) 0.1595(3) 0.5455(3)
C6 C 0.6264(3) 0.1901(3) 0.5700(3)
H27 H 0.6439 0.2113 0.5723
C7 C 0.5774(3) 0.2248(3) 0.6185(3)
H28 H 0.5959 0.2271 0.6425
H29 H 0.5502 0.2206 0.6296
C8 C 0.5507(4) 0.0900(3) 0.5656(4)
H30 H 0.5421 0.0842 0.5945
H31 H 0.5671 0.0682 0.5558
C9 C 0.6776(4) 0.1597(4) 0.5214(3)
H32 H 0.6951 0.1797 0.5330
H33 H 0.6911 0.1347 0.5252
C10 C 0.4474(3) 0.3450(3) 0.6289(3)
C11 C 0.4462(3) 0.3764(3) 0.5997(3)
H34 H 0.4636 0.3976 0.6032
C12 C 0.4189(3) 0.3756(3) 0.5655(3)
C13 C 0.3925(3) 0.3438(3) 0.5604(3)
H35 H 0.3740 0.3432 0.5379
C14 C 0.3941(3) 0.3133(3) 0.5891(3)
C15 C 0.4212(3) 0.3140(3) 0.6225(3)
H36 H 0.4218 0.2931 0.6413
C16 C 0.4758(3) 0.3451(3) 0.6653(3)
H37 H 0.4676 0.3249 0.6851
H38 H 0.4737 0.3700 0.6798
C17 C 0.4163(3) 0.4087(3) 0.5339(3)
H39 H 0.3881 0.4127 0.5261
H40 H 0.4260 0.4324 0.5474
C18 C 0.3658(3) 0.2785(3) 0.5831(4)
H41 H 0.3604 0.2665 0.6106
H42 H 0.3401 0.2874 0.5715
C19 C 0.3618(3) 0.1531(3) 0.4259(3)
C20 C 0.3692(3) 0.1843(3) 0.3992(3)
H43 H 0.3519 0.2058 0.4000
C21 C 0.4022(3) 0.1843(3) 0.3710(3)
C22 C 0.4286(3) 0.1523(3) 0.3709(3)
H44 H 0.4507 0.1517 0.3524
C23 C 0.4217(3) 0.1221(3) 0.3982(3)
C24 C 0.3884(3) 0.1216(3) 0.4256(3)
H45 H 0.3840 0.1004 0.4434
C25 C 0.3251(3) 0.1537(3) 0.4545(4)
H46 H 0.3057 0.1725 0.4436
H47 H 0.3122 0.1282 0.4538
C26 C 0.4078(3) 0.2174(3) 0.3393(3)
H48 H 0.4153 0.2068 0.3118
H49 H 0.3824 0.2315 0.3361
C27 C 0.4513(3) 0.0868(3) 0.3963(4)
H50 H 0.4378 0.0638 0.4075
H51 H 0.4586 0.0816 0.3669
C28 C 0.5582(3) 0.3416(3) 0.3380(3)
C29 C 0.5547(3) 0.3746(3) 0.3643(4)
H52 H 0.5364 0.3943 0.3576
C30 C 0.5789(3) 0.3775(3) 0.4006(3)
C31 C 0.6071(3) 0.3488(3) 0.4094(3)
H53 H 0.6239 0.3513 0.4331
C32 C 0.6107(3) 0.3161(3) 0.3837(3)
C33 C 0.5859(3) 0.3128(3) 0.3489(4)
H54 H 0.5878 0.2906 0.3320
C34 C 0.5327(3) 0.3377(4) 0.2984(4)
H55 H 0.5369 0.3604 0.2807
H56 H 0.5419 0.3150 0.2825
C35 C 0.5763(3) 0.4132(3) 0.4283(4)
H57 H 0.6035 0.4208 0.4367
H58 H 0.5648 0.4344 0.4118
C36 C 0.6426(3) 0.2853(4) 0.3927(4)
H59 H 0.6486 0.2712 0.3666
H60 H 0.6674 0.2978 0.4022
C37 C 0.5699(3) 0.2985(3) 0.6187(4)
H61 H 0.5799 0.3211 0.6033
H62 H 0.5844 0.2971 0.6456
C38 C 0.5250(3) 0.3032(3) 0.6271(4)
H63 H 0.5103 0.3057 0.6004
H64 H 0.5146 0.2806 0.6421
C39 C 0.5218(3) 0.0958(3) 0.4922(4)
H65 H 0.5394 0.0747 0.4834
H66 H 0.5355 0.1202 0.4861
C40 C 0.4817(3) 0.0939(4) 0.4673(3)
H67 H 0.4673 0.0701 0.4747
H68 H 0.4646 0.1158 0.4752
C41 C 0.6439(5) 0.2000(5) 0.4673(5)
H69 H 0.6165 0.1902 0.4630
H70 H 0.6436 0.2168 0.4922
C42 C 0.6561(3) 0.2230(3) 0.4299(3)
H71 H 0.6544 0.2071 0.4045
H72 H 0.6840 0.2318 0.4331
C43 C 0.3591(4) 0.1999(4) 0.5051(4)
H73 H 0.3872 0.1946 0.4974
H74 H 0.3490 0.2199 0.4860
C44 C 0.3578(5) 0.2146(4) 0.5488(4)
H75 H 0.3668 0.1943 0.5681
H76 H 0.3300 0.2212 0.5561
C45 C 0.4845(3) 0.4027(4) 0.5015(3)
H77 H 0.4927 0.3800 0.5178
H78 H 0.4915 0.4258 0.5177
C46 C 0.5069(3) 0.4032(3) 0.4593(3)
H79 H 0.5016 0.3792 0.4440
H80 H 0.4973 0.4248 0.4421
C47 C 0.4469(4) 0.2772(3) 0.3252(3)
H81 H 0.4615 0.2673 0.3006
H82 H 0.4205 0.2860 0.3152
C48 C 0.467(2) 0.3087(16) 0.3394(13)
H83 H 0.4873 0.3000 0.3599
H84 H 0.4481 0.3251 0.3546
O41? O 0.3602(11) 0.2986(10) 0.4743(10)
O42? O 0.4119(8) 0.3389(7) 0.4483(8)
O43? O 0.3898(9) 0.2849(10) 0.4089(9)
O44? O 0.4275(9) 0.2738(9) 0.4725(10)
O45? O 0.6624(14) 0.3442(14) 0.5132(17)
O46? O 0.6955(11) 0.2675(12) 0.5125(12)
O47? O 0.7846(6) 0.2380(6) 0.3228(7)
O48? O 0.2550(7) 0.1738(7) 0.5254(7)
O49? O 0.5962(11) 0.2557(10) 0.2490(12)
O50? O 0.5586(6) 0.0544(6) 0.3994(7)
O51? O 0.4533(11) 0.3941(10) 0.3610(13)
O52? O 0.4550(10) 0.1975(9) 0.4737(10)
O53? O 0.4707(6) 0.2052(6) 0.4798(6)
O54? O 0.6330(8) 0.3783(8) 0.6040(9)
O55? O 0.5741(5) 0.4734(5) 0.5134(6)
O56? O 0.6000(15) 0.2214(14) 0.2946(16)
O57? O 0.4565(6) 0.1516(5) 0.5477(5)
O58? O 0.4730(15) 0.1636(12) 0.5429(10)
O59? O 0.4178(5) 0.4659(5) 0.4455(5)
O60? O 0.4186(7) 0.4482(7) 0.4289(8)
O61? O 0.6515(10) 0.4052(10) 0.4882(11)
O62? O 0.5362(15) 0.2384(15) 0.5211(16)
O63? O 0.5071(12) 0.1336(12) 0.2985(14)
O64? O 0.4872(15) 0.1012(14) 0.6583(16)
O65? O 0.5268(12) 0.2108(12) 0.2749(13)
O66? O 0.5257(12) 0.2387(12) 0.2473(13)
O67? O 0.3619(6) 0.0972(5) 0.5365(5)
O68? O 0.3775(8) 0.1004(7) 0.5338(8)
H85? H 0.4744 0.3312 0.2832
H86? H 0.4791 0.3538 0.3219
H87? H 0.4253 0.2962 0.3288
H88? H 0.4461 0.2680 0.2960
C49? C 0.4867(12) 0.2959(10) 0.3336(9)
H89? H 0.5087 0.2786 0.3255
H90? H 0.4894 0.3019 0.3636
O69? O 0.3467(11) 0.3906(11) 0.4695(12)
S6? S 0.5000 0.5000 0.36646(14)
O70? O 0.4931(7) 0.5379(7) 0.3548(8)
O71? O 0.5189(10) 0.4786(10) 0.3289(11)
O72? O 0.5323(8) 0.4931(7) 0.3980(8)
O73? O 0.4652(6) 0.4769(6) 0.3746(7)
S7? S 0.7500 0.2500 0.34695(11)
O74? O 0.7105(8) 0.2289(8) 0.3353(8)
O75? O 0.7420(8) 0.2899(7) 0.3367(8)
O76? O 0.7500 0.2500 0.3946(6)
O77? O 0.7402(8) 0.2379(8) 0.5726(8)
O78? O 0.2606(11) 0.2391(10) 0.4458(11)
O79? O 0.507(3) 0.007(3) 0.4791(17)

#END

