
#######################################################################
#
#                 Cambridge Crystallographic Data Centre
#                                CCDC 
#
#######################################################################
#
# If this CIF has been generated directly or indirectly from an entry in the 
# Cambridge Structural Database, then it will include bibliographic, chemical, 
# crystal, experimental, refinement or atomic coordinate data resulting from 
# the CCDC's data processing and validation procedures. Files generated from 
# CSD entries are Copyright 2016 Cambridge Crystallographic Data Centre. They 
# may be used in bona fide research applications only, and may not be copied or 
# further disseminated in any form, whether machine-readable or not, except for 
# the purposes of generating routine backup copies on your local computer 
# system.
# 
# Files arising from any other source may also contain material that is the 
# copyright of third parties, including the originator, and you should check 
# with the originator concerning the permitted uses of the information 
# contained in this CIF.
#
# For further information on the CCDC and the free tools enCIFer and Mercury
# for validating and visualising CIF files, please visit www.ccdc.cam.ac.uk
#
#######################################################################

data_OVENIO
_audit_creation_date             2016-09-16
_database_code_depnum_ccdc_archive 'CCDC 1452674'
_chemical_formula_moiety         'C48 H84 N12 12+,4(H2 O1),12(Cl1 1-)'
_chemical_name_systematic        
'5,8,16,19,27,30,38,41,46,49,54,57-dodeca-azoniaheptacyclo[21.21.6.6^12,34^.1^3,43^.1^10,14^.1^21,25^.1^32,36^]hexaconta-1,3(51),10(60),11,13,21(59),22,24,32(52),33,35,43-dodecaene dodecachloride tetrahydrate'
_journal_volume                  7
_journal_year                    2016
_journal_page_first              12750
loop_
_publ_author_name
'Ming Liu'
'Linjiang Chen'
S.Lewis
'Samantha Y.Chong'
M.A.Little
T.Hasell
I.M.Aldous
C.M.Brown
M.W.Smith
C.A.Morrison
L.J.Hardwick
A.I.Cooper
_chemical_absolute_configuration unk
_diffrn_special_details          twin
_diffrn_ambient_temperature      100
_exptl_crystal_density_meas      1.344
_exptl_crystal_density_diffrn    1.345
#These two values have been output from a single CSD field.
_refine_ls_R_factor_gt           0.0751
_refine_ls_wR_factor_gt          0.0751
_diffrn_radiation_probe          x-ray
_symmetry_cell_setting           tetragonal
_symmetry_space_group_name_H-M   'P 41'
_symmetry_Int_Tables_number      76
loop_
_symmetry_equiv_pos_site_id
_symmetry_equiv_pos_as_xyz
1 x,y,z
2 -y,x,1/4+z
3 -x,-y,1/2+z
4 y,-x,3/4+z
_cell_length_a                   20.2276(15)
_cell_length_b                   20.2276(15)
_cell_length_c                   32.016(3)
_cell_angle_alpha                90
_cell_angle_beta                 90
_cell_angle_gamma                90
_cell_volume                     13099.5
_exptl_crystal_colour            colorless
_exptl_crystal_description       block
_cell_formula_units_Z            8
loop_
_atom_site_label
_atom_site_type_symbol
_atom_site_fract_x
_atom_site_fract_y
_atom_site_fract_z
Cl1 Cl 0.32785(17) 0.86044(16) 0.58952(10)
Cl3 Cl 0.49362(17) 0.38681(14) 0.53130(9)
Cl4 Cl 0.11679(14) 0.50920(19) 0.61599(11)
Cl6 Cl 0.1552(2) 0.6792(2) 0.57894(11)
Cl9 Cl 0.27811(17) 0.37226(16) 0.47126(10)
Cl10 Cl 0.82693(19) 0.8494(2) 0.82016(12)
Cl13 Cl 0.1110(3) 0.8941(3) 0.5813(2)
Cl20 Cl 0.1805(2) 0.12021(17) 0.47104(11)
Cl21 Cl 0.3707(9) 0.6298(5) 0.5720(4)
Cl24 Cl 0.61638(13) 0.12750(14) 0.57765(9)
Cl25 Cl 0.8810(7) 0.3817(6) 0.5809(5)
Cl28 Cl 0.9957(13) 0.6178(10) 0.5360(6)
Cl33 Cl 0.86864(17) 1.0056(2) 0.62127(12)
Cl34 Cl 0.37507(15) 0.02601(17) 0.61781(10)
Cl35 Cl 0.8265(3) 0.61265(18) 0.46919(12)
Cl39 Cl 0.32264(16) 0.89882(13) 0.44192(9)
Cl42 Cl 0.6172(2) 0.5229(3) 0.60440(12)
Cl44 Cl 0.22463(14) 0.64742(14) 0.42691(8)
O1 O 0.9007(11) 0.0046(11) 0.4012(6)
O2 O 0.0472(8) 0.6339(8) 0.4675(5)
O4 O 0.1093(4) 0.4976(4) 0.3968(2)
O5 O 0.9477(11) 0.1340(11) 0.4690(7)
O6 O 0.781(2) 0.807(2) 0.5935(14)
O8 O 0.5966(17) 0.0073(17) 0.5121(11)
O9 O 0.4092(15) 0.0065(15) 0.3979(9)
O10 O 0.0948(9) 0.9978(9) 0.5190(6)
O11 O 0.2925(7) 0.2000(7) 0.5872(4)
O13 O 0.4461(8) 0.3824(8) 0.4334(5)
O14 O 0.3958(5) 0.5133(5) 0.5017(3)
N1 N 0.4790(5) 0.7415(5) 0.5784(3)
H1 H 0.4523 0.7087 0.5688
H2 H 0.4691 0.7789 0.5639
N2 N 0.4745(5) 0.8745(5) 0.6327(4)
H3 H 0.4300 0.8747 0.6370
H4 H 0.4819 0.8827 0.6052
N3 N 0.7210(6) 0.6648(6) 0.7385(4)
H5 H 0.7004 0.6605 0.7637
H6 H 0.6892 0.6669 0.7184
N4 N 0.7544(5) 0.8465(4) 0.7375(3)
H7 H 0.7804 0.8491 0.7606
H8 H 0.7815 0.8404 0.7151
N5 N 0.8761(5) 1.0264(5) 0.5240(3)
H9 H 0.8808 1.0183 0.5518
H10 H 0.8791 1.0709 0.5201
N6 N 0.7370(4) 1.0235(5) 0.5719(3)
H11 H 0.7031 1.0492 0.5811
H12 H 0.7732 1.0330 0.5876
N7 N 1.0095(5) 0.7626(5) 0.5924(3)
H13 H 1.0371 0.7951 0.5833
H14 H 1.0181 0.7260 0.5768
N8 N 1.0146(4) 0.6253(5) 0.6447(3)
H15 H 1.0581 0.6258 0.6519
H16 H 1.0123 0.6185 0.6166
N9 N 0.7580(4) 0.4904(5) 0.5676(3)
H17 H 0.7895 0.4626 0.5777
H18 H 0.7193 0.4811 0.5809
N10 N 0.6254(5) 0.4880(5) 0.5118(4)
H19 H 0.6144 0.4951 0.5390
H20 H 0.6269 0.4436 0.5074
N11 N 0.8438(6) 0.7408(5) 0.4229(4)
H21 H 0.8461 0.7169 0.3989
H22 H 0.8393 0.7116 0.4444
N12 N 0.6641(5) 0.7727(6) 0.4144(3)
H23 H 0.6663 0.7980 0.3910
H24 H 0.6666 0.8005 0.4367
C1 C 0.9079(7) 0.5712(6) 0.6642(5)
C2 C 0.8767(7) 0.5591(6) 0.6257(6)
H25 H 0.9026 0.5448 0.6026
C3 C 0.8084(6) 0.5676(5) 0.6204(4)
C4 C 0.7688(6) 0.5832(5) 0.6551(4)
H26 H 0.7224 0.5884 0.6519
C5 C 0.7985(5) 0.5912(5) 0.6946(4)
C6 C 0.8669(5) 0.5856(6) 0.6980(4)
H27 H 0.8867 0.5920 0.7246
C7 C 0.9811(6) 0.5670(7) 0.6669(5)
H28 H 0.9961 0.5251 0.6539
H29 H 0.9946 0.5665 0.6966
C8 C 0.7779(6) 0.5616(6) 0.5769(4)
H30 H 0.7385 0.5904 0.5750
H31 H 0.8102 0.5767 0.5557
C9 C 0.7613(7) 0.6083(7) 0.7314(5)
H32 H 0.7321 0.5699 0.7366
H33 H 0.7939 0.6084 0.7545
C10 C 0.6817(6) 0.9418(5) 0.6195(4)
C11 C 0.7178(8) 0.9294(6) 0.6554(4)
H34 H 0.7647 0.9284 0.6543
C12 C 0.6850(7) 0.9182(5) 0.6929(4)
C13 C 0.6132(6) 0.9174(6) 0.6947(4)
H35 H 0.5904 0.9092 0.7201
C14 C 0.5799(7) 0.9288(6) 0.6582(4)
C15 C 0.6135(7) 0.9426(6) 0.6202(4)
H36 H 0.5892 0.9522 0.5955
C16 C 0.7184(8) 0.9500(6) 0.5784(4)
H37 H 0.6901 0.9348 0.5551
H38 H 0.7589 0.9226 0.5787
C17 C 0.7201(6) 0.9086(6) 0.7324(4)
H39 H 0.7527 0.9448 0.7355
H40 H 0.6878 0.9129 0.7555
C18 C 0.5056(6) 0.9280(6) 0.6583(5)
H41 H 0.4903 0.9233 0.6876
H42 H 0.4896 0.9713 0.6479
C19 C 0.5581(5) 0.6911(6) 0.5275(4)
C20 C 0.5580(6) 0.6241(6) 0.5239(4)
H43 H 0.5483 0.5975 0.5476
C21 C 0.5720(5) 0.5945(6) 0.4864(4)
C22 C 0.5873(5) 0.6331(6) 0.4517(4)
H44 H 0.5979 0.6126 0.4259
C23 C 0.5873(5) 0.6993(5) 0.4548(3)
C24 C 0.5728(5) 0.7304(5) 0.4929(3)
H45 H 0.5730 0.7773 0.4951
C25 C 0.5471(6) 0.7238(6) 0.5701(3)
H46 H 0.5624 0.6932 0.5922
H47 H 0.5746 0.7641 0.5717
C26 C 0.5726(6) 0.5194(6) 0.4831(4)
H48 H 0.5816 0.5065 0.4538
H49 H 0.5285 0.5020 0.4907
C27 C 0.5972(6) 0.7390(6) 0.4153(3)
H50 H 0.5620 0.7729 0.4132
H51 H 0.5933 0.7094 0.3908
C28 C 0.9331(6) 0.8153(6) 0.5432(4)
C29 C 0.9354(6) 0.8871(7) 0.5398(4)
H52 H 0.9437 0.9122 0.5643
C30 C 0.9264(5) 0.9194(6) 0.5036(4)
C31 C 0.9168(5) 0.8826(5) 0.4671(4)
H53 H 0.9122 0.9048 0.4411
C32 C 0.9138(5) 0.8136(5) 0.4683(4)
C33 C 0.9220(5) 0.7820(6) 0.5057(4)
H54 H 0.9201 0.7351 0.5062
C34 C 0.9419(6) 0.7832(8) 0.5840(4)
H55 H 0.9277 0.8142 0.6062
H56 H 0.9128 0.7440 0.5854
C35 C 0.9310(8) 0.9933(6) 0.5009(6)
H57 H 0.9738 1.0079 0.5127
H58 H 0.9296 1.0069 0.4712
C36 C 0.9054(7) 0.7752(7) 0.4282(4)
H59 H 0.9107 0.8063 0.4046
H60 H 0.9417 0.7425 0.4263
C37 C 0.7866(7) 0.7803(8) 0.4214(5)
H61 H 0.7896 0.8117 0.3977
H62 H 0.7822 0.8061 0.4475
C38 C 0.7207(7) 0.7308(9) 0.4152(6)
H63 H 0.7242 0.7056 0.3888
H64 H 0.7175 0.6990 0.4387
C39 C 0.5015(6) 0.8078(6) 0.6435(3)
H65 H 0.5482 0.8054 0.6345
H66 H 0.5003 0.8022 0.6742
C40 C 0.4639(6) 0.7529(6) 0.6237(4)
H67 H 0.4161 0.7623 0.6265
H68 H 0.4732 0.7117 0.6392
C41 C 0.7499(7) 0.4791(6) 0.5217(4)
H69 H 0.7420 0.4314 0.5167
H70 H 0.7914 0.4914 0.5073
C42 C 0.6933(6) 0.5183(8) 0.5028(4)
H71 H 0.6997 0.5210 0.4722
H72 H 0.6944 0.5639 0.5141
C43 C 0.7099(9) 0.7872(8) 0.7415(6)
H73 H 0.6768 0.7860 0.7188
H74 H 0.6867 0.7872 0.7688
C44 C 0.7594(9) 0.7272(9) 0.7382(7)
H75 H 0.7854 0.7305 0.7121
H76 H 0.7906 0.7279 0.7621
C45 C 1.0265(6) 0.7475(6) 0.6368(4)
H77 H 1.0186 0.7873 0.6541
H78 H 1.0740 0.7363 0.6387
C46 C 0.9860(6) 0.6904(7) 0.6542(3)
H79 H 0.9824 0.6954 0.6848
H80 H 0.9408 0.6925 0.6424
C47 C 0.8095(6) 1.0036(8) 0.5103(4)
H81 H 0.8050 0.9563 0.5177
H82 H 0.8075 1.0067 0.4794
C48 C 0.7512(7) 1.0404(8) 0.5280(4)
H83 H 0.7598 1.0885 0.5261
H84 H 0.7117 1.0306 0.5109
N14 N -0.0189(5) 0.2619(5) 0.5914(3)
H95 H -0.0446 0.2959 0.5822
H96 H -0.0287 0.2257 0.5757
N15 N -0.0226(5) 0.1240(4) 0.6436(4)
H97 H -0.0672 0.1252 0.6471
H98 H -0.0143 0.1161 0.6161
N16 N 0.2336(5) -0.0088(5) 0.5751(3)
H99 H 0.2690 -0.0198 0.5912
H100 H 0.1993 -0.0356 0.5823
N17 N 0.3743(5) -0.0101(4) 0.5223(3)
H101 H 0.3834 -0.0041 0.5499
H102 H 0.3727 -0.0543 0.5173
N18 N 0.2546(4) 0.1626(4) 0.7432(3)
H103 H 0.2759 0.1716 0.7188
H104 H 0.2852 0.1630 0.7640
N19 N 0.2459(4) 0.3174(4) 0.7146(2)
H105 H 0.2789 0.2963 0.7007
H106 H 0.2084 0.3143 0.6990
N20 N 0.5170(5) 0.2534(4) 0.5847(3)
H107 H 0.5430 0.2188 0.5769
H108 H 0.5275 0.2886 0.5683
N21 N 0.5114(4) 0.3926(4) 0.6277(3)
H109 H 0.5016 0.3915 0.5999
H110 H 0.5558 0.3987 0.6302
N22 N 0.2472(4) 0.5282(4) 0.5624(3)
H111 H 0.2831 0.5521 0.5705
H112 H 0.2134 0.5386 0.5800
N23 N 0.1061(4) 0.5269(4) 0.5192(3)
H113 H 0.1084 0.5184 0.5471
H114 H 0.0980 0.5708 0.5160
N24 N 0.1881(5) 0.2602(5) 0.4386(3)
H115 H 0.2069 0.2955 0.4516
H116 H 0.1921 0.2246 0.4558
N25 N 0.3417(5) 0.2670(4) 0.4133(3)
H117 H 0.3308 0.2904 0.4365
H118 H 0.3437 0.2958 0.3915
C51 C 0.4147(5) 0.1973(5) 0.4616(3)
C52 C 0.4168(5) 0.1312(5) 0.4624(4)
H119 H 0.4093 0.1086 0.4368
C53 C 0.4287(5) 0.0941(5) 0.4966(4)
C54 C 0.4397(5) 0.1297(5) 0.5355(4)
H120 H 0.4488 0.1064 0.5606
C55 C 0.4367(5) 0.1986(5) 0.5353(4)
C56 C 0.4241(4) 0.2316(5) 0.4992(3)
H121 H 0.4215 0.2785 0.4995
C57 C 0.4079(6) 0.2360(5) 0.4194(3)
H122 H 0.4421 0.2709 0.4184
H123 H 0.4164 0.2051 0.3960
C58 C 0.4290(5) 0.0209(5) 0.4962(4)
H124 H 0.4722 0.0051 0.5068
H125 H 0.4244 0.0055 0.4670
C59 C 0.4461(5) 0.2355(6) 0.5779(3)
H126 H 0.4188 0.2761 0.5781
H127 H 0.4308 0.2067 0.6010
C60 C 0.2998(5) 0.4434(5) 0.6076(3)
C61 C 0.3679(6) 0.4512(5) 0.6090(3)
H128 H 0.3914 0.4635 0.5845
C62 C 0.4017(5) 0.4410(5) 0.6462(3)
C63 C 0.3695(5) 0.4198(4) 0.6826(3)
H129 H 0.3938 0.4104 0.7073
C64 C 0.3002(5) 0.4128(4) 0.6817(3)
C65 C 0.2642(5) 0.4246(5) 0.6435(3)
H130 H 0.2175 0.4199 0.6427
C66 C 0.2628(5) 0.4558(5) 0.5671(3)
H131 H 0.2901 0.4409 0.5433
H132 H 0.2213 0.4299 0.5670
C67 C 0.4757(5) 0.4512(5) 0.6476(4)
H133 H 0.4901 0.4560 0.6770
H134 H 0.4874 0.4923 0.6326
C68 C 0.2638(5) 0.3887(6) 0.7203(3)
H135 H 0.2923 0.3939 0.7452
H136 H 0.2233 0.4153 0.7245
C69 C 0.0812(6) 0.0716(6) 0.6665(4)
C70 C 0.1179(5) 0.0844(4) 0.7016(3)
H137 H 0.0957 0.0906 0.7275
C71 C 0.1849(5) 0.0886(5) 0.7005(3)
C72 C 0.2166(6) 0.0802(7) 0.6628(4)
H138 H 0.2635 0.0826 0.6619
C73 C 0.1807(7) 0.0681(6) 0.6249(4)
C74 C 0.1105(6) 0.0631(6) 0.6289(5)
H139 H 0.0843 0.0539 0.6050
C75 C 0.0040(6) 0.0700(7) 0.6681(5)
H140 H -0.0123 0.0274 0.6569
H141 H -0.0112 0.0740 0.6974
C76 C 0.2258(6) 0.0960(5) 0.7405(3)
H142 H 0.1972 0.0881 0.7651
H143 H 0.2615 0.0627 0.7408
C77 C 0.2147(7) 0.0631(6) 0.5830(4)
H144 H 0.2548 0.0911 0.5828
H145 H 0.1847 0.0788 0.5607
C78 C 0.0609(5) 0.4155(5) 0.5034(3)
C79 C 0.0518(5) 0.3809(5) 0.5418(4)
H146 H 0.0384 0.4045 0.5661
C80 C 0.0621(5) 0.3139(6) 0.5440(4)
C81 C 0.0822(5) 0.2778(5) 0.5074(3)
H147 H 0.0900 0.2315 0.5090
C82 C 0.0902(5) 0.3107(5) 0.4699(4)
C83 C 0.0790(5) 0.3803(5) 0.4702(4)
H148 H 0.0849 0.4033 0.4447
C84 C 0.0538(6) 0.2800(6) 0.5845(4)
H149 H 0.0691 0.3092 0.6074
H150 H 0.0811 0.2394 0.5850
C85 C 0.1127(6) 0.2749(6) 0.4309(4)
H151 H 0.1067 0.3029 0.4059
H152 H 0.0877 0.2333 0.4271
C86 C 0.0499(5) 0.4887(6) 0.5011(4)
H153 H 0.0438 0.5018 0.4716
H154 H 0.0089 0.4999 0.5164
C87 C 0.2505(6) -0.0194(7) 0.5296(3)
H155 H 0.2106 -0.0095 0.5128
H156 H 0.2608 -0.0668 0.5256
C88 C 0.3075(5) 0.0208(6) 0.5121(4)
H157 H 0.3058 0.0661 0.5238
H158 H 0.3027 0.0242 0.4814
C89 C 0.5312(5) 0.2702(5) 0.6291(3)
H159 H 0.5790 0.2798 0.6317
H160 H 0.5218 0.2307 0.6464
C90 C 0.4933(6) 0.3275(5) 0.6468(4)
H161 H 0.4455 0.3197 0.6425
H162 H 0.5014 0.3298 0.6773
C91 C 0.2281(6) 0.5487(7) 0.5181(3)
H163 H 0.2166 0.5963 0.5182
H164 H 0.2670 0.5431 0.4997
C92 C 0.1709(5) 0.5106(5) 0.4996(3)
H165 H 0.1683 0.5200 0.4693
H166 H 0.1794 0.4627 0.5030
C93 C 0.2235(7) 0.2469(6) 0.3990(3)
H167 H 0.1967 0.2163 0.3818
H168 H 0.2280 0.2889 0.3833
C94 C 0.2902(6) 0.2179(7) 0.4050(4)
H169 H 0.2884 0.1865 0.4287
H170 H 0.3023 0.1925 0.3797
C95 C 0.0052(7) 0.1898(6) 0.6549(4)
H171 H 0.0513 0.1928 0.6446
H172 H 0.0063 0.1942 0.6857
C96 C -0.0359(6) 0.2478(6) 0.6362(3)
H173 H -0.0835 0.2367 0.6382
H174 H -0.0281 0.2881 0.6530
C97 C 0.2046(5) 0.2165(5) 0.7514(3)
H175 H 0.1796 0.2053 0.7770
H176 H 0.1728 0.2178 0.7279
C98 C 0.2349(5) 0.2844(5) 0.7565(3)
H177 H 0.2777 0.2804 0.7713
H178 H 0.2053 0.3122 0.7738
Cl2? Cl 0.3580(14) 0.8390(14) 0.5708(9)
Cl5? Cl 0.1150(10) 0.4737(13) 0.6050(6)
Cl7? Cl 0.1630(7) 0.6554(8) 0.5774(5)
Cl8? Cl 0.3223(12) 0.3999(11) 0.4672(7)
Cl11? Cl 0.8471(15) 0.8238(15) 0.8358(10)
Cl12? Cl 0.1219(6) 0.8748(7) 0.5841(5)
Cl14? Cl 0.1080(5) 0.8858(6) 0.5902(3)
Cl15? Cl 0.514(2) 0.8786(13) 0.5371(7)
Cl16? Cl 0.4915(7) 0.8789(3) 0.53536(19)
Cl17? Cl 0.8251(3) 0.1148(3) 0.43814(16)
Cl18? Cl 0.7801(4) 0.1448(4) 0.4320(2)
Cl19? Cl 0.2223(9) 0.1446(9) 0.4769(5)
Cl22? Cl 0.3683(15) 0.6191(13) 0.5670(7)
Cl23? Cl 0.3840(9) 0.6177(11) 0.5718(6)
Cl26? Cl 0.8866(6) 0.3951(7) 0.5802(5)
Cl27? Cl 0.8775(5) 0.3915(7) 0.5717(3)
Cl29? Cl 0.9812(2) 0.6290(2) 0.55014(14)
Cl30? Cl 0.6767(3) 0.8963(2) 0.47352(12)
Cl31? Cl 0.7170(8) 0.8650(6) 0.4768(4)
Cl32? Cl 0.888(2) 0.962(3) 0.6115(15)
Cl36? Cl 0.7732(15) 0.6367(14) 0.4677(9)
Cl37? Cl 0.6604(8) 0.3474(7) 0.5712(3)
Cl38? Cl 0.6621(4) 0.3586(6) 0.5829(3)
Cl40? Cl 0.7275(10) 0.3618(10) 0.4270(7)
Cl41? Cl 0.68038(19) 0.39757(16) 0.43315(10)
Cl43? Cl 0.594(4) 0.551(4) 0.6072(19)
Cl45? Cl 0.0218(6) 0.1252(8) 0.5522(4)
Cl46? Cl 0.0042(5) 0.1268(4) 0.5433(3)
O3? O 0.0838(11) 0.6255(10) 0.4623(6)
O7? O 0.719(3) 0.748(3) 0.5976(19)
O12? O 0.2494(11) 0.2545(10) 0.5708(8)
N13? N 0.7469(11) 0.6851(9) 0.7178(7)
H85? H 0.7837 0.7029 0.7059
H86? H 0.7134 0.6867 0.6989
H87? H 0.7964 0.8624 0.7355
H88? H 0.7463 0.8298 0.7116
H89? H 0.7879 0.6049 0.7573
H90? H 0.7202 0.5820 0.7342
C49? C 0.7699(13) 0.7842(11) 0.7585(8)
H91? H 0.7750 0.7950 0.7885
H92? H 0.8142 0.7709 0.7484
C50? C 0.7283(14) 0.7237(12) 0.7567(8)
H93? H 0.6809 0.7359 0.7557
H94? H 0.7358 0.6963 0.7819

#END

