
#######################################################################
#
#                 Cambridge Crystallographic Data Centre
#                                CCDC 
#
#######################################################################
#
# If this CIF has been generated directly or indirectly from an entry in the 
# Cambridge Structural Database, then it will include bibliographic, chemical, 
# crystal, experimental, refinement or atomic coordinate data resulting from 
# the CCDC's data processing and validation procedures. Files generated from 
# CSD entries are Copyright 2015 Cambridge Crystallographic Data Centre. They 
# may be used in bona fide research applications only, and may not be copied or 
# further disseminated in any form, whether machine-readable or not, except for 
# the purposes of generating routine backup copies on your local computer 
# system.
# 
# Files arising from any other source may also contain material that is the 
# copyright of third parties, including the originator, and you should check 
# with the originator concerning the permitted uses of the information 
# contained in this CIF.
#
# For further information on the CCDC and the free tools enCIFer and Mercury
# for validating and visualising CIF files, please visit www.ccdc.cam.ac.uk
#
#######################################################################

data_REQXES
_audit_creation_date             2013-05-19
_database_code_depnum_ccdc_archive 'CCDC 913184'
_chemical_formula_moiety         'C112 H62 O2'
_chemical_name_systematic        
'1,14-bis(4-methoxyphenyl)-2,13,15,26,27,38(1,4),5,10,18,23,30,35(1,3)-dodecabenzenabicyclo(12.12.12)tetratriacontaphane-3,6,8,11,16,19,21,24,28,31,33,36-dodecayne unknown solvate'
_journal_coden_Cambridge         179
_journal_volume                  52
_journal_year                    2013
_journal_page_first              3746
_journal_name_full               Angew.Chem.,Int.Ed.
loop_
_publ_author_name
A.Avellaneda
P.Valente
A.Burgun
J.D.Evans
A.W.Markwell-Heys
D.Rankine
D.J.Nielsen
M.R.Hill
C.J.Sumby
C.J.Doonan
_chemical_absolute_configuration unk
_diffrn_ambient_temperature      150
_exptl_crystal_density_meas      0.794
_exptl_crystal_density_diffrn    0.794
#These two values have been output from a single CSD field.
_refine_ls_R_factor_gt           0.0888
_refine_ls_wR_factor_gt          0.0888
_diffrn_radiation_probe          x-ray
_symmetry_cell_setting           orthorhombic
_symmetry_space_group_name_H-M   'P b c n'
_symmetry_Int_Tables_number      60
loop_
_symmetry_equiv_pos_site_id
_symmetry_equiv_pos_as_xyz
1 x,y,z
2 1/2-x,1/2-y,1/2+z
3 1/2+x,1/2-y,-z
4 -x,y,1/2-z
5 -x,-y,-z
6 1/2+x,1/2+y,1/2-z
7 1/2-x,1/2+y,z
8 x,-y,1/2+z
_cell_length_a                   31.9812(14)
_cell_length_b                   18.5193(8)
_cell_length_c                   20.3265(7)
_cell_angle_alpha                90
_cell_angle_beta                 90
_cell_angle_gamma                90
_cell_volume                     12038.8
_exptl_crystal_colour            colorless
_exptl_crystal_description       block
_cell_formula_units_Z            4
loop_
_atom_site_label
_atom_site_type_symbol
_atom_site_fract_x
_atom_site_fract_y
_atom_site_fract_z
O1 O 0.24059(13) 0.27980(17) 0.36480(14)
C1 C 0.20943(13) 0.47723(19) -0.4220(2)
C2 C 0.16417(11) 0.27480(18) 0.11134(15)
C3 C 0.28014(12) 0.47654(19) -0.20751(17)
C4 C 0.23686(12) 0.37497(19) -0.04622(17)
C5 C 0.15592(13) 0.19675(19) 0.08585(16)
C6 C 0.12342(12) 0.31633(19) 0.12058(17)
C7 C 0.19582(12) 0.34027(19) 0.20831(16)
H1 H 0.1888 0.3835 0.1858
C8 C 0.19187(12) 0.30944(18) 0.05705(17)
C9 C 0.19834(13) 0.3426(2) -0.05777(17)
H2 H 0.1870 0.3426 -0.1010
C10 C 0.23279(13) 0.4846(2) -0.37483(19)
C11 C 0.18941(12) 0.1526(2) 0.07040(17)
H3 H 0.2169 0.1685 0.0807
C12 C -0.18410(12) 0.47352(19) -0.02190(19)
C13 C 0.26089(12) 0.4957(2) -0.32178(17)
C14 C 0.25670(12) 0.4124(2) -0.09896(18)
C15 C 0.18657(11) 0.27496(19) 0.17841(16)
C16 C 0.23096(12) 0.33785(19) 0.06709(17)
H4 H 0.2430 0.3352 0.1097
C17 C -0.07522(13) 0.45445(19) 0.14523(19)
C18 C -0.09832(12) 0.45362(19) 0.08690(18)
H5 H -0.0850 0.4394 0.0472
C19 C 0.21487(12) 0.3458(2) 0.26959(17)
H6 H 0.2222 0.3916 0.2873
C20 C -0.14018(11) 0.47294(19) 0.08552(18)
C21 C 0.17629(13) 0.3104(2) -0.00730(17)
H7 H 0.1501 0.2884 -0.0164
C22 C 0.04517(12) 0.3839(2) 0.13839(19)
C23 C 0.25336(12) 0.37028(19) 0.01683(17)
H8 H 0.2803 0.3895 0.0256
C24 C 0.25276(12) 0.46562(18) -0.26051(16)
H9 H 0.2283 0.4372 -0.2544
C25 C 0.26954(12) 0.4443(2) -0.14559(19)
C26 C 0.18429(12) 0.08710(19) 0.04091(16)
H10 H 0.2082 0.0587 0.0311
C27 C -0.15914(13) 0.4943(2) 0.14429(19)
H11 H -0.1876 0.5089 0.1443
C28 C -0.13681(14) 0.4944(3) 0.2023(2)
H12 H -0.1500 0.5083 0.2422
C29 C 0.29666(14) 0.5364(2) -0.33018(19)
H13 H 0.3024 0.5578 -0.3717
C30 C -0.16339(12) 0.4726(2) 0.02561(18)
C31 C -0.09557(14) 0.4743(2) 0.2025(2)
H14 H -0.0806 0.4741 0.2428
C32 C 0.09513(13) 0.2949(2) 0.16951(17)
H15 H 0.1026 0.2563 0.1979
C33 C -0.03260(15) 0.4340(2) 0.14525(19)
C34 C 0.14587(14) 0.0614(2) 0.0253(2)
C35 C 0.22280(16) 0.2831(2) 0.3040(2)
C36 C 0.00325(14) 0.4133(2) 0.14370(18)
C37 C 0.11119(15) 0.3769(2) 0.0850(2)
H16 H 0.1301 0.3966 0.0538
C38 C 0.13977(14) -0.0077(2) -0.0066(2)
C39 C 0.12435(15) -0.1291(2) -0.0690(2)
C40 C 0.05693(13) 0.3277(2) 0.17785(18)
H17 H 0.0385 0.3112 0.2113
C41 C 0.31573(14) 0.5166(2) -0.2169(2)
H18 H 0.3345 0.5241 -0.1813
C42 C 0.32447(15) 0.5463(3) -0.2779(2)
H19 H 0.3494 0.5734 -0.2843
C43 C 0.25230(17) 0.3446(3) 0.3968(2)
H20 H 0.2719 0.3714 0.3689
H21 H 0.2657 0.3332 0.4389
H22 H 0.2274 0.3741 0.4047
C44 C 0.10322(18) -0.2543(2) -0.1375(2)
H23 H 0.0960 -0.2972 -0.1606
C45 C 0.07242(14) 0.4101(2) 0.0930(2)
H24 H 0.0651 0.4507 0.0668
C46 C 0.08034(17) -0.1903(2) -0.1481(2)
C47 C 0.11685(14) 0.1720(2) 0.0686(2)
H25 H 0.0930 0.2012 0.0769
C48 C 0.11191(16) 0.1053(3) 0.0393(3)
H26 H 0.0846 0.0891 0.0285
C49 C 0.09195(16) -0.1279(2) -0.1126(2)
H27 H 0.0769 -0.0843 -0.1192
C50 C 0.19522(16) 0.2130(2) 0.21430(19)
H28 H 0.1894 0.1670 0.1958
C51 C 0.21213(19) 0.2175(2) 0.2763(2)
H29 H 0.2166 0.1745 0.3008
C52 C 0.13404(15) -0.0639(2) -0.0342(2)
C53 C 0.13599(16) -0.2546(2) -0.0938(2)
H30 H 0.1514 -0.2977 -0.0867
C54 C 0.0167(2) -0.1851(3) -0.2296(3)
C55 C 0.0451(2) -0.1880(2) -0.1929(3)
C56 C 0.14667(16) -0.1922(3) -0.0601(2)
H31 H 0.1696 -0.1929 -0.0304
O1C O -0.24059 0.2798 -0.8648
C1C C -0.20943 0.47723 -0.078
C2C C -0.16417 0.2748 -0.61134
C3C C -0.28014 0.47654 -0.29249
C4C C -0.23686 0.37497 -0.45378
C5C C -0.15592 0.19675 -0.58585
C6C C -0.12342 0.31633 -0.62058
C7C C -0.19582 0.34027 -0.70831
H1C H -0.1888 0.3835 -0.6858
C8C C -0.19187 0.30944 -0.55705
C9C C -0.19834 0.3426 -0.44223
H2C H -0.187 0.3426 -0.399
C10C C -0.23279 0.4846 -0.12517
C11C C -0.18941 0.1526 -0.5704
H3C H -0.2169 0.1685 -0.5807
C12C C 0.1841 0.47352 -0.4781
C13C C -0.26089 0.4957 -0.17822
C14C C -0.2567 0.4124 -0.40104
C15C C -0.18657 0.27496 -0.67841
C16C C -0.23096 0.33785 -0.56709
H4C H -0.243 0.3352 -0.6097
C17C C 0.07522 0.45445 -0.64523
C18C C 0.09832 0.45362 -0.5869
H5C H 0.085 0.4394 -0.5472
C19C C -0.21487 0.3458 -0.76959
H6C H -0.2222 0.3916 -0.7873
C20C C 0.14018 0.47294 -0.58552
C21C C -0.17629 0.3104 -0.4927
H7C H -0.1501 0.2884 -0.4836
C22C C -0.04517 0.3839 -0.63839
C23C C -0.25336 0.37028 -0.51683
H8C H -0.2803 0.3895 -0.5256
C24C C -0.25276 0.46562 -0.23949
H9C H -0.2283 0.4372 -0.2456
C25C C -0.26954 0.4443 -0.35441
C26C C -0.18429 0.0871 -0.54091
H10C H -0.2082 0.0587 -0.5311
C27C C 0.15914 0.4943 -0.64429
H11C H 0.1876 0.5089 -0.6443
C28C C 0.13681 0.4944 -0.7023
H12C H 0.15 0.5083 -0.7422
C29C C -0.29666 0.5364 -0.16982
H13C H -0.3024 0.5578 -0.1283
C30C C 0.16339 0.4726 -0.52561
C31C C 0.09557 0.4743 -0.7025
H14C H 0.0806 0.4741 -0.7428
C32C C -0.09513 0.2949 -0.66951
H15C H -0.1026 0.2563 -0.6979
C33C C 0.0326 0.434 -0.64525
C34C C -0.14587 0.0614 -0.5253
C35C C -0.2228 0.2831 -0.804
C36C C -0.00325 0.4133 -0.6437
C37C C -0.11119 0.3769 -0.585
H16C H -0.1301 0.3966 -0.5538
C38C C -0.13977 -0.0077 -0.4934
C39C C -0.12435 -0.1291 -0.431
C40C C -0.05693 0.3277 -0.67785
H17C H -0.0385 0.3112 -0.7113
C41C C -0.31573 0.5166 -0.2831
H18C H -0.3345 0.5241 -0.3187
C42C C -0.32447 0.5463 -0.2221
H19C H -0.3494 0.5734 -0.2157
C43C C -0.2523 0.3446 -0.8968
H20C H -0.2719 0.3714 -0.8689
H21C H -0.2657 0.3332 -0.9389
H22C H -0.2274 0.3741 -0.9047
C44C C -0.10322 -0.2543 -0.3625
H23C H -0.096 -0.2972 -0.3394
C45C C -0.07242 0.4101 -0.593
H24C H -0.0651 0.4507 -0.5668
C46C C -0.08034 -0.1903 -0.3519
C47C C -0.11685 0.172 -0.5686
H25C H -0.093 0.2012 -0.5769
C48C C -0.11191 0.1053 -0.5393
H26C H -0.0846 0.0891 -0.5285
C49C C -0.09195 -0.1279 -0.3874
H27C H -0.0769 -0.0843 -0.3808
C50C C -0.19522 0.213 -0.7143
H28C H -0.1894 0.167 -0.6958
C51C C -0.21213 0.2175 -0.7763
H29C H -0.2166 0.1745 -0.8008
C52C C -0.13404 -0.0639 -0.4658
C53C C -0.13599 -0.2546 -0.4062
H30C H -0.1514 -0.2977 -0.4133
C54C C -0.0167 -0.1851 -0.2704
C55C C -0.0451 -0.188 -0.3071
C56C C -0.14667 -0.1922 -0.4399
H31C H -0.1696 -0.1929 -0.4696

#END

