
#######################################################################
#
#                 Cambridge Crystallographic Data Centre
#                                CCDC 
#
#######################################################################
#
# If this CIF has been generated directly or indirectly from an entry in the 
# Cambridge Structural Database, then it will include bibliographic, chemical, 
# crystal, experimental, refinement or atomic coordinate data resulting from 
# the CCDC's data processing and validation procedures. Files generated from 
# CSD entries are Copyright 2015 Cambridge Crystallographic Data Centre. They 
# may be used in bona fide research applications only, and may not be copied or 
# further disseminated in any form, whether machine-readable or not, except for 
# the purposes of generating routine backup copies on your local computer 
# system.
# 
# Files arising from any other source may also contain material that is the 
# copyright of third parties, including the originator, and you should check 
# with the originator concerning the permitted uses of the information 
# contained in this CIF.
#
# For further information on the CCDC and the free tools enCIFer and Mercury
# for validating and visualising CIF files, please visit www.ccdc.cam.ac.uk
#
#######################################################################

data_DOPJID
_audit_creation_date             2014-09-25
_database_code_depnum_ccdc_archive 'CCDC 1008723'
_chemical_formula_moiety         'C156 H140 B12 N4 O32,x(C7 H8)'
_chemical_name_systematic        
"bis(\m~6~-5,5'-(Naphthalene-2,6-diylbis(oxymethanediyl))bis(3-phenyl-1,2-oxazole))-hexakis(\m~2~-3,3,7,7-tetramethyl-1,2,3,5,6,7-hexahydro-s-indacene-1,2,5,6-tetrolato)-dodeca-boron toluene solvate"
_journal_coden_Cambridge         182
_journal_volume                  50
_journal_year                    2014
_journal_page_first              13683
_journal_name_full               Chem.Commun.
loop_
_publ_author_name
K.Ono
'Ryo Aizawa'
T.Yamano
S.Ito
N.Yasuda
K.Johmoto
H.Uekusa
N.Iwasawa
_chemical_absolute_configuration unk
_diffrn_ambient_temperature      93
_exptl_crystal_density_meas      0.881
_exptl_crystal_density_diffrn    0.911
#These two values have been output from a single CSD field.
_refine_ls_R_factor_gt           0.0573
_refine_ls_wR_factor_gt          0.0573
_diffrn_radiation_probe          x-ray
_symmetry_cell_setting           tetragonal
_symmetry_space_group_name_H-M   'P 41 21 2'
_symmetry_Int_Tables_number      92
loop_
_symmetry_equiv_pos_site_id
_symmetry_equiv_pos_as_xyz
1 x,y,z
2 1/2+x,1/2-y,3/4-z
3 -x,-y,1/2+z
4 1/2-x,1/2+y,1/4-z
5 y,x,-z
6 1/2+y,1/2-x,3/4+z
7 1/2-y,1/2+x,1/4+z
8 -y,-x,1/2-z
_cell_length_a                   13.9953(4)
_cell_length_b                   13.9953(4)
_cell_length_c                   104.431(3)
_cell_angle_alpha                90
_cell_angle_beta                 90
_cell_angle_gamma                90
_cell_volume                     20454.7
_exptl_crystal_colour            colorless
_exptl_crystal_description       block
_cell_formula_units_Z            4
loop_
_atom_site_label
_atom_site_type_symbol
_atom_site_fract_x
_atom_site_fract_y
_atom_site_fract_z
C1 C 0.4282(3) 1.2856(3) 0.58547(4)
H1 H 0.3896 1.3114 0.5921
C2 C 0.4076(3) 1.3102(3) 0.57312(4)
C3 C 0.4619(4) 1.2709(3) 0.56348(4)
H2 H 0.4481 1.2854 0.5548
C4 C 0.5406(3) 1.2066(3) 0.56665(5)
C5 C 0.5603(4) 1.1863(4) 0.57919(5)
H3 H 0.6130 1.1463 0.5812
C6 C 0.5042(3) 1.2233(4) 0.58891(4)
C7 C 0.0869(3) 0.8987(3) 0.58501(4)
H4 H 0.0464 0.9422 0.5894
C8 C 0.1500(4) 0.8421(3) 0.59205(4)
C9 C 0.2076(4) 0.7796(3) 0.58558(4)
H5 H 0.2500 0.7401 0.5903
C10 C 0.2063(3) 0.7715(3) 0.57205(3)
C11 C 0.1417(3) 0.8289(3) 0.56540(3)
H6 H 0.1382 0.8243 0.5563
C12 C 0.0820(3) 0.8930(3) 0.57183(4)
C13 C 0.1928(4) 1.4308(4) 0.55950(4)
H7 H 0.1788 1.4854 0.5536
C14 C 0.1804(3) 1.4596(3) 0.57383(4)
H8 H 0.1884 1.5299 0.5752
C15 C 0.0817(3) 1.4228(3) 0.57830(4)
C16 C 0.0648(3) 1.3425(3) 0.56855(4)
C17 C 0.0003(3) 1.2644(4) 0.57003(4)
H9 H -0.0397 1.2585 0.5773
C18 C -0.0010(3) 1.1983(3) 0.56035(5)
C19 C -0.0563(3) 1.1037(4) 0.56033(5)
H10 H -0.1268 1.1144 0.5610
C20 C -0.0290(3) 1.0590(3) 0.54739(4)
H11 H -0.0870 1.0469 0.5420
C21 C 0.0430(3) 1.1210(3) 0.54021(4)
C22 C 0.0551(3) 1.2084(3) 0.54931(4)
C23 C 0.1159(4) 1.2855(3) 0.54814(4)
H12 H 0.1537 1.2937 0.5407
C24 C 0.1205(4) 1.3496(3) 0.55791(4)
C25 C 0.5015(5) 1.1571(6) 0.62423(5)
H13 H 0.5153 1.1920 0.6324
C26 C 0.5906(5) 1.1023(6) 0.61913(6)
H14 H 0.6507 1.1252 0.6233
C27 C 0.5668(6) 1.0071(7) 0.62315(6)
C28 C 0.4639(4) 0.9942(6) 0.62432(5)
C29 C 0.3999(5) 0.9161(4) 0.62454(4)
H15 H 0.4230 0.8530 0.6232
C30 C 0.3068(4) 0.9311(3) 0.62667(4)
C31 C 0.2266(5) 0.8603(3) 0.62594(4)
H16 H 0.2296 0.8133 0.6331
C32 C 0.1396(4) 0.9232(3) 0.62699(4)
H17 H 0.0903 0.8952 0.6328
C33 C 0.1684(4) 1.0243(3) 0.63107(4)
C34 C 0.2704(4) 1.0234(3) 0.62870(3)
C35 C 0.3296(4) 1.1020(4) 0.62847(4)
H18 H 0.3056 1.1644 0.6301
C36 C 0.4264(6) 1.0865(4) 0.62580(4)
C37 C 0.5998(4) 1.1651(3) 0.55650(5)
C38 C 0.5783(5) 1.1322(4) 0.54467(4)
H19 H 0.5159 1.1308 0.5411
C39 C 0.6601(4) 1.1010(4) 0.53855(5)
C40 C 0.6930(3) 1.0654(3) 0.52658(4)
H20 H 0.6399 1.0359 0.5217
H21 H 0.7210 1.1174 0.5214
C41 C 0.8122(3) 0.9506(3) 0.52004(3)
C42 C 0.7967(3) 0.9705(3) 0.50738(3)
H22 H 0.7519 1.0179 0.5049
C43 C 0.8502(2) 0.9177(2) 0.49797(3)
C44 C 0.8328(2) 0.9340(2) 0.48447(3)
C45 C 0.8839(3) 0.8798(3) 0.47579(3)
H23 H 0.8737 0.8886 0.4669
C46 C 0.2734(3) 0.7099(3) 0.56549(3)
C47 C 0.2885(3) 0.6992(3) 0.55195(3)
H24 H 0.2573 0.7319 0.5452
C48 C 0.3575(3) 0.6319(3) 0.55112(3)
C49 C 0.4097(3) 0.5861(3) 0.54025(3)
H25 H 0.4792 0.5977 0.5411
H26 H 0.3987 0.5162 0.5403
C50 C 0.4181(2) 0.5925(2) 0.51766(3)
C51 C 0.4905(2) 0.5240(2) 0.51770(3)
H27 H 0.5138 0.4993 0.5256
C52 C 0.5292(2) 0.4912(2) 0.50596(3)
C53 C 0.4207(2) 0.6042(2) 0.49441(3)
C54 C 0.3857(2) 0.6335(2) 0.50611(3)
H28 H 0.3388 0.6825 0.5064
C55 C 0.6403(2) 1.0466(3) 0.46478(3)
H29 H 0.6396 1.0893 0.4571
C56 C 0.6283(2) 1.1050(3) 0.47756(3)
H30 H 0.6437 1.1742 0.4763
C57 C 0.5241(2) 1.0900(3) 0.48193(3)
C58 C 0.4946(2) 0.9995(2) 0.47483(3)
C59 C 0.4167(2) 0.9410(2) 0.47712(3)
H31 H 0.3725 0.9549 0.4838
C60 C 0.4052(2) 0.8606(2) 0.46929(3)
C61 C 0.3312(3) 0.7833(2) 0.47051(3)
H32 H 0.2660 0.8065 0.4681
C62 C 0.3682(3) 0.7036(3) 0.46115(4)
H33 H 0.3145 0.6742 0.4562
C63 C 0.4425(3) 0.7506(3) 0.45217(3)
C64 C 0.4689(3) 0.8401(2) 0.45931(3)
C65 C 0.5474(3) 0.9002(3) 0.45707(3)
H34 H 0.5918 0.8866 0.4504
C66 C 0.5582(2) 0.9793(3) 0.46478(3)
C67 C 0.5144(3) 1.0830(3) 0.49663(3)
H35 H 0.5356 1.1430 0.5005
H36 H 0.5540 1.0303 0.4998
H37 H 0.4475 1.0712 0.4989
C68 C 0.4647(3) 1.1755(2) 0.47738(4)
H38 H 0.4733 1.1839 0.4681
H39 H 0.4858 1.2333 0.4819
H40 H 0.3971 1.1638 0.4792
C69 C 0.5270(3) 0.6834(3) 0.44927(4)
H41 H 0.5736 0.7167 0.4439
H42 H 0.5037 0.6265 0.4448
H43 H 0.5576 0.6643 0.4573
C70 C 0.3908(4) 0.7774(3) 0.43958(4)
H44 H 0.3314 0.8115 0.4416
H45 H 0.3758 0.7191 0.4348
H46 H 0.4323 0.8185 0.4344
C71 C 0.0831(3) 1.3919(3) 0.59189(4)
H47 H 0.0205 1.3656 0.5942
H48 H 0.0974 1.4469 0.5974
H49 H 0.1323 1.3429 0.5931
C72 C 0.0106(4) 1.5011(4) 0.57643(5)
H50 H 0.0033 1.5141 0.5673
H51 H 0.0329 1.5590 0.5808
H52 H -0.0511 1.4816 0.5800
C73 C 0.1381(4) 1.0735(3) 0.53766(5)
H53 H 0.1276 1.0128 0.5332
H54 H 0.1708 1.0614 0.5458
H55 H 0.1776 1.1155 0.5323
C74 C 0.0018(4) 1.1562(4) 0.52734(4)
H56 H 0.0438 1.2055 0.5238
H57 H -0.0620 1.1830 0.5287
H58 H -0.0025 1.1024 0.5214
C75 C 0.6104(6) 0.9314(7) 0.61264(8)
H59 H 0.5623 0.9182 0.6061
H60 H 0.6277 0.8717 0.6170
H61 H 0.6674 0.9590 0.6086
C76 C 0.6170(5) 0.9822(7) 0.63650(6)
H62 H 0.6725 1.0239 0.6377
H63 H 0.6378 0.9154 0.6364
H64 H 0.5714 0.9921 0.6435
C77 C 0.1087(5) 1.1052(3) 0.62468(4)
H65 H 0.1420 1.1663 0.6257
H66 H 0.0458 1.1089 0.6288
H67 H 0.1006 1.0912 0.6155
C78 C 0.1482(4) 1.0311(4) 0.64602(4)
H68 H 0.1810 0.9787 0.6504
H69 H 0.0793 1.0263 0.6476
H70 H 0.1718 1.0923 0.6493
B1 B 0.3184(4) 1.3741(4) 0.56987(5)
B2 B 0.0241(3) 0.9651(4) 0.56445(5)
B3 B 0.5199(6) 1.1879(5) 0.60285(7)
B4 B 0.1613(6) 0.8572(4) 0.60691(5)
B5 B 0.7534(3) 1.0001(3) 0.47891(4)
B6 B 0.3880(3) 0.6587(3) 0.48253(4)
N1 N 0.6977(4) 1.1633(3) 0.55880(4)
N2 N 0.3305(3) 0.6521(3) 0.57186(3)
O1 O 0.2893(3) 1.3969(2) 0.55805(3)
O2 O 0.2577(2) 1.4043(2) 0.57939(2)
O3 O -0.0215(2) 1.0424(2) 0.57040(3)
O4 O 0.0170(2) 0.96823(18) 0.55118(3)
O5 O 0.4770(3) 1.2245(3) 0.61342(3)
O6 O 0.5913(3) 1.1198(4) 0.60573(4)
O7 O 0.2284(3) 0.8144(2) 0.61409(3)
O8 O 0.1065(3) 0.9247(2) 0.61335(2)
O9 O 0.73055(16) 0.99694(19) 0.46605(2)
O10 O 0.69608(15) 1.05855(17) 0.48591(2)
O11 O 0.33227(16) 0.73975(15) 0.48326(2)
O12 O 0.41033(17) 0.63603(16) 0.47001(2)
O13 O 0.7377(3) 1.1247(3) 0.54739(3)
O14 O 0.7626(2) 0.9968(2) 0.52970(2)
O15 O 0.3846(2) 0.6021(2) 0.56271(2)
O16 O 0.37587(15) 0.62556(16) 0.52879(2)
C1D C 1.2856 0.4282 0.41453
H1D H 1.3114 0.3896 0.4079
C2D C 1.3102 0.4076 0.42688
C3D C 1.2709 0.4619 0.43652
H2D H 1.2854 0.4481 0.4452
C4D C 1.2066 0.5406 0.43335
C5D C 1.1863 0.5603 0.42081
H3D H 1.1463 0.613 0.4188
C6D C 1.2233 0.5042 0.41109
C7D C 0.8987 0.0869 0.41499
H4D H 0.9422 0.0464 0.4106
C8D C 0.8421 0.15 0.40795
C9D C 0.7796 0.2076 0.41442
H5D H 0.7401 0.25 0.4097
C10D C 0.7715 0.2063 0.42795
C11D C 0.8289 0.1417 0.4346
H6D H 0.8243 0.1382 0.4437
C12D C 0.893 0.082 0.42817
C13D C 1.4308 0.1928 0.4405
H7D H 1.4854 0.1788 0.4464
C14D C 1.4596 0.1804 0.42617
H8D H 1.5299 0.1884 0.4248
C15D C 1.4228 0.0817 0.4217
C16D C 1.3425 0.0648 0.43145
C17D C 1.2644 0.0003 0.42997
H9D H 1.2585 -0.0397 0.4227
C18D C 1.1983 -0.001 0.43965
C19D C 1.1037 -0.0563 0.43967
H10D H 1.1144 -0.1268 0.439
C20D C 1.059 -0.029 0.45261
H11D H 1.0469 -0.087 0.458
C21D C 1.121 0.043 0.45979
C22D C 1.2084 0.0551 0.45069
C23D C 1.2855 0.1159 0.45186
H12D H 1.2937 0.1537 0.4593
C24D C 1.3496 0.1205 0.44209
C25D C 1.1571 0.5015 0.37577
H13D H 1.192 0.5153 0.3676
C26D C 1.1023 0.5906 0.38087
H14D H 1.1252 0.6507 0.3767
C27D C 1.0071 0.5668 0.37685
C28D C 0.9942 0.4639 0.37568
C29D C 0.9161 0.3999 0.37546
H15D H 0.853 0.423 0.3768
C30D C 0.9311 0.3068 0.37333
C31D C 0.8603 0.2266 0.37406
H16D H 0.8133 0.2296 0.3669
C32D C 0.9232 0.1396 0.37301
H17D H 0.8952 0.0903 0.3672
C33D C 1.0243 0.1684 0.36893
C34D C 1.0234 0.2704 0.3713
C35D C 1.102 0.3296 0.37153
H18D H 1.1644 0.3056 0.3699
C36D C 1.0865 0.4264 0.3742
C37D C 1.1651 0.5998 0.4435
C38D C 1.1322 0.5783 0.45533
H19D H 1.1308 0.5159 0.4589
C39D C 1.101 0.6601 0.46145
C40D C 1.0654 0.693 0.47342
H20D H 1.0359 0.6399 0.4783
H21D H 1.1174 0.721 0.4786
C41D C 0.9506 0.8122 0.47996
C42D C 0.9705 0.7967 0.49262
H22D H 1.0179 0.7519 0.4951
C43D C 0.9177 0.8502 0.50203
C44D C 0.934 0.8328 0.51553
C45D C 0.8798 0.8839 0.52421
H23D H 0.8886 0.8737 0.5331
C46D C 0.7099 0.2734 0.43451
C47D C 0.6992 0.2885 0.44805
H24D H 0.7319 0.2573 0.4548
C48D C 0.6319 0.3575 0.44888
C49D C 0.5861 0.4097 0.45975
H25D H 0.5977 0.4792 0.4589
H26D H 0.5162 0.3987 0.4597
C50D C 0.5925 0.4181 0.48234
C51D C 0.524 0.4905 0.4823
H27D H 0.4993 0.5138 0.4744
C52D C 0.4912 0.5292 0.49404
C53D C 0.6042 0.4207 0.50559
C54D C 0.6335 0.3857 0.49389
H28D H 0.6825 0.3388 0.4936
C55D C 1.0466 0.6403 0.53522
H29D H 1.0893 0.6396 0.5429
C56D C 1.105 0.6283 0.52244
H30D H 1.1742 0.6437 0.5237
C57D C 1.09 0.5241 0.51807
C58D C 0.9995 0.4946 0.52517
C59D C 0.941 0.4167 0.52288
H31D H 0.9549 0.3725 0.5162
C60D C 0.8606 0.4052 0.53071
C61D C 0.7833 0.3312 0.52949
H32D H 0.8065 0.266 0.5319
C62D C 0.7036 0.3682 0.53885
H33D H 0.6742 0.3145 0.5438
C63D C 0.7506 0.4425 0.54783
C64D C 0.8401 0.4689 0.54069
C65D C 0.9002 0.5474 0.54293
H34D H 0.8866 0.5918 0.5496
C66D C 0.9793 0.5582 0.53522
C67D C 1.083 0.5144 0.50337
H35D H 1.143 0.5356 0.4995
H36D H 1.0303 0.554 0.5002
H37D H 1.0712 0.4475 0.5011
C68D C 1.1755 0.4647 0.52262
H38D H 1.1839 0.4733 0.5319
H39D H 1.2333 0.4858 0.5181
H40D H 1.1638 0.3971 0.5208
C69D C 0.6834 0.527 0.55073
H41D H 0.7167 0.5736 0.5561
H42D H 0.6265 0.5037 0.5552
H43D H 0.6643 0.5576 0.5427
C70D C 0.7774 0.3908 0.56042
H44D H 0.8115 0.3314 0.5584
H45D H 0.7191 0.3758 0.5652
H46D H 0.8185 0.4323 0.5656
C71D C 1.3919 0.0831 0.40811
H47D H 1.3656 0.0205 0.4058
H48D H 1.4469 0.0974 0.4026
H49D H 1.3429 0.1323 0.4069
C72D C 1.5011 0.0106 0.42357
H50D H 1.5141 0.0033 0.4327
H51D H 1.559 0.0329 0.4192
H52D H 1.4816 -0.0511 0.42
C73D C 1.0735 0.1381 0.46234
H53D H 1.0128 0.1276 0.4668
H54D H 1.0614 0.1708 0.4542
H55D H 1.1155 0.1776 0.4677
C74D C 1.1562 0.0018 0.47266
H56D H 1.2055 0.0438 0.4762
H57D H 1.183 -0.062 0.4713
H58D H 1.1024 -0.0025 0.4786
C75D C 0.9314 0.6104 0.38736
H59D H 0.9182 0.5623 0.3939
H60D H 0.8717 0.6277 0.383
H61D H 0.959 0.6674 0.3914
C76D C 0.9822 0.617 0.3635
H62D H 1.0239 0.6725 0.3623
H63D H 0.9154 0.6378 0.3636
H64D H 0.9921 0.5714 0.3565
C77D C 1.1052 0.1087 0.37532
H65D H 1.1663 0.142 0.3743
H66D H 1.1089 0.0458 0.3712
H67D H 1.0912 0.1006 0.3845
C78D C 1.0311 0.1482 0.35398
H68D H 0.9787 0.181 0.3496
H69D H 1.0263 0.0793 0.3524
H70D H 1.0923 0.1718 0.3507
B1D B 1.3741 0.3184 0.43013
B2D B 0.9651 0.0241 0.43555
B3D B 1.1879 0.5199 0.39715
B4D B 0.8572 0.1613 0.39309
B5D B 1.0001 0.7534 0.52109
B6D B 0.6587 0.388 0.51747
N1D N 1.1633 0.6977 0.4412
N2D N 0.6521 0.3305 0.42814
O1D O 1.3969 0.2893 0.44195
O2D O 1.4043 0.2577 0.42061
O3D O 1.0424 -0.0215 0.4296
O4D O 0.96823 0.017 0.44882
O5D O 1.2245 0.477 0.38658
O6D O 1.1198 0.5913 0.39427
O7D O 0.8144 0.2284 0.38591
O8D O 0.9247 0.1065 0.38665
O9D O 0.99694 0.73055 0.53395
O10D O 1.05855 0.69608 0.51409
O11D O 0.73975 0.33227 0.51674
O12D O 0.63603 0.41033 0.52999
O13D O 1.1247 0.7377 0.45261
O14D O 0.9968 0.7626 0.4703
O15D O 0.6021 0.3846 0.43729
O16D O 0.62556 0.37587 0.47121

#END

