
#######################################################################
#
#                 Cambridge Crystallographic Data Centre
#                                CCDC 
#
#######################################################################
#
# If this CIF has been generated directly or indirectly from an entry in the 
# Cambridge Structural Database, then it will include bibliographic, chemical, 
# crystal, experimental, refinement or atomic coordinate data resulting from 
# the CCDC's data processing and validation procedures. Files generated from 
# CSD entries are Copyright 2015 Cambridge Crystallographic Data Centre. They 
# may be used in bona fide research applications only, and may not be copied or 
# further disseminated in any form, whether machine-readable or not, except for 
# the purposes of generating routine backup copies on your local computer 
# system.
# 
# Files arising from any other source may also contain material that is the 
# copyright of third parties, including the originator, and you should check 
# with the originator concerning the permitted uses of the information 
# contained in this CIF.
#
# For further information on the CCDC and the free tools enCIFer and Mercury
# for validating and visualising CIF files, please visit www.ccdc.cam.ac.uk
#
#######################################################################

data_UTEVAR
_audit_creation_date             2011-10-03
_database_code_depnum_ccdc_archive 'CCDC 793895'
_chemical_formula_moiety         'C72 H84 N12,C48 H48 N12,7(C1 H1 Cl3)'
_chemical_name_systematic        
'3,6,10,13,17,20,24,27,30,33,36,39-Dodecaaza-1,8,15,22(1,3,5)-tetrabenzenatricyclo[13.13.6.6^8,22^]tetracontaphane-2,6,9,13,16,20,23,27,29,33,35,39-dodecaene 3,5,9,11,15,17,21,23,26,28,31,33-dodecaaza-1,7,13,19(1,3,5)-tetrabenzena-4,10,16,22,27,32(1,3,5)-hexacyclohexano-bicyclo[17.11.5]tetratriacontaphane-2,5,8,11,14,17,20,23,25,28,30,33-dodecaene chloroform solvate'
_journal_coden_Cambridge         6
_journal_volume                  474
_journal_year                    2011
_journal_page_first              367
_journal_name_full               'Nature (London)'
loop_
_publ_author_name
J.T.A.Jones
T.Hasell
'Xiaofeng Wu'
J.Bacsa
K.E.Jelfs
M.Schmidtmann
S.Y.Chong
D.J.Adams
A.Trewin
F.Schiffman
F.Cora
B.Slater
A.Steiner
G.M.Day
A.I.Cooper
_chemical_absolute_configuration unk
_diffrn_ambient_temperature      150
_exptl_crystal_density_meas      1.275
_exptl_crystal_density_diffrn    1.275
#These two values have been output from a single CSD field.
_refine_ls_R_factor_gt           0.0642
_refine_ls_wR_factor_gt          0.0642
_diffrn_radiation_probe          x-ray
_diffrn_source                   'synchrotron radiation'
_symmetry_cell_setting           cubic
_symmetry_space_group_name_H-M   'P 2 3'
_symmetry_Int_Tables_number      195
loop_
_symmetry_equiv_pos_site_id
_symmetry_equiv_pos_as_xyz
1 x,y,z
2 -x,-y,z
3 x,-y,-z
4 -x,y,-z
5 z,x,y
6 -z,-x,y
7 z,-x,-y
8 -z,x,-y
9 y,z,x
10 y,-z,-x
11 -y,z,-x
12 -y,-z,x
_cell_length_a                   24.274(4)
_cell_length_b                   24.274(4)
_cell_length_c                   24.274(4)
_cell_angle_alpha                90
_cell_angle_beta                 90
_cell_angle_gamma                90
_cell_volume                     14302.9
_exptl_crystal_colour            colorless
_exptl_crystal_description       prism
_cell_formula_units_Z            4
loop_
_atom_site_label
_atom_site_type_symbol
_atom_site_fract_x
_atom_site_fract_y
_atom_site_fract_z
N5 N 0.96313(8) 0.95061(7) 0.22984(7)
C25 C 0.97099(10) 0.98771(9) 0.27705(8)
C26 C 0.92078(9) 0.95911(9) 0.20133(9)
C27 C 0.90691(9) 0.92455(8) 0.15314(8)
C28 C 0.86074(8) 0.93803(9) 0.12152(9)
H29 H 0.94350 1.01780 0.27540
H30 H 0.96500 0.96700 0.31170
H31 H 0.89700 0.98860 0.21100
H32 H 0.83860 0.96870 0.13160
N5A N 1.03687 1.04939 0.22984
N5G N 0.77016 0.96313 0.04939
N5I N 0.95061 0.77016 0.03687
N5E N 0.77016 1.03687 -0.04939
N5F N 1.22984 1.03687 0.04939
N5J N 1.04939 1.22984 0.03687
N5K N 1.04939 0.77016 -0.03687
N5B N 0.96313 1.04939 -0.22984
N5C N 1.03687 0.95061 -0.22984
N5D N 1.22984 0.96313 -0.04939
N5H N 0.95061 1.22984 -0.03687
C25A C 1.02901 1.01229 0.27705
C25G C 0.72295 0.97099 0.01229
C25I C 0.98771 0.72295 0.02901
C25E C 0.72295 1.02901 -0.01229
C25F C 1.27705 1.02901 0.01229
C25J C 1.01229 1.27705 0.02901
C25K C 1.01229 0.72295 -0.02901
C25B C 0.97099 1.01229 -0.27705
C25C C 1.02901 0.98771 -0.27705
C25D C 1.27705 0.97099 -0.01229
C25H C 0.98771 1.27705 -0.02901
C26A C 1.07922 1.04089 0.20133
C26G C 0.79867 0.92078 0.04089
C26I C 0.95911 0.79867 0.07922
C26E C 0.79867 1.07922 -0.04089
C26F C 1.20133 1.07922 0.04089
C26J C 1.04089 1.20133 0.07922
C26K C 1.04089 0.79867 -0.07922
C26B C 0.92078 1.04089 -0.20133
C26C C 1.07922 0.95911 -0.20133
C26D C 1.20133 0.92078 -0.04089
C26H C 0.95911 1.20133 -0.07922
C27A C 1.09309 1.07545 0.15314
C27G C 0.84686 0.90691 0.07545
C27I C 0.92455 0.84686 0.09309
C27E C 0.84686 1.09309 -0.07545
C27F C 1.15314 1.09309 0.07545
C27J C 1.07545 1.15314 0.09309
C27K C 1.07545 0.84686 -0.09309
C27B C 0.90691 1.07545 -0.15314
C27C C 1.09309 0.92455 -0.15314
C27D C 1.15314 0.90691 -0.07545
C27H C 0.92455 1.15314 -0.09309
C28A C 1.13926 1.06197 0.12152
C28G C 0.87848 0.86074 0.06197
C28I C 0.93803 0.87848 0.13926
C28E C 0.87848 1.13926 -0.06197
C28F C 1.12152 1.13926 0.06197
C28J C 1.06197 1.12152 0.13926
C28K C 1.06197 0.87848 -0.13926
C28B C 0.86074 1.06197 -0.12152
C28C C 1.13926 0.93803 -0.12152
C28D C 1.12152 0.86074 -0.06197
C28H C 0.93803 1.12152 -0.13926
H29A H 1.0565 0.9822 0.2754
H29G H 0.7246 0.9435 -0.0178
H29I H 1.0178 0.7246 0.0565
H29E H 0.7246 1.0565 0.0178
H29F H 1.2754 1.0565 -0.0178
H29J H 0.9822 1.2754 0.0565
H29K H 0.9822 0.7246 -0.0565
H29B H 0.9435 0.9822 -0.2754
H29C H 1.0565 1.0178 -0.2754
H29D H 1.2754 0.9435 0.0178
H29H H 1.0178 1.2754 -0.0565
H30A H 1.035 1.033 0.3117
H30G H 0.6883 0.965 0.033
H30I H 0.967 0.6883 0.035
H30E H 0.6883 1.035 -0.033
H30F H 1.3117 1.035 0.033
H30J H 1.033 1.3117 0.035
H30K H 1.033 0.6883 -0.035
H30B H 0.965 1.033 -0.3117
H30C H 1.035 0.967 -0.3117
H30D H 1.3117 0.965 -0.033
H30H H 0.967 1.3117 -0.035
H31A H 1.103 1.0114 0.211
H31G H 0.789 0.897 0.0114
H31I H 0.9886 0.789 0.103
H31E H 0.789 1.103 -0.0114
H31F H 1.211 1.103 0.0114
H31J H 1.0114 1.211 0.103
H31K H 1.0114 0.789 -0.103
H31B H 0.897 1.0114 -0.211
H31C H 1.103 0.9886 -0.211
H31D H 1.211 0.897 -0.0114
H31H H 0.9886 1.211 -0.103
H32A H 1.1614 1.0313 0.1316
H32G H 0.8684 0.8386 0.0313
H32I H 0.9687 0.8684 0.1614
H32E H 0.8684 1.1614 -0.0313
H32F H 1.1316 1.1614 0.0313
H32J H 1.0313 1.1316 0.1614
H32K H 1.0313 0.8684 -0.1614
H32B H 0.8386 1.0313 -0.1316
H32C H 1.1614 0.9687 -0.1316
H32D H 1.1316 0.8386 -0.0313
H32H H 0.9687 1.1316 -0.1614
N6 N 0.55220(12) 0.28579(10) 0.96767(12)
N7 N 0.74448(13) 0.46950(11) 0.94797(16)
N8 N 0.54273(19) 0.45783(13) 0.77052(13)
C29 C 0.51530(15) 0.24003(12) 0.97288(14)
C30 C 0.54277(14) 0.31863(13) 0.92680(13)
C31 C 0.57820(14) 0.36556(12) 0.91169(14)
C32 C 0.62697(13) 0.37750(12) 0.94181(17)
C33 C 0.66095(13) 0.42040(13) 0.92661(17)
C34 C 0.71101(15) 0.43151(13) 0.9598(2)
C35 C 0.79175(16) 0.47263(16) 0.9840(2)
C36 C 0.64694(15) 0.45083(13) 0.87975(16)
C37 C 0.59896(15) 0.44049(13) 0.85015(14)
C38 C 0.58373(19) 0.47212(15) 0.80049(15)
C39 C 0.5304(2) 0.4921(2) 0.72341(16)
C40 C 0.56505(16) 0.39797(13) 0.86713(15)
H33 H 0.53650 0.20540 0.96950
H34 H 0.48830 0.24110 0.94230
H35 H 0.51090 0.31210 0.90510
H36 H 0.63630 0.35560 0.97290
H37 H 0.71820 0.40920 0.99110
H38 H 0.79100 0.44140 1.01020
H39 H 0.82590 0.46980 0.96190
H40 H 0.67090 0.47940 0.86780
H41 H 0.60470 0.50360 0.79060
H42 H 0.53920 0.47190 0.68910
H43 H 0.55330 0.52580 0.72460
H44 H 0.53190 0.39100 0.84750
N6A N 0.4478 0.71421 0.96767
N6B N 0.5522 0.71421 1.03233
N6C N 0.4478 0.28579 1.03233
N7A N 0.25552 0.5305 0.94797
N7B N 0.74448 0.5305 1.05203
N7C N 0.25552 0.4695 1.05203
N8A N 0.45727 0.54217 0.77052
N8B N 0.54273 0.54217 1.22948
N8C N 0.45727 0.45783 1.22948
C29A C 0.4847 0.75997 0.97288
C29B C 0.5153 0.75997 1.02712
C29C C 0.4847 0.24003 1.02712
C30A C 0.45723 0.68137 0.9268
C30B C 0.54277 0.68137 1.0732
C30C C 0.45723 0.31863 1.0732
C31A C 0.4218 0.63444 0.91169
C31B C 0.5782 0.63444 1.08831
C31C C 0.4218 0.36556 1.08831
C32A C 0.37303 0.6225 0.94181
C32B C 0.62697 0.6225 1.05819
C32C C 0.37303 0.3775 1.05819
C33A C 0.33905 0.5796 0.92661
C33B C 0.66095 0.5796 1.07339
C33C C 0.33905 0.4204 1.07339
C34A C 0.28899 0.56849 0.9598
C34B C 0.71101 0.56849 1.0402
C34C C 0.28899 0.43151 1.0402
C35A C 0.20825 0.52737 0.984
C35B C 0.79175 0.52737 1.016
C35C C 0.20825 0.47263 1.016
C36A C 0.35306 0.54917 0.87975
C36B C 0.64694 0.54917 1.12025
C36C C 0.35306 0.45083 1.12025
C37A C 0.40104 0.55951 0.85015
C37B C 0.59896 0.55951 1.14985
C37C C 0.40104 0.44049 1.14985
C38A C 0.41627 0.52788 0.80049
C38B C 0.58373 0.52788 1.19951
C38C C 0.41627 0.47212 1.19951
C39A C 0.4696 0.5079 0.72341
C39B C 0.5304 0.5079 1.27659
C39C C 0.4696 0.4921 1.27659
C40A C 0.43495 0.60203 0.86713
C40B C 0.56505 0.60203 1.13287
C40C C 0.43495 0.39797 1.13287
H33A H 0.4635 0.7946 0.9695
H33B H 0.5365 0.7946 1.0305
H33C H 0.4635 0.2054 1.0305
H34A H 0.5117 0.7589 0.9423
H34B H 0.4883 0.7589 1.0577
H34C H 0.5117 0.2411 1.0577
H35A H 0.4891 0.6879 0.9051
H35B H 0.5109 0.6879 1.0949
H35C H 0.4891 0.3121 1.0949
H36A H 0.3637 0.6444 0.9729
H36B H 0.6363 0.6444 1.0271
H36C H 0.3637 0.3556 1.0271
H37A H 0.2818 0.5908 0.9911
H37B H 0.7182 0.5908 1.0089
H37C H 0.2818 0.4092 1.0089
H38A H 0.209 0.5586 1.0102
H38B H 0.791 0.5586 0.9898
H38C H 0.209 0.4414 0.9898
H39A H 0.1741 0.5302 0.9619
H39B H 0.8259 0.5302 1.0381
H39C H 0.1741 0.4698 1.0381
H40A H 0.3291 0.5206 0.8678
H40B H 0.6709 0.5206 1.1322
H40C H 0.3291 0.4794 1.1322
H41A H 0.3953 0.4964 0.7906
H41B H 0.6047 0.4964 1.2094
H41C H 0.3953 0.5036 1.2094
H42A H 0.4608 0.5281 0.6891
H42B H 0.5392 0.5281 1.3109
H42C H 0.4608 0.4719 1.3109
H43A H 0.4467 0.4742 0.7246
H43B H 0.5533 0.4742 1.2754
H43C H 0.4467 0.5258 1.2754
H44A H 0.4681 0.609 0.8475
H44B H 0.5319 0.609 1.1525
H44C H 0.4681 0.391 1.1525
N1 N 0.77533(8) 0.98385(7) 0.72771(9)
N2 N 0.68928(9) 0.96980(8) 0.80961(9)
N3 N 0.76990(9) 0.81581(9) 0.51952(8)
N4 N 0.70531(9) 0.71577(9) 0.52470(8)
C1 C 0.73763(9) 1.02800(8) 0.74348(9)
C2 C 0.72064(9) 1.02018(8) 0.80375(9)
C3 C 0.70534(12) 0.93700(10) 0.84744(10)
C4 C 0.67434(13) 0.88581(10) 0.85909(11)
C5 C 0.62643(13) 0.87306(11) 0.83074(12)
C6 C 0.68506(11) 1.06843(9) 0.82376(9)
C7 C 0.71487(11) 1.12284(9) 0.81691(10)
C8 C 0.73131(10) 1.13121(8) 0.75646(10)
C9 C 0.76620(10) 1.08330(9) 0.73534(10)
C10 C 0.76545(9) 0.95651(9) 0.68409(11)
C11 C 0.80197(10) 0.91184(10) 0.66457(12)
C12 C 0.84990(10) 0.89988(10) 0.69418(12)
C13 C 0.78944(10) 0.88289(11) 0.61789(12)
C14 C 0.82477(11) 0.84233(12) 0.59750(12)
C15 C 0.81214(10) 0.80931(11) 0.54792(11)
C16 C 0.76237(10) 0.77888(10) 0.47230(9)
C17 C 0.70552(10) 0.75245(9) 0.47696(9)
C18 C 0.66791(11) 0.72407(11) 0.55936(11)
C19 C 0.66105(12) 0.68853(12) 0.60837(11)
C20 C 0.69653(13) 0.64398(12) 0.61756(13)
C21 C 0.69133(12) 0.71987(12) 0.42527(10)
C22 C 0.69591(12) 0.75569(13) 0.37392(10)
C23 C 0.75311(12) 0.77640(13) 0.36896(10)
C24 C 0.76818(13) 0.81197(12) 0.41940(11)
H1 H 0.70410 1.02640 0.71960
H2 H 0.75450 1.01780 0.82710
H3 H 0.73740 0.94550 0.86830
H4 H 0.61320 0.89740 0.80310
H5 H 0.65020 1.06930 0.80250
H6 H 0.67570 1.06300 0.86310
H7 H 0.69060 1.15340 0.82890
H8 H 0.74820 1.12320 0.84040
H9 H 0.69770 1.13450 0.73360
H10 H 0.75240 1.16590 0.75290
H11 H 0.80190 1.08300 0.75500
H12 H 0.77380 1.08870 0.69560
H13 H 0.73340 0.96510 0.66330
H14 H 0.85810 0.91910 0.72730
H15 H 0.75600 0.89050 0.59900
H16 H 0.83760 0.78160 0.53710
H17 H 0.79120 0.74950 0.47320
H18 H 0.67730 0.78200 0.48250
H19 H 0.64330 0.75400 0.55400
H20 H 0.72670 0.63820 0.59330
H21 H 0.65330 0.70540 0.42840
H22 H 0.71670 0.68810 0.42190
H23 H 0.68620 0.73380 0.34090
H24 H 0.67000 0.78710 0.37660
H25 H 0.75670 0.79870 0.33500
H26 H 0.77890 0.74490 0.36630
H27 H 0.74370 0.84450 0.42090
H28 H 0.80660 0.82520 0.41580
N1D N 0.72771 0.77533 0.98385
N1H N 0.98385 0.72771 0.77533
N2D N 0.80961 0.68928 0.9698
N2H N 0.9698 0.80961 0.68928
N3D N 0.51952 0.7699 0.81581
N3H N 0.81581 0.51952 0.7699
N4D N 0.5247 0.70531 0.71577
N4H N 0.71577 0.5247 0.70531
C1D C 0.74348 0.73763 1.028
C1H C 1.028 0.74348 0.73763
C2D C 0.80375 0.72064 1.02018
C2H C 1.02018 0.80375 0.72064
C3D C 0.84744 0.70534 0.937
C3H C 0.937 0.84744 0.70534
C4D C 0.85909 0.67434 0.88581
C4H C 0.88581 0.85909 0.67434
C5D C 0.83074 0.62643 0.87306
C5H C 0.87306 0.83074 0.62643
C6D C 0.82376 0.68506 1.06843
C6H C 1.06843 0.82376 0.68506
C7D C 0.81691 0.71487 1.12284
C7H C 1.12284 0.81691 0.71487
C8D C 0.75646 0.73131 1.13121
C8H C 1.13121 0.75646 0.73131
C9D C 0.73534 0.7662 1.0833
C9H C 1.0833 0.73534 0.7662
C10D C 0.68409 0.76545 0.95651
C10H C 0.95651 0.68409 0.76545
C11D C 0.66457 0.80197 0.91184
C11H C 0.91184 0.66457 0.80197
C12D C 0.69418 0.8499 0.89988
C12H C 0.89988 0.69418 0.8499
C13D C 0.61789 0.78944 0.88289
C13H C 0.88289 0.61789 0.78944
C14D C 0.5975 0.82477 0.84233
C14H C 0.84233 0.5975 0.82477
C15D C 0.54792 0.81214 0.80931
C15H C 0.80931 0.54792 0.81214
C16D C 0.4723 0.76237 0.77888
C16H C 0.77888 0.4723 0.76237
C17D C 0.47696 0.70552 0.75245
C17H C 0.75245 0.47696 0.70552
C18D C 0.55936 0.66791 0.72407
C18H C 0.72407 0.55936 0.66791
C19D C 0.60837 0.66105 0.68853
C19H C 0.68853 0.60837 0.66105
C20D C 0.61756 0.69653 0.64398
C20H C 0.64398 0.61756 0.69653
C21D C 0.42527 0.69133 0.71987
C21H C 0.71987 0.42527 0.69133
C22D C 0.37392 0.69591 0.75569
C22H C 0.75569 0.37392 0.69591
C23D C 0.36896 0.75311 0.7764
C23H C 0.7764 0.36896 0.75311
C24D C 0.4194 0.76818 0.81197
C24H C 0.81197 0.4194 0.76818
H1D H 0.7196 0.7041 1.0264
H1H H 1.0264 0.7196 0.7041
H2D H 0.8271 0.7545 1.0178
H2H H 1.0178 0.8271 0.7545
H3D H 0.8683 0.7374 0.9455
H3H H 0.9455 0.8683 0.7374
H4D H 0.8031 0.6132 0.8974
H4H H 0.8974 0.8031 0.6132
H5D H 0.8025 0.6502 1.0693
H5H H 1.0693 0.8025 0.6502
H6D H 0.8631 0.6757 1.063
H6H H 1.063 0.8631 0.6757
H7D H 0.8289 0.6906 1.1534
H7H H 1.1534 0.8289 0.6906
H8D H 0.8404 0.7482 1.1232
H8H H 1.1232 0.8404 0.7482
H9D H 0.7336 0.6977 1.1345
H9H H 1.1345 0.7336 0.6977
H10D H 0.7529 0.7524 1.1659
H10H H 1.1659 0.7529 0.7524
H11D H 0.755 0.8019 1.083
H11H H 1.083 0.755 0.8019
H12D H 0.6956 0.7738 1.0887
H12H H 1.0887 0.6956 0.7738
H13D H 0.6633 0.7334 0.9651
H13H H 0.9651 0.6633 0.7334
H14D H 0.7273 0.8581 0.9191
H14H H 0.9191 0.7273 0.8581
H15D H 0.599 0.756 0.8905
H15H H 0.8905 0.599 0.756
H16D H 0.5371 0.8376 0.7816
H16H H 0.7816 0.5371 0.8376
H17D H 0.4732 0.7912 0.7495
H17H H 0.7495 0.4732 0.7912
H18D H 0.4825 0.6773 0.782
H18H H 0.782 0.4825 0.6773
H19D H 0.554 0.6433 0.754
H19H H 0.754 0.554 0.6433
H20D H 0.5933 0.7267 0.6382
H20H H 0.6382 0.5933 0.7267
H21D H 0.4284 0.6533 0.7054
H21H H 0.7054 0.4284 0.6533
H22D H 0.4219 0.7167 0.6881
H22H H 0.6881 0.4219 0.7167
H23D H 0.3409 0.6862 0.7338
H23H H 0.7338 0.3409 0.6862
H24D H 0.3766 0.67 0.7871
H24H H 0.7871 0.3766 0.67
H25D H 0.335 0.7567 0.7987
H25H H 0.7987 0.335 0.7567
H26D H 0.3663 0.7789 0.7449
H26H H 0.7449 0.3663 0.7789
H27D H 0.4209 0.7437 0.8445
H27H H 0.8445 0.4209 0.7437
H28D H 0.4158 0.8066 0.8252
H28H H 0.8252 0.4158 0.8066

#END

