
#######################################################################
#
#                 Cambridge Crystallographic Data Centre
#                                CCDC 
#
#######################################################################
#
# If this CIF has been generated directly or indirectly from an entry in the 
# Cambridge Structural Database, then it will include bibliographic, chemical, 
# crystal, experimental, refinement or atomic coordinate data resulting from 
# the CCDC's data processing and validation procedures. Files generated from 
# CSD entries are Copyright 2015 Cambridge Crystallographic Data Centre. They 
# may be used in bona fide research applications only, and may not be copied or 
# further disseminated in any form, whether machine-readable or not, except for 
# the purposes of generating routine backup copies on your local computer 
# system.
# 
# Files arising from any other source may also contain material that is the 
# copyright of third parties, including the originator, and you should check 
# with the originator concerning the permitted uses of the information 
# contained in this CIF.
#
# For further information on the CCDC and the free tools enCIFer and Mercury
# for validating and visualising CIF files, please visit www.ccdc.cam.ac.uk
#
#######################################################################

data_UTEVEV
_audit_creation_date             2011-10-02
_database_code_depnum_ccdc_archive 'CCDC 793896'
_chemical_formula_moiety         'C72 H84 N12,C48 H48 N12,3.5(C1 H1 Cl3)'
_chemical_name_systematic        
'3,6,10,13,17,20,24,27,30,33,36,39-Dodecaaza-1,8,15,22(1,3,5)-tetrabenzenatricyclo[13.13.6.6^8,22^]tetracontaphane-2,6,9,13,16,20,23,27,29,33,35,39-dodecaene 3,5,9,11,15,17,21,23,26,28,31,33-dodecaaza-1,7,13,19(1,3,5)-tetrabenzena-4,10,16,22,27,32(1,3,5)-hexacyclohexano-bicyclo[17.11.5]tetratriacontaphane-2,5,8,11,14,17,20,23,25,28,30,33-dodecaene chloroform solvate'
_journal_coden_Cambridge         6
_journal_volume                  474
_journal_year                    2011
_journal_page_first              367
_journal_name_full               'Nature (London)'
loop_
_publ_author_name
J.T.A.Jones
T.Hasell
'Xiaofeng Wu'
J.Bacsa
K.E.Jelfs
M.Schmidtmann
S.Y.Chong
D.J.Adams
A.Trewin
F.Schiffman
F.Cora
B.Slater
A.Steiner
G.M.Day
A.I.Cooper
_chemical_absolute_configuration unk
_diffrn_special_details          'High temperature study'
_diffrn_ambient_temperature      295
_exptl_crystal_density_meas      1.05
_exptl_crystal_density_diffrn    1.05
#These two values have been output from a single CSD field.
_refine_ls_R_factor_gt           0.0685
_refine_ls_wR_factor_gt          0.0685
_diffrn_radiation_probe          x-ray
_symmetry_cell_setting           cubic
_symmetry_space_group_name_H-M   'F 2 3'
_symmetry_Int_Tables_number      196
loop_
_symmetry_equiv_pos_site_id
_symmetry_equiv_pos_as_xyz
1 x,y,z
2 -x,-y,z
3 x,-y,-z
4 -x,y,-z
5 z,x,y
6 -z,-x,y
7 z,-x,-y
8 -z,x,-y
9 y,z,x
10 y,-z,-x
11 -y,z,-x
12 -y,-z,x
13 x,1/2+y,1/2+z
14 -x,1/2-y,1/2+z
15 x,1/2-y,1/2-z
16 -x,1/2+y,1/2-z
17 z,1/2+x,1/2+y
18 -z,1/2-x,1/2+y
19 z,1/2-x,1/2-y
20 -z,1/2+x,1/2-y
21 y,1/2+z,1/2+x
22 y,1/2-z,1/2-x
23 -y,1/2+z,1/2-x
24 -y,1/2-z,1/2+x
25 1/2+x,y,1/2+z
26 1/2-x,-y,1/2+z
27 1/2+x,-y,1/2-z
28 1/2-x,y,1/2-z
29 1/2+z,x,1/2+y
30 1/2-z,-x,1/2+y
31 1/2+z,-x,1/2-y
32 1/2-z,x,1/2-y
33 1/2+y,z,1/2+x
34 1/2+y,-z,1/2-x
35 1/2-y,z,1/2-x
36 1/2-y,-z,1/2+x
37 1/2+x,1/2+y,z
38 1/2-x,1/2-y,z
39 1/2+x,1/2-y,-z
40 1/2-x,1/2+y,-z
41 1/2+z,1/2+x,y
42 1/2-z,1/2-x,y
43 1/2+z,1/2-x,-y
44 1/2-z,1/2+x,-y
45 1/2+y,1/2+z,x
46 1/2+y,1/2-z,-x
47 1/2-y,1/2+z,-x
48 1/2-y,1/2-z,x
_cell_length_a                   24.51(8)
_cell_length_b                   24.51(8)
_cell_length_c                   24.51(8)
_cell_angle_alpha                90
_cell_angle_beta                 90
_cell_angle_gamma                90
_cell_volume                     14724.1
_exptl_crystal_colour            colorless
_exptl_crystal_description       prism
_cell_formula_units_Z            4
loop_
_atom_site_label
_atom_site_type_symbol
_atom_site_fract_x
_atom_site_fract_y
_atom_site_fract_z
N2 N 0.0252(2) 0.2124(2) 0.2051(2)
C5 C -0.02143(19) 0.2214(2) 0.2409(3)
C6 C -0.07221(18) 0.2071(3) 0.2090(2)
C7 C -0.12251(17) 0.21986(12) 0.2429(4)
C8 C 0.0562(3) 0.1742(3) 0.2136(3)
C9 C 0.1034(3) 0.1600(4) 0.1812(3)
C10 C 0.1367(4) 0.1146(3) 0.1927(3)
H5 H -0.01860 0.19730 0.27280
H6 H -0.07180 0.16860 0.19960
H7 H -0.07310 0.22790 0.17530
H8 H -0.15520 0.21080 0.22250
H9 H -0.12220 0.19830 0.27610
H10 H 0.04880 0.15220 0.24360
H11 H 0.12870 0.09220 0.22230
N2D N 0.2051 0.0252 0.2124
N2H N 0.2124 0.2051 0.0252
N2N N 0.0252 0.2876 0.2949
N2R N 0.2051 0.4748 0.2876
N2U N 0.2124 0.2949 0.4748
N2EA N 0.2949 0.0252 0.2876
N2HA N 0.2876 0.2051 0.4748
N2OA N 0.2949 0.4748 0.2124
N2UA N 0.2876 0.2949 0.0252
N2AA N 0.4748 0.2124 0.2949
N2KA N 0.4748 0.2876 0.2051
C5D C 0.2409 -0.02143 0.2214
C5H C 0.2214 0.2409 -0.02143
C5N C -0.02143 0.2786 0.2591
C5R C 0.2409 0.52143 0.2786
C5U C 0.2214 0.2591 0.52143
C5EA C 0.2591 -0.02143 0.2786
C5HA C 0.2786 0.2409 0.52143
C5OA C 0.2591 0.52143 0.2214
C5UA C 0.2786 0.2591 -0.02143
C5AA C 0.52143 0.2214 0.2591
C5KA C 0.52143 0.2786 0.2409
C6D C 0.209 -0.07221 0.2071
C6H C 0.2071 0.209 -0.07221
C6N C -0.07221 0.2929 0.291
C6R C 0.209 0.57221 0.2929
C6U C 0.2071 0.291 0.57221
C6EA C 0.291 -0.07221 0.2929
C6HA C 0.2929 0.209 0.57221
C6OA C 0.291 0.57221 0.2071
C6UA C 0.2929 0.291 -0.07221
C6AA C 0.57221 0.2071 0.291
C6KA C 0.57221 0.2929 0.209
C7D C 0.2429 -0.12251 0.21986
C7H C 0.21986 0.2429 -0.12251
C7N C -0.12251 0.28014 0.2571
C7R C 0.2429 0.62251 0.28014
C7U C 0.21986 0.2571 0.62251
C7EA C 0.2571 -0.12251 0.28014
C7HA C 0.28014 0.2429 0.62251
C7OA C 0.2571 0.62251 0.21986
C7UA C 0.28014 0.2571 -0.12251
C7AA C 0.62251 0.21986 0.2571
C7KA C 0.62251 0.28014 0.2429
C8D C 0.2136 0.0562 0.1742
C8H C 0.1742 0.2136 0.0562
C8N C 0.0562 0.3258 0.2864
C8R C 0.2136 0.4438 0.3258
C8U C 0.1742 0.2864 0.4438
C8EA C 0.2864 0.0562 0.3258
C8HA C 0.3258 0.2136 0.4438
C8OA C 0.2864 0.4438 0.1742
C8UA C 0.3258 0.2864 0.0562
C8AA C 0.4438 0.1742 0.2864
C8KA C 0.4438 0.3258 0.2136
C9D C 0.1812 0.1034 0.16
C9H C 0.16 0.1812 0.1034
C9N C 0.1034 0.34 0.3188
C9R C 0.1812 0.3966 0.34
C9U C 0.16 0.3188 0.3966
C9EA C 0.3188 0.1034 0.34
C9HA C 0.34 0.1812 0.3966
C9OA C 0.3188 0.3966 0.16
C9UA C 0.34 0.3188 0.1034
C9AA C 0.3966 0.16 0.3188
C9KA C 0.3966 0.34 0.1812
C10D C 0.1927 0.1367 0.1146
C10H C 0.1146 0.1927 0.1367
C10N C 0.1367 0.3854 0.3073
C10R C 0.1927 0.3633 0.3854
C10U C 0.1146 0.3073 0.3633
C10EA C 0.3073 0.1367 0.3854
C10HA C 0.3854 0.1927 0.3633
C10OA C 0.3073 0.3633 0.1146
C10UA C 0.3854 0.3073 0.1367
C10AA C 0.3633 0.1146 0.3073
C10KA C 0.3633 0.3854 0.1927
H5D H 0.2728 -0.0186 0.1973
H5H H 0.1973 0.2728 -0.0186
H5N H -0.0186 0.3027 0.2272
H5R H 0.2728 0.5186 0.3027
H5U H 0.1973 0.2272 0.5186
H5EA H 0.2272 -0.0186 0.3027
H5HA H 0.3027 0.2728 0.5186
H5OA H 0.2272 0.5186 0.1973
H5UA H 0.3027 0.2272 -0.0186
H5AA H 0.5186 0.1973 0.2272
H5KA H 0.5186 0.3027 0.2728
H6D H 0.1996 -0.0718 0.1686
H6H H 0.1686 0.1996 -0.0718
H6N H -0.0718 0.3314 0.3004
H6R H 0.1996 0.5718 0.3314
H6U H 0.1686 0.3004 0.5718
H6EA H 0.3004 -0.0718 0.3314
H6HA H 0.3314 0.1996 0.5718
H6OA H 0.3004 0.5718 0.1686
H6UA H 0.3314 0.3004 -0.0718
H6AA H 0.5718 0.1686 0.3004
H6KA H 0.5718 0.3314 0.1996
H7D H 0.1753 -0.0731 0.2279
H7H H 0.2279 0.1753 -0.0731
H7N H -0.0731 0.2721 0.3247
H7R H 0.1753 0.5731 0.2721
H7U H 0.2279 0.3247 0.5731
H7EA H 0.3247 -0.0731 0.2721
H7HA H 0.2721 0.1753 0.5731
H7OA H 0.3247 0.5731 0.2279
H7UA H 0.2721 0.3247 -0.0731
H7AA H 0.5731 0.2279 0.3247
H7KA H 0.5731 0.2721 0.1753
H8D H 0.2225 -0.1552 0.2108
H8H H 0.2108 0.2225 -0.1552
H8N H -0.1552 0.2892 0.2775
H8R H 0.2225 0.6552 0.2892
H8U H 0.2108 0.2775 0.6552
H8EA H 0.2775 -0.1552 0.2892
H8HA H 0.2892 0.2225 0.6552
H8OA H 0.2775 0.6552 0.2108
H8UA H 0.2892 0.2775 -0.1552
H8AA H 0.6552 0.2108 0.2775
H8KA H 0.6552 0.2892 0.2225
H9D H 0.2761 -0.1222 0.1983
H9H H 0.1983 0.2761 -0.1222
H9N H -0.1222 0.3017 0.2239
H9R H 0.2761 0.6222 0.3017
H9U H 0.1983 0.2239 0.6222
H9EA H 0.2239 -0.1222 0.3017
H9HA H 0.3017 0.2761 0.6222
H9OA H 0.2239 0.6222 0.1983
H9UA H 0.3017 0.2239 -0.1222
H9AA H 0.6222 0.1983 0.2239
H9KA H 0.6222 0.3017 0.2761
H10D H 0.2436 0.0488 0.1522
H10H H 0.1522 0.2436 0.0488
H10N H 0.0488 0.3478 0.2564
H10R H 0.2436 0.4512 0.3478
H10U H 0.1522 0.2564 0.4512
H10EA H 0.2564 0.0488 0.3478
H10HA H 0.3478 0.2436 0.4512
H10OA H 0.2564 0.4512 0.1522
H10UA H 0.3478 0.2564 0.0488
H10AA H 0.4512 0.1522 0.2564
H10KA H 0.4512 0.3478 0.2436
H11D H 0.2223 0.1287 0.0922
H11H H 0.0922 0.2223 0.1287
H11N H 0.1287 0.4078 0.2777
H11R H 0.2223 0.3713 0.4078
H11U H 0.0922 0.2777 0.3713
H11EA H 0.2777 0.1287 0.4078
H11HA H 0.4078 0.2223 0.3713
H11OA H 0.2777 0.3713 0.0922
H11UA H 0.4078 0.2777 0.1287
H11AA H 0.3713 0.0922 0.2777
H11KA H 0.3713 0.4078 0.2223
N1 N 0.54874(19) 0.22578(19) 0.0361(2)
C1 C 0.5119(3) 0.27088(19) 0.02900(17)
C2 C 0.5386(2) 0.1974(2) 0.0767(2)
C3 C 0.5731(3) 0.1493(2) 0.0904(3)
C4 C 0.6173(3) 0.1347(3) 0.0596(2)
H1 H 0.53110 0.30490 0.03540
H2 H 0.48250 0.26820 0.05530
H3 H 0.50910 0.20620 0.09890
H4 H 0.62610 0.15520 0.02890
N1C N 0.45126 0.22578 -0.0361
N1FA N 0.72578 0.0361 0.04874
N1NA N 0.5361 0.04874 0.22578
N1GA N 0.72578 -0.0361 -0.04874
N1HA N 0.27422 0.0361 -0.04874
N1IA N 0.27422 -0.0361 0.04874
N1OA N 0.4639 -0.04874 0.22578
N1PA N 0.5361 -0.04874 -0.22578
N1QA N 0.4639 0.04874 -0.22578
N1A N 0.45126 -0.22578 0.0361
N1B N 0.54874 -0.22578 -0.0361
C1C C 0.4881 0.27088 -0.029
C1FA C 0.77088 0.029 0.0119
C1NA C 0.529 0.0119 0.27088
C1GA C 0.77088 -0.029 -0.0119
C1HA C 0.22912 0.029 -0.0119
C1IA C 0.22912 -0.029 0.0119
C1OA C 0.471 -0.0119 0.27088
C1PA C 0.529 -0.0119 -0.27088
C1QA C 0.471 0.0119 -0.27088
C1A C 0.4881 -0.27088 0.029
C1B C 0.5119 -0.27088 -0.029
C2C C 0.4614 0.1974 -0.0767
C2FA C 0.6974 0.0767 0.0386
C2NA C 0.5767 0.0386 0.1974
C2GA C 0.6974 -0.0767 -0.0386
C2HA C 0.3026 0.0767 -0.0386
C2IA C 0.3026 -0.0767 0.0386
C2OA C 0.4233 -0.0386 0.1974
C2PA C 0.5767 -0.0386 -0.1974
C2QA C 0.4233 0.0386 -0.1974
C2A C 0.4614 -0.1974 0.0767
C2B C 0.5386 -0.1974 -0.0767
C3C C 0.4269 0.1493 -0.0904
C3FA C 0.6493 0.0904 0.0731
C3NA C 0.5904 0.0731 0.1493
C3GA C 0.6493 -0.0904 -0.0731
C3HA C 0.3507 0.0904 -0.0731
C3IA C 0.3507 -0.0904 0.0731
C3OA C 0.4096 -0.0731 0.1493
C3PA C 0.5904 -0.0731 -0.1493
C3QA C 0.4096 0.0731 -0.1493
C3A C 0.4269 -0.1493 0.0904
C3B C 0.5731 -0.1493 -0.0904
C4C C 0.3827 0.1347 -0.0596
C4FA C 0.6347 0.0596 0.1173
C4NA C 0.5596 0.1173 0.1347
C4GA C 0.6347 -0.0596 -0.1173
C4HA C 0.3653 0.0596 -0.1173
C4IA C 0.3653 -0.0596 0.1173
C4OA C 0.4404 -0.1173 0.1347
C4PA C 0.5596 -0.1173 -0.1347
C4QA C 0.4404 0.1173 -0.1347
C4A C 0.3827 -0.1347 0.0596
C4B C 0.6173 -0.1347 -0.0596
H1C H 0.4689 0.3049 -0.0354
H1FA H 0.8049 0.0354 0.0311
H1NA H 0.5354 0.0311 0.3049
H1GA H 0.8049 -0.0354 -0.0311
H1HA H 0.1951 0.0354 -0.0311
H1IA H 0.1951 -0.0354 0.0311
H1OA H 0.4646 -0.0311 0.3049
H1PA H 0.5354 -0.0311 -0.3049
H1QA H 0.4646 0.0311 -0.3049
H1A H 0.4689 -0.3049 0.0354
H1B H 0.5311 -0.3049 -0.0354
H2C H 0.5175 0.2682 -0.0553
H2FA H 0.7682 0.0553 -0.0175
H2NA H 0.5553 -0.0175 0.2682
H2GA H 0.7682 -0.0553 0.0175
H2HA H 0.2318 0.0553 0.0175
H2IA H 0.2318 -0.0553 -0.0175
H2OA H 0.4447 0.0175 0.2682
H2PA H 0.5553 0.0175 -0.2682
H2QA H 0.4447 -0.0175 -0.2682
H2A H 0.5175 -0.2682 0.0553
H2B H 0.4825 -0.2682 -0.0553
H3C H 0.4909 0.2062 -0.0989
H3FA H 0.7062 0.0989 0.0091
H3NA H 0.5989 0.0091 0.2062
H3GA H 0.7062 -0.0989 -0.0091
H3HA H 0.2938 0.0989 -0.0091
H3IA H 0.2938 -0.0989 0.0091
H3OA H 0.4011 -0.0091 0.2062
H3PA H 0.5989 -0.0091 -0.2062
H3QA H 0.4011 0.0091 -0.2062
H3A H 0.4909 -0.2062 0.0989
H3B H 0.5091 -0.2062 -0.0989
H4C H 0.3739 0.1552 -0.0289
H4FA H 0.6552 0.0289 0.1261
H4NA H 0.5289 0.1261 0.1552
H4GA H 0.6552 -0.0289 -0.1261
H4HA H 0.3448 0.0289 -0.1261
H4IA H 0.3448 -0.0289 0.1261
H4OA H 0.4711 -0.1261 0.1552
H4PA H 0.5289 -0.1261 -0.1552
H4QA H 0.4711 0.1261 -0.1552
H4A H 0.3739 -0.1552 0.0289
H4B H 0.6261 -0.1552 -0.0289

#END

