
#######################################################################
#
#                 Cambridge Crystallographic Data Centre
#                                CCDC 
#
#######################################################################
#
# If this CIF has been generated directly or indirectly from an entry in the 
# Cambridge Structural Database, then it will include bibliographic, chemical, 
# crystal, experimental, refinement or atomic coordinate data resulting from 
# the CCDC's data processing and validation procedures. Files generated from 
# CSD entries are Copyright 2015 Cambridge Crystallographic Data Centre. They 
# may be used in bona fide research applications only, and may not be copied or 
# further disseminated in any form, whether machine-readable or not, except for 
# the purposes of generating routine backup copies on your local computer 
# system.
# 
# Files arising from any other source may also contain material that is the 
# copyright of third parties, including the originator, and you should check 
# with the originator concerning the permitted uses of the information 
# contained in this CIF.
#
# For further information on the CCDC and the free tools enCIFer and Mercury
# for validating and visualising CIF files, please visit www.ccdc.cam.ac.uk
#
#######################################################################

data_LOJMIH
_audit_creation_date             2008-12-19
_database_code_depnum_ccdc_archive 'CCDC 680551'
_chemical_name_common            
'(+)-2,6,9,12,14,15-Hexaethyl-2,6,9,12,14,15-hexaaza-1,4,7,10(1,3,5)-tetrabenzenatricyclo(5.5.2.2$4,10!)hexadecaphane-3,5,8,11,13,16-hexone sesquihydrate'
_chemical_formula_moiety         'C42 H42 N6 O6,1.5(H2 O1)'
_chemical_name_systematic        
'(+)-4,11,18,26,30,34-Hexaethyl-4,11,18,26,30,34-hexaaza-heptacyclo(13.13.2.2^8,22^.1^3,27^.1^6,10^.1^13,17^.1^20,24^)hexatriaconta-1,3(31),6(36),7,9,13(35),14,16,20(32),21,23,27-dodecaene-5,12,19,25,29,33-hexone sesquihydrate'
_journal_coden_Cambridge         35
_journal_volume                  73
_journal_year                    2008
_journal_page_first              5143
_journal_name_full               J.Org.Chem.
loop_
_publ_author_name
H.Masu
K.Katagiri
T.Kato
H.Kagechika
M.Tominaga
I.Azumaya
_chemical_absolute_configuration unk
_diffrn_ambient_temperature      120
_exptl_crystal_density_meas      1.289
_exptl_crystal_density_diffrn    1.289
#These two values have been output from a single CSD field.
_refine_ls_R_factor_gt           0.0501
_refine_ls_wR_factor_gt          0.0501
_diffrn_radiation_probe          x-ray
_symmetry_cell_setting           monoclinic
_symmetry_space_group_name_H-M   'P 21'
_symmetry_Int_Tables_number      4
loop_
_symmetry_equiv_pos_site_id
_symmetry_equiv_pos_as_xyz
1 x,y,z
2 -x,1/2+y,-z
_cell_length_a                   14.5968(13)
_cell_length_b                   17.3664(16)
_cell_length_c                   15.3345(14)
_cell_angle_alpha                90
_cell_angle_beta                 91.5900(10)
_cell_angle_gamma                90
_cell_volume                     3885.71
_exptl_crystal_colour            colorless
_exptl_crystal_description       prismatic
_cell_formula_units_Z            4
loop_
_atom_site_label
_atom_site_type_symbol
_atom_site_fract_x
_atom_site_fract_y
_atom_site_fract_z
C1 C 0.8635(3) 1.1032(2) 0.8998(3)
C2 C 0.9327(3) 1.1051(3) 0.9635(3)
H1 H 0.9179 1.1131 1.0227
C3 C 1.0235(3) 1.0955(2) 0.9415(3)
C4 C 1.0446(3) 1.0828(2) 0.8543(3)
H2 H 1.1066 1.0765 0.8384
C5 C 0.9751(3) 1.0795(2) 0.7911(3)
C6 C 0.8852(3) 1.0906(2) 0.8133(3)
H3 H 0.8380 1.0896 0.7694
C7 C 0.7678(3) 1.1233(3) 0.9259(3)
C8 C 0.6485(3) 1.0979(3) 1.0313(3)
H4 H 0.6492 1.1546 1.0375
H5 H 0.6513 1.0754 1.0906
C9 C 0.5603(3) 1.0742(4) 0.9870(4)
H6 H 0.5584 1.0938 0.9270
H7 H 0.5088 1.0955 1.0188
H8 H 0.5561 1.0179 0.9862
C10 C 1.0977(3) 1.1060(3) 1.0105(3)
C11 C 1.1973(3) 1.0497(3) 1.1239(3)
H9 H 1.2045 1.1048 1.1388
H10 H 1.1738 1.0229 1.1757
C12 C 1.2862(4) 1.0182(6) 1.1040(4)
H11 H 1.2793 0.9642 1.0864
H12 H 1.3269 1.0215 1.1558
H13 H 1.3126 1.0477 1.0562
C13 C 0.9958(3) 1.0722(3) 0.6963(3)
C14 C 0.9909(3) 0.9943(3) 0.5634(3)
H14 H 0.9866 1.0457 0.5357
H15 H 0.9402 0.9624 0.5389
C15 C 1.0798(3) 0.9583(4) 0.5411(3)
H16 H 1.1304 0.9903 0.5639
H17 H 1.0836 0.9541 0.4776
H18 H 1.0840 0.9069 0.5672
C16 C 0.7472(3) 0.9921(2) 0.9801(3)
C17 C 0.7851(3) 0.9530(3) 1.0515(2)
H19 H 0.8033 0.9801 1.1030
C18 C 0.7958(3) 0.8734(3) 1.0461(3)
C19 C 0.7665(3) 0.8326(3) 0.9721(2)
H20 H 0.7718 0.7781 0.9700
C20 C 0.7296(3) 0.8731(3) 0.9014(2)
C21 C 0.7205(3) 0.9528(3) 0.9049(3)
H21 H 0.6961 0.9802 0.8559
C22 C 0.8352(3) 0.8283(3) 1.1224(3)
C23 C 0.9689(4) 0.7891(3) 1.2105(3)
H22 H 0.9803 0.7365 1.1885
H23 H 0.9244 0.7849 1.2578
C24 C 1.0559(4) 0.8201(5) 1.2478(5)
H24 H 1.1016 0.8226 1.2023
H25 H 1.0783 0.7864 1.2950
H26 H 1.0455 0.8719 1.2709
C25 C 1.0908(3) 0.9671(2) 1.0340(3)
C26 C 1.1249(3) 0.9205(3) 0.9690(3)
H27 H 1.1735 0.9382 0.9342
C27 C 1.0875(3) 0.8478(3) 0.9550(2)
C28 C 1.0184(3) 0.8217(3) 1.0089(3)
H28 H 0.9918 0.7724 0.9990
C29 C 0.9884(3) 0.8669(3) 1.0767(3)
C30 C 1.0242(3) 0.9405(3) 1.0890(3)
H29 H 1.0032 0.9723 1.1348
C31 C 1.1270(3) 0.7934(3) 0.8911(3)
C32 C 1.1008(3) 0.7092(3) 0.7636(3)
H30 H 1.1571 0.6849 0.7883
H31 H 1.1154 0.7310 0.7060
C33 C 1.0272(4) 0.6483(3) 0.7516(3)
H32 H 1.0093 0.6293 0.8088
H33 H 1.0511 0.6055 0.7173
H34 H 0.9738 0.6707 0.7210
C34 C 0.9557(3) 0.9355(3) 0.7070(3)
C35 C 0.8653(3) 0.9135(3) 0.7106(3)
H35 H 0.8190 0.9435 0.6821
C36 C 0.8416(3) 0.8472(3) 0.7559(2)
C37 C 0.9084(3) 0.8021(3) 0.7965(2)
H36 H 0.8920 0.7577 0.8287
C38 C 1.0003(3) 0.8230(3) 0.7895(3)
C39 C 1.0242(3) 0.8898(3) 0.7455(3)
H37 H 1.0868 0.9042 0.7417
C40 C 0.7438(3) 0.8217(3) 0.7535(3)
C41 C 0.5996(3) 0.8048(3) 0.8259(3)
H38 H 0.5706 0.8139 0.7677
H39 H 0.5652 0.8345 0.8692
C42 C 0.5942(4) 0.7202(4) 0.8475(4)
H40 H 0.6228 0.6902 0.8014
H41 H 0.5298 0.7050 0.8517
H42 H 0.6265 0.7104 0.9033
N1 N 0.7304(2) 1.0740(2) 0.9847(2)
N2 N 1.1295(3) 1.0421(2) 1.0510(2)
N3 N 0.9796(2) 1.0028(2) 0.6587(2)
N4 N 0.9270(2) 0.8352(2) 1.1389(2)
N5 N 1.0718(2) 0.7729(2) 0.8227(2)
N6 N 0.6952(2) 0.8318(2) 0.8260(2)
O1 O 0.7308(2) 1.1825(2) 0.9008(2)
O2 O 1.1262(2) 1.17055(19) 1.0291(2)
O3 O 1.0228(3) 1.1274(2) 0.6550(2)
O4 O 0.7852(2) 0.7879(2) 1.16738(19)
O5 O 1.2046(3) 0.7663(3) 0.9038(2)
O6 O 0.7100(2) 0.7923(2) 0.6873(2)
C43 C 0.2966(3) 0.3639(3) 0.5973(3)
C44 C 0.3363(3) 0.3662(3) 0.6804(3)
H43 H 0.2984 0.3654 0.7298
C45 C 0.4307(3) 0.3698(3) 0.6920(3)
C46 C 0.4852(3) 0.3739(3) 0.6184(3)
H44 H 0.5500 0.3760 0.6256
C47 C 0.4456(4) 0.3750(3) 0.5346(3)
C48 C 0.3524(4) 0.3697(3) 0.5242(3)
H45 H 0.3252 0.3699 0.4672
C49 C 0.1947(4) 0.3605(3) 0.5842(3)
C50 C 0.0594(3) 0.2824(3) 0.5452(3)
H46 H 0.0293 0.3327 0.5547
H47 H 0.0354 0.2454 0.5881
C51 C 0.0356(4) 0.2545(4) 0.4546(3)
H48 H 0.0630 0.2889 0.4119
H49 H -0.0311 0.2542 0.4457
H50 H 0.0595 0.2022 0.4471
C52 C 0.4721(3) 0.3761(3) 0.7807(3)
C53 C 0.5767(3) 0.3227(3) 0.8930(3)
H51 H 0.5966 0.3767 0.9016
H52 H 0.6322 0.2901 0.8914
C54 C 0.5206(4) 0.2988(4) 0.9677(3)
H53 H 0.4646 0.3299 0.9685
H54 H 0.5558 0.3064 1.0223
H55 H 0.5043 0.2443 0.9615
C55 C 0.5036(4) 0.3925(3) 0.4566(3)
C56 C 0.6155(3) 0.3574(3) 0.3518(3)
H56 H 0.5952 0.3233 0.3033
H57 H 0.6044 0.4113 0.3333
C57 C 0.7134(4) 0.3465(4) 0.3686(4)
H58 H 0.7328 0.3763 0.4201
H59 H 0.7472 0.3640 0.3180
H60 H 0.7260 0.2918 0.3790
C58 C 0.2128(3) 0.2209(3) 0.5621(3)
C59 C 0.2258(3) 0.1817(3) 0.6415(3)
H61 H 0.2036 0.2027 0.6941
C60 C 0.2717(3) 0.1117(3) 0.6417(2)
C61 C 0.3050(3) 0.0809(3) 0.5654(3)
H62 H 0.3361 0.0328 0.5659
C62 C 0.2919(3) 0.1224(3) 0.4877(3)
C63 C 0.2461(3) 0.1913(3) 0.4857(3)
H63 H 0.2373 0.2184 0.4323
C64 C 0.2753(3) 0.0658(3) 0.7251(2)
C65 C 0.3444(3) 0.0432(3) 0.8683(3)
H64 H 0.2805 0.0404 0.8881
H65 H 0.3796 0.0756 0.9104
C66 C 0.3847(4) -0.0368(3) 0.8690(3)
H66 H 0.3456 -0.0710 0.8334
H67 H 0.3885 -0.0561 0.9290
H68 H 0.4462 -0.0352 0.8450
C67 C 0.5139(3) 0.2400(2) 0.7738(2)
C68 C 0.5850(3) 0.2044(2) 0.7314(2)
H69 H 0.6402 0.2317 0.7218
C69 C 0.5756(3) 0.1286(2) 0.7029(2)
C70 C 0.4952(3) 0.0888(3) 0.7178(2)
H70 H 0.4887 0.0370 0.6987
C71 C 0.4243(3) 0.1243(2) 0.7605(2)
C72 C 0.4334(3) 0.1999(3) 0.7881(3)
H71 H 0.3845 0.2243 0.8170
C73 C 0.6540(3) 0.0883(3) 0.6615(2)
C74 C 0.7504(3) 0.0714(3) 0.5348(3)
H72 H 0.7248 0.0295 0.4978
H73 H 0.7921 0.0478 0.5792
C75 C 0.8046(4) 0.1245(4) 0.4791(4)
H74 H 0.7645 0.1461 0.4330
H75 H 0.8546 0.0959 0.4528
H76 H 0.8301 0.1664 0.5152
C76 C 0.5512(3) 0.2608(3) 0.4522(3)
C77 C 0.4819(3) 0.2186(3) 0.4137(3)
H77 H 0.4380 0.2433 0.3763
C78 C 0.4753(3) 0.1398(3) 0.4292(3)
C79 C 0.5398(3) 0.1048(3) 0.4838(3)
H78 H 0.5373 0.0509 0.4935
C80 C 0.6080(3) 0.1483(3) 0.5242(3)
C81 C 0.6136(3) 0.2260(3) 0.5075(3)
H79 H 0.6611 0.2557 0.5345
C82 C 0.4068(3) 0.0923(3) 0.3791(3)
C83 C 0.2510(4) 0.0481(5) 0.3540(4)
H80 H 0.1896 0.0656 0.3714
H81 H 0.2584 0.0627 0.2922
C84 C 0.2552(5) -0.0329(6) 0.3610(5)
H82 H 0.2577 -0.0476 0.4227
H83 H 0.3102 -0.0518 0.3326
H84 H 0.2006 -0.0555 0.3325
N7 N 0.1593(3) 0.2910(2) 0.5602(2)
N8 N 0.5253(2) 0.3162(2) 0.8084(2)
N9 N 0.5601(3) 0.3408(2) 0.4292(2)
N10 N 0.3446(2) 0.0805(2) 0.7821(2)
N11 N 0.6742(2) 0.1099(2) 0.5797(2)
N12 N 0.3203(3) 0.0882(3) 0.4072(2)
O7 O 0.1479(3) 0.4177(2) 0.5955(3)
O8 O 0.4608(2) 0.43354(19) 0.8264(2)
O9 O 0.4946(6) 0.4534(3) 0.4187(4)
O10 O 0.2149(2) 0.01848(19) 0.74038(19)
O11 O 0.6986(2) 0.0401(2) 0.70238(18)
O12 O 0.4285(3) 0.0577(2) 0.3138(2)

#END

