
#######################################################################
#
#                 Cambridge Crystallographic Data Centre
#                                CCDC 
#
#######################################################################
#
# If this CIF has been generated directly or indirectly from an entry in the 
# Cambridge Structural Database, then it will include bibliographic, chemical, 
# crystal, experimental, refinement or atomic coordinate data resulting from 
# the CCDC's data processing and validation procedures. Files generated from 
# CSD entries are Copyright 2015 Cambridge Crystallographic Data Centre. They 
# may be used in bona fide research applications only, and may not be copied or 
# further disseminated in any form, whether machine-readable or not, except for 
# the purposes of generating routine backup copies on your local computer 
# system.
# 
# Files arising from any other source may also contain material that is the 
# copyright of third parties, including the originator, and you should check 
# with the originator concerning the permitted uses of the information 
# contained in this CIF.
#
# For further information on the CCDC and the free tools enCIFer and Mercury
# for validating and visualising CIF files, please visit www.ccdc.cam.ac.uk
#
#######################################################################

data_FOQTOW
_audit_creation_date             2014-11-11
_database_code_depnum_ccdc_archive 'CCDC 1027976'
_chemical_name_common            
'tris(methoxy)-cryptophane-111 nitormethane solvate'
_chemical_formula_moiety         'C48 H42 O9,0.67(C1 H3 N1 O2)'
_chemical_name_systematic        
'7,33,40-trimethoxy-9,11,29,31,41,43-hexaoxadecacyclo[19.19.3.3^8,35^.3^15,28^.1^12,16^.1^32,36^.0^3,38^.0^5,46^.0^18,23^.0^25,49^]henpentaconta-1(40),2,5,7,12(51),13,15,18,20,22,25,27,32(44),33,35,38,46,48-octadecaene nitromethane solvate'
_journal_coden_Cambridge         182
_journal_volume                  50
_journal_year                    2014
_journal_page_first              15905
_journal_name_full               Chem.Commun.
loop_
_publ_author_name
A.I.Joseph
G.El-Ayle
C.Boutin
E.Leonce
P.Berthault
'K.Travis Holman'
_chemical_absolute_configuration unk
_diffrn_ambient_temperature      100
_exptl_crystal_density_meas      1.325
_exptl_crystal_density_diffrn    1.326
#These two values have been output from a single CSD field.
_refine_ls_R_factor_gt           0.0507
_refine_ls_wR_factor_gt          0.0507
_diffrn_radiation_probe          x-ray
_symmetry_cell_setting           monoclinic
_symmetry_space_group_name_H-M   'P 21/c'
_symmetry_Int_Tables_number      14
loop_
_symmetry_equiv_pos_site_id
_symmetry_equiv_pos_as_xyz
1 x,y,z
2 -x,1/2+y,1/2-z
3 -x,-y,-z
4 x,1/2-y,1/2+z
_cell_length_a                   10.5024(14)
_cell_length_b                   29.658(4)
_cell_length_c                   19.900(3)
_cell_angle_alpha                90
_cell_angle_beta                 102.954(2)
_cell_angle_gamma                90
_cell_volume                     6040.71
_exptl_crystal_colour            colorless
_exptl_crystal_description       cube
_cell_formula_units_Z            6
_exptl_crystal_recrystallization_method nitromethane
loop_
_atom_site_label
_atom_site_type_symbol
_atom_site_fract_x
_atom_site_fract_y
_atom_site_fract_z
O1 O 0.4239(5) 0.17645(17) 0.2633(3)
O2 O 0.3057(3) 0.22802(12) 0.20066(16)
N1 N 0.3284(5) 0.20172(19) 0.2490(3)
C1 C 0.2353(4) 0.19901(16) 0.2953(2)
H1 H 0.2720 0.2149 0.3385
H2 H 0.2203 0.1673 0.3052
H3 H 0.1522 0.2131 0.2727
O3 O 0.63211(13) -0.25496(4) 0.03902(7)
O4 O 0.67186(12) -0.20383(4) 0.14751(6)
O5 O 0.35898(12) -0.00110(4) 0.19392(6)
O6 O 0.12107(11) 0.00905(4) 0.10623(6)
O7 O -0.09672(12) -0.15160(5) -0.15369(8)
O8 O 0.05401(13) -0.21786(5) -0.18666(7)
O9 O 0.63682(12) -0.14686(5) 0.22670(6)
O10 O 0.11456(14) -0.26853(5) -0.09770(8)
O11 O -0.03954(11) -0.03687(4) 0.13293(6)
C2 C 0.55776(15) -0.11720(5) 0.01229(8)
C3 C 0.52456(15) -0.14529(6) -0.04508(8)
C4 C 0.55065(15) -0.19150(6) -0.03658(9)
H4 H 0.5324 -0.2106 -0.0759
C5 C 0.60213(16) -0.21006(5) 0.02727(9)
C6 C 0.62684(16) -0.18212(6) 0.08512(8)
C7 C 0.60766(15) -0.13658(6) 0.07703(8)
H5 H 0.6288 -0.1176 0.1164
C8 C 0.54618(16) -0.06627(5) 0.00904(9)
H6 H 0.5412 -0.0565 -0.0391
H7 H 0.6266 -0.0531 0.0380
C9 C 0.6407(2) -0.28152(7) -0.01939(13)
H8 H 0.5534 -0.2853 -0.0490
H9 H 0.6773 -0.3111 -0.0040
H10 H 0.6974 -0.2664 -0.0453
C10 C 0.30688(15) -0.04081(5) -0.01179(8)
C11 C 0.42900(15) -0.04735(5) 0.03255(8)
C12 C 0.44643(16) -0.03498(5) 0.10173(9)
H11 H 0.5295 -0.0392 0.1319
C13 C 0.34601(16) -0.01668(5) 0.12764(8)
C14 C 0.22277(16) -0.01214(5) 0.08375(8)
C15 C 0.20476(16) -0.02378(5) 0.01525(8)
H12 H 0.1208 -0.0201 -0.0144
C16 C 0.28153(16) -0.04956(6) -0.08907(8)
H13 H 0.2186 -0.0268 -0.1131
H14 H 0.3643 -0.0452 -0.1042
C17 C 0.48959(19) 0.00292(8) 0.23396(10)
H15 H 0.5306 -0.0269 0.2399
H16 H 0.4881 0.0156 0.2793
H17 H 0.5397 0.0228 0.2102
C18 C 0.30633(16) -0.13158(6) -0.12535(8)
C19 C 0.22868(16) -0.09603(6) -0.11163(8)
C20 C 0.09327(16) -0.10226(6) -0.12008(8)
H18 H 0.0413 -0.0781 -0.1098
C21 C 0.03432(17) -0.14264(7) -0.14301(9)
C22 C 0.11261(18) -0.17796(7) -0.15775(10)
C23 C 0.24499(17) -0.17245(6) -0.14829(8)
H19 H 0.2965 -0.1970 -0.1575
C24 C 0.45431(16) -0.12896(6) -0.11587(8)
H20 H 0.4813 -0.1476 -0.1516
H21 H 0.4799 -0.0974 -0.1222
C25 C -0.17863(19) -0.11693(8) -0.13650(12)
H22 H -0.1458 -0.1078 -0.0884
H23 H -0.2681 -0.1283 -0.1426
H24 H -0.1781 -0.0909 -0.1667
C26 C 0.32713(17) -0.20885(6) 0.22234(9)
C27 C 0.26015(17) -0.17537(6) 0.24998(8)
C28 C 0.32550(17) -0.13539(6) 0.27223(8)
H25 H 0.2824 -0.1131 0.2933
C29 C 0.45045(17) -0.12706(7) 0.26473(9)
H26 H 0.4918 -0.0991 0.2791
C30 C 0.51512(17) -0.15993(7) 0.23599(8)
C31 C 0.45571(17) -0.20082(6) 0.21675(9)
H27 H 0.5026 -0.2238 0.1995
C32 C 0.26583(19) -0.25348(6) 0.19508(10)
H28 H 0.1906 -0.2596 0.2161
H29 H 0.3306 -0.2778 0.2097
C33 C 0.09137(18) -0.24469(6) 0.08227(10)
C34 C 0.21926(18) -0.25499(6) 0.11712(10)
C35 C 0.30741(19) -0.26789(6) 0.07722(10)
H30 H 0.3945 -0.2752 0.0999
C36 C 0.27251(19) -0.27042(6) 0.00638(11)
H31 H 0.3354 -0.2784 -0.0192
C37 C 0.14531(19) -0.26121(6) -0.02720(11)
C38 C 0.05525(18) -0.24898(7) 0.01079(11)
H32 H -0.0328 -0.2434 -0.0123
C39 C -0.01364(18) -0.22853(6) 0.11852(10)
H33 H -0.1001 -0.2390 0.0924
H34 H 0.0023 -0.2420 0.1652
C40 C 0.03945(16) -0.15477(6) 0.18608(8)
C41 C -0.01561(16) -0.17749(6) 0.12469(9)
C42 C -0.07530(16) -0.15180(6) 0.06722(9)
H35 H -0.1137 -0.1668 0.0254
C43 C -0.08019(17) -0.10533(6) 0.06928(9)
H36 H -0.1195 -0.0887 0.0292
C44 C -0.02717(15) -0.08342(6) 0.13030(9)
C45 C 0.02950(16) -0.10796(6) 0.18824(8)
H37 H 0.0624 -0.0926 0.2305
C46 C 0.11613(17) -0.17813(6) 0.25002(9)
H38 H 0.0888 -0.2101 0.2502
H39 H 0.0994 -0.1633 0.2918
C47 C 0.72211(18) -0.17866(8) 0.20774(9)
H40 H 0.7498 -0.2000 0.2465
H41 H 0.8012 -0.1626 0.2014
C48 C 0.0083(2) -0.24546(8) -0.13958(11)
H42 H -0.0557 -0.2674 -0.1649
H43 H -0.0359 -0.2267 -0.1105
C49 C 0.07526(17) -0.01203(6) 0.16006(8)
H44 H 0.1434 -0.0325 0.1859
H45 H 0.0568 0.0111 0.1924
O12? O 0.3676(17) 0.1995(4) 0.2345(6)
O13? O 0.4116(7) 0.1362(3) 0.2875(4)
N2? N 0.3554(8) 0.1721(3) 0.2781(4)
C50? C 0.2589(8) 0.1812(3) 0.3199(4)
H46? H 0.2783 0.2103 0.3433
H47? H 0.2631 0.1573 0.3543
H48? H 0.1711 0.1821 0.2899
O14? O -0.3742(13) 0.0808(2) 0.5567(7)
O15? O -0.2156(3) 0.11467(12) 0.3376(3)
O16? O -0.1790(2) -0.06216(9) 0.65464(12)
O17? O 0.2951(3) -0.10220(9) 0.63945(13)
O18? O 0.4508(2) -0.06958(8) 0.55764(13)
O19? O 0.1727(3) 0.09780(12) 0.33135(14)
O20? O -0.0267(3) 0.15601(11) 0.34635(16)
O21? O 0.3703(13) -0.0950(2) 0.4471(6)
O22? O -0.3044(2) 0.00444(8) 0.61831(12)
C51? C 0.022(2) 0.0622(5) 0.6490(11)
C52? C -0.019(3) 0.1035(10) 0.6113(10)
C53? C -0.1504(14) 0.1098(6) 0.5787(7)
H49? H -0.1747 0.1368 0.5534
C54? C -0.255(2) 0.0759(9) 0.5818(15)
C55? C -0.1999(18) 0.0372(4) 0.6212(8)
C56? C -0.077(2) 0.0303(6) 0.6540(7)
H50? H -0.0547 0.0039 0.6812
C57? C -0.0905(18) -0.1332(5) 0.3981(11)
H51? H -0.0489 -0.1632 0.4065
H52? H -0.1646 -0.1348 0.3575
C58? C 0.3974(4) -0.10682(12) 0.51691(18)
H53? H 0.4600 -0.1322 0.5252
H54? H 0.3160 -0.1167 0.5299
C59? C -0.1384(12) -0.1149(4) 0.4667(8)
C60? C -0.2393(6) -0.08463(18) 0.4658(3)
C61? C -0.2578(4) -0.06795(15) 0.5295(2)
H55? H -0.3285 -0.0480 0.5297
C62? C -0.1762(4) -0.07983(14) 0.5909(2)
C63? C -0.0754(5) -0.10981(13) 0.5938(2)
H56? H -0.0207 -0.1185 0.6366
C64? C -0.0563(7) -0.12683(18) 0.5321(5)
H57? H 0.0139 -0.1472 0.5331
C65? C -0.3258(6) -0.0660(3) 0.4015(3)
H58? H -0.3226 -0.0864 0.3627
H59? H -0.4169 -0.0656 0.4074
C66? C -0.2831(4) -0.03414(12) 0.66110(18)
H60? H -0.2680 -0.0240 0.7097
H61? H -0.3641 -0.0524 0.6514
C67? C -0.2904(6) -0.0195(2) 0.3830(3)
C68? C -0.2100(8) -0.0104(3) 0.3380(4)
C69? C -0.1866(5) 0.03389(18) 0.3210(3)
H62? H -0.1360 0.0395 0.2879
C70? C -0.2353(4) 0.06953(16) 0.3510(2)
C71? C -0.3147(7) 0.0603(2) 0.3968(3)
H63? H -0.3504 0.0846 0.4178
C72? C -0.3422(5) 0.0173(2) 0.4120(2)
H64? H -0.3977 0.0120 0.4430
C73? C 0.1620(15) 0.0528(5) 0.6886(8)
H65? H 0.1604 0.0387 0.7334
H66? H 0.2106 0.0816 0.6977
C74? C -0.1144(5) 0.12757(17) 0.3050(2)
H67? H -0.0681 0.1003 0.2945
H68? H -0.1528 0.1429 0.2610
C75? C 0.2331(7) 0.0208(3) 0.6465(4)
C76? C 0.3073(5) 0.0360(2) 0.6017(3)
C77? C 0.3736(4) 0.00422(15) 0.5703(2)
H69? H 0.4248 0.0143 0.5395
C78? C 0.3670(4) -0.0414(2) 0.5828(2)
C79? C 0.2907(6) -0.05745(19) 0.6279(3)
C80? C 0.2250(5) -0.02542(17) 0.6583(2)
H70? H 0.1723 -0.0354 0.6885
C81? C 0.3222(6) 0.08517(19) 0.5846(3)
H71? H 0.4110 0.0899 0.5767
H72? H 0.3145 0.1037 0.6249
C82? C 0.2757(5) -0.11614(14) 0.7049(2)
H73? H 0.3365 -0.0999 0.7414
H74? H 0.2916 -0.1486 0.7105
H75? H 0.1857 -0.1095 0.7078
C83? C 0.2234(7) 0.10183(18) 0.5220(3)
C84? C 0.1119(13) 0.1263(4) 0.5269(8)
C85? C 0.0325(6) 0.1427(2) 0.4680(3)
H76? H -0.0395 0.1613 0.4713
C86? C 0.0546(5) 0.1328(2) 0.4043(2)
C87? C 0.1601(5) 0.1062(2) 0.3978(2)
C88? C 0.2460(4) 0.09156(16) 0.4567(2)
H77? H 0.3207 0.0745 0.4531
C89? C 0.0827(15) 0.1343(4) 0.5913(10)
H78? H 0.0519 0.1658 0.5920
H79? H 0.1647 0.1318 0.6272
C90? C 0.2911(6) 0.07741(16) 0.3243(2)
H80? H 0.3646 0.0971 0.3444
H81? H 0.2887 0.0727 0.2753
H82? H 0.3017 0.0483 0.3483
C91? C 0.008(3) -0.0972(10) 0.3884(13)
C92? C -0.008(2) -0.0608(7) 0.3476(11)
C93? C 0.094(2) -0.0331(6) 0.3467(8)
H83? H 0.0757 -0.0057 0.3216
C94? C 0.225(2) -0.0420(6) 0.3805(10)
H84? H 0.2973 -0.0230 0.3797
C95? C 0.2307(19) -0.0828(8) 0.4152(14)
C96? C 0.1369(15) -0.1087(5) 0.4194(7)
H85? H 0.1544 -0.1362 0.4440
C97? C -0.1425(17) -0.0470(6) 0.3071(9)
H86? H -0.1346 -0.0370 0.2608
H87? H -0.1992 -0.0740 0.3008
C98? C -0.4196(4) 0.12560(14) 0.5360(2)
H88? H -0.3943 0.1462 0.5752
H89? H -0.5150 0.1254 0.5203
H90? H -0.3804 0.1357 0.4983

#END

