####################################################################### 
# 
# This file contains crystal structure data downloaded from the 
# Cambridge Structural Database (CSD) hosted by the Cambridge 
# Crystallographic Data Centre (CCDC).
# 
# Full information about CCDC data access policies and citation 
# guidelines are available at http://www.ccdc.cam.ac.uk/access/V1 
# 
# Audit and citation data items may have been added by the CCDC. 
# Please retain this information to preserve the provenance of 
# this file and to allow appropriate attribution of the data. 
# 
#######################################################################

data_sqzdIRMOF51c
_audit_block_doi                 10.5517/cc95qdk
_database_code_depnum_ccdc_archive 'CCDC 273618'
loop_
_citation_id
_citation_doi
_citation_year
1 10.1021/ja042802q 2005
_audit_update_record             
;
2005-06-01 deposited with the CCDC.	2019-02-14 downloaded from the CCDC.
;

_audit_creation_method           SHELXL-97
_chemical_name_systematic        
;
?
;
_chemical_name_common            IRMOF-51c
_chemical_melting_point          ?
_chemical_formula_moiety         'C144 H108 Fe12 N12 O76 S12'
_chemical_formula_sum            'C144 H108 Fe12 N12 O76 S12'
_chemical_formula_weight         4277.34

loop_
_atom_type_symbol
_atom_type_description
_atom_type_scat_dispersion_real
_atom_type_scat_dispersion_imag
_atom_type_scat_source
C C 0.0033 0.0016 'International Tables Vol C Tables 4.2.6.8 and 6.1.1.4'
H H 0.0000 0.0000 'International Tables Vol C Tables 4.2.6.8 and 6.1.1.4'
N N 0.0061 0.0033 'International Tables Vol C Tables 4.2.6.8 and 6.1.1.4'
O O 0.0106 0.0060 'International Tables Vol C Tables 4.2.6.8 and 6.1.1.4'
S S 0.1246 0.1234 'International Tables Vol C Tables 4.2.6.8 and 6.1.1.4'
Fe Fe 0.3463 0.8444 'International Tables Vol C Tables 4.2.6.8 and 6.1.1.4'

_symmetry_cell_setting           cubic
_symmetry_space_group_name_H-M   F-43m

loop_
_symmetry_equiv_pos_as_xyz
'x, y, z'
'-x, -y, z'
'-x, y, -z'
'x, -y, -z'
'z, x, y'
'z, -x, -y'
'-z, -x, y'
'-z, x, -y'
'y, z, x'
'-y, z, -x'
'y, -z, -x'
'-y, -z, x'
'y, x, z'
'-y, -x, z'
'y, -x, -z'
'-y, x, -z'
'x, z, y'
'-x, z, -y'
'-x, -z, y'
'x, -z, -y'
'z, y, x'
'z, -y, -x'
'-z, y, -x'
'-z, -y, x'
'x, y+1/2, z+1/2'
'-x, -y+1/2, z+1/2'
'-x, y+1/2, -z+1/2'
'x, -y+1/2, -z+1/2'
'z, x+1/2, y+1/2'
'z, -x+1/2, -y+1/2'
'-z, -x+1/2, y+1/2'
'-z, x+1/2, -y+1/2'
'y, z+1/2, x+1/2'
'-y, z+1/2, -x+1/2'
'y, -z+1/2, -x+1/2'
'-y, -z+1/2, x+1/2'
'y, x+1/2, z+1/2'
'-y, -x+1/2, z+1/2'
'y, -x+1/2, -z+1/2'
'-y, x+1/2, -z+1/2'
'x, z+1/2, y+1/2'
'-x, z+1/2, -y+1/2'
'-x, -z+1/2, y+1/2'
'x, -z+1/2, -y+1/2'
'z, y+1/2, x+1/2'
'z, -y+1/2, -x+1/2'
'-z, y+1/2, -x+1/2'
'-z, -y+1/2, x+1/2'
'x+1/2, y, z+1/2'
'-x+1/2, -y, z+1/2'
'-x+1/2, y, -z+1/2'
'x+1/2, -y, -z+1/2'
'z+1/2, x, y+1/2'
'z+1/2, -x, -y+1/2'
'-z+1/2, -x, y+1/2'
'-z+1/2, x, -y+1/2'
'y+1/2, z, x+1/2'
'-y+1/2, z, -x+1/2'
'y+1/2, -z, -x+1/2'
'-y+1/2, -z, x+1/2'
'y+1/2, x, z+1/2'
'-y+1/2, -x, z+1/2'
'y+1/2, -x, -z+1/2'
'-y+1/2, x, -z+1/2'
'x+1/2, z, y+1/2'
'-x+1/2, z, -y+1/2'
'-x+1/2, -z, y+1/2'
'x+1/2, -z, -y+1/2'
'z+1/2, y, x+1/2'
'z+1/2, -y, -x+1/2'
'-z+1/2, y, -x+1/2'
'-z+1/2, -y, x+1/2'
'x+1/2, y+1/2, z'
'-x+1/2, -y+1/2, z'
'-x+1/2, y+1/2, -z'
'x+1/2, -y+1/2, -z'
'z+1/2, x+1/2, y'
'z+1/2, -x+1/2, -y'
'-z+1/2, -x+1/2, y'
'-z+1/2, x+1/2, -y'
'y+1/2, z+1/2, x'
'-y+1/2, z+1/2, -x'
'y+1/2, -z+1/2, -x'
'-y+1/2, -z+1/2, x'
'y+1/2, x+1/2, z'
'-y+1/2, -x+1/2, z'
'y+1/2, -x+1/2, -z'
'-y+1/2, x+1/2, -z'
'x+1/2, z+1/2, y'
'-x+1/2, z+1/2, -y'
'-x+1/2, -z+1/2, y'
'x+1/2, -z+1/2, -y'
'z+1/2, y+1/2, x'
'z+1/2, -y+1/2, -x'
'-z+1/2, y+1/2, -x'
'-z+1/2, -y+1/2, x'

_cell_length_a                   38.508(9)
_cell_length_b                   38.508(9)
_cell_length_c                   38.508(9)
_cell_angle_alpha                90.00
_cell_angle_beta                 90.00
_cell_angle_gamma                90.00
_cell_volume                     57101.8(231)
_cell_formula_units_Z            4
_cell_measurement_temperature    153(2)
_cell_measurement_reflns_used    999
_cell_measurement_theta_min      3.0
_cell_measurement_theta_max      22.00

_exptl_crystal_description       cube
_exptl_crystal_colour            orange
_exptl_crystal_size_max          0.2
_exptl_crystal_size_mid          0.2
_exptl_crystal_size_min          0.2
_exptl_crystal_density_meas      ?
_exptl_crystal_density_diffrn    0.498
_exptl_crystal_density_method    'not measured'
_exptl_crystal_F_000             8672
_exptl_absorpt_coefficient_mu    0.369
_exptl_absorpt_correction_type   multi-scan
_exptl_absorpt_correction_T_min  0.928
_exptl_absorpt_correction_T_max  0.929
_exptl_absorpt_process_details   'Blessing, Acta Cryst. (1995) A51 33-58'

_exptl_special_details           
;
The only optimal crystals suitable for analysis were small and weakly
diffracting. Optimization of synthetic conditions could yield larger
crystals, however these specimens had only a very low degree of
crystallinity and presented little coherent scattering compared to
that of smaller crystals. Owing to these challenges observed strong
(high intensity) scattering was limited to 1.0 angstrom, with higher
resolution data present but weak (low intensity). Increasing the exposure
time of the crystal to X-rays did not ameliorate the quality of the data
as this woulThe only optimal crystals suitable for analysis were small
and weakly diffracting. Optimization of synthetic conditions could yield larger
crystals, however these specimens had only a very low degree of
crystallinity and presented little coherent scattering compared to
that of smaller crystals. Additionally, diffuse scattering from the highly
disordered solvent in the large void spaces within the crystal and from
the capillary used mount the crystal contributes to the background
noise and the 'washing out' of high angle data.

This was a racemically twinned crystal.

This model has been treated with the SQUEEZE subroutine of PLATON.

;

_diffrn_ambient_temperature      153(2)
_diffrn_radiation_wavelength     0.71073
_diffrn_radiation_type           MoK\a
_diffrn_radiation_source         'fine-focus sealed tube'
_diffrn_radiation_monochromator  graphite
_diffrn_measurement_device_type  ?
_diffrn_measurement_method       ?
_diffrn_detector_area_resol_mean ?
_diffrn_standards_number         ?
_diffrn_standards_interval_count ?
_diffrn_standards_interval_time  ?
_diffrn_standards_decay_%        ?
_diffrn_reflns_number            29975
_diffrn_reflns_av_R_equivalents  0.1309
_diffrn_reflns_av_sigmaI/netI    0.0796
_diffrn_reflns_limit_h_min       -31
_diffrn_reflns_limit_h_max       25
_diffrn_reflns_limit_k_min       -7
_diffrn_reflns_limit_k_max       42
_diffrn_reflns_limit_l_min       -42
_diffrn_reflns_limit_l_max       42
_diffrn_reflns_theta_min         1.50
_diffrn_reflns_theta_max         23.29
_reflns_number_total             3927
_reflns_number_gt                2050
_reflns_threshold_expression     >2sigma(I)

_computing_data_collection       'Bruker SMART'
_computing_cell_refinement       'Bruker GEMINI'
_computing_data_reduction        'Bruker SAINT'
_computing_structure_solution    'SHELXS-97 (Sheldrick, 1990)'
_computing_structure_refinement  'SHELXL-97 (Sheldrick, 1997)'
_computing_molecular_graphics    crystalmaker
_computing_publication_material  wingx

_refine_special_details          
;
Refinement of F^2^ against ALL reflections. The weighted R-factor wR and
goodness of fit S are based on F^2^, conventional R-factors R are based
on F, with F set to zero for negative F^2^. The threshold expression of
F^2^ > 2sigma(F^2^) is used only for calculating R-factors(gt) etc. and is
not relevant to the choice of reflections for refinement. R-factors based
on F^2^ are statistically about twice as large as those based on F, and R-
factors based on ALL data will be even larger.

Refinement of the data as a racemic twin was required to obtain proper
model, thus the larger residuals for the structure. Additionally,
testing of other synthesized crystals also led to racemically twinned data.
In no attempt could 'untwinned' material be prepared/found.

Fourier difference maps revealed the presence of disordered solvent
molecules within the lattice which were ulitmately modeled through the
use of the PLATON software suite: Spek, A.L. (1990), Acta Crystallogr.
A46, C-34. A sum total of 5464 electrons were accounted for in void
space of 41771.9 A^3.


;

_refine_ls_structure_factor_coef Fsqd
_refine_ls_matrix_type           full
_refine_ls_weighting_scheme      calc
_refine_ls_weighting_details     
'calc w=1/[\s^2^(Fo^2^)+(0.1590P)^2^+2.5000P] where P=(Fo^2^+2Fc^2^)/3'
_atom_sites_solution_primary     direct
_atom_sites_solution_secondary   difmap
_atom_sites_solution_hydrogens   geom
_refine_ls_hydrogen_treatment    constr
_refine_ls_extinction_method     SHELXL
_refine_ls_extinction_coef       0.000012(7)
_refine_ls_extinction_expression Fc^*^=kFc[1+0.001xFc^2^\l^3^/sin(2\q)]^-1/4^
_refine_ls_abs_structure_details 'Flack H D (1983), Acta Cryst. A39, 876-881'
_refine_ls_abs_structure_Flack   0.64(5)
_refine_ls_number_reflns         3927
_refine_ls_number_parameters     114
_refine_ls_number_restraints     4
_refine_ls_R_factor_all          0.1231
_refine_ls_R_factor_gt           0.0770
_refine_ls_wR_factor_ref         0.2309
_refine_ls_wR_factor_gt          0.2062
_refine_ls_goodness_of_fit_ref   0.838
_refine_ls_restrained_S_all      0.842
_refine_ls_shift/su_max          0.001
_refine_ls_shift/su_mean         0.000

loop_
_atom_site_label
_atom_site_type_symbol
_atom_site_fract_x
_atom_site_fract_y
_atom_site_fract_z
_atom_site_U_iso_or_equiv
_atom_site_adp_type
_atom_site_occupancy
_atom_site_symmetry_multiplicity
_atom_site_calc_flag
_atom_site_refinement_flags
_atom_site_disorder_assembly
_atom_site_disorder_group
Fe1 Fe 0.83134(2) 0.16866(2) 0.89244(3) 0.0754(5) Uani 1 2 d S . .
S1 S 0.76051(8) 0.14143(6) 0.85857(6) 0.1014(11) Uani 1 2 d S . .
O1 O 0.85039(14) 0.14961(14) 0.85039(14) 0.063(3) Uani 1 6 d S . .
O2 O 0.82601(14) 0.12241(15) 0.91785(13) 0.0992(17) Uani 1 1 d . . .
O3 O 0.78201(11) 0.16731(14) 0.87691(12) 0.0904(14) Uani 1 1 d . . .
O4 O 0.73408(19) 0.16075(17) 0.83925(17) 0.131(3) Uani 1 2 d S . .
O5 O 0.7469(2) 0.11620(16) 0.88380(16) 0.137(3) Uani 1 2 d S . .
N1 N 0.80995(18) 0.19005(18) 0.9407(3) 0.101(3) Uani 1 2 d SD . .
C1 C 0.8246(3) 0.0898(3) 0.9102(3) 0.106(4) Uani 1 2 d S . .
C2 C 0.8234(4) 0.0662(2) 0.9338(2) 0.101(4) Uani 1 2 d S . .
C3 C 0.8263(4) 0.0715(3) 0.9655(3) 0.178(5) Uani 1 1 d . . .
H3 H 0.8305 0.0949 0.9718 0.214 Uiso 1 1 calc R . .
C4 C 0.8242(5) 0.0478(3) 0.9937(3) 0.199(7) Uani 1 1 d . . .
H4 H 0.8241 0.0558 1.0170 0.238 Uiso 1 1 calc R . .
C5 C 0.8224(5) 0.0135(2) 0.9865(2) 0.132(5) Uani 1 2 d S . .
C6 C 0.8234(3) 0.2172(3) 0.9566(3) 0.156(4) Uani 1 1 d D . .
H6 H 0.8431 0.2277 0.9463 0.187 Uiso 1 1 calc R . .
C7 C 0.8103(4) 0.2326(3) 0.9896(3) 0.217(9) Uani 1 1 d D . .
H7 H 0.8204 0.2530 0.9991 0.260 Uiso 1 1 calc R . .
C8 C 0.7835(6) 0.2165(6) 1.0056(6) 0.30(2) Uani 1 2 d SD . .
H8 H 0.7761 0.2239 1.0279 0.360 Uiso 1 2 calc SR . .

loop_
_atom_site_aniso_label
_atom_site_aniso_U_11
_atom_site_aniso_U_22
_atom_site_aniso_U_33
_atom_site_aniso_U_23
_atom_site_aniso_U_13
_atom_site_aniso_U_12
Fe1 0.0772(7) 0.0772(7) 0.0719(9) 0.0152(5) -0.0152(5) 0.0189(8)
S1 0.0767(19) 0.1137(16) 0.1137(16) 0.002(2) -0.0165(13) 0.0165(13)
O1 0.063(3) 0.063(3) 0.063(3) 0.007(3) -0.007(3) 0.007(3)
O2 0.108(4) 0.106(4) 0.084(3) 0.045(3) -0.001(3) 0.012(4)
O3 0.069(3) 0.108(4) 0.094(3) 0.002(3) -0.022(2) 0.034(3)
O4 0.087(5) 0.153(5) 0.153(5) 0.011(6) -0.040(4) 0.040(4)
O5 0.116(7) 0.148(5) 0.148(5) 0.043(6) 0.032(4) -0.032(4)
N1 0.108(5) 0.108(5) 0.087(7) 0.012(4) -0.012(4) 0.003(6)
C1 0.122(11) 0.097(5) 0.097(5) 0.008(9) -0.016(6) 0.016(6)
C2 0.171(12) 0.066(4) 0.066(4) 0.038(7) -0.009(5) 0.009(5)
C3 0.277(17) 0.096(7) 0.161(10) 0.060(8) 0.028(11) 0.011(8)
C4 0.40(2) 0.111(8) 0.084(6) 0.035(6) 0.019(10) 0.040(12)
C5 0.223(16) 0.087(5) 0.087(5) 0.029(7) 0.006(6) -0.006(6)
C6 0.153(10) 0.159(10) 0.156(11) 0.001(9) -0.044(8) 0.017(8)
C7 0.37(2) 0.183(13) 0.100(8) -0.064(9) -0.062(11) 0.146(14)
C8 0.32(3) 0.32(3) 0.25(4) 0.03(2) -0.03(2) -0.16(3)

_geom_special_details            
;
All esds (except the esd in the dihedral angle between two l.s. planes)
are estimated using the full covariance matrix. The cell esds are taken
into account individually in the estimation of esds in distances, angles
and torsion angles; correlations between esds in cell parameters are only
used when they are defined by crystal symmetry. An approximate (isotropic)
treatment of cell esds is used for estimating esds involving l.s. planes.
;

loop_
_geom_bond_atom_site_label_1
_geom_bond_atom_site_label_2
_geom_bond_distance
_geom_bond_site_symmetry_2
_geom_bond_publ_flag
Fe1 O1 1.9231(15) . ?
Fe1 O3 1.992(4) . ?
Fe1 O3 1.992(4) 14_665 ?
Fe1 O2 2.042(5) 14_665 ?
Fe1 O2 2.043(5) . ?
Fe1 N1 2.193(11) . ?
S1 O5 1.470(8) . ?
S1 O4 1.464(7) . ?
S1 O3 1.476(5) . ?
S1 O3 1.476(5) 20_566 ?
O1 Fe1 1.9231(15) 6_566 ?
O1 Fe1 1.9232(15) 12_665 ?
O2 C1 1.290(8) . ?
N1 C6 1.317(12) 14_665 ?
N1 C6 1.317(12) . ?
C1 O2 1.290(8) 20_566 ?
C1 C2 1.289(16) . ?
C2 C3 1.241(13) 20_566 ?
C2 C3 1.241(13) . ?
C3 C4 1.421(13) . ?
C3 H3 0.9500 . ?
C4 C5 1.350(11) . ?
C4 H4 0.9500 . ?
C5 C4 1.350(11) 20_566 ?
C5 C5 1.47(2) 4_557 ?
C6 C7 1.490(13) . ?
C6 H6 0.9500 . ?
C7 C8 1.351(15) . ?
C7 H7 0.9500 . ?
C8 C7 1.351(15) 14_665 ?
C8 H8 0.9500 . ?

loop_
_geom_angle_atom_site_label_1
_geom_angle_atom_site_label_2
_geom_angle_atom_site_label_3
_geom_angle
_geom_angle_site_symmetry_1
_geom_angle_site_symmetry_3
_geom_angle_publ_flag
O1 Fe1 O3 95.8(2) . . ?
O1 Fe1 O3 95.8(2) . 14_665 ?
O3 Fe1 O3 87.7(3) . 14_665 ?
O1 Fe1 O2 96.3(3) . 14_665 ?
O3 Fe1 O2 167.9(2) . 14_665 ?
O3 Fe1 O2 91.5(2) 14_665 14_665 ?
O1 Fe1 O2 96.3(3) . . ?
O3 Fe1 O2 91.4(2) . . ?
O3 Fe1 O2 167.9(2) 14_665 . ?
O2 Fe1 O2 86.9(3) 14_665 . ?
O1 Fe1 N1 179.4(4) . . ?
O3 Fe1 N1 84.6(2) . . ?
O3 Fe1 N1 84.6(2) 14_665 . ?
O2 Fe1 N1 83.3(3) 14_665 . ?
O2 Fe1 N1 83.3(3) . . ?
O5 S1 O4 115.1(6) . . ?
O5 S1 O3 109.2(3) . . ?
O4 S1 O3 106.9(3) . . ?
O5 S1 O3 109.2(3) . 20_566 ?
O4 S1 O3 106.9(3) . 20_566 ?
O3 S1 O3 109.4(4) . 20_566 ?
Fe1 O1 Fe1 119.80(4) . 6_566 ?
Fe1 O1 Fe1 119.79(4) . 12_665 ?
Fe1 O1 Fe1 119.79(4) 6_566 12_665 ?
C1 O2 Fe1 137.9(7) . . ?
S1 O3 Fe1 134.1(3) . . ?
C6 N1 C6 113.9(15) 14_665 . ?
C6 N1 Fe1 123.0(7) 14_665 . ?
C6 N1 Fe1 123.0(7) . . ?
O2 C1 O2 116.4(12) . 20_566 ?
O2 C1 C2 121.7(6) . . ?
O2 C1 C2 121.7(6) 20_566 . ?
C3 C2 C3 108.2(13) 20_566 . ?
C3 C2 C1 125.1(7) 20_566 . ?
C3 C2 C1 125.1(7) . . ?
C2 C3 C4 129.9(13) . . ?
C2 C3 H3 115.1 . . ?
C4 C3 H3 115.1 . . ?
C5 C4 C3 118.4(11) . . ?
C5 C4 H4 120.8 . . ?
C3 C4 H4 120.8 . . ?
C4 C5 C4 113.2(12) 20_566 . ?
C4 C5 C5 123.2(6) 20_566 4_557 ?
C4 C5 C5 123.2(6) . 4_557 ?
N1 C6 C7 125.5(13) . . ?
N1 C6 H6 117.3 . . ?
C7 C6 H6 117.3 . . ?
C8 C7 C6 117.6(15) . . ?
C8 C7 H7 121.2 . . ?
C6 C7 H7 121.2 . . ?
C7 C8 C7 119.6(19) 14_665 . ?
C7 C8 H8 120.2 14_665 . ?
C7 C8 H8 120.2 . . ?

_diffrn_measured_fraction_theta_max 0.986
_diffrn_reflns_theta_full        23.29
_diffrn_measured_fraction_theta_full 0.986
_refine_diff_density_max         0.970
_refine_diff_density_min         -0.355
_refine_diff_density_rms         0.060
