####################################################################### 
# 
# This file contains crystal structure data downloaded from the 
# Cambridge Structural Database (CSD) hosted by the Cambridge 
# Crystallographic Data Centre (CCDC).
# 
# Full information about CCDC data access policies and citation 
# guidelines are available at http://www.ccdc.cam.ac.uk/access/V1 
# 
# Audit and citation data items may have been added by the CCDC. 
# Please retain this information to preserve the provenance of 
# this file and to allow appropriate attribution of the data. 
# 
#######################################################################

data_IRMOF-54
_audit_block_doi                 10.5517/cc95qkq
_database_code_depnum_ccdc_archive 'CCDC 273623'
loop_
_citation_id
_citation_doi
_citation_year
1 10.1021/ja042802q 2005
_audit_update_record             
;
2005-06-01 deposited with the CCDC.	2019-02-14 downloaded from the CCDC.
;

_audit_creation_method           SHELXL-97
_chemical_name_systematic        
;
?
;
_chemical_name_common            IRMOP-54
_chemical_melting_point          ?
_chemical_formula_moiety         'C180 H120 Fe12 N16 O115 S12'
_chemical_formula_sum            'C180 H120 Fe12 N16 O115 S12'
_chemical_formula_weight         5401.84

loop_
_atom_type_symbol
_atom_type_description
_atom_type_scat_dispersion_real
_atom_type_scat_dispersion_imag
_atom_type_scat_source
C C 0.0033 0.0016 'International Tables Vol C Tables 4.2.6.8 and 6.1.1.4'
H H 0.0000 0.0000 'International Tables Vol C Tables 4.2.6.8 and 6.1.1.4'
N N 0.0061 0.0033 'International Tables Vol C Tables 4.2.6.8 and 6.1.1.4'
O O 0.0106 0.0060 'International Tables Vol C Tables 4.2.6.8 and 6.1.1.4'
S S 0.1246 0.1234 'International Tables Vol C Tables 4.2.6.8 and 6.1.1.4'
Fe Fe 0.3463 0.8444 'International Tables Vol C Tables 4.2.6.8 and 6.1.1.4'

_symmetry_cell_setting           tetragonal
_symmetry_space_group_name_H-M   I4(1)/a

loop_
_symmetry_equiv_pos_as_xyz
'x, y, z'
'-x+1/2, -y, z+1/2'
'-y+3/4, x+1/4, z+1/4'
'y+3/4, -x+3/4, z+3/4'
'x+1/2, y+1/2, z+1/2'
'-x+1, -y+1/2, z+1'
'-y+5/4, x+3/4, z+3/4'
'y+5/4, -x+5/4, z+5/4'
'-x, -y, -z'
'x-1/2, y, -z-1/2'
'y-3/4, -x-1/4, -z-1/4'
'-y-3/4, x-3/4, -z-3/4'
'-x+1/2, -y+1/2, -z+1/2'
'x, y+1/2, -z'
'y-1/4, -x+1/4, -z+1/4'
'-y-1/4, x-1/4, -z-1/4'

_cell_length_a                   26.8549(13)
_cell_length_b                   26.8549(13)
_cell_length_c                   40.9221(19)
_cell_angle_alpha                90.00
_cell_angle_beta                 90.00
_cell_angle_gamma                90.00
_cell_volume                     29512(2)
_cell_formula_units_Z            4
_cell_measurement_temperature    258(2)
_cell_measurement_reflns_used    999
_cell_measurement_theta_min      0.8
_cell_measurement_theta_max      12

_exptl_crystal_description       octahedron
_exptl_crystal_colour            orange
_exptl_crystal_size_max          0.20
_exptl_crystal_size_mid          0.20
_exptl_crystal_size_min          0.20
_exptl_crystal_density_meas      ?
_exptl_crystal_density_diffrn    1.216
_exptl_crystal_density_method    'not measured'
_exptl_crystal_F_000             10944
_exptl_absorpt_coefficient_mu    0.738
_exptl_absorpt_correction_type   multi-scan
_exptl_absorpt_correction_T_min  0.866
_exptl_absorpt_correction_T_max  0.866
_exptl_absorpt_process_details   'Blessing, Acta Cryst. (1995) A51 33-58'

_exptl_special_details           
;
The only optimal crystals suitable for analysis were small and weakly
diffracting. Optimization of synthetic conditions could yield larger
crystals, however these specimens had only a very low degree of
crystallinity and presented little coherent scattering compared to
that of smaller crystals. Owing to these challenges observed strong
(high intensity) scattering was limited to 1.0 angstrom, with higher
resolution data present but weak (low intensity). Increasing the exposure
time of the crystal to X-rays did not ameliorate the quality of the data
as this woulThe only optimal crystals suitable for analysis were small
and weakly diffracting. Optimization of synthetic conditions could yield larger
crystals, however these specimens had only a very low degree of
crystallinity and presented little coherent scattering compared to
that of smaller crystals. Additionally, diffuse scattering from the highly
disordered solvent in the large void spaces within the crystal and from
the capillary used mount the crystal contributes to the background
noise and the 'washing out' of high angle data.
;

_diffrn_ambient_temperature      258(2)
_diffrn_radiation_wavelength     0.71073
_diffrn_radiation_type           MoK\a
_diffrn_radiation_source         'fine-focus sealed tube'
_diffrn_radiation_monochromator  graphite
_diffrn_measurement_device_type  'CCD area detector'
_diffrn_measurement_method       'phi and omega scans'
_diffrn_detector_area_resol_mean ?
_diffrn_standards_number         ?
_diffrn_standards_interval_count ?
_diffrn_standards_interval_time  ?
_diffrn_standards_decay_%        ?
_diffrn_reflns_number            85438
_diffrn_reflns_av_R_equivalents  0.1184
_diffrn_reflns_av_sigmaI/netI    0.1253
_diffrn_reflns_limit_h_min       -35
_diffrn_reflns_limit_h_max       35
_diffrn_reflns_limit_k_min       -35
_diffrn_reflns_limit_k_max       34
_diffrn_reflns_limit_l_min       -54
_diffrn_reflns_limit_l_max       43
_diffrn_reflns_theta_min         1.46
_diffrn_reflns_theta_max         28.28
_reflns_number_total             17618
_reflns_number_gt                8457
_reflns_threshold_expression     >2sigma(I)

_computing_data_collection       'Bruker SMART'
_computing_cell_refinement       'Bruker SMART'
_computing_data_reduction        'Bruker SAINT'
_computing_structure_solution    'SHELXS-97 (Sheldrick, 1990)'
_computing_structure_refinement  'SHELXL-97 (Sheldrick, 1997)'
_computing_molecular_graphics    crystalmaker
_computing_publication_material  wingx

_refine_special_details          
;
Refinement of F^2^ against ALL reflections. The weighted R-factor wR and
goodness of fit S are based on F^2^, conventional R-factors R are based
on F, with F set to zero for negative F^2^. The threshold expression of
F^2^ > 2sigma(F^2^) is used only for calculating R-factors(gt) etc. and is
not relevant to the choice of reflections for refinement. R-factors based
on F^2^ are statistically about twice as large as those based on F, and R-
factors based on ALL data will be even larger.


Due to the large void space in the structure, solvent in the structure
is highly disordered. Complete assignment of
scattering factors to all residual electron density was therfore not possible
Assigment of the largest peaks in the Fourier difference map to carbon
and nitrogen was made; these were refined anisotropically if possible.
All other electron density in the void space was treated as separated
oxygen atoms with large thermal parameters. Cations in the structure could
not be resolved as they are components of the highly disordered
portion of the structure.
;

_refine_ls_structure_factor_coef Fsqd
_refine_ls_matrix_type           full
_refine_ls_weighting_scheme      calc
_refine_ls_weighting_details     
'calc w=1/[\s^2^(Fo^2^)+(0.1612P)^2^+2.6112P] where P=(Fo^2^+2Fc^2^)/3'
_atom_sites_solution_primary     direct
_atom_sites_solution_secondary   difmap
_atom_sites_solution_hydrogens   geom
_refine_ls_hydrogen_treatment    constr
_refine_ls_extinction_method     none
_refine_ls_extinction_coef       ?
_refine_ls_number_reflns         17618
_refine_ls_number_parameters     728
_refine_ls_number_restraints     2
_refine_ls_R_factor_all          0.1833
_refine_ls_R_factor_gt           0.0834
_refine_ls_wR_factor_ref         0.2890
_refine_ls_wR_factor_gt          0.2306
_refine_ls_goodness_of_fit_ref   1.006
_refine_ls_restrained_S_all      1.006
_refine_ls_shift/su_max          0.002
_refine_ls_shift/su_mean         0.000

loop_
_atom_site_label
_atom_site_type_symbol
_atom_site_fract_x
_atom_site_fract_y
_atom_site_fract_z
_atom_site_U_iso_or_equiv
_atom_site_adp_type
_atom_site_occupancy
_atom_site_symmetry_multiplicity
_atom_site_calc_flag
_atom_site_refinement_flags
_atom_site_disorder_assembly
_atom_site_disorder_group
Fe1 Fe 0.57544(3) 0.49763(3) 0.31077(2) 0.0320(2) Uani 1 1 d . . .
Fe2 Fe 0.65678(3) 0.44883(3) 0.25791(2) 0.0317(2) Uani 1 1 d . . .
Fe3 Fe 0.53800(3) 0.41280(3) 0.25695(2) 0.0337(2) Uani 1 1 d . . .
S1 S 0.49302(6) 0.41585(7) 0.33041(4) 0.0468(4) Uani 1 1 d . . .
S2 S 0.68803(6) 0.47299(6) 0.33206(4) 0.0415(4) Uani 1 1 d . . .
S3 S 0.62524(7) 0.33347(6) 0.24762(5) 0.0456(4) Uani 1 1 d . . .
O1 O 0.59035(13) 0.45231(14) 0.27542(10) 0.0308(9) Uani 1 1 d . . .
O2 O 0.50457(19) 0.39290(18) 0.29863(12) 0.0593(14) Uani 1 1 d . . .
O3 O 0.53519(16) 0.45050(17) 0.33788(11) 0.0458(11) Uani 1 1 d . . .
O4 O 0.4920(2) 0.3769(2) 0.35472(14) 0.0700(16) Uani 1 1 d . . .
O5 O 0.44636(17) 0.4425(2) 0.32892(14) 0.0657(15) Uani 1 1 d . . .
O6 O 0.63394(16) 0.48065(17) 0.33826(11) 0.0468(11) Uani 1 1 d . . .
O7 O 0.69179(15) 0.44475(16) 0.30043(11) 0.0412(10) Uani 1 1 d . . .
O8 O 0.71315(19) 0.52046(19) 0.32939(14) 0.0658(15) Uani 1 1 d . . .
O9 O 0.70714(19) 0.4417(2) 0.35783(12) 0.0655(15) Uani 1 1 d . . .
O10 O 0.66011(16) 0.37523(16) 0.25417(12) 0.0479(12) Uani 1 1 d . . .
O11 O 0.57462(16) 0.34922(15) 0.25892(12) 0.0447(11) Uani 1 1 d . . .
O12 O 0.6408(2) 0.29059(18) 0.26622(16) 0.0728(17) Uani 1 1 d . . .
O13 O 0.6238(3) 0.3246(3) 0.21327(15) 0.089(2) Uani 1 1 d . . .
O14 O 0.51219(16) 0.52464(16) 0.28992(11) 0.0428(11) Uani 1 1 d . . .
O15 O 0.49065(17) 0.47077(16) 0.25081(13) 0.0519(13) Uani 1 1 d . . .
O16 O 0.20539(17) 0.61592(16) 0.03961(10) 0.0447(11) Uani 1 1 d . . .
O17 O 0.17591(16) 0.69340(17) 0.03988(11) 0.0455(11) Uani 1 1 d . . .
O18 O 0.33253(16) 0.97649(15) 0.25594(11) 0.0421(11) Uani 1 1 d . . .
O19 O 0.38902(16) 0.94481(15) 0.29020(11) 0.0431(11) Uani 1 1 d . . .
N1 N 0.5576(2) 0.5516(2) 0.34845(13) 0.0433(13) Uani 1 1 d . . .
N2 N 0.7318(2) 0.4487(2) 0.23560(15) 0.0467(14) Uani 1 1 d . . .
N3 N 0.4772(2) 0.3692(2) 0.23516(15) 0.0513(15) Uani 1 1 d . . .
C1 C 0.3395(3) 0.6540(2) 0.22250(17) 0.0477(17) Uani 1 1 d . . .
C2 C 0.3095(3) 0.6471(2) 0.19483(17) 0.0498(18) Uani 1 1 d . . .
H2 H 0.3080 0.6158 0.1852 0.060 Uiso 1 1 calc R . .
C3 C 0.2816(3) 0.6861(2) 0.18136(17) 0.0480(17) Uani 1 1 d . . .
C4 C 0.2836(3) 0.7328(2) 0.19659(18) 0.0512(19) Uani 1 1 d . . .
H4 H 0.2645 0.7588 0.1883 0.061 Uiso 1 1 calc R . .
C5 C 0.3137(3) 0.7415(2) 0.22407(17) 0.0453(16) Uani 1 1 d . . .
C6 C 0.3411(3) 0.7009(2) 0.23639(17) 0.0488(18) Uani 1 1 d . . .
H6 H 0.3612 0.7059 0.2546 0.059 Uiso 1 1 calc R . .
C7 C 0.3741(3) 0.6138(2) 0.23408(18) 0.0500(18) Uani 1 1 d . . .
C8 C 0.3938(3) 0.5795(3) 0.2136(2) 0.066(2) Uani 1 1 d . . .
H8 H 0.3841 0.5792 0.1918 0.079 Uiso 1 1 calc R . .
C9 C 0.4277(3) 0.5449(3) 0.2244(2) 0.060(2) Uani 1 1 d . . .
H9 H 0.4392 0.5206 0.2101 0.072 Uiso 1 1 calc R . .
C10 C 0.4450(2) 0.5456(2) 0.25590(18) 0.0438(16) Uani 1 1 d . . .
C11 C 0.4224(3) 0.5781(3) 0.27724(19) 0.0546(19) Uani 1 1 d . . .
H11 H 0.4310 0.5773 0.2993 0.065 Uiso 1 1 calc R . .
C12 C 0.3876(3) 0.6118(3) 0.26670(19) 0.061(2) Uani 1 1 d . . .
H12 H 0.3729 0.6334 0.2816 0.074 Uiso 1 1 calc R . .
C13 C 0.4856(2) 0.5109(2) 0.26635(17) 0.0407(15) Uani 1 1 d . . .
C14 C 0.2547(3) 0.6783(2) 0.14966(17) 0.0457(17) Uani 1 1 d . . .
C15 C 0.2388(3) 0.6323(2) 0.13980(17) 0.0511(18) Uani 1 1 d . . .
H15 H 0.2410 0.6055 0.1541 0.061 Uiso 1 1 calc R . .
C16A C 0.2196(3) 0.6252(2) 0.10890(17) 0.0478(17) Uani 1 1 d . . .
H16 H 0.2103 0.5933 0.1025 0.057 Uiso 1 1 calc R . .
C17 C 0.2139(2) 0.6637(2) 0.08745(16) 0.0401(15) Uani 1 1 d . . .
C18 C 0.2264(3) 0.7108(3) 0.09825(19) 0.062(2) Uani 1 1 d . . .
H18 H 0.2202 0.7381 0.0849 0.075 Uiso 1 1 calc R . .
C19 C 0.2480(3) 0.7180(3) 0.12845(19) 0.064(2) Uani 1 1 d . . .
H19 H 0.2581 0.7497 0.1346 0.077 Uiso 1 1 calc R . .
C20 C 0.1970(2) 0.6573(2) 0.05297(15) 0.0371(14) Uani 1 1 d . . .
C21 C 0.32072(19) 0.79234(12) 0.23817(14) 0.0468(17) Uani 1 1 d G . .
C22 C 0.28682(16) 0.83033(16) 0.23206(15) 0.071(3) Uani 1 1 d G . .
H22 H 0.2576 0.8236 0.2207 0.085 Uiso 1 1 calc R . .
C23 C 0.29662(17) 0.87839(14) 0.24292(15) 0.072(3) Uani 1 1 d G . .
H23 H 0.2739 0.9038 0.2388 0.087 Uiso 1 1 calc R . .
C24 C 0.34032(18) 0.88846(12) 0.25987(13) 0.0432(16) Uani 1 1 d G . .
C25 C 0.37422(19) 0.85047(17) 0.26598(17) 0.120(5) Uani 1 1 d G . .
H25 H 0.4035 0.8572 0.2773 0.144 Uiso 1 1 calc R . .
C26 C 0.3644(2) 0.80241(15) 0.25513(18) 0.125(5) Uani 1 1 d G . .
H26 H 0.3871 0.7770 0.2592 0.150 Uiso 1 1 calc R . .
C27 C 0.3544(2) 0.9411(2) 0.26973(17) 0.0395(15) Uani 1 1 d . . .
C28 C 0.5104(3) 0.5579(3) 0.35835(19) 0.063(2) Uani 1 1 d . . .
H28 H 0.4855 0.5387 0.3488 0.076 Uiso 1 1 calc R . .
C29 C 0.4975(3) 0.5918(4) 0.3821(2) 0.088(3) Uani 1 1 d . . .
H29 H 0.4644 0.5958 0.3881 0.106 Uiso 1 1 calc R . .
C30 C 0.5333(4) 0.6191(5) 0.3965(3) 0.106(4) Uani 1 1 d . . .
H30 H 0.5253 0.6424 0.4125 0.128 Uiso 1 1 calc R . .
C31 C 0.5824(4) 0.6120(4) 0.3872(3) 0.099(4) Uani 1 1 d . . .
H31 H 0.6079 0.6290 0.3977 0.119 Uiso 1 1 calc R . .
C32 C 0.5929(3) 0.5795(3) 0.3621(2) 0.063(2) Uani 1 1 d . . .
H32 H 0.6254 0.5769 0.3545 0.075 Uiso 1 1 calc R . .
C33 C 0.7689(3) 0.4757(3) 0.2489(2) 0.063(2) Uani 1 1 d . . .
H33 H 0.7627 0.4936 0.2679 0.076 Uiso 1 1 calc R . .
C34 C 0.8161(3) 0.4776(4) 0.2351(3) 0.093(3) Uani 1 1 d . . .
H34 H 0.8414 0.4950 0.2456 0.112 Uiso 1 1 calc R . .
C35A C 0.8250(4) 0.4550(5) 0.2075(3) 0.115(4) Uani 1 1 d . . .
H35 H 0.8564 0.4567 0.1980 0.138 Uiso 1 1 calc R . .
C36 C 0.7865(4) 0.4279(5) 0.1922(3) 0.104(4) Uani 1 1 d . . .
H36 H 0.7921 0.4117 0.1725 0.124 Uiso 1 1 calc R . .
C37 C 0.7399(3) 0.4257(4) 0.2072(2) 0.072(2) Uani 1 1 d . . .
H37B H 0.7143 0.4080 0.1974 0.087 Uiso 1 1 calc R . .
C38A C 0.4858(3) 0.3331(3) 0.2151(2) 0.077(3) Uani 1 1 d . . .
H38 H 0.5180 0.3288 0.2071 0.092 Uiso 1 1 calc R . .
C39 C 0.4479(5) 0.2998(4) 0.2049(3) 0.119(5) Uani 1 1 d . . .
H39 H 0.4554 0.2735 0.1909 0.143 Uiso 1 1 calc R . .
C40 C 0.4002(4) 0.3069(5) 0.2158(3) 0.115(4) Uani 1 1 d . . .
H40 H 0.3749 0.2847 0.2104 0.138 Uiso 1 1 calc R . .
C41 C 0.3913(4) 0.3473(5) 0.2345(4) 0.139(6) Uani 1 1 d . . .
H41 H 0.3588 0.3555 0.2403 0.167 Uiso 1 1 calc R . .
C42 C 0.4307(3) 0.3763(4) 0.2450(3) 0.094(3) Uani 1 1 d . . .
H42 H 0.4242 0.4020 0.2596 0.113 Uiso 1 1 calc R . .
O5S O 0.0000 0.2500 0.0735(10) 0.191(13) Uiso 0.50 2 d SP . .
O4S O 0.0121(12) 0.2873(12) 0.0500(7) 0.237(12) Uiso 0.50 1 d P . .
O13S O 0.0883(6) 0.3434(5) 0.1313(4) 0.097(4) Uiso 0.50 1 d P . .
O14S O 0.1187(5) 0.3480(4) 0.1597(3) 0.177(4) Uiso 1 1 d . . .
O12S O 0.1007(6) 0.3808(6) 0.1072(4) 0.106(5) Uiso 0.50 1 d P . .
O16S O 0.1677(9) 0.3525(8) 0.1374(5) 0.149(7) Uiso 0.50 1 d P . .
O17S O 0.2026(11) 0.3159(12) 0.1631(8) 0.242(13) Uiso 0.50 1 d P . .
O8S O 0.2481(16) 0.2295(19) 0.2832(11) 0.309(18) Uiso 0.50 1 d P . .
O9S O 0.2629(15) 0.2815(15) 0.2615(11) 0.294(18) Uiso 0.50 1 d P . .
O7S O 0.2489(15) 0.2768(17) 0.3013(10) 0.290(16) Uiso 0.50 1 d P . .
N1P N 0.5000 0.2500 0.0522(10) 0.51(4) Uiso 1 2 d SD . .
C1P C 0.453(2) 0.2564(19) 0.0450(11) 0.25(2) Uiso 0.50 1 d PD . .
C2P C 0.4519(16) 0.2632(15) 0.0051(9) 0.195(15) Uiso 0.50 1 d PD . .
C3P C 0.5000 0.2500 -0.0031(11) 0.38(3) Uiso 1 2 d SD . .
O1D O 0.2786(12) 0.5903(11) 0.4156(8) 0.238(12) Uiso 0.50 1 d P . .
C3D C 0.2129(11) 0.6606(11) 0.3847(8) 0.135(10) Uiso 0.50 1 d P . .
C1D C 0.2495(12) 0.5885(13) 0.3793(9) 0.157(12) Uiso 0.50 1 d P . .
C2D C 0.2541(14) 0.5673(14) 0.3462(10) 0.180(14) Uiso 0.50 1 d P . .
N1D N 0.2278(15) 0.6457(15) 0.3593(10) 0.239(17) Uiso 0.50 1 d P . .
O6S O 0.0000 0.2500 0.1250 0.174(8) Uiso 1 4 d S . .
O1S O 0.5000 0.2500 0.1363(9) 0.217(15) Uiso 0.50 2 d SP . .
O2S O 0.2583(9) 0.3569(9) 0.1198(6) 0.075(6) Uiso 0.25 1 d P . .
O3S O 0.2602(11) 0.3428(12) 0.2027(8) 0.113(10) Uiso 0.25 1 d P . .
O10S O 0.415(2) 0.876(2) 0.1690(16) 0.23(2) Uiso 0.25 1 d P . .
O11S O 0.4457(13) 0.9042(13) 0.1976(9) 0.261(15) Uiso 0.50 1 d P . .
O18S O 0.384(2) 0.759(2) 0.3439(13) 0.35(2) Uiso 0.50 1 d P . .
O19S O 0.3504(13) 0.7213(14) 0.3321(8) 0.236(13) Uiso 0.50 1 d P . .
O20S O 0.3854(17) 0.7193(19) 0.3639(12) 0.33(2) Uiso 0.50 1 d P . .
O15S O 0.1306(13) 0.3643(11) 0.1294(8) 0.096(8) Uiso 0.25 1 d P . .
O21S O 0.3171(9) 0.6837(9) 0.3239(6) 0.165(8) Uiso 0.50 1 d P . .

loop_
_atom_site_aniso_label
_atom_site_aniso_U_11
_atom_site_aniso_U_22
_atom_site_aniso_U_33
_atom_site_aniso_U_23
_atom_site_aniso_U_13
_atom_site_aniso_U_12
Fe1 0.0312(4) 0.0328(4) 0.0319(5) 0.0047(4) 0.0014(4) 0.0009(3)
Fe2 0.0295(4) 0.0299(4) 0.0358(5) 0.0036(4) 0.0021(4) 0.0017(3)
Fe3 0.0328(5) 0.0288(4) 0.0394(5) 0.0041(4) 0.0002(4) -0.0026(3)
S1 0.0414(9) 0.0519(10) 0.0470(11) 0.0090(8) 0.0116(8) -0.0080(7)
S2 0.0371(8) 0.0450(9) 0.0423(10) 0.0003(7) -0.0073(7) 0.0038(7)
S3 0.0515(10) 0.0315(8) 0.0538(11) -0.0034(7) 0.0001(8) 0.0054(7)
O1 0.028(2) 0.032(2) 0.032(2) 0.0045(17) 0.0013(17) 0.0001(16)
O2 0.066(3) 0.056(3) 0.056(3) -0.001(2) 0.023(3) -0.025(3)
O3 0.041(2) 0.053(3) 0.043(3) 0.013(2) 0.007(2) -0.008(2)
O4 0.066(3) 0.072(4) 0.072(4) 0.032(3) 0.015(3) -0.013(3)
O5 0.034(3) 0.080(4) 0.083(4) 0.012(3) 0.009(3) 0.000(2)
O6 0.041(2) 0.063(3) 0.037(3) 0.000(2) -0.006(2) 0.009(2)
O7 0.035(2) 0.044(2) 0.045(3) 0.003(2) -0.0040(19) 0.0082(19)
O8 0.061(3) 0.056(3) 0.080(4) -0.011(3) -0.009(3) -0.014(3)
O9 0.062(3) 0.086(4) 0.048(3) 0.007(3) -0.017(3) 0.015(3)
O10 0.043(3) 0.032(2) 0.069(3) -0.003(2) 0.009(2) 0.0011(19)
O11 0.042(2) 0.030(2) 0.062(3) 0.006(2) -0.003(2) 0.0031(18)
O12 0.060(3) 0.043(3) 0.116(5) 0.018(3) -0.002(3) 0.014(2)
O13 0.104(5) 0.104(5) 0.059(4) -0.030(4) 0.006(3) 0.009(4)
O14 0.046(3) 0.041(2) 0.041(3) 0.001(2) -0.007(2) 0.011(2)
O15 0.044(3) 0.034(2) 0.078(4) -0.011(2) -0.017(2) 0.009(2)
O16 0.063(3) 0.040(2) 0.030(3) 0.001(2) -0.010(2) -0.002(2)
O17 0.048(3) 0.052(3) 0.036(3) 0.000(2) -0.010(2) 0.011(2)
O18 0.045(2) 0.028(2) 0.054(3) -0.007(2) -0.011(2) 0.0014(18)
O19 0.054(3) 0.033(2) 0.043(3) -0.0049(19) -0.018(2) -0.0044(19)
N1 0.046(3) 0.050(3) 0.034(3) -0.001(3) 0.003(3) 0.005(3)
N2 0.034(3) 0.050(3) 0.056(4) 0.001(3) 0.009(3) 0.004(2)
N3 0.046(3) 0.045(3) 0.063(4) -0.002(3) -0.007(3) -0.011(3)
C1 0.057(4) 0.041(4) 0.044(4) -0.004(3) -0.026(3) 0.013(3)
C2 0.067(5) 0.031(3) 0.051(4) -0.008(3) -0.019(4) 0.010(3)
C3 0.059(4) 0.041(4) 0.044(4) -0.008(3) -0.022(3) 0.005(3)
C4 0.067(5) 0.028(3) 0.058(5) 0.000(3) -0.028(4) 0.009(3)
C5 0.055(4) 0.034(3) 0.047(4) -0.004(3) -0.016(3) 0.002(3)
C6 0.058(4) 0.039(4) 0.050(4) -0.010(3) -0.029(3) 0.010(3)
C7 0.064(5) 0.036(4) 0.050(5) -0.005(3) -0.017(4) 0.010(3)
C8 0.078(6) 0.059(5) 0.060(5) -0.015(4) -0.030(4) 0.027(4)
C9 0.070(5) 0.056(5) 0.056(5) -0.015(4) -0.015(4) 0.027(4)
C10 0.046(4) 0.033(3) 0.052(4) -0.001(3) -0.010(3) 0.006(3)
C11 0.061(5) 0.050(4) 0.053(5) -0.004(3) -0.017(4) 0.021(3)
C12 0.078(5) 0.054(4) 0.052(5) -0.018(4) -0.022(4) 0.028(4)
C13 0.036(3) 0.041(4) 0.045(4) 0.010(3) -0.002(3) 0.005(3)
C14 0.058(4) 0.032(3) 0.046(4) -0.002(3) -0.018(3) 0.007(3)
C15 0.074(5) 0.035(3) 0.045(4) -0.002(3) -0.025(4) -0.002(3)
C16A 0.062(4) 0.037(3) 0.045(4) 0.003(3) -0.015(3) -0.009(3)
C17 0.045(4) 0.037(3) 0.038(4) -0.001(3) -0.009(3) -0.003(3)
C18 0.098(6) 0.033(4) 0.056(5) 0.002(3) -0.032(4) 0.011(4)
C19 0.105(7) 0.032(4) 0.056(5) -0.004(3) -0.040(5) 0.002(4)
C20 0.035(3) 0.043(4) 0.034(4) 0.004(3) -0.001(3) -0.005(3)
C21 0.060(4) 0.030(3) 0.050(4) -0.005(3) -0.017(3) -0.001(3)
C22 0.066(5) 0.040(4) 0.106(7) -0.019(4) -0.046(5) 0.009(4)
C23 0.070(5) 0.040(4) 0.107(7) -0.010(4) -0.041(5) 0.006(4)
C24 0.053(4) 0.035(3) 0.042(4) -0.008(3) -0.011(3) 0.003(3)
C25 0.154(10) 0.046(5) 0.159(11) -0.015(6) -0.111(9) 0.009(6)
C26 0.183(12) 0.041(5) 0.151(11) -0.027(6) -0.122(10) 0.026(6)
C27 0.039(3) 0.032(3) 0.047(4) -0.007(3) 0.005(3) -0.002(3)
C28 0.055(5) 0.086(6) 0.049(5) -0.015(4) 0.003(4) 0.009(4)
C29 0.057(5) 0.144(10) 0.064(6) -0.026(6) 0.002(5) 0.034(6)
C30 0.076(7) 0.154(11) 0.090(8) -0.067(8) -0.002(6) 0.035(7)
C31 0.087(7) 0.119(9) 0.091(8) -0.055(7) -0.021(6) 0.022(6)
C32 0.058(5) 0.066(5) 0.065(6) -0.018(4) 0.004(4) 0.006(4)
C33 0.037(4) 0.074(5) 0.079(6) 0.004(4) 0.008(4) -0.011(4)
C34 0.047(5) 0.109(8) 0.123(10) -0.003(7) 0.024(6) -0.019(5)
C35A 0.064(7) 0.148(11) 0.133(11) -0.007(9) 0.055(7) -0.005(7)
C36 0.089(8) 0.127(10) 0.095(8) -0.012(7) 0.051(7) 0.013(7)
C37 0.059(5) 0.099(7) 0.059(6) -0.013(5) 0.016(4) 0.013(5)
C38A 0.063(5) 0.070(6) 0.097(7) -0.026(5) -0.017(5) -0.004(4)
C39 0.119(10) 0.086(8) 0.153(12) -0.053(8) -0.056(9) -0.002(7)
C40 0.080(8) 0.109(9) 0.157(12) -0.025(9) -0.003(8) -0.050(7)
C41 0.075(8) 0.152(12) 0.189(15) -0.079(11) 0.024(8) -0.047(8)
C42 0.054(5) 0.101(8) 0.127(9) -0.040(7) -0.002(6) -0.021(5)

_geom_special_details            
;
All esds (except the esd in the dihedral angle between two l.s. planes)
are estimated using the full covariance matrix. The cell esds are taken
into account individually in the estimation of esds in distances, angles
and torsion angles; correlations between esds in cell parameters are only
used when they are defined by crystal symmetry. An approximate (isotropic)
treatment of cell esds is used for estimating esds involving l.s. planes.
;

loop_
_geom_bond_atom_site_label_1
_geom_bond_atom_site_label_2
_geom_bond_distance
_geom_bond_site_symmetry_2
_geom_bond_publ_flag
Fe1 O1 1.933(4) . ?
Fe1 O6 1.985(4) . ?
Fe1 O3 2.000(4) . ?
Fe1 O19 2.002(4) 6_564 ?
Fe1 O14 2.035(4) . ?
Fe1 N1 2.170(5) . ?
Fe2 O1 1.925(4) . ?
Fe2 O7 1.981(4) . ?
Fe2 O10 1.984(4) . ?
Fe2 O18 2.028(4) 6_564 ?
Fe2 O16 2.046(4) 12_766 ?
Fe2 N2 2.212(5) . ?
Fe3 O1 1.917(4) . ?
Fe3 O11 1.972(4) . ?
Fe3 O2 2.000(5) . ?
Fe3 O17 2.011(4) 12_766 ?
Fe3 O15 2.026(4) . ?
Fe3 N3 2.199(6) . ?
S1 O5 1.444(5) . ?
S1 O4 1.444(5) . ?
S1 O2 1.472(5) . ?
S1 O3 1.497(5) . ?
S2 O9 1.443(5) . ?
S2 O8 1.446(5) . ?
S2 O6 1.489(4) . ?
S2 O7 1.504(5) . ?
S3 O13 1.426(6) . ?
S3 O12 1.442(5) . ?
S3 O10 1.485(5) . ?
S3 O11 1.497(5) . ?
O14 C13 1.255(7) . ?
O15 C13 1.259(8) . ?
O16 C20 1.259(7) . ?
O16 Fe2 2.046(4) 15_565 ?
O17 C20 1.244(7) . ?
O17 Fe3 2.011(4) 15_565 ?
O18 C27 1.252(7) . ?
O18 Fe2 2.028(4) 6_564 ?
O19 C27 1.255(7) . ?
O19 Fe1 2.002(4) 6_564 ?
N1 C32 1.328(9) . ?
N1 C28 1.343(9) . ?
N2 C37 1.334(9) . ?
N2 C33 1.345(9) . ?
N3 C38A 1.291(10) . ?
N3 C42 1.326(11) . ?
C1 C6 1.384(9) . ?
C1 C2 1.402(9) . ?
C1 C7 1.499(9) . ?
C2 C3 1.402(9) . ?
C2 H2 0.9300 . ?
C3 C4 1.401(9) . ?
C3 C14 1.500(9) . ?
C4 C5 1.405(9) . ?
C4 H4 0.9300 . ?
C5 C6 1.407(9) . ?
C5 C21 1.495(7) . ?
C6 H6 0.9300 . ?
C7 C8 1.354(10) . ?
C7 C12 1.385(10) . ?
C8 C9 1.374(10) . ?
C8 H8 0.9300 . ?
C9 C10 1.369(10) . ?
C9 H9 0.9300 . ?
C10 C11 1.377(9) . ?
C10 C13 1.496(8) . ?
C11 C12 1.369(9) . ?
C11 H11 0.9300 . ?
C12 H12 0.9300 . ?
C14 C15 1.367(9) . ?
C14 C19 1.386(9) . ?
C15 C16A 1.379(9) . ?
C15 H15 0.9300 . ?
C16A C17 1.365(9) . ?
C16A H16 0.9300 . ?
C17 C18 1.380(9) . ?
C17 C20 1.492(9) . ?
C18 C19 1.379(10) . ?
C18 H18 0.9300 . ?
C19 H19 0.9300 . ?
C21 C22 1.3900 . ?
C21 C26 1.3900 . ?
C22 C23 1.3900 . ?
C22 H22 0.9300 . ?
C23 C24 1.3900 . ?
C23 H23 0.9300 . ?
C24 C25 1.3900 . ?
C24 C27 1.519(7) . ?
C25 C26 1.3900 . ?
C25 H25 0.9300 . ?
C26 H26 0.9300 . ?
C28 C29 1.375(11) . ?
C28 H28 0.9300 . ?
C29 C30 1.347(14) . ?
C29 H29 0.9300 . ?
C30 C31 1.385(13) . ?
C30 H30 0.9300 . ?
C31 C32 1.379(11) . ?
C31 H31 0.9300 . ?
C32 H32 0.9300 . ?
C33 C34 1.389(11) . ?
C33 H33 0.9300 . ?
C34 C35A 1.306(15) . ?
C34 H34 0.9300 . ?
C35A C36 1.410(16) . ?
C35A H35 0.9300 . ?
C36 C37 1.395(12) . ?
C36 H36 0.9300 . ?
C37 H37B 0.9300 . ?
C38A C39 1.418(13) . ?
C38A H38 0.9300 . ?
C39 C40 1.371(15) . ?
C39 H39 0.9300 . ?
C40 C41 1.348(16) . ?
C40 H40 0.9300 . ?
C41 C42 1.383(13) . ?
C41 H41 0.9300 . ?
C42 H42 0.9300 . ?
O5S O4S 1.43(3) 6_454 ?
O5S O4S 1.43(3) . ?
O13S O15S 1.27(3) . ?
O13S O12S 1.45(2) . ?
O13S O14S 1.428(17) . ?
O14S O15S 1.35(3) . ?
O14S O16S 1.60(2) . ?
O12S O15S 1.29(3) . ?
O16S O15S 1.09(3) . ?
O16S O17S 1.72(3) . ?
O8S O7S 1.47(5) . ?
O8S O9S 1.70(5) . ?
O9S O7S 1.68(5) . ?
N1P C1P 1.31(6) . ?
N1P C1P 1.31(6) 6_554 ?
C1P C2P 1.64(6) . ?
C2P C3P 1.38(4) . ?
C3P C2P 1.38(5) 6_554 ?
O1D C1D 1.68(4) . ?
C3D N1D 1.18(4) . ?
C1D C2D 1.47(4) . ?
C1D N1D 1.83(5) . ?
O10S O11S 1.62(6) . ?
O18S O20S 1.34(6) . ?
O18S O19S 1.43(5) . ?
O19S O21S 1.39(4) . ?

loop_
_geom_angle_atom_site_label_1
_geom_angle_atom_site_label_2
_geom_angle_atom_site_label_3
_geom_angle
_geom_angle_site_symmetry_1
_geom_angle_site_symmetry_3
_geom_angle_publ_flag
O1 Fe1 O6 96.64(17) . . ?
O1 Fe1 O3 97.39(18) . . ?
O6 Fe1 O3 88.16(19) . . ?
O1 Fe1 O19 94.17(17) . 6_564 ?
O6 Fe1 O19 92.2(2) . 6_564 ?
O3 Fe1 O19 168.31(19) . 6_564 ?
O1 Fe1 O14 94.78(17) . . ?
O6 Fe1 O14 168.57(19) . . ?
O3 Fe1 O14 90.40(18) . . ?
O19 Fe1 O14 86.93(18) 6_564 . ?
O1 Fe1 N1 176.80(19) . . ?
O6 Fe1 N1 85.7(2) . . ?
O3 Fe1 N1 84.8(2) . . ?
O19 Fe1 N1 83.55(19) 6_564 . ?
O14 Fe1 N1 82.86(19) . . ?
O1 Fe2 O7 96.64(17) . . ?
O1 Fe2 O10 96.82(17) . . ?
O7 Fe2 O10 89.50(19) . . ?
O1 Fe2 O18 95.62(17) . 6_564 ?
O7 Fe2 O18 91.28(18) . 6_564 ?
O10 Fe2 O18 167.35(18) . 6_564 ?
O1 Fe2 O16 94.21(17) . 12_766 ?
O7 Fe2 O16 168.91(18) . 12_766 ?
O10 Fe2 O16 91.5(2) . 12_766 ?
O18 Fe2 O16 85.36(19) 6_564 12_766 ?
O1 Fe2 N2 176.31(19) . . ?
O7 Fe2 N2 86.0(2) . . ?
O10 Fe2 N2 85.76(19) . . ?
O18 Fe2 N2 81.70(19) 6_564 . ?
O16 Fe2 N2 83.1(2) 12_766 . ?
O1 Fe3 O11 95.58(17) . . ?
O1 Fe3 O2 98.10(19) . . ?
O11 Fe3 O2 87.6(2) . . ?
O1 Fe3 O17 95.54(17) . 12_766 ?
O11 Fe3 O17 93.82(19) . 12_766 ?
O2 Fe3 O17 166.1(2) . 12_766 ?
O1 Fe3 O15 94.82(17) . . ?
O11 Fe3 O15 169.58(19) . . ?
O2 Fe3 O15 91.7(2) . . ?
O17 Fe3 O15 84.4(2) 12_766 . ?
O1 Fe3 N3 178.5(2) . . ?
O11 Fe3 N3 85.8(2) . . ?
O2 Fe3 N3 82.5(2) . . ?
O17 Fe3 N3 83.8(2) 12_766 . ?
O15 Fe3 N3 83.8(2) . . ?
O5 S1 O4 111.9(3) . . ?
O5 S1 O2 110.6(3) . . ?
O4 S1 O2 108.0(3) . . ?
O5 S1 O3 110.9(3) . . ?
O4 S1 O3 108.9(3) . . ?
O2 S1 O3 106.3(3) . . ?
O9 S2 O8 113.8(3) . . ?
O9 S2 O6 107.6(3) . . ?
O8 S2 O6 110.2(3) . . ?
O9 S2 O7 108.1(3) . . ?
O8 S2 O7 110.4(3) . . ?
O6 S2 O7 106.4(3) . . ?
O13 S3 O12 113.2(4) . . ?
O13 S3 O10 108.8(4) . . ?
O12 S3 O10 109.0(3) . . ?
O13 S3 O11 109.0(3) . . ?
O12 S3 O11 109.0(3) . . ?
O10 S3 O11 107.7(3) . . ?
Fe3 O1 Fe2 120.4(2) . . ?
Fe3 O1 Fe1 119.47(19) . . ?
Fe2 O1 Fe1 120.08(19) . . ?
S1 O2 Fe3 137.4(3) . . ?
S1 O3 Fe1 133.5(3) . . ?
S2 O6 Fe1 135.0(3) . . ?
S2 O7 Fe2 134.1(3) . . ?
S3 O10 Fe2 137.5(3) . . ?
S3 O11 Fe3 133.2(3) . . ?
C13 O14 Fe1 133.8(4) . . ?
C13 O15 Fe3 131.5(4) . . ?
C20 O16 Fe2 131.3(4) . 15_565 ?
C20 O17 Fe3 133.1(4) . 15_565 ?
C27 O18 Fe2 131.8(4) . 6_564 ?
C27 O19 Fe1 134.0(4) . 6_564 ?
C32 N1 C28 118.4(6) . . ?
C32 N1 Fe1 121.2(5) . . ?
C28 N1 Fe1 120.4(5) . . ?
C37 N2 C33 118.8(7) . . ?
C37 N2 Fe2 120.6(5) . . ?
C33 N2 Fe2 120.4(5) . . ?
C38A N3 C42 118.1(7) . . ?
C38A N3 Fe3 121.6(5) . . ?
C42 N3 Fe3 120.0(6) . . ?
C6 C1 C2 118.1(6) . . ?
C6 C1 C7 120.3(6) . . ?
C2 C1 C7 121.1(6) . . ?
C1 C2 C3 121.7(6) . . ?
C1 C2 H2 119.1 . . ?
C3 C2 H2 119.1 . . ?
C4 C3 C2 118.3(6) . . ?
C4 C3 C14 121.9(6) . . ?
C2 C3 C14 119.5(6) . . ?
C3 C4 C5 121.8(6) . . ?
C3 C4 H4 119.1 . . ?
C5 C4 H4 119.1 . . ?
C4 C5 C6 117.4(6) . . ?
C4 C5 C21 122.2(5) . . ?
C6 C5 C21 120.2(5) . . ?
C1 C6 C5 122.7(6) . . ?
C1 C6 H6 118.6 . . ?
C5 C6 H6 118.6 . . ?
C8 C7 C12 117.8(6) . . ?
C8 C7 C1 122.4(7) . . ?
C12 C7 C1 119.8(6) . . ?
C7 C8 C9 121.4(7) . . ?
C7 C8 H8 119.3 . . ?
C9 C8 H8 119.3 . . ?
C10 C9 C8 121.3(7) . . ?
C10 C9 H9 119.4 . . ?
C8 C9 H9 119.4 . . ?
C9 C10 C11 117.1(6) . . ?
C9 C10 C13 120.5(6) . . ?
C11 C10 C13 122.4(6) . . ?
C12 C11 C10 121.3(7) . . ?
C12 C11 H11 119.3 . . ?
C10 C11 H11 119.3 . . ?
C11 C12 C7 120.6(7) . . ?
C11 C12 H12 119.7 . . ?
C7 C12 H12 119.7 . . ?
O14 C13 O15 125.4(6) . . ?
O14 C13 C10 116.9(6) . . ?
O15 C13 C10 117.8(6) . . ?
C15 C14 C19 118.0(6) . . ?
C15 C14 C3 122.1(6) . . ?
C19 C14 C3 119.8(6) . . ?
C14 C15 C16A 120.8(6) . . ?
C14 C15 H15 119.6 . . ?
C16A C15 H15 119.6 . . ?
C17 C16A C15 121.8(6) . . ?
C17 C16A H16 119.1 . . ?
C15 C16A H16 119.1 . . ?
C16A C17 C18 117.4(6) . . ?
C16A C17 C20 123.7(6) . . ?
C18 C17 C20 118.8(6) . . ?
C19 C18 C17 121.2(6) . . ?
C19 C18 H18 119.4 . . ?
C17 C18 H18 119.4 . . ?
C18 C19 C14 120.5(6) . . ?
C18 C19 H19 119.8 . . ?
C14 C19 H19 119.8 . . ?
O17 C20 O16 125.6(6) . . ?
O17 C20 C17 117.1(6) . . ?
O16 C20 C17 117.3(6) . . ?
C22 C21 C26 120.0 . . ?
C22 C21 C5 121.3(4) . . ?
C26 C21 C5 118.5(4) . . ?
C21 C22 C23 120.0 . . ?
C21 C22 H22 120.0 . . ?
C23 C22 H22 120.0 . . ?
C24 C23 C22 120.0 . . ?
C24 C23 H23 120.0 . . ?
C22 C23 H23 120.0 . . ?
C23 C24 C25 120.0 . . ?
C23 C24 C27 121.6(4) . . ?
C25 C24 C27 118.2(4) . . ?
C26 C25 C24 120.0 . . ?
C26 C25 H25 120.0 . . ?
C24 C25 H25 120.0 . . ?
C25 C26 C21 120.0 . . ?
C25 C26 H26 120.0 . . ?
C21 C26 H26 120.0 . . ?
O18 C27 O19 126.1(6) . . ?
O18 C27 C24 118.0(5) . . ?
O19 C27 C24 115.8(5) . . ?
N1 C28 C29 122.3(8) . . ?
N1 C28 H28 118.9 . . ?
C29 C28 H28 118.9 . . ?
C30 C29 C28 119.4(8) . . ?
C30 C29 H29 120.3 . . ?
C28 C29 H29 120.3 . . ?
C29 C30 C31 118.9(9) . . ?
C29 C30 H30 120.6 . . ?
C31 C30 H30 120.6 . . ?
C32 C31 C30 119.2(9) . . ?
C32 C31 H31 120.4 . . ?
C30 C31 H31 120.4 . . ?
N1 C32 C31 121.6(8) . . ?
N1 C32 H32 119.2 . . ?
C31 C32 H32 119.2 . . ?
N2 C33 C34 122.0(9) . . ?
N2 C33 H33 119.0 . . ?
C34 C33 H33 119.0 . . ?
C35A C34 C33 120.2(10) . . ?
C35A C34 H34 119.9 . . ?
C33 C34 H34 119.9 . . ?
C34 C35A C36 119.2(9) . . ?
C34 C35A H35 120.4 . . ?
C36 C35A H35 120.4 . . ?
C37 C36 C35A 119.0(10) . . ?
C37 C36 H36 120.5 . . ?
C35A C36 H36 120.5 . . ?
N2 C37 C36 120.7(9) . . ?
N2 C37 H37B 119.7 . . ?
C36 C37 H37B 119.7 . . ?
N3 C38A C39 122.1(9) . . ?
N3 C38A H38 119.0 . . ?
C39 C38A H38 119.0 . . ?
C40 C39 C38A 119.2(10) . . ?
C40 C39 H39 120.4 . . ?
C38A C39 H39 120.4 . . ?
C41 C40 C39 117.6(10) . . ?
C41 C40 H40 121.2 . . ?
C39 C40 H40 121.2 . . ?
C40 C41 C42 119.6(11) . . ?
C40 C41 H41 120.2 . . ?
C42 C41 H41 120.2 . . ?
N3 C42 C41 123.1(10) . . ?
N3 C42 H42 118.5 . . ?
C41 C42 H42 118.5 . . ?
O4S O5S O4S 95(4) 6_454 . ?
O15S O13S O12S 56.4(16) . . ?
O15S O13S O14S 59.8(16) . . ?
O12S O13S O14S 111.2(13) . . ?
O15S O14S O13S 54.3(15) . . ?
O15S O14S O16S 42.3(14) . . ?
O13S O14S O16S 90.7(12) . . ?
O15S O12S O13S 55.0(16) . . ?
O15S O16S O14S 56(2) . . ?
O15S O16S O17S 148(3) . . ?
O14S O16S O17S 93.1(16) . . ?
O7S O8S O9S 63(3) . . ?
O7S O9S O8S 52(2) . . ?
O8S O7S O9S 65(3) . . ?
C1P N1P C1P 154(5) . 6_554 ?
N1P C1P C2P 105(3) . . ?
C3P C2P C1P 101(3) . . ?
C2P C3P C2P 152(5) 6_554 . ?
C2D C1D O1D 142(3) . . ?
C2D C1D N1D 87(3) . . ?
O1D C1D N1D 121(3) . . ?
C3D N1D C1D 90(3) . . ?
O20S O18S O19S 71(4) . . ?
O21S O19S O18S 174(4) . . ?
O16S O15S O13S 132(3) . . ?
O16S O15S O12S 151(4) . . ?
O13S O15S O12S 69(2) . . ?
O16S O15S O14S 81(3) . . ?
O13S O15S O14S 65.9(17) . . ?
O12S O15S O14S 127(3) . . ?

loop_
_geom_torsion_atom_site_label_1
_geom_torsion_atom_site_label_2
_geom_torsion_atom_site_label_3
_geom_torsion_atom_site_label_4
_geom_torsion
_geom_torsion_site_symmetry_1
_geom_torsion_site_symmetry_2
_geom_torsion_site_symmetry_3
_geom_torsion_site_symmetry_4
_geom_torsion_publ_flag
O11 Fe3 O1 Fe2 51.2(3) . . . . ?
O2 Fe3 O1 Fe2 139.5(2) . . . . ?
O17 Fe3 O1 Fe2 -43.2(2) 12_766 . . . ?
O15 Fe3 O1 Fe2 -128.1(2) . . . . ?
N3 Fe3 O1 Fe2 -105(9) . . . . ?
O11 Fe3 O1 Fe1 -131.1(2) . . . . ?
O2 Fe3 O1 Fe1 -42.8(3) . . . . ?
O17 Fe3 O1 Fe1 134.5(2) 12_766 . . . ?
O15 Fe3 O1 Fe1 49.6(3) . . . . ?
N3 Fe3 O1 Fe1 73(9) . . . . ?
O7 Fe2 O1 Fe3 -135.0(2) . . . . ?
O10 Fe2 O1 Fe3 -44.7(3) . . . . ?
O18 Fe2 O1 Fe3 133.1(2) 6_564 . . . ?
O16 Fe2 O1 Fe3 47.3(2) 12_766 . . . ?
N2 Fe2 O1 Fe3 90(3) . . . . ?
O7 Fe2 O1 Fe1 47.3(2) . . . . ?
O10 Fe2 O1 Fe1 137.6(2) . . . . ?
O18 Fe2 O1 Fe1 -44.6(2) 6_564 . . . ?
O16 Fe2 O1 Fe1 -130.4(2) 12_766 . . . ?
N2 Fe2 O1 Fe1 -88(3) . . . . ?
O6 Fe1 O1 Fe3 135.8(2) . . . . ?
O3 Fe1 O1 Fe3 46.8(2) . . . . ?
O19 Fe1 O1 Fe3 -131.5(2) 6_564 . . . ?
O14 Fe1 O1 Fe3 -44.2(2) . . . . ?
N1 Fe1 O1 Fe3 -87(3) . . . . ?
O6 Fe1 O1 Fe2 -46.5(2) . . . . ?
O3 Fe1 O1 Fe2 -135.5(2) . . . . ?
O19 Fe1 O1 Fe2 46.2(2) 6_564 . . . ?
O14 Fe1 O1 Fe2 133.5(2) . . . . ?
N1 Fe1 O1 Fe2 91(3) . . . . ?
O5 S1 O2 Fe3 86.5(5) . . . . ?
O4 S1 O2 Fe3 -150.8(5) . . . . ?
O3 S1 O2 Fe3 -34.0(6) . . . . ?
O1 Fe3 O2 S1 37.8(5) . . . . ?
O11 Fe3 O2 S1 133.1(5) . . . . ?
O17 Fe3 O2 S1 -130.8(7) 12_766 . . . ?
O15 Fe3 O2 S1 -57.3(5) . . . . ?
N3 Fe3 O2 S1 -140.8(6) . . . . ?
O5 S1 O3 Fe1 -80.3(5) . . . . ?
O4 S1 O3 Fe1 156.2(4) . . . . ?
O2 S1 O3 Fe1 40.0(5) . . . . ?
O1 Fe1 O3 S1 -48.5(4) . . . . ?
O6 Fe1 O3 S1 -145.0(4) . . . . ?
O19 Fe1 O3 S1 123.0(9) 6_564 . . . ?
O14 Fe1 O3 S1 46.4(4) . . . . ?
N1 Fe1 O3 S1 129.2(4) . . . . ?
O9 S2 O6 Fe1 -155.9(4) . . . . ?
O8 S2 O6 Fe1 79.5(5) . . . . ?
O7 S2 O6 Fe1 -40.2(5) . . . . ?
O1 Fe1 O6 S2 44.8(4) . . . . ?
O3 Fe1 O6 S2 142.0(4) . . . . ?
O19 Fe1 O6 S2 -49.7(4) 6_564 . . . ?
O14 Fe1 O6 S2 -135.1(8) . . . . ?
N1 Fe1 O6 S2 -133.0(4) . . . . ?
O9 S2 O7 Fe2 156.6(4) . . . . ?
O8 S2 O7 Fe2 -78.3(4) . . . . ?
O6 S2 O7 Fe2 41.3(4) . . . . ?
O1 Fe2 O7 S2 -46.8(4) . . . . ?
O10 Fe2 O7 S2 -143.6(4) . . . . ?
O18 Fe2 O7 S2 49.0(4) 6_564 . . . ?
O16 Fe2 O7 S2 121.2(9) 12_766 . . . ?
N2 Fe2 O7 S2 130.6(4) . . . . ?
O13 S3 O10 Fe2 90.4(5) . . . . ?
O12 S3 O10 Fe2 -145.8(4) . . . . ?
O11 S3 O10 Fe2 -27.7(5) . . . . ?
O1 Fe2 O10 S3 32.1(5) . . . . ?
O7 Fe2 O10 S3 128.7(5) . . . . ?
O18 Fe2 O10 S3 -137.6(8) 6_564 . . . ?
O16 Fe2 O10 S3 -62.3(5) 12_766 . . . ?
N2 Fe2 O10 S3 -145.3(5) . . . . ?
O13 S3 O11 Fe3 -78.9(5) . . . . ?
O12 S3 O11 Fe3 157.0(4) . . . . ?
O10 S3 O11 Fe3 39.0(5) . . . . ?
O1 Fe3 O11 S3 -51.2(4) . . . . ?
O2 Fe3 O11 S3 -149.1(4) . . . . ?
O17 Fe3 O11 S3 44.8(4) 12_766 . . . ?
O15 Fe3 O11 S3 124.8(11) . . . . ?
N3 Fe3 O11 S3 128.2(4) . . . . ?
O1 Fe1 O14 C13 13.1(6) . . . . ?
O6 Fe1 O14 C13 -167.0(9) . . . . ?
O3 Fe1 O14 C13 -84.4(6) . . . . ?
O19 Fe1 O14 C13 107.0(6) 6_564 . . . ?
N1 Fe1 O14 C13 -169.1(6) . . . . ?
O1 Fe3 O15 C13 -29.3(6) . . . . ?
O11 Fe3 O15 C13 154.7(10) . . . . ?
O2 Fe3 O15 C13 68.9(6) . . . . ?
O17 Fe3 O15 C13 -124.5(6) 12_766 . . . ?
N3 Fe3 O15 C13 151.2(6) . . . . ?
O1 Fe1 N1 C32 -95(3) . . . . ?
O6 Fe1 N1 C32 42.1(6) . . . . ?
O3 Fe1 N1 C32 130.6(6) . . . . ?
O19 Fe1 N1 C32 -50.6(6) 6_564 . . . ?
O14 Fe1 N1 C32 -138.3(6) . . . . ?
O1 Fe1 N1 C28 84(3) . . . . ?
O6 Fe1 N1 C28 -138.5(6) . . . . ?
O3 Fe1 N1 C28 -49.9(6) . . . . ?
O19 Fe1 N1 C28 128.8(6) 6_564 . . . ?
O14 Fe1 N1 C28 41.1(6) . . . . ?
O1 Fe2 N2 C37 -80(3) . . . . ?
O7 Fe2 N2 C37 144.2(6) . . . . ?
O10 Fe2 N2 C37 54.4(6) . . . . ?
O18 Fe2 N2 C37 -123.9(6) 6_564 . . . ?
O16 Fe2 N2 C37 -37.6(6) 12_766 . . . ?
O1 Fe2 N2 C33 94(3) . . . . ?
O7 Fe2 N2 C33 -41.8(6) . . . . ?
O10 Fe2 N2 C33 -131.6(6) . . . . ?
O18 Fe2 N2 C33 50.1(6) 6_564 . . . ?
O16 Fe2 N2 C33 136.4(6) 12_766 . . . ?
O1 Fe3 N3 C38A 119(9) . . . . ?
O11 Fe3 N3 C38A -37.4(7) . . . . ?
O2 Fe3 N3 C38A -125.5(7) . . . . ?
O17 Fe3 N3 C38A 56.9(7) 12_766 . . . ?
O15 Fe3 N3 C38A 142.0(7) . . . . ?
O1 Fe3 N3 C42 -68(9) . . . . ?
O11 Fe3 N3 C42 135.8(8) . . . . ?
O2 Fe3 N3 C42 47.7(7) . . . . ?
O17 Fe3 N3 C42 -129.9(8) 12_766 . . . ?
O15 Fe3 N3 C42 -44.8(7) . . . . ?
C6 C1 C2 C3 -0.2(12) . . . . ?
C7 C1 C2 C3 -172.1(7) . . . . ?
C1 C2 C3 C4 -1.0(12) . . . . ?
C1 C2 C3 C14 173.1(7) . . . . ?
C2 C3 C4 C5 1.9(12) . . . . ?
C14 C3 C4 C5 -172.1(7) . . . . ?
C3 C4 C5 C6 -1.6(12) . . . . ?
C3 C4 C5 C21 172.8(7) . . . . ?
C2 C1 C6 C5 0.6(12) . . . . ?
C7 C1 C6 C5 172.5(7) . . . . ?
C4 C5 C6 C1 0.3(12) . . . . ?
C21 C5 C6 C1 -174.2(7) . . . . ?
C6 C1 C7 C8 -144.4(8) . . . . ?
C2 C1 C7 C8 27.4(12) . . . . ?
C6 C1 C7 C12 34.4(12) . . . . ?
C2 C1 C7 C12 -153.9(8) . . . . ?
C12 C7 C8 C9 -2.7(13) . . . . ?
C1 C7 C8 C9 176.0(8) . . . . ?
C7 C8 C9 C10 -3.6(14) . . . . ?
C8 C9 C10 C11 8.0(12) . . . . ?
C8 C9 C10 C13 -173.9(7) . . . . ?
C9 C10 C11 C12 -6.2(12) . . . . ?
C13 C10 C11 C12 175.7(7) . . . . ?
C10 C11 C12 C7 0.1(13) . . . . ?
C8 C7 C12 C11 4.4(13) . . . . ?
C1 C7 C12 C11 -174.3(7) . . . . ?
Fe1 O14 C13 O15 7.6(10) . . . . ?
Fe1 O14 C13 C10 -172.0(4) . . . . ?
Fe3 O15 C13 O14 2.6(11) . . . . ?
Fe3 O15 C13 C10 -177.8(5) . . . . ?
C9 C10 C13 O14 153.9(7) . . . . ?
C11 C10 C13 O14 -28.0(10) . . . . ?
C9 C10 C13 O15 -25.7(10) . . . . ?
C11 C10 C13 O15 152.3(7) . . . . ?
C4 C3 C14 C15 -158.9(8) . . . . ?
C2 C3 C14 C15 27.2(11) . . . . ?
C4 C3 C14 C19 25.2(12) . . . . ?
C2 C3 C14 C19 -148.8(8) . . . . ?
C19 C14 C15 C16A 3.9(12) . . . . ?
C3 C14 C15 C16A -172.1(7) . . . . ?
C14 C15 C16A C17 -2.5(12) . . . . ?
C15 C16A C17 C18 -2.3(11) . . . . ?
C15 C16A C17 C20 175.1(7) . . . . ?
C16A C17 C18 C19 5.6(12) . . . . ?
C20 C17 C18 C19 -171.9(8) . . . . ?
C17 C18 C19 C14 -4.2(14) . . . . ?
C15 C14 C19 C18 -0.6(13) . . . . ?
C3 C14 C19 C18 175.5(8) . . . . ?
Fe3 O17 C20 O16 -19.0(10) 15_565 . . . ?
Fe3 O17 C20 C17 160.9(4) 15_565 . . . ?
Fe2 O16 C20 O17 10.1(10) 15_565 . . . ?
Fe2 O16 C20 C17 -169.9(4) 15_565 . . . ?
C16A C17 C20 O17 154.0(7) . . . . ?
C18 C17 C20 O17 -28.7(9) . . . . ?
C16A C17 C20 O16 -26.1(10) . . . . ?
C18 C17 C20 O16 151.3(7) . . . . ?
C4 C5 C21 C22 20.8(10) . . . . ?
C6 C5 C21 C22 -165.0(6) . . . . ?
C4 C5 C21 C26 -153.2(6) . . . . ?
C6 C5 C21 C26 21.0(9) . . . . ?
C26 C21 C22 C23 0.0 . . . . ?
C5 C21 C22 C23 -174.0(6) . . . . ?
C21 C22 C23 C24 0.0 . . . . ?
C22 C23 C24 C25 0.0 . . . . ?
C22 C23 C24 C27 175.0(5) . . . . ?
C23 C24 C25 C26 0.0 . . . . ?
C27 C24 C25 C26 -175.1(5) . . . . ?
C24 C25 C26 C21 0.0 . . . . ?
C22 C21 C26 C25 0.0 . . . . ?
C5 C21 C26 C25 174.1(6) . . . . ?
Fe2 O18 C27 O19 3.1(10) 6_564 . . . ?
Fe2 O18 C27 C24 -173.4(4) 6_564 . . . ?
Fe1 O19 C27 O18 0.9(11) 6_564 . . . ?
Fe1 O19 C27 C24 177.5(4) 6_564 . . . ?
C23 C24 C27 O18 -16.6(8) . . . . ?
C25 C24 C27 O18 158.5(5) . . . . ?
C23 C24 C27 O19 166.5(5) . . . . ?
C25 C24 C27 O19 -18.4(7) . . . . ?
C32 N1 C28 C29 -0.4(12) . . . . ?
Fe1 N1 C28 C29 -179.9(7) . . . . ?
N1 C28 C29 C30 -1.3(16) . . . . ?
C28 C29 C30 C31 -0.5(18) . . . . ?
C29 C30 C31 C32 3.9(19) . . . . ?
C28 N1 C32 C31 3.9(13) . . . . ?
Fe1 N1 C32 C31 -176.6(7) . . . . ?
C30 C31 C32 N1 -5.7(16) . . . . ?
C37 N2 C33 C34 -4.3(13) . . . . ?
Fe2 N2 C33 C34 -178.3(7) . . . . ?
N2 C33 C34 C35A 3.8(17) . . . . ?
C33 C34 C35A C36 -1.3(19) . . . . ?
C34 C35A C36 C37 -0.4(19) . . . . ?
C33 N2 C37 C36 2.4(13) . . . . ?
Fe2 N2 C37 C36 176.5(8) . . . . ?
C35A C36 C37 N2 -0.1(17) . . . . ?
C42 N3 C38A C39 -3.4(15) . . . . ?
Fe3 N3 C38A C39 169.9(8) . . . . ?
N3 C38A C39 C40 2.0(19) . . . . ?
C38A C39 C40 C41 4(2) . . . . ?
C39 C40 C41 C42 -7(2) . . . . ?
C38A N3 C42 C41 -0.6(17) . . . . ?
Fe3 N3 C42 C41 -174.1(11) . . . . ?
C40 C41 C42 N3 6(2) . . . . ?
O12S O13S O14S O15S -24.0(19) . . . . ?
O15S O13S O14S O16S -23.3(18) . . . . ?
O12S O13S O14S O16S -47.3(15) . . . . ?
O14S O13S O12S O15S 25.0(19) . . . . ?
O13S O14S O16S O15S 28(2) . . . . ?
O15S O14S O16S O17S -168(3) . . . . ?
O13S O14S O16S O17S -139.7(15) . . . . ?
C1P N1P C1P C2P -6(3) 6_554 . . . ?
N1P C1P C2P C3P 10(4) . . . . ?
C1P C2P C3P C2P -6(2) . . . 6_554 ?
C2D C1D N1D C3D 165(3) . . . . ?
O1D C1D N1D C3D -43(4) . . . . ?
O20S O18S O19S O21S 36(41) . . . . ?
O14S O16S O15S O13S -46(3) . . . . ?
O17S O16S O15S O13S -23(8) . . . . ?
O14S O16S O15S O12S -174(7) . . . . ?
O17S O16S O15S O12S -152(5) . . . . ?
O17S O16S O15S O14S 23(5) . . . . ?
O12S O13S O15S O16S -156(5) . . . . ?
O14S O13S O15S O16S 51(4) . . . . ?
O14S O13S O15S O12S -153(2) . . . . ?
O12S O13S O15S O14S 153(2) . . . . ?
O13S O12S O15S O16S 141(7) . . . . ?
O13S O12S O15S O14S -32(2) . . . . ?
O13S O14S O15S O16S -144(3) . . . . ?
O16S O14S O15S O13S 144(3) . . . . ?
O13S O14S O15S O12S 32(2) . . . . ?
O16S O14S O15S O12S 176(4) . . . . ?

_diffrn_measured_fraction_theta_max 0.962
_diffrn_reflns_theta_full        28.28
_diffrn_measured_fraction_theta_full 0.962
_refine_diff_density_max         0.924
_refine_diff_density_min         -0.498
_refine_diff_density_rms         0.139


