####################################################################### 
# 
# This file contains crystal structure data downloaded from the 
# Cambridge Structural Database (CSD) hosted by the Cambridge 
# Crystallographic Data Centre (CCDC).
# 
# Full information about CCDC data access policies and citation 
# guidelines are available at http://www.ccdc.cam.ac.uk/access/V1 
# 
# Audit and citation data items may have been added by the CCDC. 
# Please retain this information to preserve the provenance of 
# this file and to allow appropriate attribution of the data. 
# 
#######################################################################

data_PCN-88'
_audit_block_doi                 10.5517/ccy428d
_database_code_depnum_ccdc_archive 'CCDC 867853'
loop_
_citation_id
_citation_doi
_citation_year
1 10.1038/ncomms2552 2013
_audit_update_record             
;
2012-02-20 deposited with the CCDC.	2019-02-14 downloaded from the CCDC.
;
#TrackingRef '5-PCN-88.cif'


_audit_creation_method           SHELXL-97
_chemical_name_systematic        
;
?
;
_chemical_name_common            ?
_chemical_melting_point          ?
_chemical_formula_moiety         'C80 H38 Cu6 N O29'
_chemical_formula_sum            'C80 H38 Cu6 N O29'
_chemical_formula_weight         1858.35

loop_
_atom_type_symbol
_atom_type_description
_atom_type_scat_dispersion_real
_atom_type_scat_dispersion_imag
_atom_type_scat_source
C C 0.0033 0.0016 'International Tables Vol C Tables 4.2.6.8 and 6.1.1.4'
H H 0.0000 0.0000 'International Tables Vol C Tables 4.2.6.8 and 6.1.1.4'
Cu Cu 0.3201 1.2651 'International Tables Vol C Tables 4.2.6.8 and 6.1.1.4'
N N 0.0061 0.0033 'International Tables Vol C Tables 4.2.6.8 and 6.1.1.4'
O O 0.0106 0.0060 'International Tables Vol C Tables 4.2.6.8 and 6.1.1.4'

_symmetry_cell_setting           Orthorhombic
_symmetry_space_group_name_H-M   Imm2
_symmetry_Hall_group_name_H-M    'I 2 -2'

loop_
_symmetry_equiv_pos_as_xyz
'x, y, z'
'-x, -y, z'
'-x, y, z'
'x, -y, z'
'x+1/2, y+1/2, z+1/2'
'-x+1/2, -y+1/2, z+1/2'
'-x+1/2, y+1/2, z+1/2'
'x+1/2, -y+1/2, z+1/2'

_cell_length_a                   27.50(3)
_cell_length_b                   36.65(4)
_cell_length_c                   18.50(2)
_cell_angle_alpha                90.00
_cell_angle_beta                 90.00
_cell_angle_gamma                90.00
_cell_volume                     18646(35)
_cell_formula_units_Z            4
_cell_measurement_temperature    110(2)
_cell_measurement_reflns_used    4664
_cell_measurement_theta_min      2.223
_cell_measurement_theta_max      20.389

_exptl_crystal_description       Plate
_exptl_crystal_colour            Blue
_exptl_crystal_size_max          0.42
_exptl_crystal_size_mid          0.38
_exptl_crystal_size_min          0.06
_exptl_crystal_density_meas      ?
_exptl_crystal_density_diffrn    0.662
_exptl_crystal_density_method    'not measured'
_exptl_crystal_F_000             3724
_exptl_absorpt_coefficient_mu    0.708
_exptl_absorpt_correction_type   Multi-Scan
_exptl_absorpt_correction_T_min  0.7554
_exptl_absorpt_correction_T_max  0.9588
_exptl_absorpt_process_details   SADABS

_exptl_special_details           
;
?
;

_diffrn_ambient_temperature      110(2)
_diffrn_radiation_wavelength     0.71073
_diffrn_radiation_type           MoK\a
_diffrn_radiation_source         'fine-focus sealed tube'
_diffrn_radiation_monochromator  graphite
_diffrn_measurement_device_type  'BRUKER APEX-II CCD'
_diffrn_measurement_method       'phi and omega scans'
_diffrn_detector_area_resol_mean ?
_diffrn_reflns_number            85054
_diffrn_reflns_av_R_equivalents  0.1980
_diffrn_reflns_av_sigmaI/netI    0.2000
_diffrn_reflns_limit_h_min       -33
_diffrn_reflns_limit_h_max       32
_diffrn_reflns_limit_k_min       -43
_diffrn_reflns_limit_k_max       43
_diffrn_reflns_limit_l_min       -21
_diffrn_reflns_limit_l_max       22
_diffrn_reflns_theta_min         1.73
_diffrn_reflns_theta_max         25.35
_reflns_number_total             17354
_reflns_number_gt                6477
_reflns_threshold_expression     I>2sigma(I)

_computing_data_collection       'Bruker APEX-II'
_computing_cell_refinement       'Bruker SAINT'
_computing_data_reduction        'Bruker SAINT'
_computing_structure_solution    'SHELXS-97 (Sheldrick, 2008)'
_computing_structure_refinement  'SHELXL-97 (Sheldrick, 2008)'
_computing_molecular_graphics    'Bruker SHELXTL'
_computing_publication_material  'Bruker SHELXTL'

_refine_special_details          
;
Refinement of F^2^ against ALL reflections. The weighted R-factor wR and
goodness of fit S are based on F^2^, conventional R-factors R are based
on F, with F set to zero for negative F^2^. The threshold expression of
F^2^ > 2sigma(F^2^) is used only for calculating R-factors(gt) etc. and is
not relevant to the choice of reflections for refinement. R-factors based
on F^2^ are statistically about twice as large as those based on F, and R-
factors based on ALL data will be even larger.
;

_refine_ls_structure_factor_coef Fsqd
_refine_ls_matrix_type           full
_refine_ls_weighting_scheme      calc
_refine_ls_weighting_details     
'calc w=1/[\s^2^(Fo^2^)+(0.1034P)^2^+0.0000P] where P=(Fo^2^+2Fc^2^)/3'
_atom_sites_solution_primary     direct
_atom_sites_solution_secondary   difmap
_atom_sites_solution_hydrogens   geom
_refine_ls_hydrogen_treatment    constr
_refine_ls_extinction_method     none
_refine_ls_extinction_coef       ?
_refine_ls_abs_structure_details 'Flack H D (1983), Acta Cryst. A39, 876-881'
_refine_ls_abs_structure_Flack   0.467(10)
_refine_ls_number_reflns         17354
_refine_ls_number_parameters     472
_refine_ls_number_restraints     82
_refine_ls_R_factor_all          0.1544
_refine_ls_R_factor_gt           0.0816
_refine_ls_wR_factor_ref         0.2165
_refine_ls_wR_factor_gt          0.1897
_refine_ls_goodness_of_fit_ref   0.811
_refine_ls_restrained_S_all      0.814
_refine_ls_shift/su_max          0.080
_refine_ls_shift/su_mean         0.005

loop_
_atom_site_label
_atom_site_type_symbol
_atom_site_fract_x
_atom_site_fract_y
_atom_site_fract_z
_atom_site_U_iso_or_equiv
_atom_site_adp_type
_atom_site_occupancy
_atom_site_symmetry_multiplicity
_atom_site_calc_flag
_atom_site_refinement_flags
_atom_site_disorder_assembly
_atom_site_disorder_group
Cu1 Cu 0.0000 0.170572(15) 0.89128(5) 0.0617(2) Uani 1 2 d S . .
Cu2 Cu 0.0000 0.098254(14) 0.88896(4) 0.04209(16) Uani 1 2 d S . .
Cu3 Cu 0.211830(17) 0.267443(14) 1.12196(3) 0.09187(19) Uani 1 1 d . . .
Cu4 Cu 0.273642(17) 0.225969(15) 1.19724(3) 0.08630(18) Uani 1 1 d . . .
O1 O 0.24024(10) 0.19441(8) 0.6318(2) 0.1298(13) Uani 1 1 d . . .
O2 O 0.18555(8) 0.23015(7) 0.69804(17) 0.0900(10) Uani 1 1 d . . .
O3 O 0.05028(8) 0.10342(7) 0.81603(12) 0.0609(9) Uani 1 1 d D . .
O4 O 0.04971(8) 0.16455(6) 0.81756(12) 0.0553(8) Uani 1 1 d D . .
O5 O 0.04984(8) 0.10451(6) 0.96629(14) 0.0624(9) Uani 1 1 d D . .
O6 O 0.05026(9) 0.16528(6) 0.96680(16) 0.0774(10) Uani 1 1 d D . .
O7 O 0.22137(9) 0.19132(8) 1.18537(17) 0.1143(11) Uani 1 1 d D . .
O8 O 0.16984(8) 0.22392(7) 1.1226(2) 0.1077(11) Uani 1 1 d D . .
O9 O 0.19029(10) 0.28119(7) 1.21578(17) 0.1037(11) Uani 1 1 d D . .
O10 O 0.24125(9) 0.24484(9) 1.28237(16) 0.0988(11) Uani 1 1 d D . .
O11 O 0.20383(9) 0.28412(9) 1.61249(16) 0.1270(12) Uani 1 1 d D . .
O12 O 0.25401(10) 0.25395(8) 1.53886(16) 0.0990(11) Uani 1 1 d D . .
O13 O 0.0000 0.22867(10) 0.8948(4) 0.134(2) Uani 1 2 d S . .
O14 O 0.16314(10) 0.30264(9) 1.0660(2) 0.1235(14) Uani 1 1 d . . .
O15 O 0.32191(11) 0.18762(9) 1.2495(2) 0.1419(16) Uani 1 1 d . . .
N1 N 0.0000 0.03829(7) 0.89203(16) 0.0271(7) Uiso 1 2 d SD . .
C1 C 0.06622(8) 0.13520(9) 0.79735(14) 0.0446(11) Uani 1 1 d D . .
C2 C 0.10494(7) 0.13464(9) 0.74157(12) 0.0759(14) Uani 1 1 d D . .
C3 C 0.13179(10) 0.16495(11) 0.72753(17) 0.0907(17) Uani 1 1 d D . .
H3 H 0.1242 0.1863 0.7542 0.109 Uiso 1 1 calc R . .
C4 C 0.16933(13) 0.16741(11) 0.6777(2) 0.0750(13) Uiso 1 1 d D . .
C5 C 0.17621(18) 0.13506(12) 0.6365(3) 0.1256(19) Uiso 1 1 d D . .
H5 H 0.1985 0.1356 0.5972 0.151 Uiso 1 1 calc R . .
C6 C 0.15162(15) 0.10246(12) 0.6514(3) 0.160(2) Uani 1 1 d D . .
C7 C 0.11632(15) 0.10398(13) 0.7014(2) 0.1026(16) Uiso 1 1 d D . .
H7 H 0.0978 0.0825 0.7097 0.123 Uiso 1 1 calc R . .
C8 C 0.19996(19) 0.19911(16) 0.6638(3) 0.131(2) Uiso 1 1 d D . .
C9 C 0.16763(10) 0.06907(13) 0.6175(2) 0.132(2) Uani 1 1 d D . .
C10 C 0.15944(9) 0.03510(13) 0.6458(2) 0.178(2) Uani 1 1 d D . .
H10 H 0.1450 0.0350 0.6924 0.213 Uiso 1 1 calc R . .
C11 C 0.16898(14) 0.0000 0.6166(3) 0.184(5) Uani 1 2 d SD . .
C12 C 0.1912(2) 0.0000 0.5461(3) 0.112(3) Uani 1 2 d SD . .
C13 C 0.20112(16) 0.03386(12) 0.5128(2) 0.128(2) Uani 1 1 d D . .
H13 H 0.2166 0.0350 0.4670 0.153 Uiso 1 1 calc R . .
C14 C 0.1878(3) 0.06490(18) 0.5485(3) 0.399(4) Uani 1 1 d D . .
H14 H 0.1929 0.0870 0.5226 0.479 Uiso 1 1 calc R . .
C15 C 0.06115(9) 0.13538(10) 0.99139(14) 0.0632(12) Uiso 1 1 d D . .
C16 C 0.09634(6) 0.13429(9) 1.05316(11) 0.0854(15) Uiso 1 1 d D . .
C17 C 0.10219(12) 0.10149(11) 1.09196(16) 0.1049(16) Uani 1 1 d D . .
H17 H 0.0843 0.0805 1.0778 0.126 Uiso 1 1 calc R . .
C18 C 0.13325(17) 0.09939(13) 1.1499(2) 0.1202(19) Uiso 1 1 d D . .
C19 C 0.16137(18) 0.13171(15) 1.1666(3) 0.248(3) Uani 1 1 d D . .
H19 H 0.1854 0.1308 1.2034 0.298 Uiso 1 1 calc R . .
C20 C 0.15336(16) 0.16408(12) 1.1289(3) 0.155(2) Uani 1 1 d D . .
C21 C 0.12035(11) 0.16555(10) 1.0712(2) 0.0789(14) Uani 1 1 d D . .
H21 H 0.1149 0.1876 1.0455 0.095 Uiso 1 1 calc R . .
C22 C 0.18522(14) 0.19575(11) 1.1489(3) 0.125(2) Uani 1 1 d D . .
C23 C 0.13423(10) 0.06567(13) 1.1975(2) 0.1157(18) Uiso 1 1 d D . .
C24 C 0.13877(9) 0.06388(18) 1.2730(3) 0.326(5) Uani 1 1 d D . .
H24 H 0.1400 0.0863 1.2986 0.392 Uiso 1 1 calc R . .
C25 C 0.14156(14) 0.03256(18) 1.3125(3) 0.452(10) Uani 1 1 d D . .
H25 H 0.1448 0.0329 1.3637 0.543 Uiso 1 1 calc R . .
C26 C 0.1394(3) 0.0000 1.2734(4) 0.167(4) Uiso 1 2 d SD . .
C27 C 0.1352(2) 0.0000 1.1973(4) 0.141(3) Uiso 1 2 d SD . .
C28 C 0.13292(19) 0.03236(11) 1.1569(3) 0.216(2) Uani 1 1 d D . .
H28 H 0.1307 0.0322 1.1057 0.259 Uiso 1 1 calc R . .
C29 C 0.21030(9) 0.26989(6) 1.27432(18) 0.0509(10) Uiso 1 1 d D . .
C30 C 0.19376(7) 0.28239(5) 1.3464(3) 0.124(2) Uiso 1 1 d D . .
C31 C 0.15333(12) 0.30619(9) 1.3504(3) 0.128(2) Uani 1 1 d D . .
H31 H 0.1379 0.3132 1.3066 0.154 Uiso 1 1 calc R . .
C32 C 0.13426(11) 0.32032(10) 1.4174(2) 0.0752(15) Uani 1 1 d D . .
C33 C 0.15590(12) 0.31049(11) 1.4818(2) 0.0730(16) Uani 1 1 d D . .
H33 H 0.1447 0.3196 1.5268 0.088 Uiso 1 1 calc R . .
C34 C 0.19521(12) 0.28640(11) 1.4773(2) 0.0781(15) Uani 1 1 d D . .
C35 C 0.21261(14) 0.27412(9) 1.4126(2) 0.0729(13) Uani 1 1 d D . .
H35 H 0.2402 0.2585 1.4137 0.088 Uiso 1 1 calc R . .
C36 C 0.21639(15) 0.27665(12) 1.5503(2) 0.0844(14) Uiso 1 1 d D . .
C37 C 0.08846(14) 0.34261(10) 1.41945(18) 0.193(4) Uani 1 1 d D . .
C38 C 0.04560(11) 0.32850(8) 1.39875(14) 0.0871(15) Uani 1 1 d D . .
H38 H 0.0451 0.3061 1.3731 0.105 Uiso 1 1 calc R . .
C39 C 0.0000 0.34671(12) 1.4146(2) 0.083(2) Uani 1 2 d SD . .
C40 C 0.0000 0.38145(16) 1.4540(3) 0.113(3) Uani 1 2 d SD . .
C41 C 0.04401(14) 0.39605(12) 1.4765(3) 0.135(2) Uani 1 1 d D . .
H41 H 0.0456 0.4181 1.5036 0.162 Uiso 1 1 calc R . .
C42 C 0.08461(16) 0.37724(12) 1.4579(3) 0.115(2) Uani 1 1 d D . .
H42 H 0.1146 0.3881 1.4718 0.138 Uiso 1 1 calc R . .
C43 C 0.0000 0.0209(2) 0.8261(3) 0.222(6) Uiso 1 2 d SD . .
H43 H 0.0000 0.0344 0.7822 0.266 Uiso 1 2 calc SR . .
C44 C 0.0000 0.01805(16) 0.9556(3) 0.130(3) Uiso 1 2 d SD . .
H44 H 0.0000 0.0306 1.0006 0.156 Uiso 1 2 calc SR . .

loop_
_atom_site_aniso_label
_atom_site_aniso_U_11
_atom_site_aniso_U_22
_atom_site_aniso_U_33
_atom_site_aniso_U_23
_atom_site_aniso_U_13
_atom_site_aniso_U_12
Cu1 0.0305(3) 0.0444(4) 0.1102(5) 0.0043(5) 0.000 0.000
Cu2 0.0274(2) 0.0428(3) 0.0560(4) 0.0034(4) 0.000 0.000
Cu3 0.0636(2) 0.0719(3) 0.1401(4) -0.0469(3) -0.0570(3) 0.0156(3)
Cu4 0.0672(3) 0.0687(4) 0.1230(4) -0.0385(3) -0.0516(3) 0.0145(3)
O1 0.0937(17) 0.090(2) 0.206(3) 0.015(2) 0.1053(19) 0.0159(17)
O2 0.0741(14) 0.0615(17) 0.134(2) 0.0309(17) 0.0473(17) -0.0352(13)
O3 0.0371(12) 0.0783(19) 0.0673(16) 0.0373(14) 0.0067(12) -0.0029(13)
O4 0.0434(12) 0.0611(18) 0.0613(16) 0.0090(14) 0.0162(12) 0.0036(12)
O5 0.0527(14) 0.0303(15) 0.104(2) 0.0007(15) -0.0295(14) -0.0222(12)
O6 0.0506(14) 0.0311(16) 0.151(3) -0.0250(17) -0.0193(17) 0.0111(12)
O7 0.0760(16) 0.085(2) 0.181(3) -0.0784(19) -0.0842(17) 0.0155(15)
O8 0.0617(13) 0.0503(18) 0.211(3) -0.020(2) -0.0853(18) 0.0035(13)
O9 0.1005(18) 0.0797(19) 0.131(2) -0.0697(18) -0.0384(18) 0.0454(16)
O10 0.0600(15) 0.123(2) 0.113(2) -0.0577(19) -0.0369(16) 0.0431(16)
O11 0.0562(15) 0.217(3) 0.107(2) -0.114(2) 0.0422(15) -0.0476(18)
O12 0.1024(19) 0.082(2) 0.112(2) 0.0349(18) 0.0652(17) 0.0408(17)
O13 0.151(4) 0.042(2) 0.210(5) -0.025(4) 0.000 0.000
O14 0.0789(19) 0.103(3) 0.188(3) 0.014(2) -0.061(2) 0.0143(18)
O15 0.093(2) 0.097(3) 0.236(4) -0.030(3) -0.079(2) 0.0265(19)
C1 0.0117(13) 0.059(2) 0.063(2) 0.035(2) 0.0143(14) -0.0037(15)
C2 0.0387(18) 0.083(3) 0.106(3) 0.069(2) 0.0355(19) 0.0026(19)
C3 0.064(2) 0.107(4) 0.101(3) 0.016(3) 0.051(2) 0.034(2)
C6 0.163(3) 0.100(4) 0.215(4) -0.060(3) 0.160(3) -0.063(3)
C9 0.116(3) 0.188(5) 0.093(3) 0.050(3) 0.066(3) -0.048(3)
C10 0.248(5) 0.133(5) 0.153(4) 0.059(4) 0.166(3) 0.040(4)
C11 0.113(6) 0.380(15) 0.059(5) 0.000 0.040(5) 0.000
C12 0.125(5) 0.148(7) 0.063(4) 0.000 0.031(4) 0.000
C13 0.092(3) 0.189(5) 0.102(3) 0.107(3) 0.029(3) 0.006(3)
C14 0.793(11) 0.126(7) 0.277(5) -0.034(5) 0.425(5) -0.083(7)
C17 0.160(3) 0.088(3) 0.066(2) -0.055(2) -0.087(2) 0.075(3)
C19 0.189(4) 0.380(8) 0.175(5) -0.109(5) -0.086(4) -0.156(4)
C20 0.101(3) 0.171(4) 0.193(4) -0.162(3) -0.030(3) -0.002(3)
C21 0.039(2) 0.061(2) 0.137(3) -0.076(2) -0.023(2) 0.0060(18)
C22 0.101(3) 0.057(3) 0.216(5) -0.062(3) -0.094(3) -0.006(2)
C24 0.656(14) 0.203(8) 0.121(4) -0.079(4) -0.207(6) -0.035(9)
C25 1.01(3) 0.259(11) 0.086(5) 0.025(6) -0.172(10) -0.067(15)
C28 0.421(5) 0.062(3) 0.165(3) 0.027(3) -0.238(3) -0.099(4)
C31 0.079(3) 0.069(3) 0.237(5) -0.081(3) -0.069(3) 0.011(2)
C32 0.045(2) 0.065(3) 0.116(4) -0.022(3) 0.025(2) -0.0336(18)
C33 0.049(2) 0.080(3) 0.089(3) 0.003(3) 0.010(2) -0.003(2)
C34 0.047(2) 0.072(3) 0.115(3) -0.019(3) 0.027(2) -0.022(2)
C35 0.109(3) 0.048(2) 0.061(2) -0.002(2) -0.027(2) -0.045(2)
C37 0.053(3) 0.062(3) 0.465(11) -0.059(6) 0.003(5) 0.007(2)
C38 0.0478(19) 0.086(3) 0.128(3) -0.020(4) 0.017(3) -0.014(2)
C39 0.046(3) 0.066(4) 0.135(6) -0.022(4) 0.000 0.000
C40 0.146(6) 0.100(5) 0.093(5) -0.070(4) 0.000 0.000
C41 0.085(3) 0.059(3) 0.260(6) -0.063(3) -0.084(3) -0.012(3)
C42 0.066(3) 0.087(4) 0.193(5) 0.047(4) -0.015(3) 0.011(3)

_geom_special_details            
;
All esds (except the esd in the dihedral angle between two l.s. planes)
are estimated using the full covariance matrix. The cell esds are taken
into account individually in the estimation of esds in distances, angles
and torsion angles; correlations between esds in cell parameters are only
used when they are defined by crystal symmetry. An approximate (isotropic)
treatment of cell esds is used for estimating esds involving l.s. planes.
;

loop_
_geom_bond_atom_site_label_1
_geom_bond_atom_site_label_2
_geom_bond_distance
_geom_bond_site_symmetry_2
_geom_bond_publ_flag
Cu1 O4 1.944(3) 3 ?
Cu1 O4 1.944(3) . ?
Cu1 O6 1.975(3) 3 ?
Cu1 O6 1.975(3) . ?
Cu1 O13 2.130(4) . ?
Cu1 Cu2 2.651(3) . ?
Cu2 O3 1.941(3) 3 ?
Cu2 O3 1.941(3) . ?
Cu2 O5 1.994(3) 3 ?
Cu2 O5 1.994(3) . ?
Cu2 N1 2.199(4) . ?
Cu3 O9 1.902(4) . ?
Cu3 O1 1.930(3) 6 ?
Cu3 O12 1.965(3) 6_554 ?
Cu3 O8 1.969(3) . ?
Cu3 O14 2.128(3) . ?
Cu3 Cu4 2.6720(18) . ?
Cu4 O11 1.726(3) 6_554 ?
Cu4 O7 1.931(3) . ?
Cu4 O10 1.937(3) . ?
Cu4 O2 1.961(3) 6 ?
Cu4 O15 2.161(4) . ?
O1 C8 1.268(6) . ?
O1 Cu3 1.930(3) 6_554 ?
O2 C8 1.361(6) . ?
O2 Cu4 1.961(3) 6_554 ?
O3 C1 1.292(4) . ?
O4 C1 1.226(4) . ?
O5 C15 1.262(4) . ?
O6 C15 1.224(4) . ?
O7 C22 1.213(5) . ?
O8 C22 1.217(5) . ?
O9 C29 1.283(4) . ?
O10 C29 1.261(4) . ?
O11 C36 1.232(5) . ?
O11 Cu4 1.726(3) 6 ?
O12 C36 1.344(5) . ?
O12 Cu3 1.965(3) 6 ?
N1 C43 1.375(6) . ?
N1 C44 1.390(5) . ?
C1 C2 1.483(3) . ?
C2 C3 1.359(5) . ?
C2 C7 1.384(5) . ?
C3 C4 1.387(5) . ?
C3 H3 0.9500 . ?
C4 C5 1.422(6) . ?
C4 C8 1.458(6) . ?
C5 C6 1.400(6) . ?
C5 H5 0.9500 . ?
C6 C7 1.341(6) . ?
C6 C9 1.444(6) . ?
C7 H7 0.9500 . ?
C9 C10 1.369(6) . ?
C9 C14 1.401(7) . ?
C10 C11 1.419(5) . ?
C10 H10 0.9500 . ?
C11 C10 1.419(5) 4 ?
C11 C12 1.441(7) . ?
C12 C13 1.412(5) 4 ?
C12 C13 1.412(5) . ?
C13 C14 1.366(7) . ?
C13 H13 0.9500 . ?
C14 H14 0.9500 . ?
C15 C16 1.498(3) . ?
C16 C21 1.364(4) . ?
C16 C17 1.409(5) . ?
C17 C18 1.372(5) . ?
C17 H17 0.9500 . ?
C18 C19 1.448(7) . ?
C18 C23 1.518(6) . ?
C19 C20 1.393(7) . ?
C19 H19 0.9500 . ?
C20 C21 1.402(6) . ?
C20 C22 1.500(6) . ?
C21 H21 0.9500 . ?
C23 C24 1.403(6) . ?
C23 C28 1.433(6) . ?
C24 C25 1.364(8) . ?
C24 H24 0.9500 . ?
C25 C26 1.397(7) . ?
C25 H25 0.9500 . ?
C26 C25 1.397(7) 4 ?
C26 C27 1.412(9) . ?
C27 C28 1.404(6) 4 ?
C27 C28 1.404(6) . ?
C28 H28 0.9500 . ?
C29 C30 1.482(5) . ?
C30 C35 1.363(6) . ?
C30 C31 1.415(4) . ?
C31 C32 1.443(6) . ?
C31 H31 0.9500 . ?
C32 C33 1.378(5) . ?
C32 C37 1.501(5) . ?
C33 C34 1.398(5) . ?
C33 H33 0.9500 . ?
C34 C35 1.366(5) . ?
C34 C36 1.514(6) . ?
C35 H35 0.9500 . ?
C37 C38 1.343(5) . ?
C37 C42 1.459(6) . ?
C38 C39 1.450(4) . ?
C38 H38 0.9500 . ?
C39 C38 1.450(4) 3 ?
C39 C40 1.467(7) . ?
C40 C41 1.387(5) 3 ?
C40 C41 1.387(5) . ?
C41 C42 1.357(6) . ?
C41 H41 0.9500 . ?
C42 H42 0.9500 . ?
C43 C43 1.535(16) 2 ?
C43 H43 0.9500 . ?
C44 C44 1.323(12) 2 ?
C44 H44 0.9500 . ?

loop_
_geom_angle_atom_site_label_1
_geom_angle_atom_site_label_2
_geom_angle_atom_site_label_3
_geom_angle
_geom_angle_site_symmetry_1
_geom_angle_site_symmetry_3
_geom_angle_publ_flag
O4 Cu1 O4 89.39(16) 3 . ?
O4 Cu1 O6 89.60(13) 3 3 ?
O4 Cu1 O6 167.84(10) . 3 ?
O4 Cu1 O6 167.84(10) 3 . ?
O4 Cu1 O6 89.60(13) . . ?
O6 Cu1 O6 88.84(18) 3 . ?
O4 Cu1 O13 97.76(16) 3 . ?
O4 Cu1 O13 97.77(16) . . ?
O6 Cu1 O13 94.38(16) 3 . ?
O6 Cu1 O13 94.39(16) . . ?
O4 Cu1 Cu2 82.83(7) 3 . ?
O4 Cu1 Cu2 82.82(7) . . ?
O6 Cu1 Cu2 85.02(7) 3 . ?
O6 Cu1 Cu2 85.02(7) . . ?
O13 Cu1 Cu2 179.2(2) . . ?
O3 Cu2 O3 90.84(16) 3 . ?
O3 Cu2 O5 89.87(13) 3 3 ?
O3 Cu2 O5 167.65(10) . 3 ?
O3 Cu2 O5 167.65(10) 3 . ?
O3 Cu2 O5 89.88(13) . . ?
O5 Cu2 O5 86.82(17) 3 . ?
O3 Cu2 N1 96.63(9) 3 . ?
O3 Cu2 N1 96.63(9) . . ?
O5 Cu2 N1 95.53(9) 3 . ?
O5 Cu2 N1 95.53(9) . . ?
O3 Cu2 Cu1 85.05(8) 3 . ?
O3 Cu2 Cu1 85.05(8) . . ?
O5 Cu2 Cu1 82.73(7) 3 . ?
O5 Cu2 Cu1 82.73(7) . . ?
N1 Cu2 Cu1 177.59(8) . . ?
O9 Cu3 O1 86.28(14) . 6 ?
O9 Cu3 O12 165.62(12) . 6_554 ?
O1 Cu3 O12 92.07(15) 6 6_554 ?
O9 Cu3 O8 91.51(14) . . ?
O1 Cu3 O8 170.63(13) 6 . ?
O12 Cu3 O8 87.81(14) 6_554 . ?
O9 Cu3 O14 95.00(14) . . ?
O1 Cu3 O14 92.08(15) 6 . ?
O12 Cu3 O14 99.34(15) 6_554 . ?
O8 Cu3 O14 97.18(14) . . ?
O9 Cu3 Cu4 82.71(11) . . ?
O1 Cu3 Cu4 85.91(12) 6 . ?
O12 Cu3 Cu4 82.92(11) 6_554 . ?
O8 Cu3 Cu4 84.78(11) . . ?
O14 Cu3 Cu4 177.04(10) . . ?
O11 Cu4 O7 91.32(14) 6_554 . ?
O11 Cu4 O10 168.56(14) 6_554 . ?
O7 Cu4 O10 89.14(13) . . ?
O11 Cu4 O2 88.69(14) 6_554 6 ?
O7 Cu4 O2 165.09(12) . 6 ?
O10 Cu4 O2 87.95(13) . 6 ?
O11 Cu4 O15 92.67(16) 6_554 . ?
O7 Cu4 O15 94.62(15) . . ?
O10 Cu4 O15 98.69(15) . . ?
O2 Cu4 O15 100.27(14) 6 . ?
O11 Cu4 Cu3 82.92(12) 6_554 . ?
O7 Cu4 Cu3 80.86(11) . . ?
O10 Cu4 Cu3 85.88(11) . . ?
O2 Cu4 Cu3 84.35(11) 6 . ?
O15 Cu4 Cu3 173.57(10) . . ?
C8 O1 Cu3 122.8(3) . 6_554 ?
C8 O2 Cu4 121.0(3) . 6_554 ?
C1 O3 Cu2 121.0(2) . . ?
C1 O4 Cu1 125.0(2) . . ?
C15 O5 Cu2 122.4(2) . . ?
C15 O6 Cu1 121.5(2) . . ?
C22 O7 Cu4 125.9(3) . . ?
C22 O8 Cu3 119.1(3) . . ?
C29 O9 Cu3 123.4(2) . . ?
C29 O10 Cu4 118.3(2) . . ?
C36 O11 Cu4 134.5(3) . 6 ?
C36 O12 Cu3 119.5(3) . 6 ?
C43 N1 C44 120.2(4) . . ?
C43 N1 Cu2 116.1(4) . . ?
C44 N1 Cu2 123.7(3) . . ?
O4 C1 O3 125.7(3) . . ?
O4 C1 C2 119.3(3) . . ?
O3 C1 C2 114.7(3) . . ?
C3 C2 C7 116.0(3) . . ?
C3 C2 C1 120.8(3) . . ?
C7 C2 C1 123.2(3) . . ?
C2 C3 C4 125.8(3) . . ?
C2 C3 H3 117.1 . . ?
C4 C3 H3 117.1 . . ?
C3 C4 C5 113.6(4) . . ?
C3 C4 C8 126.8(4) . . ?
C5 C4 C8 119.6(4) . . ?
C6 C5 C4 122.8(4) . . ?
C6 C5 H5 118.6 . . ?
C4 C5 H5 118.6 . . ?
C7 C6 C5 116.7(4) . . ?
C7 C6 C9 123.7(4) . . ?
C5 C6 C9 119.4(4) . . ?
C6 C7 C2 124.6(4) . . ?
C6 C7 H7 117.7 . . ?
C2 C7 H7 117.7 . . ?
O1 C8 O2 125.8(5) . . ?
O1 C8 C4 118.6(5) . . ?
O2 C8 C4 114.6(4) . . ?
C10 C9 C14 108.3(4) . . ?
C10 C9 C6 123.7(4) . . ?
C14 C9 C6 127.5(5) . . ?
C9 C10 C11 130.5(4) . . ?
C9 C10 H10 114.8 . . ?
C11 C10 H10 114.8 . . ?
C10 C11 C10 130.0(5) 4 . ?
C10 C11 C12 115.0(2) 4 . ?
C10 C11 C12 115.0(2) . . ?
C13 C12 C13 123.1(6) 4 . ?
C13 C12 C11 118.5(3) 4 . ?
C13 C12 C11 118.5(3) . . ?
C14 C13 C12 118.0(5) . . ?
C14 C13 H13 121.0 . . ?
C12 C13 H13 121.0 . . ?
C13 C14 C9 129.6(6) . . ?
C13 C14 H14 115.2 . . ?
C9 C14 H14 115.2 . . ?
O6 C15 O5 127.3(3) . . ?
O6 C15 C16 117.8(3) . . ?
O5 C15 C16 114.6(3) . . ?
C21 C16 C17 122.5(3) . . ?
C21 C16 C15 118.5(3) . . ?
C17 C16 C15 119.0(3) . . ?
C18 C17 C16 121.1(4) . . ?
C18 C17 H17 119.4 . . ?
C16 C17 H17 119.4 . . ?
C17 C18 C19 116.9(4) . . ?
C17 C18 C23 120.7(4) . . ?
C19 C18 C23 122.2(4) . . ?
C20 C19 C18 120.3(5) . . ?
C20 C19 H19 119.8 . . ?
C18 C19 H19 119.8 . . ?
C19 C20 C21 121.1(4) . . ?
C19 C20 C22 116.3(4) . . ?
C21 C20 C22 122.4(4) . . ?
C16 C21 C20 117.9(3) . . ?
C16 C21 H21 121.1 . . ?
C20 C21 H21 121.1 . . ?
O7 C22 O8 128.4(4) . . ?
O7 C22 C20 120.8(4) . . ?
O8 C22 C20 110.8(4) . . ?
C24 C23 C28 118.9(5) . . ?
C24 C23 C18 128.1(5) . . ?
C28 C23 C18 112.9(4) . . ?
C25 C24 C23 125.3(6) . . ?
C25 C24 H24 117.3 . . ?
C23 C24 H24 117.3 . . ?
C24 C25 C26 116.0(6) . . ?
C24 C25 H25 122.0 . . ?
C26 C25 H25 122.0 . . ?
C25 C26 C25 117.3(7) 4 . ?
C25 C26 C27 121.3(4) 4 . ?
C25 C26 C27 121.3(4) . . ?
C28 C27 C28 115.4(6) 4 . ?
C28 C27 C26 122.3(3) 4 . ?
C28 C27 C26 122.3(3) . . ?
C27 C28 C23 116.1(4) . . ?
C27 C28 H28 122.0 . . ?
C23 C28 H28 122.0 . . ?
O10 C29 O9 128.6(3) . . ?
O10 C29 C30 109.0(3) . . ?
O9 C29 C30 121.9(3) . . ?
C35 C30 C31 112.9(4) . . ?
C35 C30 C29 128.5(2) . . ?
C31 C30 C29 118.6(4) . . ?
C30 C31 C32 123.5(4) . . ?
C30 C31 H31 118.3 . . ?
C32 C31 H31 118.3 . . ?
C33 C32 C31 119.4(3) . . ?
C33 C32 C37 118.9(3) . . ?
C31 C32 C37 121.4(3) . . ?
C32 C33 C34 116.6(4) . . ?
C32 C33 H33 121.7 . . ?
C34 C33 H33 121.7 . . ?
C35 C34 C33 122.1(4) . . ?
C35 C34 C36 124.7(4) . . ?
C33 C34 C36 113.2(4) . . ?
C30 C35 C34 125.5(4) . . ?
C30 C35 H35 117.2 . . ?
C34 C35 H35 117.3 . . ?
O11 C36 O12 120.0(4) . . ?
O11 C36 C34 132.3(4) . . ?
O12 C36 C34 107.6(3) . . ?
C38 C37 C42 114.2(3) . . ?
C38 C37 C32 121.3(3) . . ?
C42 C37 C32 123.1(3) . . ?
C37 C38 C39 121.6(3) . . ?
C37 C38 H38 119.2 . . ?
C39 C38 H38 119.2 . . ?
C38 C39 C38 119.7(4) . 3 ?
C38 C39 C40 120.0(2) . . ?
C38 C39 C40 120.0(2) 3 . ?
C41 C40 C41 121.5(6) 3 . ?
C41 C40 C39 118.9(3) 3 . ?
C41 C40 C39 118.9(3) . . ?
C42 C41 C40 116.5(4) . . ?
C42 C41 H41 121.8 . . ?
C40 C41 H41 121.8 . . ?
C41 C42 C37 128.7(4) . . ?
C41 C42 H42 115.6 . . ?
C37 C42 H42 115.6 . . ?
N1 C43 C43 117.6(3) . 2 ?
N1 C43 H43 121.2 . . ?
C43 C43 H43 121.2 2 . ?
C44 C44 N1 122.2(3) 2 . ?
C44 C44 H44 118.9 2 . ?
N1 C44 H44 118.9 . . ?

loop_
_geom_torsion_atom_site_label_1
_geom_torsion_atom_site_label_2
_geom_torsion_atom_site_label_3
_geom_torsion_atom_site_label_4
_geom_torsion
_geom_torsion_site_symmetry_1
_geom_torsion_site_symmetry_2
_geom_torsion_site_symmetry_3
_geom_torsion_site_symmetry_4
_geom_torsion_publ_flag
O4 Cu1 Cu2 O3 -0.50(9) 3 . . 3 ?
O4 Cu1 Cu2 O3 -90.78(13) . . . 3 ?
O6 Cu1 Cu2 O3 89.72(14) 3 . . 3 ?
O6 Cu1 Cu2 O3 178.99(11) . . . 3 ?
O13 Cu1 Cu2 O3 134.36(8) . . . 3 ?
O4 Cu1 Cu2 O3 90.78(13) 3 . . . ?
O4 Cu1 Cu2 O3 0.49(9) . . . . ?
O6 Cu1 Cu2 O3 -179.00(11) 3 . . . ?
O6 Cu1 Cu2 O3 -89.73(14) . . . . ?
O13 Cu1 Cu2 O3 -134.36(8) . . . . ?
O4 Cu1 Cu2 O5 -91.00(13) 3 . . 3 ?
O4 Cu1 Cu2 O5 178.71(10) . . . 3 ?
O6 Cu1 Cu2 O5 -0.78(11) 3 . . 3 ?
O6 Cu1 Cu2 O5 88.49(14) . . . 3 ?
O13 Cu1 Cu2 O5 43.85(8) . . . 3 ?
O4 Cu1 Cu2 O5 -178.71(10) 3 . . . ?
O4 Cu1 Cu2 O5 91.00(13) . . . . ?
O6 Cu1 Cu2 O5 -88.49(14) 3 . . . ?
O6 Cu1 Cu2 O5 0.78(11) . . . . ?
O13 Cu1 Cu2 O5 -43.85(9) . . . . ?
O4 Cu1 Cu2 N1 -134.86(8) 3 . . . ?
O4 Cu1 Cu2 N1 134.86(8) . . . . ?
O6 Cu1 Cu2 N1 -44.63(9) 3 . . . ?
O6 Cu1 Cu2 N1 44.63(9) . . . . ?
O13 Cu1 Cu2 N1 0.000(14) . . . . ?
O9 Cu3 Cu4 O11 -175.99(14) . . . 6_554 ?
O1 Cu3 Cu4 O11 -89.22(16) 6 . . 6_554 ?
O12 Cu3 Cu4 O11 3.38(13) 6_554 . . 6_554 ?
O8 Cu3 Cu4 O11 91.81(15) . . . 6_554 ?
O14 Cu3 Cu4 O11 -136.5(19) . . . 6_554 ?
O9 Cu3 Cu4 O7 91.52(13) . . . . ?
O1 Cu3 Cu4 O7 178.29(15) 6 . . . ?
O12 Cu3 Cu4 O7 -89.11(13) 6_554 . . . ?
O8 Cu3 Cu4 O7 -0.68(14) . . . . ?
O14 Cu3 Cu4 O7 131.0(18) . . . . ?
O9 Cu3 Cu4 O10 1.73(12) . . . . ?
O1 Cu3 Cu4 O10 88.50(15) 6 . . . ?
O12 Cu3 Cu4 O10 -178.90(12) 6_554 . . . ?
O8 Cu3 Cu4 O10 -90.47(14) . . . . ?
O14 Cu3 Cu4 O10 41.2(19) . . . . ?
O9 Cu3 Cu4 O2 -86.61(13) . . . 6 ?
O1 Cu3 Cu4 O2 0.15(14) 6 . . 6 ?
O12 Cu3 Cu4 O2 92.76(13) 6_554 . . 6 ?
O8 Cu3 Cu4 O2 -178.81(14) . . . 6 ?
O14 Cu3 Cu4 O2 -47.1(19) . . . 6 ?
O9 Cu3 Cu4 O15 137.2(9) . . . . ?
O1 Cu3 Cu4 O15 -136.1(9) 6 . . . ?
O12 Cu3 Cu4 O15 -43.5(9) 6_554 . . . ?
O8 Cu3 Cu4 O15 45.0(9) . . . . ?
O14 Cu3 Cu4 O15 177(25) . . . . ?
O3 Cu2 O3 C1 87.3(2) 3 . . . ?
O5 Cu2 O3 C1 -5.9(6) 3 . . . ?
O5 Cu2 O3 C1 -80.3(2) . . . . ?
N1 Cu2 O3 C1 -175.9(2) . . . . ?
Cu1 Cu2 O3 C1 2.4(2) . . . . ?
O4 Cu1 O4 C1 -86.7(2) 3 . . . ?
O6 Cu1 O4 C1 -1.5(7) 3 . . . ?
O6 Cu1 O4 C1 81.2(2) . . . . ?
O13 Cu1 O4 C1 175.5(3) . . . . ?
Cu2 Cu1 O4 C1 -3.9(2) . . . . ?
O3 Cu2 O5 C15 -3.8(6) 3 . . . ?
O3 Cu2 O5 C15 89.6(2) . . . . ?
O5 Cu2 O5 C15 -78.5(2) 3 . . . ?
N1 Cu2 O5 C15 -173.8(2) . . . . ?
Cu1 Cu2 O5 C15 4.6(2) . . . . ?
O4 Cu1 O6 C15 -4.2(7) 3 . . . ?
O4 Cu1 O6 C15 -89.4(3) . . . . ?
O6 Cu1 O6 C15 78.5(3) 3 . . . ?
O13 Cu1 O6 C15 172.9(3) . . . . ?
Cu2 Cu1 O6 C15 -6.6(2) . . . . ?
O11 Cu4 O7 C22 -76.0(4) 6_554 . . . ?
O10 Cu4 O7 C22 92.6(4) . . . . ?
O2 Cu4 O7 C22 13.9(7) 6 . . . ?
O15 Cu4 O7 C22 -168.8(4) . . . . ?
Cu3 Cu4 O7 C22 6.6(4) . . . . ?
O9 Cu3 O8 C22 -87.1(4) . . . . ?
O1 Cu3 O8 C22 -10.9(11) 6 . . . ?
O12 Cu3 O8 C22 78.5(4) 6_554 . . . ?
O14 Cu3 O8 C22 177.7(4) . . . . ?
Cu4 Cu3 O8 C22 -4.6(4) . . . . ?
O1 Cu3 O9 C29 -82.9(3) 6 . . . ?
O12 Cu3 O9 C29 0.9(7) 6_554 . . . ?
O8 Cu3 O9 C29 88.0(3) . . . . ?
O14 Cu3 O9 C29 -174.7(2) . . . . ?
Cu4 Cu3 O9 C29 3.4(2) . . . . ?
O11 Cu4 O10 C29 4.3(8) 6_554 . . . ?
O7 Cu4 O10 C29 -88.0(3) . . . . ?
O2 Cu4 O10 C29 77.3(2) 6 . . . ?
O15 Cu4 O10 C29 177.4(2) . . . . ?
Cu3 Cu4 O10 C29 -7.1(2) . . . . ?
O3 Cu2 N1 C43 45.82(8) 3 . . . ?
O3 Cu2 N1 C43 -45.81(8) . . . . ?
O5 Cu2 N1 C43 136.33(8) 3 . . . ?
O5 Cu2 N1 C43 -136.33(8) . . . . ?
Cu1 Cu2 N1 C43 180.000(7) . . . . ?
O3 Cu2 N1 C44 -134.18(8) 3 . . . ?
O3 Cu2 N1 C44 134.19(8) . . . . ?
O5 Cu2 N1 C44 -43.67(8) 3 . . . ?
O5 Cu2 N1 C44 43.67(8) . . . . ?
Cu1 Cu2 N1 C44 0.000(7) . . . . ?
Cu1 O4 C1 O3 7.3(4) . . . . ?
Cu1 O4 C1 C2 -178.68(15) . . . . ?
Cu2 O3 C1 O4 -6.3(4) . . . . ?
Cu2 O3 C1 C2 179.41(14) . . . . ?
O4 C1 C2 C3 18.8(3) . . . . ?
O3 C1 C2 C3 -166.5(2) . . . . ?
O4 C1 C2 C7 -161.6(3) . . . . ?
O3 C1 C2 C7 13.1(3) . . . . ?
C7 C2 C3 C4 -0.8(4) . . . . ?
C1 C2 C3 C4 178.8(3) . . . . ?
C2 C3 C4 C5 4.1(5) . . . . ?
C2 C3 C4 C8 -177.2(3) . . . . ?
C3 C4 C5 C6 -7.7(6) . . . . ?
C8 C4 C5 C6 173.5(4) . . . . ?
C4 C5 C6 C7 7.9(7) . . . . ?
C4 C5 C6 C9 -167.2(4) . . . . ?
C5 C6 C7 C2 -4.2(7) . . . . ?
C9 C6 C7 C2 170.7(4) . . . . ?
C3 C2 C7 C6 0.7(5) . . . . ?
C1 C2 C7 C6 -178.9(4) . . . . ?
Cu3 O1 C8 O2 -3.1(7) 6_554 . . . ?
Cu3 O1 C8 C4 -171.2(3) 6_554 . . . ?
Cu4 O2 C8 O1 3.2(7) 6_554 . . . ?
Cu4 O2 C8 C4 171.7(3) 6_554 . . . ?
C3 C4 C8 O1 161.1(4) . . . . ?
C5 C4 C8 O1 -20.3(7) . . . . ?
C3 C4 C8 O2 -8.3(6) . . . . ?
C5 C4 C8 O2 170.4(4) . . . . ?
C7 C6 C9 C10 -19.5(6) . . . . ?
C5 C6 C9 C10 155.3(4) . . . . ?
C7 C6 C9 C14 151.7(5) . . . . ?
C5 C6 C9 C14 -33.6(7) . . . . ?
C14 C9 C10 C11 1.3(4) . . . . ?
C6 C9 C10 C11 174.0(4) . . . . ?
C9 C10 C11 C10 -178.6(3) . . . 4 ?
C9 C10 C11 C12 0.5(4) . . . . ?
C10 C11 C12 C13 0.2(6) 4 . . 4 ?
C10 C11 C12 C13 -179.0(4) . . . 4 ?
C10 C11 C12 C13 179.0(4) 4 . . . ?
C10 C11 C12 C13 -0.2(6) . . . . ?
C13 C12 C13 C14 176.8(5) 4 . . . ?
C11 C12 C13 C14 -1.9(8) . . . . ?
C12 C13 C14 C9 4.6(10) . . . . ?
C10 C9 C14 C13 -4.0(8) . . . . ?
C6 C9 C14 C13 -176.3(6) . . . . ?
Cu1 O6 C15 O5 13.0(4) . . . . ?
Cu1 O6 C15 C16 -174.54(15) . . . . ?
Cu2 O5 C15 O6 -12.0(4) . . . . ?
Cu2 O5 C15 C16 175.35(14) . . . . ?
O6 C15 C16 C21 -10.4(3) . . . . ?
O5 C15 C16 C21 163.0(3) . . . . ?
O6 C15 C16 C17 167.4(3) . . . . ?
O5 C15 C16 C17 -19.2(3) . . . . ?
C21 C16 C17 C18 -0.9(4) . . . . ?
C15 C16 C17 C18 -178.6(3) . . . . ?
C16 C17 C18 C19 -3.1(5) . . . . ?
C16 C17 C18 C23 171.6(3) . . . . ?
C17 C18 C19 C20 5.6(7) . . . . ?
C23 C18 C19 C20 -169.1(4) . . . . ?
C18 C19 C20 C21 -4.1(7) . . . . ?
C18 C19 C20 C22 -178.4(4) . . . . ?
C17 C16 C21 C20 2.6(4) . . . . ?
C15 C16 C21 C20 -179.7(3) . . . . ?
C19 C20 C21 C16 0.0(6) . . . . ?
C22 C20 C21 C16 174.0(3) . . . . ?
Cu4 O7 C22 O8 -13.7(7) . . . . ?
Cu4 O7 C22 C20 164.8(3) . . . . ?
Cu3 O8 C22 O7 11.9(7) . . . . ?
Cu3 O8 C22 C20 -166.7(3) . . . . ?
C19 C20 C22 O7 13.4(7) . . . . ?
C21 C20 C22 O7 -160.9(4) . . . . ?
C19 C20 C22 O8 -168.0(4) . . . . ?
C21 C20 C22 O8 17.8(6) . . . . ?
C17 C18 C23 C24 -140.2(3) . . . . ?
C19 C18 C23 C24 34.3(6) . . . . ?
C17 C18 C23 C28 43.5(5) . . . . ?
C19 C18 C23 C28 -142.0(5) . . . . ?
C28 C23 C24 C25 -0.8(4) . . . . ?
C18 C23 C24 C25 -176.9(4) . . . . ?
C23 C24 C25 C26 -0.3(5) . . . . ?
C24 C25 C26 C25 -179.2(4) . . . 4 ?
C24 C25 C26 C27 0.7(8) . . . . ?
C25 C26 C27 C28 0.0(10) 4 . . 4 ?
C25 C26 C27 C28 -180.0(5) . . . 4 ?
C25 C26 C27 C28 179.9(5) 4 . . . ?
C25 C26 C27 C28 0.0(10) . . . . ?
C28 C27 C28 C23 178.8(3) 4 . . . ?
C26 C27 C28 C23 -1.1(9) . . . . ?
C24 C23 C28 C27 1.5(6) . . . . ?
C18 C23 C28 C27 178.2(5) . . . . ?
Cu4 O10 C29 O9 13.1(4) . . . . ?
Cu4 O10 C29 C30 -174.74(15) . . . . ?
Cu3 O9 C29 O10 -11.3(4) . . . . ?
Cu3 O9 C29 C30 177.45(15) . . . . ?
O10 C29 C30 C35 10.4(3) . . . . ?
O9 C29 C30 C35 -176.9(3) . . . . ?
O10 C29 C30 C31 -169.9(2) . . . . ?
O9 C29 C30 C31 2.9(3) . . . . ?
C35 C30 C31 C32 0.3(4) . . . . ?
C29 C30 C31 C32 -179.5(3) . . . . ?
C30 C31 C32 C33 -0.1(5) . . . . ?
C30 C31 C32 C37 -174.1(3) . . . . ?
C31 C32 C33 C34 -1.1(5) . . . . ?
C37 C32 C33 C34 173.0(3) . . . . ?
C32 C33 C34 C35 2.3(5) . . . . ?
C32 C33 C34 C36 -179.3(3) . . . . ?
C31 C30 C35 C34 0.9(4) . . . . ?
C29 C30 C35 C34 -179.4(3) . . . . ?
C33 C34 C35 C30 -2.3(6) . . . . ?
C36 C34 C35 C30 179.5(3) . . . . ?
Cu4 O11 C36 O12 4.9(7) 6 . . . ?
Cu4 O11 C36 C34 -179.8(3) 6 . . . ?
Cu3 O12 C36 O11 0.6(5) 6 . . . ?
Cu3 O12 C36 C34 -175.8(2) 6 . . . ?
C35 C34 C36 O11 -176.5(4) . . . . ?
C33 C34 C36 O11 5.1(7) . . . . ?
C35 C34 C36 O12 -0.7(5) . . . . ?
C33 C34 C36 O12 -179.2(3) . . . . ?
C33 C32 C37 C38 -111.5(4) . . . . ?
C31 C32 C37 C38 62.6(4) . . . . ?
C33 C32 C37 C42 54.5(5) . . . . ?
C31 C32 C37 C42 -131.5(4) . . . . ?
C42 C37 C38 C39 -0.4(4) . . . . ?
C32 C37 C38 C39 166.7(3) . . . . ?
C37 C38 C39 C38 -172.8(3) . . . 3 ?
C37 C38 C39 C40 0.2(4) . . . . ?
C38 C39 C40 C41 -171.9(4) . . . 3 ?
C38 C39 C40 C41 1.0(6) 3 . . 3 ?
C38 C39 C40 C41 -1.0(6) . . . . ?
C38 C39 C40 C41 171.9(4) 3 . . . ?
C41 C40 C41 C42 172.8(4) 3 . . . ?
C39 C40 C41 C42 2.1(7) . . . . ?
C40 C41 C42 C37 -2.7(8) . . . . ?
C38 C37 C42 C41 1.8(6) . . . . ?
C32 C37 C42 C41 -165.0(5) . . . . ?
C44 N1 C43 C43 0.000(1) . . . 2 ?
Cu2 N1 C43 C43 180.0 . . . 2 ?
C43 N1 C44 C44 0.000(2) . . . 2 ?
Cu2 N1 C44 C44 180.000(1) . . . 2 ?

_diffrn_measured_fraction_theta_max 0.988
_diffrn_reflns_theta_full        25.35
_diffrn_measured_fraction_theta_full 0.988
_refine_diff_density_max         0.986
_refine_diff_density_min         -1.044
_refine_diff_density_rms         0.076


# start Validation Reply Form

_vrf_PLAT213_I                   
;
PROBLEM: Atom C14 has ADP max/min Ratio ..... 5.4 prola
RESPONSE: ...
;
_vrf_PLAT241_I                   
;
PROBLEM: Check High Ueq as Compared to Neighbors for C14
RESPONSE: Probably dure to its disorder.
;
_vrf_PLAT602_I                   
;
PROBLEM: VERY LARGE Solvent Accessible VOID(S) in Structure !
RESPONSE: Diffraction peaks from guest molecules in the pores of the structure have been
removed by SQUEEZE function of PLATON.
;
# end Validation Reply Form


