####################################################################### 
# 
# This file contains crystal structure data downloaded from the 
# Cambridge Structural Database (CSD) hosted by the Cambridge 
# Crystallographic Data Centre (CCDC).
# 
# Full information about CCDC data access policies and citation 
# guidelines are available at http://www.ccdc.cam.ac.uk/access/V1 
# 
# Audit and citation data items may have been added by the CCDC. 
# Please retain this information to preserve the provenance of 
# this file and to allow appropriate attribution of the data. 
# 
#######################################################################

data_SMT-3
_audit_block_doi                 10.5517/ccy426b
_database_code_depnum_ccdc_archive 'CCDC 867851'
loop_
_citation_id
_citation_doi
_citation_year
1 10.1038/ncomms2552 2013
_audit_update_record             
;
2012-02-20 deposited with the CCDC.	2019-02-14 downloaded from the CCDC.
;
#TrackingRef '3-SMT-3.cif'


_audit_creation_method           SHELXL-97
_chemical_name_systematic        
;
?
;
_chemical_name_common            ?
_chemical_melting_point          ?
_chemical_formula_moiety         'C96 H66 Mo4 N10 O18, 2(C4 H9 N O)'
_chemical_formula_sum            'C104 H84 Mo4 N12 O20'
_chemical_formula_weight         2205.59

loop_
_atom_type_symbol
_atom_type_description
_atom_type_scat_dispersion_real
_atom_type_scat_dispersion_imag
_atom_type_scat_source
C C 0.0033 0.0016 'International Tables Vol C Tables 4.2.6.8 and 6.1.1.4'
H H 0.0000 0.0000 'International Tables Vol C Tables 4.2.6.8 and 6.1.1.4'
N N 0.0061 0.0033 'International Tables Vol C Tables 4.2.6.8 and 6.1.1.4'
O O 0.0106 0.0060 'International Tables Vol C Tables 4.2.6.8 and 6.1.1.4'
Mo Mo -1.6832 0.6857 'International Tables Vol C Tables 4.2.6.8 and 6.1.1.4'

_symmetry_cell_setting           Triclinic
_symmetry_space_group_name_H-M   'P -1'
_symmetry_Hall_group_name_H-M    '-P 1'

loop_
_symmetry_equiv_pos_as_xyz
'x, y, z'
'-x, -y, -z'

_cell_length_a                   12.522(3)
_cell_length_b                   15.062(4)
_cell_length_c                   24.647(7)
_cell_angle_alpha                85.358(3)
_cell_angle_beta                 83.045(3)
_cell_angle_gamma                89.313(3)
_cell_volume                     4599(2)
_cell_formula_units_Z            2
_cell_measurement_temperature    110(2)
_cell_measurement_reflns_used    4818
_cell_measurement_theta_min      2.194
_cell_measurement_theta_max      25.478

_exptl_crystal_description       Block
_exptl_crystal_colour            Red
_exptl_crystal_size_max          0.18
_exptl_crystal_size_mid          0.08
_exptl_crystal_size_min          0.02
_exptl_crystal_density_meas      ?
_exptl_crystal_density_diffrn    1.593
_exptl_crystal_density_method    'not measured'
_exptl_crystal_F_000             2240
_exptl_absorpt_coefficient_mu    0.615
_exptl_absorpt_correction_type   Multi-scan
_exptl_absorpt_correction_T_min  0.8974
_exptl_absorpt_correction_T_max  0.9878
_exptl_absorpt_process_details   SADABS

_exptl_special_details           
;
?
;

_diffrn_ambient_temperature      110(2)
_diffrn_radiation_wavelength     0.71073
_diffrn_radiation_type           MoK\a
_diffrn_radiation_source         'fine-focus sealed tube'
_diffrn_radiation_monochromator  graphite
_diffrn_measurement_device_type  'BRUKER APEX-II CCD'
_diffrn_measurement_method       'phi and omega scans'
_diffrn_detector_area_resol_mean ?
_diffrn_reflns_number            44973
_diffrn_reflns_av_R_equivalents  0.0810
_diffrn_reflns_av_sigmaI/netI    0.1132
_diffrn_reflns_limit_h_min       -15
_diffrn_reflns_limit_h_max       15
_diffrn_reflns_limit_k_min       -18
_diffrn_reflns_limit_k_max       18
_diffrn_reflns_limit_l_min       -29
_diffrn_reflns_limit_l_max       29
_diffrn_reflns_theta_min         1.67
_diffrn_reflns_theta_max         25.50
_reflns_number_total             16935
_reflns_number_gt                9130
_reflns_threshold_expression     I>2sigma(I)

_computing_data_collection       'Bruker APEX-II'
_computing_cell_refinement       'Bruker SAINT'
_computing_data_reduction        'Bruker SAINT'
_computing_structure_solution    'SHELXS-97 (Sheldrick, 2008)'
_computing_structure_refinement  'SHELXL-97 (Sheldrick, 2008)'
_computing_molecular_graphics    'Bruker SHELXTL'
_computing_publication_material  'Bruker SHELXTL'

_refine_special_details          
;
Refinement of F^2^ against ALL reflections. The weighted R-factor wR and
goodness of fit S are based on F^2^, conventional R-factors R are based
on F, with F set to zero for negative F^2^. The threshold expression of
F^2^ > 2sigma(F^2^) is used only for calculating R-factors(gt) etc. and is
not relevant to the choice of reflections for refinement. R-factors based
on F^2^ are statistically about twice as large as those based on F, and R-
factors based on ALL data will be even larger.
;

_refine_ls_structure_factor_coef Fsqd
_refine_ls_matrix_type           full
_refine_ls_weighting_scheme      calc
_refine_ls_weighting_details     
'calc w=1/[\s^2^(Fo^2^)+(0.0929P)^2^+0.0000P] where P=(Fo^2^+2Fc^2^)/3'
_atom_sites_solution_primary     direct
_atom_sites_solution_secondary   difmap
_atom_sites_solution_hydrogens   geom
_refine_ls_hydrogen_treatment    constr
_refine_ls_extinction_method     none
_refine_ls_extinction_coef       ?
_refine_ls_number_reflns         16935
_refine_ls_number_parameters     1253
_refine_ls_number_restraints     0
_refine_ls_R_factor_all          0.1495
_refine_ls_R_factor_gt           0.0760
_refine_ls_wR_factor_ref         0.1932
_refine_ls_wR_factor_gt          0.1727
_refine_ls_goodness_of_fit_ref   1.027
_refine_ls_restrained_S_all      1.027
_refine_ls_shift/su_max          0.072
_refine_ls_shift/su_mean         0.001

loop_
_atom_site_label
_atom_site_type_symbol
_atom_site_fract_x
_atom_site_fract_y
_atom_site_fract_z
_atom_site_U_iso_or_equiv
_atom_site_adp_type
_atom_site_occupancy
_atom_site_symmetry_multiplicity
_atom_site_calc_flag
_atom_site_refinement_flags
_atom_site_disorder_assembly
_atom_site_disorder_group
Mo1 Mo 0.53290(3) 0.120658(19) 0.283423(12) 0.02311(9) Uani 1 1 d . . .
Mo2 Mo 0.54120(3) -0.014236(19) 0.265871(12) 0.02198(9) Uani 1 1 d . . .
Mo3 Mo 0.53246(3) -0.488331(19) 0.229236(11) 0.01965(9) Uani 1 1 d . . .
Mo4 Mo 0.54165(3) -0.62274(2) 0.210241(12) 0.02332(9) Uani 1 1 d . . .
O1 O 0.5707(2) 0.08850(14) 0.36346(9) 0.0253(7) Uani 1 1 d . . .
O2 O 0.5795(2) -0.05518(14) 0.34575(9) 0.0249(7) Uani 1 1 d . . .
O3 O 0.5868(2) -0.66739(14) 0.28768(9) 0.0256(7) Uani 1 1 d . . .
O4 O 0.5747(2) -0.52440(14) 0.30820(9) 0.0229(7) Uani 1 1 d . . .
O5 O 0.70369(19) -0.61125(14) 0.18257(9) 0.0245(7) Uani 1 1 d . . .
O6 O 0.69813(19) -0.46971(14) 0.20348(9) 0.0217(7) Uani 1 1 d . . .
O7 O 0.69629(19) 0.14239(14) 0.25474(9) 0.0246(7) Uani 1 1 d . . .
O8 O 0.70513(19) -0.00041(14) 0.23716(9) 0.0232(7) Uani 1 1 d . . .
O9 O 0.4879(2) 0.16319(14) 0.20622(9) 0.0229(7) Uani 1 1 d . . .
O10 O 0.4952(2) 0.02030(14) 0.18729(9) 0.0246(7) Uani 1 1 d . . .
O11 O 0.4967(2) -0.58932(14) 0.13192(9) 0.0238(7) Uani 1 1 d . . .
O12 O 0.48935(19) -0.44600(14) 0.15111(9) 0.0205(7) Uani 1 1 d . . .
O13 O 0.37359(19) -0.64506(15) 0.23631(9) 0.0235(6) Uiso 1 1 d . . .
O14 O 0.36403(18) -0.50319(15) 0.25666(9) 0.0207(6) Uiso 1 1 d . . .
O15 O 0.36279(19) 0.10932(15) 0.31146(9) 0.0245(6) Uiso 1 1 d . . .
O16 O 0.37350(18) -0.03432(15) 0.29391(9) 0.0211(6) Uiso 1 1 d . . .
O17 O 0.5803(2) -0.15740(16) 0.23168(11) 0.0467(10) Uani 1 1 d . . .
O18 O 0.4928(2) -0.34860(15) 0.26833(9) 0.0270(7) Uani 1 1 d . . .
O19 O -0.0769(6) -0.2677(4) -0.0343(3) 0.270(3) Uani 1 1 d . . .
O20 O 0.8628(3) -0.7825(2) 0.55507(12) 0.0614(11) Uani 1 1 d . . .
N1 N 0.6324(2) -0.28560(17) 0.50130(11) 0.0205(8) Uani 1 1 d . . .
N2 N 0.6411(2) -0.43637(17) 0.48719(11) 0.0192(8) Uani 1 1 d . . .
N3 N 1.0497(3) -0.1423(2) 0.18224(12) 0.0343(10) Uani 1 1 d . . .
N4 N 1.0474(3) -0.2920(2) 0.17171(13) 0.0376(11) Uani 1 1 d . . .
N5 N 0.3543(3) -0.0729(2) 0.02298(11) 0.0312(9) Uani 1 1 d . . .
N6 N 0.3562(3) -0.22325(19) 0.00933(12) 0.0320(10) Uani 1 1 d . . .
N7 N 0.0242(2) -0.20917(19) 0.32790(12) 0.0273(9) Uani 1 1 d . . .
N8 N 0.0249(2) -0.36062(19) 0.31608(12) 0.0276(9) Uani 1 1 d . . .
N9 N 0.6646(4) -0.2207(2) 0.15688(17) 0.0658(15) Uani 1 1 d . . .
N10 N 0.4035(3) -0.2810(2) 0.33790(13) 0.0467(12) Uani 1 1 d . . .
N11 N 0.0177(4) -0.1776(4) 0.0033(2) 0.122(2) Uani 1 1 d . . .
N12 N 0.9970(3) -0.7124(3) 0.49900(18) 0.0752(16) Uani 1 1 d . . .
C1 C 0.5877(3) 0.0062(2) 0.37863(14) 0.0285(11) Uani 1 1 d . . .
C2 C 0.6133(3) -0.0166(2) 0.43443(14) 0.0235(10) Uani 1 1 d . . .
C3 C 0.6437(3) 0.0491(2) 0.46493(15) 0.0326(12) Uani 1 1 d . . .
H3 H 0.6424 0.1095 0.4505 0.039 Uiso 1 1 calc R . .
C4 C 0.6765(3) 0.0288(2) 0.51664(15) 0.0330(12) Uani 1 1 d . . .
H4 H 0.7013 0.0744 0.5364 0.040 Uiso 1 1 calc R . .
C5 C 0.6723(3) -0.0580(2) 0.53865(14) 0.0288(11) Uani 1 1 d . . .
H5 H 0.6926 -0.0717 0.5743 0.035 Uiso 1 1 calc R . .
C6 C 0.6390(3) -0.1264(2) 0.50991(13) 0.0221(10) Uani 1 1 d . . .
C7 C 0.6092(3) -0.1058(2) 0.45784(13) 0.0228(10) Uani 1 1 d . . .
H7 H 0.5860 -0.1518 0.4378 0.027 Uiso 1 1 calc R . .
C8 C 0.6335(3) -0.2210(2) 0.53503(13) 0.0209(10) Uani 1 1 d . . .
C9 C 0.6303(3) -0.2379(2) 0.59284(13) 0.0249(10) Uani 1 1 d . . .
H9 H 0.6237 -0.1900 0.6158 0.030 Uiso 1 1 calc R . .
C10 C 0.6366(3) -0.3231(2) 0.61502(14) 0.0282(11) Uani 1 1 d . . .
H10 H 0.6376 -0.3351 0.6534 0.034 Uiso 1 1 calc R . .
C11 C 0.6418(3) -0.3934(2) 0.58060(14) 0.0231(10) Uani 1 1 d . . .
C12 C 0.6374(3) -0.3723(2) 0.52375(13) 0.0217(10) Uani 1 1 d . . .
C13 C 0.6526(3) -0.4846(2) 0.59885(14) 0.0283(11) Uani 1 1 d . . .
H13 H 0.6546 -0.5016 0.6367 0.034 Uiso 1 1 calc R . .
C14 C 0.6601(3) -0.5472(2) 0.56204(14) 0.0293(11) Uani 1 1 d . . .
H14 H 0.6676 -0.6085 0.5736 0.035 Uiso 1 1 calc R . .
C15 C 0.6567(3) -0.5192(2) 0.50508(14) 0.0234(10) Uani 1 1 d . . .
C16 C 0.6661(3) -0.5862(2) 0.46296(13) 0.0196(10) Uani 1 1 d . . .
C17 C 0.7216(3) -0.6667(2) 0.47170(15) 0.0294(11) Uani 1 1 d . . .
H17 H 0.7477 -0.6812 0.5060 0.035 Uiso 1 1 calc R . .
C18 C 0.7388(3) -0.7254(2) 0.43076(16) 0.0388(13) Uani 1 1 d . . .
H18 H 0.7797 -0.7780 0.4370 0.047 Uiso 1 1 calc R . .
C19 C 0.6985(3) -0.7093(2) 0.38200(15) 0.0265(11) Uani 1 1 d . . .
H19 H 0.7093 -0.7508 0.3548 0.032 Uiso 1 1 calc R . .
C20 C 0.6401(3) -0.6293(2) 0.37270(13) 0.0213(10) Uani 1 1 d . . .
C21 C 0.6290(3) -0.5675(2) 0.41242(13) 0.0221(10) Uani 1 1 d . . .
H21 H 0.5954 -0.5118 0.4047 0.027 Uiso 1 1 calc R . .
C22 C 0.5987(3) -0.6055(2) 0.32002(13) 0.0203(10) Uani 1 1 d . . .
C23 C 0.7526(3) -0.5368(2) 0.18384(13) 0.0240(10) Uani 1 1 d . . .
C24 C 0.8704(3) -0.5258(2) 0.16355(14) 0.0314(12) Uani 1 1 d . . .
C25 C 0.9187(3) -0.5915(3) 0.13279(15) 0.0376(13) Uani 1 1 d . . .
H25 H 0.8780 -0.6408 0.1251 0.045 Uiso 1 1 calc R . .
C26 C 1.0257(4) -0.5847(3) 0.11347(17) 0.0471(14) Uani 1 1 d . . .
H26 H 1.0594 -0.6287 0.0916 0.057 Uiso 1 1 calc R . .
C27 C 1.0846(4) -0.5137(3) 0.12594(17) 0.0484(15) Uani 1 1 d . . .
H27 H 1.1594 -0.5104 0.1133 0.058 Uiso 1 1 calc R . .
C28 C 1.0373(4) -0.4473(3) 0.15635(16) 0.0406(13) Uani 1 1 d . . .
C29 C 0.9278(3) -0.4537(2) 0.17482(15) 0.0286(11) Uani 1 1 d . . .
H29 H 0.8929 -0.4083 0.1951 0.034 Uiso 1 1 calc R . .
C30 C 1.1005(4) -0.3686(3) 0.16754(16) 0.0406(13) Uani 1 1 d . . .
C31 C 1.2123(4) -0.3792(3) 0.17013(18) 0.0462(15) Uani 1 1 d . . .
H31 H 1.2459 -0.4357 0.1670 0.055 Uiso 1 1 calc R . .
C32 C 1.2703(4) -0.3062(3) 0.17726(19) 0.0553(16) Uani 1 1 d . . .
H32 H 1.3451 -0.3117 0.1801 0.066 Uiso 1 1 calc R . .
C33 C 1.2193(3) -0.2217(3) 0.18047(18) 0.0415(13) Uani 1 1 d . . .
C34 C 1.1074(3) -0.2183(3) 0.17859(16) 0.0373(13) Uani 1 1 d . . .
C35 C 1.2724(4) -0.1417(3) 0.18706(19) 0.0542(16) Uani 1 1 d . . .
H35 H 1.3474 -0.1416 0.1899 0.065 Uiso 1 1 calc R . .
C36 C 1.2145(4) -0.0650(3) 0.18927(17) 0.0460(14) Uani 1 1 d . . .
H36 H 1.2488 -0.0102 0.1927 0.055 Uiso 1 1 calc R . .
C37 C 1.1040(4) -0.0676(3) 0.18636(16) 0.0397(13) Uani 1 1 d . . .
C38 C 1.0390(3) 0.0145(2) 0.18947(15) 0.0344(12) Uani 1 1 d . . .
C39 C 1.0836(4) 0.1002(3) 0.17425(17) 0.0433(14) Uani 1 1 d . . .
H39 H 1.1581 0.1064 0.1615 0.052 Uiso 1 1 calc R . .
C40 C 1.0185(4) 0.1750(3) 0.17799(17) 0.0451(14) Uani 1 1 d . . .
H40 H 1.0490 0.2316 0.1654 0.054 Uiso 1 1 calc R . .
C41 C 0.9109(3) 0.1710(2) 0.19927(16) 0.0359(13) Uani 1 1 d . . .
H41 H 0.8683 0.2232 0.2034 0.043 Uiso 1 1 calc R . .
C42 C 0.8680(3) 0.0850(2) 0.21456(14) 0.0288(11) Uani 1 1 d . . .
C43 C 0.9292(3) 0.0094(2) 0.20926(15) 0.0293(11) Uani 1 1 d . . .
H43 H 0.8968 -0.0473 0.2191 0.035 Uiso 1 1 calc R . .
C44 C 0.7505(3) 0.0756(2) 0.23628(14) 0.0268(11) Uani 1 1 d . . .
C45 C 0.4692(3) 0.1022(2) 0.17584(14) 0.0290(11) Uani 1 1 d . . .
C46 C 0.4118(3) 0.1227(2) 0.12752(14) 0.0285(11) Uani 1 1 d . . .
C47 C 0.3590(4) 0.2057(3) 0.12232(16) 0.0427(13) Uani 1 1 d . . .
H47 H 0.3660 0.2494 0.1473 0.051 Uiso 1 1 calc R . .
C48 C 0.2964(4) 0.2217(3) 0.07961(16) 0.0417(13) Uani 1 1 d . . .
H48 H 0.2570 0.2758 0.0769 0.050 Uiso 1 1 calc R . .
C49 C 0.2901(3) 0.1604(2) 0.04061(16) 0.0358(12) Uani 1 1 d . . .
H49 H 0.2490 0.1738 0.0110 0.043 Uiso 1 1 calc R . .
C50 C 0.3454(3) 0.0781(2) 0.04547(15) 0.0320(11) Uani 1 1 d . . .
C51 C 0.4041(3) 0.0614(2) 0.08975(14) 0.0310(12) Uani 1 1 d . . .
H51 H 0.4400 0.0058 0.0940 0.037 Uiso 1 1 calc R . .
C52 C 0.3356(3) 0.0105(2) 0.00602(14) 0.0327(12) Uani 1 1 d . . .
C53 C 0.3076(3) 0.0361(3) -0.04755(15) 0.0394(13) Uani 1 1 d . . .
H53 H 0.2957 0.0971 -0.0584 0.047 Uiso 1 1 calc R . .
C54 C 0.2980(4) -0.0271(3) -0.08287(16) 0.0441(14) Uani 1 1 d . . .
H54 H 0.2810 -0.0106 -0.1189 0.053 Uiso 1 1 calc R . .
C55 C 0.3134(3) -0.1177(3) -0.06578(14) 0.0324(12) Uani 1 1 d . . .
C56 C 0.3433(3) -0.1378(3) -0.01225(14) 0.0322(12) Uani 1 1 d . . .
C57 C 0.3048(3) -0.1882(3) -0.09811(15) 0.0395(13) Uani 1 1 d . . .
H57 H 0.2904 -0.1770 -0.1350 0.047 Uiso 1 1 calc R . .
C58 C 0.3170(3) -0.2730(3) -0.07665(15) 0.0409(13) Uani 1 1 d . . .
H58 H 0.3091 -0.3218 -0.0979 0.049 Uiso 1 1 calc R . .
C59 C 0.3416(3) -0.2875(2) -0.02237(14) 0.0330(12) Uani 1 1 d . . .
C60 C 0.3508(3) -0.3809(2) 0.00208(14) 0.0295(11) Uani 1 1 d . . .
C61 C 0.3083(3) -0.4535(2) -0.02089(15) 0.0349(12) Uani 1 1 d . . .
H61 H 0.2697 -0.4427 -0.0517 0.042 Uiso 1 1 calc R . .
C62 C 0.3213(3) -0.5396(3) 0.00031(16) 0.0354(12) Uani 1 1 d . . .
H62 H 0.2907 -0.5878 -0.0150 0.042 Uiso 1 1 calc R . .
C63 C 0.3797(3) -0.5551(2) 0.04443(15) 0.0319(12) Uani 1 1 d . . .
H63 H 0.3938 -0.6147 0.0574 0.038 Uiso 1 1 calc R . .
C64 C 0.4177(3) -0.4861(2) 0.06972(14) 0.0246(10) Uani 1 1 d . . .
C65 C 0.4038(3) -0.3981(2) 0.04817(14) 0.0254(10) Uani 1 1 d . . .
H65 H 0.4308 -0.3500 0.0652 0.030 Uiso 1 1 calc R . .
C66 C 0.4734(3) -0.5069(2) 0.12006(14) 0.0240(10) Uani 1 1 d . . .
C67 C 0.3220(3) -0.5780(2) 0.25163(13) 0.0199(10) Uani 1 1 d . . .
C68 C 0.2075(3) -0.5851(2) 0.26598(14) 0.0258(11) Uani 1 1 d . . .
C69 C 0.1503(3) -0.6607(2) 0.25818(15) 0.0347(12) Uani 1 1 d . . .
H69 H 0.1878 -0.7104 0.2437 0.042 Uiso 1 1 calc R . .
C70 C 0.0408(4) -0.6647(3) 0.27106(17) 0.0435(14) Uani 1 1 d . . .
H70 H 0.0040 -0.7169 0.2648 0.052 Uiso 1 1 calc R . .
C71 C -0.0179(3) -0.5946(2) 0.29302(16) 0.0337(12) Uani 1 1 d . . .
H71 H -0.0937 -0.5990 0.3020 0.040 Uiso 1 1 calc R . .
C72 C 0.0373(3) -0.5165(2) 0.30189(14) 0.0252(11) Uani 1 1 d . . .
C73 C 0.1473(3) -0.5136(2) 0.28785(14) 0.0261(11) Uani 1 1 d . . .
H73 H 0.1844 -0.4610 0.2932 0.031 Uiso 1 1 calc R . .
C74 C -0.0217(3) -0.4404(2) 0.32511(15) 0.0257(11) Uani 1 1 d . . .
C75 C -0.1231(3) -0.4540(3) 0.35881(16) 0.0345(12) Uani 1 1 d . . .
H75 H -0.1542 -0.5117 0.3645 0.041 Uiso 1 1 calc R . .
C76 C -0.1743(3) -0.3848(3) 0.38245(16) 0.0354(12) Uani 1 1 d . . .
H76 H -0.2399 -0.3939 0.4059 0.042 Uiso 1 1 calc R . .
C77 C -0.1295(3) -0.2996(2) 0.37200(15) 0.0285(11) Uani 1 1 d . . .
C78 C -0.0277(3) -0.2895(2) 0.33873(15) 0.0277(11) Uani 1 1 d . . .
C79 C -0.1758(3) -0.2232(2) 0.39404(15) 0.0320(12) Uani 1 1 d . . .
H79 H -0.2431 -0.2271 0.4165 0.038 Uiso 1 1 calc R . .
C80 C -0.1245(3) -0.1433(3) 0.38327(15) 0.0354(12) Uani 1 1 d . . .
H80 H -0.1559 -0.0913 0.3979 0.043 Uiso 1 1 calc R . .
C81 C -0.0227(3) -0.1383(3) 0.34966(15) 0.0314(12) Uani 1 1 d . . .
C82 C 0.0373(3) -0.0528(2) 0.34006(14) 0.0266(11) Uani 1 1 d . . .
C83 C -0.0217(3) 0.0284(3) 0.34480(16) 0.0344(12) Uani 1 1 d . . .
H83 H -0.0979 0.0277 0.3522 0.041 Uiso 1 1 calc R . .
C84 C 0.0342(3) 0.1084(3) 0.33849(16) 0.0397(13) Uani 1 1 d . . .
H84 H -0.0048 0.1627 0.3411 0.048 Uiso 1 1 calc R . .
C85 C 0.1454(3) 0.1109(2) 0.32849(15) 0.0325(12) Uani 1 1 d . . .
H85 H 0.1819 0.1663 0.3259 0.039 Uiso 1 1 calc R . .
C86 C 0.2047(3) 0.0312(2) 0.32213(14) 0.0272(11) Uani 1 1 d . . .
C87 C 0.1488(3) -0.0497(2) 0.32834(14) 0.0261(11) Uani 1 1 d . . .
H87 H 0.1879 -0.1037 0.3244 0.031 Uiso 1 1 calc R . .
C88 C 0.3220(3) 0.0338(2) 0.30785(13) 0.0235(10) Uani 1 1 d . . .
C89 C 0.7653(4) -0.2130(3) 0.2334(2) 0.0629(18) Uani 1 1 d . . .
H89A H 0.7632 -0.1780 0.2653 0.094 Uiso 1 1 calc R . .
H89B H 0.8284 -0.1959 0.2073 0.094 Uiso 1 1 calc R . .
H89C H 0.7697 -0.2765 0.2452 0.094 Uiso 1 1 calc R . .
C90 C 0.6620(5) -0.1950(3) 0.20550(18) 0.0650(18) Uani 1 1 d . . .
C91 C 0.7500(5) -0.2718(3) 0.1285(2) 0.092(2) Uani 1 1 d . . .
H91A H 0.8191 -0.2567 0.1403 0.138 Uiso 1 1 calc R . .
H91B H 0.7526 -0.2575 0.0888 0.138 Uiso 1 1 calc R . .
H91C H 0.7361 -0.3356 0.1371 0.138 Uiso 1 1 calc R . .
C92 C 0.5600(4) -0.2100(3) 0.1352(2) 0.0677(19) Uani 1 1 d . . .
H92A H 0.5085 -0.2530 0.1552 0.102 Uiso 1 1 calc R . .
H92B H 0.5691 -0.2204 0.0962 0.102 Uiso 1 1 calc R . .
H92C H 0.5329 -0.1494 0.1398 0.102 Uiso 1 1 calc R . .
C93 C 0.5855(4) -0.3102(3) 0.34394(17) 0.0486(15) Uani 1 1 d . . .
H93A H 0.6423 -0.3488 0.3278 0.073 Uiso 1 1 calc R . .
H93B H 0.5652 -0.3307 0.3825 0.073 Uiso 1 1 calc R . .
H93C H 0.6120 -0.2488 0.3414 0.073 Uiso 1 1 calc R . .
C94 C 0.4865(4) -0.3136(2) 0.31253(17) 0.0461(15) Uani 1 1 d . . .
C95 C 0.3975(4) -0.2256(2) 0.38429(15) 0.0377(13) Uani 1 1 d . . .
H95A H 0.4407 -0.2526 0.4119 0.057 Uiso 1 1 calc R . .
H95B H 0.3224 -0.2210 0.4006 0.057 Uiso 1 1 calc R . .
H95C H 0.4251 -0.1660 0.3715 0.057 Uiso 1 1 calc R . .
C96 C 0.3029(4) -0.2809(3) 0.3101(2) 0.0559(16) Uani 1 1 d . . .
H96A H 0.2967 -0.2239 0.2885 0.084 Uiso 1 1 calc R . .
H96B H 0.2401 -0.2891 0.3378 0.084 Uiso 1 1 calc R . .
H96C H 0.3064 -0.3296 0.2859 0.084 Uiso 1 1 calc R . .
C97 C 0.0263(7) -0.3268(5) 0.0328(2) 0.150(4) Uani 1 1 d . . .
H97A H 0.1011 -0.3327 0.0165 0.224 Uiso 1 1 calc R . .
H97B H -0.0123 -0.3824 0.0305 0.224 Uiso 1 1 calc R . .
H97C H 0.0247 -0.3146 0.0714 0.224 Uiso 1 1 calc R . .
C98 C -0.0210(7) -0.2597(5) 0.0057(3) 0.148(3) Uani 1 1 d . . .
C99 C -0.0124(7) -0.0963(5) -0.0364(3) 0.168(4) Uani 1 1 d . . .
H99A H -0.0510 -0.1179 -0.0650 0.251 Uiso 1 1 calc R . .
H99B H 0.0535 -0.0658 -0.0534 0.251 Uiso 1 1 calc R . .
H99C H -0.0582 -0.0546 -0.0156 0.251 Uiso 1 1 calc R . .
C100 C 0.0697(7) -0.1481(5) 0.0470(2) 0.150(4) Uani 1 1 d . . .
H10A H 0.1095 -0.1979 0.0633 0.225 Uiso 1 1 calc R . .
H10B H 0.0156 -0.1265 0.0751 0.225 Uiso 1 1 calc R . .
H10C H 0.1196 -0.0998 0.0328 0.225 Uiso 1 1 calc R . .
C101 C 0.9815(5) -0.8745(4) 0.5013(2) 0.093(2) Uani 1 1 d . . .
H10D H 0.9536 -0.9221 0.5286 0.140 Uiso 1 1 calc R . .
H10E H 1.0603 -0.8767 0.4964 0.140 Uiso 1 1 calc R . .
H10F H 0.9546 -0.8824 0.4663 0.140 Uiso 1 1 calc R . .
C102 C 0.9442(4) -0.7841(3) 0.52101(18) 0.0570(16) Uani 1 1 d . . .
C103 C 1.0837(5) -0.7128(6) 0.4553(3) 0.146(4) Uani 1 1 d . . .
H10G H 1.1275 -0.7665 0.4604 0.219 Uiso 1 1 calc R . .
H10H H 1.1285 -0.6599 0.4554 0.219 Uiso 1 1 calc R . .
H10I H 1.0544 -0.7122 0.4201 0.219 Uiso 1 1 calc R . .
C104 C 0.9684(4) -0.6273(4) 0.5194(2) 0.102(2) Uani 1 1 d . . .
H10J H 0.9178 -0.6360 0.5530 0.153 Uiso 1 1 calc R . .
H10K H 0.9346 -0.5902 0.4916 0.153 Uiso 1 1 calc R . .
H10L H 1.0333 -0.5976 0.5274 0.153 Uiso 1 1 calc R . .

loop_
_atom_site_aniso_label
_atom_site_aniso_U_11
_atom_site_aniso_U_22
_atom_site_aniso_U_33
_atom_site_aniso_U_23
_atom_site_aniso_U_13
_atom_site_aniso_U_12
Mo1 0.0395(2) 0.00997(15) 0.02052(15) 0.00072(13) -0.00728(15) -0.00428(14)
Mo2 0.0378(2) 0.01040(15) 0.01827(15) 0.00097(12) -0.00652(14) -0.00438(14)
Mo3 0.03450(19) 0.00989(14) 0.01500(14) 0.00008(12) -0.00550(14) 0.00044(14)
Mo4 0.0417(2) 0.01183(15) 0.01724(15) -0.00168(13) -0.00686(15) 0.00176(15)
O1 0.0408(16) 0.0107(11) 0.0244(12) -0.0007(10) -0.0032(12) -0.0082(11)
O2 0.0434(15) 0.0096(11) 0.0241(12) -0.0041(10) -0.0123(12) -0.0009(11)
O3 0.0474(16) 0.0109(12) 0.0200(12) -0.0023(10) -0.0091(12) 0.0020(12)
O4 0.0402(15) 0.0110(11) 0.0197(12) -0.0039(10) -0.0101(11) -0.0006(11)
O5 0.0346(14) 0.0137(12) 0.0277(12) -0.0060(10) -0.0123(11) 0.0121(11)
O6 0.0264(14) 0.0171(12) 0.0232(12) -0.0079(10) -0.0067(11) 0.0093(11)
O7 0.0345(14) 0.0082(11) 0.0342(13) -0.0030(10) -0.0166(11) 0.0046(11)
O8 0.0286(14) 0.0083(11) 0.0342(13) -0.0045(10) -0.0088(11) 0.0010(11)
O9 0.0353(15) 0.0124(12) 0.0210(12) -0.0009(10) -0.0031(11) -0.0062(11)
O10 0.0359(15) 0.0144(12) 0.0244(12) -0.0015(10) -0.0070(11) -0.0019(12)
O11 0.0393(15) 0.0145(12) 0.0182(12) -0.0027(10) -0.0055(11) 0.0064(12)
O12 0.0266(14) 0.0172(12) 0.0186(11) -0.0017(10) -0.0062(10) 0.0049(11)
O17 0.070(2) 0.0153(13) 0.0532(17) -0.0090(13) 0.0029(16) -0.0114(14)
O18 0.0438(16) 0.0130(12) 0.0276(12) -0.0032(10) -0.0175(12) 0.0005(12)
O19 0.410(7) 0.161(5) 0.306(5) -0.099(4) -0.279(4) 0.120(5)
O20 0.063(2) 0.064(2) 0.0532(19) 0.0081(17) -0.0020(17) 0.0231(18)
N1 0.0340(17) 0.0104(14) 0.0186(14) -0.0014(12) -0.0088(13) 0.0038(13)
N2 0.0222(16) 0.0147(14) 0.0215(14) 0.0024(12) -0.0078(13) -0.0036(13)
N3 0.042(2) 0.0282(18) 0.0308(17) 0.0011(15) 0.0010(16) 0.0043(16)
N4 0.045(2) 0.0310(18) 0.0347(18) 0.0037(16) -0.0004(17) 0.0084(17)
N5 0.050(2) 0.0262(17) 0.0196(15) -0.0004(13) -0.0144(15) -0.0023(16)
N6 0.051(2) 0.0215(16) 0.0257(16) -0.0042(13) -0.0116(15) 0.0061(16)
N7 0.0272(18) 0.0229(16) 0.0337(17) -0.0080(14) -0.0076(14) -0.0016(14)
N8 0.0257(17) 0.0243(16) 0.0324(17) -0.0014(14) -0.0015(15) -0.0048(15)
N9 0.081(3) 0.036(2) 0.075(3) 0.006(2) 0.003(3) -0.004(2)
N10 0.079(3) 0.0254(18) 0.0329(19) -0.0079(15) 0.0076(19) -0.0052(19)
N11 0.102(4) 0.159(5) 0.115(4) -0.014(4) -0.047(3) 0.019(4)
N12 0.046(3) 0.091(3) 0.090(3) 0.008(3) -0.022(2) -0.010(2)
C1 0.042(2) 0.0167(18) 0.0269(19) -0.0043(16) -0.0035(18) 0.0034(18)
C2 0.035(2) 0.0137(17) 0.0225(18) -0.0018(15) -0.0059(17) 0.0017(17)
C3 0.050(3) 0.0153(19) 0.032(2) 0.0007(17) -0.005(2) 0.0076(19)
C4 0.050(3) 0.0200(19) 0.034(2) -0.0109(16) -0.0188(19) -0.0016(19)
C5 0.049(2) 0.0204(19) 0.0205(17) -0.0084(15) -0.0147(17) 0.0008(18)
C6 0.031(2) 0.0180(18) 0.0182(17) -0.0060(15) -0.0026(16) 0.0006(17)
C7 0.036(2) 0.0134(17) 0.0215(17) -0.0017(14) -0.0113(16) -0.0023(16)
C8 0.027(2) 0.0222(18) 0.0134(16) -0.0030(15) -0.0034(15) 0.0035(17)
C9 0.036(2) 0.0211(19) 0.0181(17) -0.0015(15) -0.0051(16) -0.0072(17)
C10 0.042(2) 0.032(2) 0.0100(16) 0.0028(16) -0.0022(17) -0.0050(19)
C11 0.026(2) 0.0210(19) 0.0217(18) 0.0015(15) -0.0034(16) -0.0034(17)
C12 0.026(2) 0.0238(19) 0.0146(16) -0.0017(15) -0.0010(15) 0.0017(17)
C13 0.043(2) 0.0237(19) 0.0164(18) 0.0084(16) -0.0021(17) -0.0153(18)
C14 0.047(2) 0.0192(19) 0.0228(18) 0.0064(16) -0.0114(18) -0.0076(18)
C15 0.031(2) 0.0188(18) 0.0209(18) 0.0026(15) -0.0069(16) -0.0071(17)
C16 0.024(2) 0.0103(16) 0.0230(18) 0.0084(14) -0.0033(16) -0.0068(15)
C17 0.038(2) 0.0175(19) 0.035(2) 0.0048(16) -0.0177(18) -0.0073(18)
C18 0.060(3) 0.0104(18) 0.050(2) 0.0009(18) -0.024(2) -0.0004(19)
C19 0.035(2) 0.0091(17) 0.037(2) -0.0003(16) -0.0094(18) 0.0036(17)
C20 0.032(2) 0.0117(17) 0.0203(17) 0.0028(14) -0.0050(16) -0.0017(16)
C21 0.036(2) 0.0128(17) 0.0158(17) 0.0078(14) -0.0022(16) -0.0034(17)
C22 0.0190(19) 0.0185(18) 0.0232(18) 0.0030(15) -0.0058(15) 0.0017(16)
C23 0.033(2) 0.0221(19) 0.0195(17) -0.0001(15) -0.0154(16) 0.0066(17)
C24 0.054(3) 0.0142(18) 0.0249(19) 0.0044(16) -0.0033(19) 0.0062(19)
C25 0.057(3) 0.027(2) 0.030(2) -0.0061(18) -0.010(2) 0.007(2)
C26 0.058(3) 0.036(2) 0.045(3) -0.011(2) 0.008(2) 0.018(2)
C27 0.041(3) 0.052(3) 0.050(3) -0.008(2) 0.006(2) 0.018(2)
C28 0.055(3) 0.024(2) 0.038(2) 0.0014(19) 0.007(2) 0.010(2)
C29 0.035(2) 0.0190(19) 0.031(2) 0.0034(17) -0.0038(18) 0.0007(18)
C30 0.050(3) 0.027(2) 0.038(2) 0.0117(19) 0.014(2) -0.004(2)
C31 0.043(3) 0.028(2) 0.064(3) 0.001(2) 0.005(2) 0.002(2)
C32 0.035(3) 0.045(3) 0.078(3) 0.004(3) 0.014(3) 0.016(2)
C33 0.037(3) 0.026(2) 0.061(3) 0.001(2) -0.007(2) 0.008(2)
C34 0.045(3) 0.028(2) 0.038(2) 0.0082(19) -0.006(2) -0.001(2)
C35 0.049(3) 0.041(3) 0.071(3) -0.010(2) 0.000(3) 0.000(2)
C36 0.053(3) 0.028(2) 0.056(3) -0.003(2) -0.002(2) -0.009(2)
C37 0.053(3) 0.033(2) 0.033(2) 0.0018(19) -0.009(2) 0.003(2)
C38 0.050(3) 0.026(2) 0.027(2) -0.0031(17) -0.0056(19) -0.002(2)
C39 0.048(3) 0.033(2) 0.048(3) -0.004(2) -0.001(2) -0.006(2)
C40 0.058(3) 0.027(2) 0.046(3) 0.004(2) 0.007(2) 0.002(2)
C41 0.043(3) 0.018(2) 0.046(2) -0.0004(18) -0.001(2) 0.0032(19)
C42 0.034(2) 0.029(2) 0.0222(19) 0.0027(17) 0.0010(17) -0.0058(19)
C43 0.032(2) 0.0202(19) 0.035(2) 0.0023(17) -0.0042(18) -0.0015(18)
C44 0.047(2) 0.0090(17) 0.0263(18) -0.0003(15) -0.0124(18) 0.0106(17)
C45 0.048(3) 0.0160(18) 0.0221(18) 0.0016(16) -0.0030(18) -0.0109(18)
C46 0.046(2) 0.0152(18) 0.0270(19) 0.0027(16) -0.0166(18) -0.0083(18)
C47 0.074(3) 0.025(2) 0.033(2) -0.0007(18) -0.021(2) -0.017(2)
C48 0.066(3) 0.022(2) 0.042(2) 0.0018(18) -0.028(2) 0.003(2)
C49 0.048(3) 0.027(2) 0.032(2) 0.0043(18) -0.010(2) -0.013(2)
C50 0.047(2) 0.021(2) 0.031(2) 0.0012(17) -0.0192(18) -0.0117(19)
C51 0.051(3) 0.0185(19) 0.0223(19) 0.0069(16) -0.0031(19) -0.0049(19)
C52 0.047(3) 0.028(2) 0.0231(19) 0.0053(17) -0.0078(18) -0.011(2)
C53 0.057(3) 0.031(2) 0.033(2) 0.0005(18) -0.020(2) -0.002(2)
C54 0.072(3) 0.038(2) 0.027(2) -0.0005(19) -0.027(2) 0.006(2)
C55 0.047(3) 0.031(2) 0.0213(18) -0.0022(17) -0.0126(18) 0.007(2)
C56 0.044(2) 0.034(2) 0.0212(18) -0.0031(17) -0.0128(18) 0.004(2)
C57 0.062(3) 0.038(2) 0.0211(19) -0.0038(18) -0.0136(19) 0.011(2)
C58 0.064(3) 0.035(2) 0.030(2) -0.0118(18) -0.025(2) 0.006(2)
C59 0.055(3) 0.023(2) 0.0257(18) -0.0067(16) -0.0214(18) 0.0086(19)
C60 0.039(2) 0.025(2) 0.0260(19) -0.0125(16) -0.0043(18) 0.0054(19)
C61 0.051(2) 0.0198(19) 0.041(2) -0.0070(17) -0.0310(18) 0.0022(19)
C62 0.037(2) 0.030(2) 0.043(2) -0.0067(19) -0.0187(19) -0.001(2)
C63 0.043(2) 0.0162(19) 0.038(2) 0.0001(17) -0.0133(19) 0.0021(18)
C64 0.035(2) 0.0191(18) 0.0214(18) -0.0048(15) -0.0063(17) 0.0013(17)
C65 0.032(2) 0.0162(18) 0.0309(19) -0.0069(15) -0.0142(17) 0.0018(17)
C66 0.035(2) 0.0161(18) 0.0207(18) -0.0015(15) -0.0043(17) 0.0040(17)
C67 0.0237(19) 0.0191(18) 0.0166(17) 0.0055(15) -0.0046(15) -0.0108(16)
C68 0.042(2) 0.0138(18) 0.0232(18) -0.0029(15) -0.0094(17) 0.0002(18)
C69 0.048(3) 0.0146(19) 0.042(2) -0.0066(17) -0.004(2) 0.0035(19)
C70 0.055(3) 0.025(2) 0.050(3) -0.004(2) 0.000(2) -0.019(2)
C71 0.020(2) 0.028(2) 0.053(2) -0.0033(19) -0.0017(19) -0.0136(18)
C72 0.022(2) 0.0218(19) 0.030(2) 0.0039(16) -0.0011(17) -0.0092(17)
C73 0.036(2) 0.0162(18) 0.0264(19) 0.0029(16) -0.0078(17) -0.0066(17)
C74 0.0169(19) 0.027(2) 0.033(2) 0.0031(17) -0.0068(16) -0.0108(17)
C75 0.033(2) 0.025(2) 0.045(2) 0.0030(19) -0.005(2) -0.0107(19)
C76 0.025(2) 0.042(2) 0.038(2) 0.004(2) -0.0048(19) -0.006(2)
C77 0.027(2) 0.029(2) 0.030(2) 0.0000(17) -0.0088(17) 0.0043(18)
C78 0.024(2) 0.025(2) 0.034(2) 0.0007(17) -0.0055(17) -0.0056(17)
C79 0.022(2) 0.037(2) 0.034(2) 0.0003(19) 0.0055(18) -0.0077(19)
C80 0.045(3) 0.036(2) 0.028(2) -0.0091(18) -0.0076(19) 0.002(2)
C81 0.033(2) 0.037(2) 0.0256(19) 0.0024(18) -0.0110(18) -0.002(2)
C82 0.033(2) 0.026(2) 0.0215(18) 0.0031(16) -0.0104(17) -0.0034(18)
C83 0.025(2) 0.034(2) 0.045(2) 0.0031(19) -0.0118(19) -0.0046(19)
C84 0.042(3) 0.028(2) 0.050(3) 0.002(2) -0.008(2) -0.002(2)
C85 0.040(2) 0.0109(18) 0.046(2) 0.0011(17) -0.008(2) -0.0025(18)
C86 0.034(2) 0.0211(19) 0.0274(19) 0.0006(16) -0.0075(17) 0.0057(18)
C87 0.036(2) 0.0186(19) 0.0253(18) -0.0023(16) -0.0098(17) 0.0006(18)
C88 0.045(2) 0.0064(16) 0.0182(17) 0.0049(14) -0.0033(17) -0.0047(17)
C89 0.074(4) 0.036(3) 0.071(3) 0.004(3) 0.015(3) 0.013(3)
C90 0.136(5) 0.018(2) 0.039(3) 0.006(2) -0.007(3) -0.034(3)
C91 0.136(5) 0.050(3) 0.071(3) 0.015(3) 0.049(3) 0.060(3)
C92 0.070(4) 0.047(3) 0.080(4) 0.005(3) 0.009(3) -0.008(3)
C93 0.067(3) 0.025(2) 0.056(3) 0.009(2) -0.024(2) 0.005(2)
C94 0.086(4) 0.0081(18) 0.039(2) -0.0019(18) 0.017(2) -0.011(2)
C95 0.054(3) 0.0174(19) 0.038(2) -0.0038(18) 0.009(2) -0.009(2)
C96 0.047(3) 0.040(3) 0.085(3) -0.011(3) -0.022(3) -0.001(2)
C97 0.238(9) 0.146(6) 0.064(4) 0.018(4) -0.038(5) 0.066(6)
C98 0.191(7) 0.089(5) 0.194(6) -0.059(5) -0.116(5) 0.042(5)
C99 0.165(8) 0.206(9) 0.132(7) -0.006(7) -0.027(6) 0.033(7)
C100 0.197(8) 0.201(8) 0.052(4) 0.022(5) -0.036(5) -0.007(7)
C101 0.097(4) 0.125(5) 0.066(3) -0.034(3) -0.030(3) 0.045(4)
C102 0.048(3) 0.083(3) 0.046(2) -0.013(2) -0.031(2) 0.030(3)
C103 0.037(4) 0.250(9) 0.140(6) 0.027(6) 0.009(4) -0.031(5)
C104 0.101(4) 0.071(4) 0.151(5) 0.004(4) -0.097(3) -0.010(3)

_geom_special_details            
;
All esds (except the esd in the dihedral angle between two l.s. planes)
are estimated using the full covariance matrix. The cell esds are taken
into account individually in the estimation of esds in distances, angles
and torsion angles; correlations between esds in cell parameters are only
used when they are defined by crystal symmetry. An approximate (isotropic)
treatment of cell esds is used for estimating esds involving l.s. planes.
;

loop_
_geom_bond_atom_site_label_1
_geom_bond_atom_site_label_2
_geom_bond_distance
_geom_bond_site_symmetry_2
_geom_bond_publ_flag
Mo1 O9 2.098(2) . ?
Mo1 O1 2.102(2) . ?
Mo1 O7 2.103(2) . ?
Mo1 Mo2 2.1101(7) . ?
Mo1 O15 2.163(2) . ?
Mo2 O8 2.096(2) . ?
Mo2 O10 2.110(2) . ?
Mo2 O2 2.124(2) . ?
Mo2 O16 2.147(2) . ?
Mo2 O17 2.402(3) . ?
Mo3 O4 2.106(2) . ?
Mo3 O12 2.110(2) . ?
Mo3 O6 2.110(2) . ?
Mo3 Mo4 2.1132(7) . ?
Mo3 O14 2.144(2) . ?
Mo3 O18 2.407(2) . ?
Mo4 O5 2.066(2) . ?
Mo4 O11 2.097(2) . ?
Mo4 O3 2.111(2) . ?
Mo4 O13 2.147(2) . ?
O1 C1 1.288(4) . ?
O2 C1 1.291(4) . ?
O3 C22 1.295(4) . ?
O4 C22 1.274(4) . ?
O5 C23 1.288(4) . ?
O6 C23 1.305(4) . ?
O7 C44 1.290(4) . ?
O8 C44 1.281(4) . ?
O9 C45 1.272(4) . ?
O10 C45 1.290(4) . ?
O11 C66 1.291(4) . ?
O12 C66 1.273(4) . ?
O13 C67 1.251(4) . ?
O14 C67 1.271(4) . ?
O15 C88 1.267(4) . ?
O16 C88 1.254(4) . ?
O17 C90 1.292(6) . ?
O18 C94 1.242(5) . ?
O19 C98 1.292(10) . ?
O20 C102 1.240(5) . ?
N1 C8 1.331(4) . ?
N1 C12 1.380(4) . ?
N2 C15 1.310(4) . ?
N2 C12 1.369(4) . ?
N3 C37 1.339(5) . ?
N3 C34 1.350(5) . ?
N4 C30 1.330(5) . ?
N4 C34 1.380(5) . ?
N5 C52 1.319(5) . ?
N5 C56 1.377(5) . ?
N6 C59 1.319(5) . ?
N6 C56 1.368(5) . ?
N7 C81 1.331(5) . ?
N7 C78 1.371(5) . ?
N8 C74 1.333(4) . ?
N8 C78 1.373(5) . ?
N9 C90 1.286(6) . ?
N9 C91 1.454(6) . ?
N9 C92 1.476(7) . ?
N10 C94 1.262(6) . ?
N10 C95 1.464(5) . ?
N10 C96 1.506(6) . ?
N11 C98 1.328(9) . ?
N11 C100 1.427(9) . ?
N11 C99 1.577(10) . ?
N12 C102 1.316(6) . ?
N12 C103 1.435(7) . ?
N12 C104 1.440(7) . ?
C1 C2 1.463(5) . ?
C2 C3 1.374(5) . ?
C2 C7 1.418(5) . ?
C3 C4 1.395(5) . ?
C4 C5 1.373(5) . ?
C5 C6 1.392(5) . ?
C6 C7 1.390(5) . ?
C6 C8 1.506(5) . ?
C8 C9 1.423(5) . ?
C9 C10 1.359(5) . ?
C10 C11 1.405(5) . ?
C11 C12 1.419(5) . ?
C11 C13 1.421(5) . ?
C13 C14 1.356(5) . ?
C14 C15 1.438(5) . ?
C15 C16 1.499(5) . ?
C16 C21 1.389(5) . ?
C16 C17 1.404(5) . ?
C17 C18 1.391(5) . ?
C18 C19 1.362(5) . ?
C19 C20 1.420(5) . ?
C20 C21 1.398(5) . ?
C20 C22 1.472(5) . ?
C23 C24 1.506(5) . ?
C24 C29 1.375(5) . ?
C24 C25 1.384(5) . ?
C25 C26 1.369(6) . ?
C26 C27 1.383(6) . ?
C27 C28 1.383(6) . ?
C28 C29 1.393(6) . ?
C28 C30 1.495(6) . ?
C30 C31 1.415(6) . ?
C31 C32 1.359(6) . ?
C32 C33 1.420(6) . ?
C33 C34 1.409(6) . ?
C33 C35 1.414(6) . ?
C35 C36 1.359(6) . ?
C36 C37 1.395(6) . ?
C37 C38 1.473(6) . ?
C38 C43 1.403(6) . ?
C38 C39 1.417(5) . ?
C39 C40 1.386(6) . ?
C40 C41 1.386(6) . ?
C41 C42 1.413(5) . ?
C42 C43 1.372(5) . ?
C42 C44 1.507(5) . ?
C45 C46 1.474(5) . ?
C46 C51 1.376(5) . ?
C46 C47 1.410(5) . ?
C47 C48 1.391(6) . ?
C48 C49 1.395(5) . ?
C49 C50 1.416(5) . ?
C50 C51 1.393(5) . ?
C50 C52 1.480(5) . ?
C52 C53 1.429(5) . ?
C53 C54 1.357(6) . ?
C54 C55 1.413(5) . ?
C55 C57 1.391(5) . ?
C55 C56 1.423(5) . ?
C57 C58 1.357(5) . ?
C58 C59 1.408(5) . ?
C59 C60 1.494(5) . ?
C60 C65 1.389(5) . ?
C60 C61 1.410(5) . ?
C61 C62 1.374(5) . ?
C62 C63 1.385(5) . ?
C63 C64 1.373(5) . ?
C64 C65 1.405(5) . ?
C64 C66 1.505(5) . ?
C67 C68 1.439(5) . ?
C68 C69 1.391(5) . ?
C68 C73 1.412(5) . ?
C69 C70 1.370(6) . ?
C70 C71 1.387(5) . ?
C71 C72 1.417(5) . ?
C72 C73 1.378(5) . ?
C72 C74 1.473(5) . ?
C74 C75 1.438(5) . ?
C75 C76 1.352(5) . ?
C76 C77 1.397(5) . ?
C77 C79 1.402(5) . ?
C77 C78 1.433(5) . ?
C79 C80 1.363(5) . ?
C80 C81 1.433(5) . ?
C81 C82 1.487(5) . ?
C82 C87 1.392(5) . ?
C82 C83 1.426(5) . ?
C83 C84 1.389(5) . ?
C84 C85 1.385(6) . ?
C85 C86 1.414(5) . ?
C86 C87 1.400(5) . ?
C86 C88 1.468(5) . ?
C89 C90 1.548(8) . ?
C93 C94 1.543(7) . ?
C97 C98 1.338(10) . ?
C101 C102 1.532(7) . ?

loop_
_geom_angle_atom_site_label_1
_geom_angle_atom_site_label_2
_geom_angle_atom_site_label_3
_geom_angle
_geom_angle_site_symmetry_1
_geom_angle_site_symmetry_3
_geom_angle_publ_flag
O9 Mo1 O1 174.73(9) . . ?
O9 Mo1 O7 91.24(9) . . ?
O1 Mo1 O7 90.85(9) . . ?
O9 Mo1 Mo2 92.93(6) . . ?
O1 Mo1 Mo2 91.81(6) . . ?
O7 Mo1 Mo2 92.68(6) . . ?
O9 Mo1 O15 86.62(9) . . ?
O1 Mo1 O15 90.95(9) . . ?
O7 Mo1 O15 175.52(8) . . ?
Mo2 Mo1 O15 91.37(6) . . ?
O8 Mo2 Mo1 90.51(6) . . ?
O8 Mo2 O10 92.42(9) . . ?
Mo1 Mo2 O10 90.54(6) . . ?
O8 Mo2 O2 90.45(9) . . ?
Mo1 Mo2 O2 91.74(6) . . ?
O10 Mo2 O2 176.32(9) . . ?
O8 Mo2 O16 177.39(9) . . ?
Mo1 Mo2 O16 92.07(6) . . ?
O10 Mo2 O16 87.16(9) . . ?
O2 Mo2 O16 89.86(9) . . ?
O8 Mo2 O17 79.03(9) . . ?
Mo1 Mo2 O17 168.14(7) . . ?
O10 Mo2 O17 84.42(9) . . ?
O2 Mo2 O17 93.88(9) . . ?
O16 Mo2 O17 98.37(9) . . ?
O4 Mo3 O12 177.33(8) . . ?
O4 Mo3 O6 87.19(9) . . ?
O12 Mo3 O6 92.88(9) . . ?
O4 Mo3 Mo4 90.84(6) . . ?
O12 Mo3 Mo4 91.83(6) . . ?
O6 Mo3 Mo4 91.48(6) . . ?
O4 Mo3 O14 92.34(9) . . ?
O12 Mo3 O14 87.50(9) . . ?
O6 Mo3 O14 178.11(9) . . ?
Mo4 Mo3 O14 90.36(6) . . ?
O4 Mo3 O18 81.83(8) . . ?
O12 Mo3 O18 95.52(8) . . ?
O6 Mo3 O18 99.14(8) . . ?
Mo4 Mo3 O18 166.74(6) . . ?
O14 Mo3 O18 78.99(8) . . ?
O5 Mo4 O11 92.79(9) . . ?
O5 Mo4 O3 87.38(9) . . ?
O11 Mo4 O3 175.32(9) . . ?
O5 Mo4 Mo3 91.76(6) . . ?
O11 Mo4 Mo3 91.77(6) . . ?
O3 Mo4 Mo3 92.90(6) . . ?
O5 Mo4 O13 175.34(9) . . ?
O11 Mo4 O13 86.28(9) . . ?
O3 Mo4 O13 93.17(9) . . ?
Mo3 Mo4 O13 92.83(6) . . ?
C1 O1 Mo1 118.5(2) . . ?
C1 O2 Mo2 117.3(2) . . ?
C22 O3 Mo4 115.4(2) . . ?
C22 O4 Mo3 118.1(2) . . ?
C23 O5 Mo4 120.2(2) . . ?
C23 O6 Mo3 117.7(2) . . ?
C44 O7 Mo1 117.1(2) . . ?
C44 O8 Mo2 119.7(2) . . ?
C45 O9 Mo1 116.3(2) . . ?
C45 O10 Mo2 117.5(2) . . ?
C66 O11 Mo4 116.9(2) . . ?
C66 O12 Mo3 116.6(2) . . ?
C67 O13 Mo4 115.0(2) . . ?
C67 O14 Mo3 117.0(2) . . ?
C88 O15 Mo1 115.3(2) . . ?
C88 O16 Mo2 115.7(2) . . ?
C90 O17 Mo2 136.3(3) . . ?
C94 O18 Mo3 141.7(2) . . ?
C8 N1 C12 117.4(3) . . ?
C15 N2 C12 118.3(3) . . ?
C37 N3 C34 117.1(4) . . ?
C30 N4 C34 116.5(4) . . ?
C52 N5 C56 118.1(3) . . ?
C59 N6 C56 116.8(3) . . ?
C81 N7 C78 118.0(3) . . ?
C74 N8 C78 118.4(3) . . ?
C90 N9 C91 126.2(5) . . ?
C90 N9 C92 112.7(4) . . ?
C91 N9 C92 120.0(4) . . ?
C94 N10 C95 127.8(4) . . ?
C94 N10 C96 116.2(4) . . ?
C95 N10 C96 114.5(3) . . ?
C98 N11 C100 121.1(6) . . ?
C98 N11 C99 126.1(6) . . ?
C100 N11 C99 111.0(6) . . ?
C102 N12 C103 124.1(5) . . ?
C102 N12 C104 119.4(4) . . ?
C103 N12 C104 116.5(5) . . ?
O1 C1 O2 120.7(3) . . ?
O1 C1 C2 118.7(3) . . ?
O2 C1 C2 120.6(3) . . ?
C3 C2 C7 118.7(3) . . ?
C3 C2 C1 119.8(3) . . ?
C7 C2 C1 121.5(3) . . ?
C2 C3 C4 121.2(3) . . ?
C5 C4 C3 119.2(3) . . ?
C4 C5 C6 121.5(3) . . ?
C7 C6 C5 118.9(3) . . ?
C7 C6 C8 120.4(3) . . ?
C5 C6 C8 120.7(3) . . ?
C6 C7 C2 120.4(3) . . ?
N1 C8 C9 122.9(3) . . ?
N1 C8 C6 117.5(3) . . ?
C9 C8 C6 119.5(3) . . ?
C10 C9 C8 119.6(3) . . ?
C9 C10 C11 119.3(3) . . ?
C10 C11 C12 118.2(3) . . ?
C10 C11 C13 124.3(3) . . ?
C12 C11 C13 117.5(3) . . ?
N2 C12 N1 115.4(3) . . ?
N2 C12 C11 122.3(3) . . ?
N1 C12 C11 122.2(3) . . ?
C14 C13 C11 119.7(3) . . ?
C13 C14 C15 118.7(3) . . ?
N2 C15 C14 123.2(3) . . ?
N2 C15 C16 116.3(3) . . ?
C14 C15 C16 120.4(3) . . ?
C21 C16 C17 118.0(3) . . ?
C21 C16 C15 121.2(3) . . ?
C17 C16 C15 120.6(3) . . ?
C18 C17 C16 120.7(3) . . ?
C19 C18 C17 121.6(4) . . ?
C18 C19 C20 118.6(3) . . ?
C21 C20 C19 119.8(3) . . ?
C21 C20 C22 118.5(3) . . ?
C19 C20 C22 121.6(3) . . ?
C16 C21 C20 121.1(3) . . ?
O4 C22 O3 122.4(3) . . ?
O4 C22 C20 118.4(3) . . ?
O3 C22 C20 119.3(3) . . ?
O5 C23 O6 118.8(3) . . ?
O5 C23 C24 121.6(3) . . ?
O6 C23 C24 119.6(3) . . ?
C29 C24 C25 121.2(4) . . ?
C29 C24 C23 121.7(3) . . ?
C25 C24 C23 117.1(3) . . ?
C26 C25 C24 119.4(4) . . ?
C25 C26 C27 119.7(4) . . ?
C26 C27 C28 121.5(4) . . ?
C27 C28 C29 118.4(4) . . ?
C27 C28 C30 121.1(4) . . ?
C29 C28 C30 120.5(4) . . ?
C24 C29 C28 119.8(4) . . ?
N4 C30 C31 124.7(4) . . ?
N4 C30 C28 116.7(4) . . ?
C31 C30 C28 118.6(4) . . ?
C32 C31 C30 118.2(4) . . ?
C31 C32 C33 120.1(4) . . ?
C34 C33 C35 117.9(4) . . ?
C34 C33 C32 117.4(4) . . ?
C35 C33 C32 124.6(4) . . ?
N3 C34 N4 114.1(4) . . ?
N3 C34 C33 122.9(4) . . ?
N4 C34 C33 123.0(4) . . ?
C36 C35 C33 118.9(4) . . ?
C35 C36 C37 119.2(4) . . ?
N3 C37 C36 123.9(4) . . ?
N3 C37 C38 115.8(4) . . ?
C36 C37 C38 120.4(4) . . ?
C43 C38 C39 117.7(4) . . ?
C43 C38 C37 119.9(3) . . ?
C39 C38 C37 122.5(4) . . ?
C40 C39 C38 119.9(4) . . ?
C39 C40 C41 122.8(4) . . ?
C40 C41 C42 116.4(4) . . ?
C43 C42 C41 122.2(4) . . ?
C43 C42 C44 118.7(3) . . ?
C41 C42 C44 119.1(3) . . ?
C42 C43 C38 121.0(3) . . ?
O8 C44 O7 120.0(3) . . ?
O8 C44 C42 119.2(3) . . ?
O7 C44 C42 120.8(3) . . ?
O9 C45 O10 121.7(3) . . ?
O9 C45 C46 120.5(3) . . ?
O10 C45 C46 117.8(3) . . ?
C51 C46 C47 120.1(4) . . ?
C51 C46 C45 121.5(3) . . ?
C47 C46 C45 118.2(3) . . ?
C48 C47 C46 118.2(4) . . ?
C47 C48 C49 121.7(4) . . ?
C48 C49 C50 119.5(4) . . ?
C51 C50 C49 118.1(3) . . ?
C51 C50 C52 121.5(3) . . ?
C49 C50 C52 120.3(4) . . ?
C46 C51 C50 122.2(3) . . ?
N5 C52 C53 122.8(3) . . ?
N5 C52 C50 116.6(3) . . ?
C53 C52 C50 120.6(3) . . ?
C54 C53 C52 119.6(4) . . ?
C53 C54 C55 119.6(4) . . ?
C57 C55 C54 124.7(3) . . ?
C57 C55 C56 117.8(3) . . ?
C54 C55 C56 117.5(3) . . ?
N6 C56 N5 115.0(3) . . ?
N6 C56 C55 122.5(3) . . ?
N5 C56 C55 122.4(3) . . ?
C58 C57 C55 119.6(4) . . ?
C57 C58 C59 119.0(4) . . ?
N6 C59 C58 124.1(3) . . ?
N6 C59 C60 116.8(3) . . ?
C58 C59 C60 119.1(3) . . ?
C65 C60 C61 118.3(3) . . ?
C65 C60 C59 120.0(3) . . ?
C61 C60 C59 121.7(3) . . ?
C62 C61 C60 121.4(4) . . ?
C61 C62 C63 119.0(4) . . ?
C64 C63 C62 121.3(3) . . ?
C63 C64 C65 119.5(3) . . ?
C63 C64 C66 118.9(3) . . ?
C65 C64 C66 121.6(3) . . ?
C60 C65 C64 120.3(3) . . ?
O12 C66 O11 122.3(3) . . ?
O12 C66 C64 120.6(3) . . ?
O11 C66 C64 116.9(3) . . ?
O13 C67 O14 124.6(3) . . ?
O13 C67 C68 118.9(3) . . ?
O14 C67 C68 116.6(3) . . ?
C69 C68 C73 116.8(4) . . ?
C69 C68 C67 122.4(3) . . ?
C73 C68 C67 120.8(3) . . ?
C70 C69 C68 121.1(4) . . ?
C69 C70 C71 122.0(4) . . ?
C70 C71 C72 118.8(4) . . ?
C73 C72 C71 118.1(3) . . ?
C73 C72 C74 121.2(3) . . ?
C71 C72 C74 120.7(3) . . ?
C72 C73 C68 123.3(3) . . ?
N8 C74 C75 121.9(3) . . ?
N8 C74 C72 117.6(3) . . ?
C75 C74 C72 120.3(3) . . ?
C76 C75 C74 120.2(4) . . ?
C75 C76 C77 119.2(4) . . ?
C76 C77 C79 124.0(3) . . ?
C76 C77 C78 118.6(3) . . ?
C79 C77 C78 117.3(3) . . ?
N7 C78 N8 115.6(3) . . ?
N7 C78 C77 122.7(3) . . ?
N8 C78 C77 121.6(3) . . ?
C80 C79 C77 120.1(3) . . ?
C79 C80 C81 119.5(4) . . ?
N7 C81 C80 122.4(3) . . ?
N7 C81 C82 117.3(3) . . ?
C80 C81 C82 120.2(3) . . ?
C87 C82 C83 119.2(3) . . ?
C87 C82 C81 122.2(3) . . ?
C83 C82 C81 118.5(3) . . ?
C84 C83 C82 119.0(4) . . ?
C85 C84 C83 121.5(4) . . ?
C84 C85 C86 120.2(3) . . ?
C87 C86 C85 118.5(3) . . ?
C87 C86 C88 121.0(3) . . ?
C85 C86 C88 120.5(3) . . ?
C82 C87 C86 121.6(3) . . ?
O16 C88 O15 125.3(3) . . ?
O16 C88 C86 121.0(3) . . ?
O15 C88 C86 113.6(3) . . ?
N9 C90 O17 124.7(5) . . ?
N9 C90 C89 115.7(5) . . ?
O17 C90 C89 119.6(4) . . ?
O18 C94 N10 126.9(5) . . ?
O18 C94 C93 120.6(4) . . ?
N10 C94 C93 112.4(4) . . ?
O19 C98 N11 110.2(7) . . ?
O19 C98 C97 125.3(7) . . ?
N11 C98 C97 120.2(8) . . ?
O20 C102 N12 123.9(5) . . ?
O20 C102 C101 117.8(4) . . ?
N12 C102 C101 118.3(4) . . ?

loop_
_geom_torsion_atom_site_label_1
_geom_torsion_atom_site_label_2
_geom_torsion_atom_site_label_3
_geom_torsion_atom_site_label_4
_geom_torsion
_geom_torsion_site_symmetry_1
_geom_torsion_site_symmetry_2
_geom_torsion_site_symmetry_3
_geom_torsion_site_symmetry_4
_geom_torsion_publ_flag
O9 Mo1 Mo2 O8 92.02(9) . . . . ?
O1 Mo1 Mo2 O8 -90.30(9) . . . . ?
O7 Mo1 Mo2 O8 0.64(9) . . . . ?
O15 Mo1 Mo2 O8 178.71(9) . . . . ?
O9 Mo1 Mo2 O10 -0.41(9) . . . . ?
O1 Mo1 Mo2 O10 177.27(9) . . . . ?
O7 Mo1 Mo2 O10 -91.79(9) . . . . ?
O15 Mo1 Mo2 O10 86.28(9) . . . . ?
O9 Mo1 Mo2 O2 -177.51(9) . . . . ?
O1 Mo1 Mo2 O2 0.17(9) . . . . ?
O7 Mo1 Mo2 O2 91.10(9) . . . . ?
O15 Mo1 Mo2 O2 -90.83(9) . . . . ?
O9 Mo1 Mo2 O16 -87.59(9) . . . . ?
O1 Mo1 Mo2 O16 90.09(9) . . . . ?
O7 Mo1 Mo2 O16 -178.97(9) . . . . ?
O15 Mo1 Mo2 O16 -0.90(8) . . . . ?
O9 Mo1 Mo2 O17 64.2(4) . . . . ?
O1 Mo1 Mo2 O17 -118.1(4) . . . . ?
O7 Mo1 Mo2 O17 -27.2(4) . . . . ?
O15 Mo1 Mo2 O17 150.9(4) . . . . ?
O4 Mo3 Mo4 O5 -88.24(9) . . . . ?
O12 Mo3 Mo4 O5 91.89(9) . . . . ?
O6 Mo3 Mo4 O5 -1.03(9) . . . . ?
O14 Mo3 Mo4 O5 179.41(9) . . . . ?
O18 Mo3 Mo4 O5 -144.4(3) . . . . ?
O4 Mo3 Mo4 O11 178.91(9) . . . . ?
O12 Mo3 Mo4 O11 -0.95(9) . . . . ?
O6 Mo3 Mo4 O11 -93.88(9) . . . . ?
O14 Mo3 Mo4 O11 86.56(9) . . . . ?
O18 Mo3 Mo4 O11 122.8(3) . . . . ?
O4 Mo3 Mo4 O3 -0.77(9) . . . . ?
O12 Mo3 Mo4 O3 179.36(9) . . . . ?
O6 Mo3 Mo4 O3 86.44(9) . . . . ?
O14 Mo3 Mo4 O3 -93.12(9) . . . . ?
O18 Mo3 Mo4 O3 -56.9(3) . . . . ?
O4 Mo3 Mo4 O13 92.55(9) . . . . ?
O12 Mo3 Mo4 O13 -87.32(9) . . . . ?
O6 Mo3 Mo4 O13 179.76(9) . . . . ?
O14 Mo3 Mo4 O13 0.20(8) . . . . ?
O18 Mo3 Mo4 O13 36.4(3) . . . . ?
O9 Mo1 O1 C1 154.5(9) . . . . ?
O7 Mo1 O1 C1 -92.2(3) . . . . ?
Mo2 Mo1 O1 C1 0.5(3) . . . . ?
O15 Mo1 O1 C1 91.9(3) . . . . ?
O8 Mo2 O2 C1 89.6(3) . . . . ?
Mo1 Mo2 O2 C1 -0.9(3) . . . . ?
O10 Mo2 O2 C1 -129.1(13) . . . . ?
O16 Mo2 O2 C1 -93.0(3) . . . . ?
O17 Mo2 O2 C1 168.6(3) . . . . ?
O5 Mo4 O3 C22 89.2(2) . . . . ?
O11 Mo4 O3 C22 -179(41) . . . . ?
Mo3 Mo4 O3 C22 -2.4(2) . . . . ?
O13 Mo4 O3 C22 -95.4(2) . . . . ?
O12 Mo3 O4 C22 -179(100) . . . . ?
O6 Mo3 O4 C22 -87.0(2) . . . . ?
Mo4 Mo3 O4 C22 4.4(2) . . . . ?
O14 Mo3 O4 C22 94.8(2) . . . . ?
O18 Mo3 O4 C22 173.3(2) . . . . ?
O11 Mo4 O5 C23 92.4(2) . . . . ?
O3 Mo4 O5 C23 -92.3(2) . . . . ?
Mo3 Mo4 O5 C23 0.5(2) . . . . ?
O13 Mo4 O5 C23 170.8(10) . . . . ?
O4 Mo3 O6 C23 92.7(2) . . . . ?
O12 Mo3 O6 C23 -90.0(2) . . . . ?
Mo4 Mo3 O6 C23 1.9(2) . . . . ?
O14 Mo3 O6 C23 168(3) . . . . ?
O18 Mo3 O6 C23 174.0(2) . . . . ?
O9 Mo1 O7 C44 -92.8(2) . . . . ?
O1 Mo1 O7 C44 92.1(2) . . . . ?
Mo2 Mo1 O7 C44 0.2(2) . . . . ?
O15 Mo1 O7 C44 -154.3(11) . . . . ?
Mo1 Mo2 O8 C44 -1.8(2) . . . . ?
O10 Mo2 O8 C44 88.8(2) . . . . ?
O2 Mo2 O8 C44 -93.5(2) . . . . ?
O16 Mo2 O8 C44 169.6(18) . . . . ?
O17 Mo2 O8 C44 172.6(3) . . . . ?
O1 Mo1 O9 C45 -147.5(9) . . . . ?
O7 Mo1 O9 C45 99.1(3) . . . . ?
Mo2 Mo1 O9 C45 6.4(3) . . . . ?
O15 Mo1 O9 C45 -84.8(3) . . . . ?
O8 Mo2 O10 C45 -95.9(3) . . . . ?
Mo1 Mo2 O10 C45 -5.4(2) . . . . ?
O2 Mo2 O10 C45 122.8(14) . . . . ?
O16 Mo2 O10 C45 86.6(3) . . . . ?
O17 Mo2 O10 C45 -174.7(3) . . . . ?
O5 Mo4 O11 C66 -95.0(2) . . . . ?
O3 Mo4 O11 C66 172.9(11) . . . . ?
Mo3 Mo4 O11 C66 -3.2(2) . . . . ?
O13 Mo4 O11 C66 89.5(2) . . . . ?
O4 Mo3 O12 C66 -171.5(19) . . . . ?
O6 Mo3 O12 C66 97.1(2) . . . . ?
Mo4 Mo3 O12 C66 5.5(2) . . . . ?
O14 Mo3 O12 C66 -84.8(2) . . . . ?
O18 Mo3 O12 C66 -163.5(2) . . . . ?
O5 Mo4 O13 C67 -167.6(10) . . . . ?
O11 Mo4 O13 C67 -89.0(2) . . . . ?
O3 Mo4 O13 C67 95.7(2) . . . . ?
Mo3 Mo4 O13 C67 2.6(2) . . . . ?
O4 Mo3 O14 C67 -94.0(2) . . . . ?
O12 Mo3 O14 C67 88.7(2) . . . . ?
O6 Mo3 O14 C67 -170(3) . . . . ?
Mo4 Mo3 O14 C67 -3.1(2) . . . . ?
O18 Mo3 O14 C67 -175.2(2) . . . . ?
O9 Mo1 O15 C88 91.0(2) . . . . ?
O1 Mo1 O15 C88 -93.7(2) . . . . ?
O7 Mo1 O15 C88 152.6(11) . . . . ?
Mo2 Mo1 O15 C88 -1.9(2) . . . . ?
O8 Mo2 O16 C88 -167.3(19) . . . . ?
Mo1 Mo2 O16 C88 4.1(2) . . . . ?
O10 Mo2 O16 C88 -86.3(2) . . . . ?
O2 Mo2 O16 C88 95.8(2) . . . . ?
O17 Mo2 O16 C88 -170.3(2) . . . . ?
O8 Mo2 O17 C90 -5.1(4) . . . . ?
Mo1 Mo2 O17 C90 23.3(7) . . . . ?
O10 Mo2 O17 C90 88.5(4) . . . . ?
O2 Mo2 O17 C90 -94.8(4) . . . . ?
O16 Mo2 O17 C90 174.8(4) . . . . ?
O4 Mo3 O18 C94 -7.4(5) . . . . ?
O12 Mo3 O18 C94 173.0(5) . . . . ?
O6 Mo3 O18 C94 -93.2(5) . . . . ?
Mo4 Mo3 O18 C94 49.6(6) . . . . ?
O14 Mo3 O18 C94 86.6(5) . . . . ?
Mo1 O1 C1 O2 -1.4(5) . . . . ?
Mo1 O1 C1 C2 -179.5(3) . . . . ?
Mo2 O2 C1 O1 1.6(5) . . . . ?
Mo2 O2 C1 C2 179.7(3) . . . . ?
O1 C1 C2 C3 -15.4(5) . . . . ?
O2 C1 C2 C3 166.5(4) . . . . ?
O1 C1 C2 C7 165.7(3) . . . . ?
O2 C1 C2 C7 -12.4(6) . . . . ?
C7 C2 C3 C4 3.9(6) . . . . ?
C1 C2 C3 C4 -175.1(4) . . . . ?
C2 C3 C4 C5 -3.7(6) . . . . ?
C3 C4 C5 C6 1.8(6) . . . . ?
C4 C5 C6 C7 -0.1(6) . . . . ?
C4 C5 C6 C8 -179.2(3) . . . . ?
C5 C6 C7 C2 0.3(5) . . . . ?
C8 C6 C7 C2 179.3(3) . . . . ?
C3 C2 C7 C6 -2.1(5) . . . . ?
C1 C2 C7 C6 176.8(3) . . . . ?
C12 N1 C8 C9 -5.5(5) . . . . ?
C12 N1 C8 C6 174.2(3) . . . . ?
C7 C6 C8 N1 20.3(5) . . . . ?
C5 C6 C8 N1 -160.7(3) . . . . ?
C7 C6 C8 C9 -160.0(3) . . . . ?
C5 C6 C8 C9 19.1(5) . . . . ?
N1 C8 C9 C10 6.6(6) . . . . ?
C6 C8 C9 C10 -173.2(3) . . . . ?
C8 C9 C10 C11 -2.7(6) . . . . ?
C9 C10 C11 C12 -1.6(5) . . . . ?
C9 C10 C11 C13 177.6(4) . . . . ?
C15 N2 C12 N1 173.3(3) . . . . ?
C15 N2 C12 C11 -4.7(5) . . . . ?
C8 N1 C12 N2 -177.1(3) . . . . ?
C8 N1 C12 C11 1.0(5) . . . . ?
C10 C11 C12 N2 -179.5(3) . . . . ?
C13 C11 C12 N2 1.3(5) . . . . ?
C10 C11 C12 N1 2.5(5) . . . . ?
C13 C11 C12 N1 -176.6(3) . . . . ?
C10 C11 C13 C14 -178.0(4) . . . . ?
C12 C11 C13 C14 1.1(5) . . . . ?
C11 C13 C14 C15 -0.1(6) . . . . ?
C12 N2 C15 C14 5.9(5) . . . . ?
C12 N2 C15 C16 -176.8(3) . . . . ?
C13 C14 C15 N2 -3.6(6) . . . . ?
C13 C14 C15 C16 179.2(3) . . . . ?
N2 C15 C16 C21 -18.7(5) . . . . ?
C14 C15 C16 C21 158.7(3) . . . . ?
N2 C15 C16 C17 155.5(3) . . . . ?
C14 C15 C16 C17 -27.1(5) . . . . ?
C21 C16 C17 C18 0.2(5) . . . . ?
C15 C16 C17 C18 -174.2(3) . . . . ?
C16 C17 C18 C19 -3.1(6) . . . . ?
C17 C18 C19 C20 1.7(6) . . . . ?
C18 C19 C20 C21 2.6(5) . . . . ?
C18 C19 C20 C22 177.1(3) . . . . ?
C17 C16 C21 C20 4.1(5) . . . . ?
C15 C16 C21 C20 178.5(3) . . . . ?
C19 C20 C21 C16 -5.5(5) . . . . ?
C22 C20 C21 C16 179.7(3) . . . . ?
Mo3 O4 C22 O3 -7.6(4) . . . . ?
Mo3 O4 C22 C20 173.1(2) . . . . ?
Mo4 O3 C22 O4 6.6(4) . . . . ?
Mo4 O3 C22 C20 -174.1(2) . . . . ?
C21 C20 C22 O4 14.2(5) . . . . ?
C19 C20 C22 O4 -160.4(3) . . . . ?
C21 C20 C22 O3 -165.1(3) . . . . ?
C19 C20 C22 O3 20.2(5) . . . . ?
Mo4 O5 C23 O6 0.8(4) . . . . ?
Mo4 O5 C23 C24 -179.4(2) . . . . ?
Mo3 O6 C23 O5 -1.9(4) . . . . ?
Mo3 O6 C23 C24 178.4(2) . . . . ?
O5 C23 C24 C29 -166.5(3) . . . . ?
O6 C23 C24 C29 13.2(5) . . . . ?
O5 C23 C24 C25 13.7(5) . . . . ?
O6 C23 C24 C25 -166.6(3) . . . . ?
C29 C24 C25 C26 0.4(6) . . . . ?
C23 C24 C25 C26 -179.9(3) . . . . ?
C24 C25 C26 C27 1.5(6) . . . . ?
C25 C26 C27 C28 -1.9(6) . . . . ?
C26 C27 C28 C29 0.5(6) . . . . ?
C26 C27 C28 C30 -177.3(4) . . . . ?
C25 C24 C29 C28 -1.8(6) . . . . ?
C23 C24 C29 C28 178.4(3) . . . . ?
C27 C28 C29 C24 1.3(6) . . . . ?
C30 C28 C29 C24 179.1(4) . . . . ?
C34 N4 C30 C31 0.6(6) . . . . ?
C34 N4 C30 C28 -176.1(3) . . . . ?
C27 C28 C30 N4 148.0(4) . . . . ?
C29 C28 C30 N4 -29.7(5) . . . . ?
C27 C28 C30 C31 -28.8(6) . . . . ?
C29 C28 C30 C31 153.5(4) . . . . ?
N4 C30 C31 C32 -0.2(6) . . . . ?
C28 C30 C31 C32 176.4(4) . . . . ?
C30 C31 C32 C33 -1.7(7) . . . . ?
C31 C32 C33 C34 2.9(6) . . . . ?
C31 C32 C33 C35 -179.1(4) . . . . ?
C37 N3 C34 N4 -176.9(3) . . . . ?
C37 N3 C34 C33 1.8(6) . . . . ?
C30 N4 C34 N3 179.6(3) . . . . ?
C30 N4 C34 C33 0.9(6) . . . . ?
C35 C33 C34 N3 0.7(6) . . . . ?
C32 C33 C34 N3 178.8(4) . . . . ?
C35 C33 C34 N4 179.3(4) . . . . ?
C32 C33 C34 N4 -2.6(6) . . . . ?
C34 C33 C35 C36 -2.4(6) . . . . ?
C32 C33 C35 C36 179.7(4) . . . . ?
C33 C35 C36 C37 1.6(6) . . . . ?
C34 N3 C37 C36 -2.7(6) . . . . ?
C34 N3 C37 C38 179.2(3) . . . . ?
C35 C36 C37 N3 1.0(6) . . . . ?
C35 C36 C37 C38 179.1(4) . . . . ?
N3 C37 C38 C43 24.9(5) . . . . ?
C36 C37 C38 C43 -153.3(4) . . . . ?
N3 C37 C38 C39 -156.5(4) . . . . ?
C36 C37 C38 C39 25.2(6) . . . . ?
C43 C38 C39 C40 -1.5(6) . . . . ?
C37 C38 C39 C40 179.9(4) . . . . ?
C38 C39 C40 C41 3.9(7) . . . . ?
C39 C40 C41 C42 -3.4(6) . . . . ?
C40 C41 C42 C43 0.6(6) . . . . ?
C40 C41 C42 C44 -178.0(4) . . . . ?
C41 C42 C43 C38 1.6(6) . . . . ?
C44 C42 C43 C38 -179.7(3) . . . . ?
C39 C38 C43 C42 -1.2(6) . . . . ?
C37 C38 C43 C42 177.4(4) . . . . ?
Mo2 O8 C44 O7 2.4(4) . . . . ?
Mo2 O8 C44 C42 -178.9(2) . . . . ?
Mo1 O7 C44 O8 -1.6(4) . . . . ?
Mo1 O7 C44 C42 179.6(2) . . . . ?
C43 C42 C44 O8 -16.1(5) . . . . ?
C41 C42 C44 O8 162.6(3) . . . . ?
C43 C42 C44 O7 162.7(3) . . . . ?
C41 C42 C44 O7 -18.6(5) . . . . ?
Mo1 O9 C45 O10 -12.3(5) . . . . ?
Mo1 O9 C45 C46 164.7(3) . . . . ?
Mo2 O10 C45 O9 12.0(5) . . . . ?
Mo2 O10 C45 C46 -165.1(2) . . . . ?
O9 C45 C46 C51 170.6(3) . . . . ?
O10 C45 C46 C51 -12.3(5) . . . . ?
O9 C45 C46 C47 -13.1(5) . . . . ?
O10 C45 C46 C47 164.0(3) . . . . ?
C51 C46 C47 C48 2.4(6) . . . . ?
C45 C46 C47 C48 -174.0(4) . . . . ?
C46 C47 C48 C49 -3.8(6) . . . . ?
C47 C48 C49 C50 2.4(6) . . . . ?
C48 C49 C50 C51 0.4(6) . . . . ?
C48 C49 C50 C52 177.1(4) . . . . ?
C47 C46 C51 C50 0.3(6) . . . . ?
C45 C46 C51 C50 176.6(3) . . . . ?
C49 C50 C51 C46 -1.7(6) . . . . ?
C52 C50 C51 C46 -178.4(4) . . . . ?
C56 N5 C52 C53 -1.8(6) . . . . ?
C56 N5 C52 C50 178.5(3) . . . . ?
C51 C50 C52 N5 20.6(6) . . . . ?
C49 C50 C52 N5 -156.1(4) . . . . ?
C51 C50 C52 C53 -159.2(4) . . . . ?
C49 C50 C52 C53 24.2(6) . . . . ?
N5 C52 C53 C54 0.9(6) . . . . ?
C50 C52 C53 C54 -179.4(4) . . . . ?
C52 C53 C54 C55 1.5(6) . . . . ?
C53 C54 C55 C57 179.4(4) . . . . ?
C53 C54 C55 C56 -2.7(6) . . . . ?
C59 N6 C56 N5 177.1(3) . . . . ?
C59 N6 C56 C55 1.3(6) . . . . ?
C52 N5 C56 N6 -175.4(3) . . . . ?
C52 N5 C56 C55 0.4(6) . . . . ?
C57 C55 C56 N6 -4.6(6) . . . . ?
C54 C55 C56 N6 177.3(4) . . . . ?
C57 C55 C56 N5 179.9(4) . . . . ?
C54 C55 C56 N5 1.9(6) . . . . ?
C54 C55 C57 C58 -177.3(4) . . . . ?
C56 C55 C57 C58 4.8(6) . . . . ?
C55 C57 C58 C59 -1.9(6) . . . . ?
C56 N6 C59 C58 1.8(6) . . . . ?
C56 N6 C59 C60 -177.4(3) . . . . ?
C57 C58 C59 N6 -1.6(7) . . . . ?
C57 C58 C59 C60 177.6(4) . . . . ?
N6 C59 C60 C65 -19.1(5) . . . . ?
C58 C59 C60 C65 161.6(4) . . . . ?
N6 C59 C60 C61 161.8(4) . . . . ?
C58 C59 C60 C61 -17.5(6) . . . . ?
C65 C60 C61 C62 -2.1(6) . . . . ?
C59 C60 C61 C62 177.0(4) . . . . ?
C60 C61 C62 C63 -1.5(6) . . . . ?
C61 C62 C63 C64 4.9(6) . . . . ?
C62 C63 C64 C65 -4.6(6) . . . . ?
C62 C63 C64 C66 175.4(3) . . . . ?
C61 C60 C65 C64 2.4(5) . . . . ?
C59 C60 C65 C64 -176.7(3) . . . . ?
C63 C64 C65 C60 0.8(5) . . . . ?
C66 C64 C65 C60 -179.2(3) . . . . ?
Mo3 O12 C66 O11 -9.5(4) . . . . ?
Mo3 O12 C66 C64 165.4(2) . . . . ?
Mo4 O11 C66 O12 8.5(4) . . . . ?
Mo4 O11 C66 C64 -166.6(2) . . . . ?
C63 C64 C66 O12 -165.1(3) . . . . ?
C65 C64 C66 O12 14.9(5) . . . . ?
C63 C64 C66 O11 10.1(5) . . . . ?
C65 C64 C66 O11 -169.9(3) . . . . ?
Mo4 O13 C67 O14 -6.0(4) . . . . ?
Mo4 O13 C67 C68 175.5(2) . . . . ?
Mo3 O14 C67 O13 6.3(4) . . . . ?
Mo3 O14 C67 C68 -175.1(2) . . . . ?
O13 C67 C68 C69 -6.7(5) . . . . ?
O14 C67 C68 C69 174.7(3) . . . . ?
O13 C67 C68 C73 174.6(3) . . . . ?
O14 C67 C68 C73 -4.0(5) . . . . ?
C73 C68 C69 C70 0.3(5) . . . . ?
C67 C68 C69 C70 -178.5(4) . . . . ?
C68 C69 C70 C71 -0.9(6) . . . . ?
C69 C70 C71 C72 0.5(6) . . . . ?
C70 C71 C72 C73 0.4(5) . . . . ?
C70 C71 C72 C74 180.0(4) . . . . ?
C71 C72 C73 C68 -1.1(5) . . . . ?
C74 C72 C73 C68 179.4(3) . . . . ?
C69 C68 C73 C72 0.7(5) . . . . ?
C67 C68 C73 C72 179.5(3) . . . . ?
C78 N8 C74 C75 -1.7(5) . . . . ?
C78 N8 C74 C72 -178.2(3) . . . . ?
C73 C72 C74 N8 21.3(5) . . . . ?
C71 C72 C74 N8 -158.3(3) . . . . ?
C73 C72 C74 C75 -155.3(4) . . . . ?
C71 C72 C74 C75 25.1(5) . . . . ?
N8 C74 C75 C76 0.0(6) . . . . ?
C72 C74 C75 C76 176.5(4) . . . . ?
C74 C75 C76 C77 2.4(6) . . . . ?
C75 C76 C77 C79 179.7(4) . . . . ?
C75 C76 C77 C78 -3.2(6) . . . . ?
C81 N7 C78 N8 -178.9(3) . . . . ?
C81 N7 C78 C77 0.3(5) . . . . ?
C74 N8 C78 N7 -179.9(3) . . . . ?
C74 N8 C78 C77 0.9(5) . . . . ?
C76 C77 C78 N7 -177.6(4) . . . . ?
C79 C77 C78 N7 -0.3(6) . . . . ?
C76 C77 C78 N8 1.5(6) . . . . ?
C79 C77 C78 N8 178.9(3) . . . . ?
C76 C77 C79 C80 177.6(4) . . . . ?
C78 C77 C79 C80 0.3(6) . . . . ?
C77 C79 C80 C81 -0.4(6) . . . . ?
C78 N7 C81 C80 -0.4(5) . . . . ?
C78 N7 C81 C82 176.7(3) . . . . ?
C79 C80 C81 N7 0.4(6) . . . . ?
C79 C80 C81 C82 -176.6(4) . . . . ?
N7 C81 C82 C87 -24.1(5) . . . . ?
C80 C81 C82 C87 153.1(4) . . . . ?
N7 C81 C82 C83 157.9(3) . . . . ?
C80 C81 C82 C83 -24.9(5) . . . . ?
C87 C82 C83 C84 -1.1(5) . . . . ?
C81 C82 C83 C84 177.0(3) . . . . ?
C82 C83 C84 C85 -0.9(6) . . . . ?
C83 C84 C85 C86 2.7(6) . . . . ?
C84 C85 C86 C87 -2.5(5) . . . . ?
C84 C85 C86 C88 175.9(3) . . . . ?
C83 C82 C87 C86 1.3(5) . . . . ?
C81 C82 C87 C86 -176.7(3) . . . . ?
C85 C86 C87 C82 0.5(5) . . . . ?
C88 C86 C87 C82 -177.8(3) . . . . ?
Mo2 O16 C88 O15 -7.0(4) . . . . ?
Mo2 O16 C88 C86 173.4(2) . . . . ?
Mo1 O15 C88 O16 6.1(4) . . . . ?
Mo1 O15 C88 C86 -174.3(2) . . . . ?
C87 C86 C88 O16 9.3(5) . . . . ?
C85 C86 C88 O16 -169.0(3) . . . . ?
C87 C86 C88 O15 -170.3(3) . . . . ?
C85 C86 C88 O15 11.4(5) . . . . ?
C91 N9 C90 O17 -172.8(4) . . . . ?
C92 N9 C90 O17 -5.0(6) . . . . ?
C91 N9 C90 C89 6.2(6) . . . . ?
C92 N9 C90 C89 174.1(4) . . . . ?
Mo2 O17 C90 N9 -115.3(5) . . . . ?
Mo2 O17 C90 C89 65.7(5) . . . . ?
Mo3 O18 C94 N10 -116.7(4) . . . . ?
Mo3 O18 C94 C93 60.4(6) . . . . ?
C95 N10 C94 O18 -168.0(3) . . . . ?
C96 N10 C94 O18 -3.1(6) . . . . ?
C95 N10 C94 C93 14.8(5) . . . . ?
C96 N10 C94 C93 179.6(3) . . . . ?
C100 N11 C98 O19 171.3(7) . . . . ?
C99 N11 C98 O19 8.4(11) . . . . ?
C100 N11 C98 C97 -30.9(11) . . . . ?
C99 N11 C98 C97 166.2(7) . . . . ?
C103 N12 C102 O20 -172.8(5) . . . . ?
C104 N12 C102 O20 7.6(8) . . . . ?
C103 N12 C102 C101 3.8(8) . . . . ?
C104 N12 C102 C101 -175.8(5) . . . . ?

_diffrn_measured_fraction_theta_max 0.989
_diffrn_reflns_theta_full        25.50
_diffrn_measured_fraction_theta_full 0.989
_refine_diff_density_max         3.338
_refine_diff_density_min         -2.152
_refine_diff_density_rms         0.139
