####################################################################### 
# 
# This file contains crystal structure data downloaded from the 
# Cambridge Structural Database (CSD) hosted by the Cambridge 
# Crystallographic Data Centre (CCDC).
# 
# Full information about CCDC data access policies and citation 
# guidelines are available at http://www.ccdc.cam.ac.uk/access/V1 
# 
# Audit and citation data items may have been added by the CCDC. 
# Please retain this information to preserve the provenance of 
# this file and to allow appropriate attribution of the data. 
# 
#######################################################################

data_SMT-2
_audit_block_doi                 10.5517/ccy4259
_database_code_depnum_ccdc_archive 'CCDC 867850'
loop_
_citation_id
_citation_doi
_citation_year
1 10.1038/ncomms2552 2013
_audit_update_record             
;
2012-02-20 deposited with the CCDC.	2019-02-14 downloaded from the CCDC.
;
#TrackingRef '2-SMT-2.cif'


_audit_creation_method           SHELXL-97
_chemical_name_systematic        
;
?
;
_chemical_name_common            ?
_chemical_melting_point          ?
_chemical_formula_moiety         'C104 H84 Cu4 N12 O20'
_chemical_formula_sum            'C104 H84 Cu4 N12 O20'
_chemical_formula_weight         2075.99

loop_
_atom_type_symbol
_atom_type_description
_atom_type_scat_dispersion_real
_atom_type_scat_dispersion_imag
_atom_type_scat_source
C C 0.0033 0.0016 'International Tables Vol C Tables 4.2.6.8 and 6.1.1.4'
H H 0.0000 0.0000 'International Tables Vol C Tables 4.2.6.8 and 6.1.1.4'
Cu Cu 0.3201 1.2651 'International Tables Vol C Tables 4.2.6.8 and 6.1.1.4'
N N 0.0061 0.0033 'International Tables Vol C Tables 4.2.6.8 and 6.1.1.4'
O O 0.0106 0.0060 'International Tables Vol C Tables 4.2.6.8 and 6.1.1.4'

_symmetry_cell_setting           Triclinic
_symmetry_space_group_name_H-M   'P -1'
_symmetry_Hall_group_name_H-M    '-P 1'


loop_
_symmetry_equiv_pos_as_xyz
'x, y, z'
'-x, -y, -z'

_cell_length_a                   14.002(7)
_cell_length_b                   15.539(8)
_cell_length_c                   15.764(8)
_cell_angle_alpha                96.616(7)
_cell_angle_beta                 110.783(7)
_cell_angle_gamma                105.072(7)
_cell_volume                     3014(3)
_cell_formula_units_Z            1
_cell_measurement_temperature    110(2)
_cell_measurement_reflns_used    2154
_cell_measurement_theta_min      2.207
_cell_measurement_theta_max      19.141

_exptl_crystal_description       Block
_exptl_crystal_colour            blue
_exptl_crystal_size_max          0.34
_exptl_crystal_size_mid          0.32
_exptl_crystal_size_min          0.28
_exptl_crystal_density_meas      ?
_exptl_crystal_density_diffrn    1.144
_exptl_crystal_density_method    'not measured'
_exptl_crystal_F_000             1068
_exptl_absorpt_coefficient_mu    0.758
_exptl_absorpt_correction_type   Multi-scan
_exptl_absorpt_correction_T_min  0.7825
_exptl_absorpt_correction_T_max  0.8157
_exptl_absorpt_process_details   SADABS

_exptl_special_details           
;
?
;

_diffrn_ambient_temperature      110(2)
_diffrn_radiation_wavelength     0.71073
_diffrn_radiation_type           MoK\a
_diffrn_radiation_source         'fine-focus sealed tube'
_diffrn_radiation_monochromator  graphite
_diffrn_measurement_device_type  'BRUKER APEX-II CCD'
_diffrn_measurement_method       'phi and omega scans'
_diffrn_detector_area_resol_mean ?
_diffrn_reflns_number            30278
_diffrn_reflns_av_R_equivalents  0.0811
_diffrn_reflns_av_sigmaI/netI    0.1190
_diffrn_reflns_limit_h_min       -16
_diffrn_reflns_limit_h_max       16
_diffrn_reflns_limit_k_min       -18
_diffrn_reflns_limit_k_max       18
_diffrn_reflns_limit_l_min       -19
_diffrn_reflns_limit_l_max       18
_diffrn_reflns_theta_min         2.05
_diffrn_reflns_theta_max         25.60
_reflns_number_total             11233
_reflns_number_gt                6387
_reflns_threshold_expression     I>2sigma(I)

_computing_data_collection       'Bruker APEX-II'
_computing_cell_refinement       'Bruker SAINT'
_computing_data_reduction        'Bruker SAINT'
_computing_structure_solution    'SHELXS-97 (Sheldrick, 2008)'
_computing_structure_refinement  'SHELXL-97 (Sheldrick, 2008)'
_computing_molecular_graphics    'Bruker SHELXTL'
_computing_publication_material  'Bruker SHELXTL'

_refine_special_details          
;
Refinement of F^2^ against ALL reflections. The weighted R-factor wR and
goodness of fit S are based on F^2^, conventional R-factors R are based
on F, with F set to zero for negative F^2^. The threshold expression of
F^2^ > 2sigma(F^2^) is used only for calculating R-factors(gt) etc. and is
not relevant to the choice of reflections for refinement. R-factors based
on F^2^ are statistically about twice as large as those based on F, and R-
factors based on ALL data will be even larger.
;

_refine_ls_structure_factor_coef Fsqd
_refine_ls_matrix_type           full
_refine_ls_weighting_scheme      calc
_refine_ls_weighting_details     
'calc w=1/[\s^2^(Fo^2^)+(0.0607P)^2^+0.0000P] where P=(Fo^2^+2Fc^2^)/3'
_atom_sites_solution_primary     direct
_atom_sites_solution_secondary   difmap
_atom_sites_solution_hydrogens   geom
_refine_ls_hydrogen_treatment    constr
_refine_ls_extinction_method     none
_refine_ls_extinction_coef       ?
_refine_ls_number_reflns         11233
_refine_ls_number_parameters     661
_refine_ls_number_restraints     10
_refine_ls_R_factor_all          0.0951
_refine_ls_R_factor_gt           0.0578
_refine_ls_wR_factor_ref         0.1499
_refine_ls_wR_factor_gt          0.1366
_refine_ls_goodness_of_fit_ref   0.903
_refine_ls_restrained_S_all      0.905
_refine_ls_shift/su_max          0.047
_refine_ls_shift/su_mean         0.001

loop_
_atom_site_label
_atom_site_type_symbol
_atom_site_fract_x
_atom_site_fract_y
_atom_site_fract_z
_atom_site_U_iso_or_equiv
_atom_site_adp_type
_atom_site_occupancy
_atom_site_symmetry_multiplicity
_atom_site_calc_flag
_atom_site_refinement_flags
_atom_site_disorder_assembly
_atom_site_disorder_group
Cu1 Cu 0.219454(16) 0.332056(15) 0.302232(15) 0.02958(7) Uani 1 1 d . . .
Cu2 Cu 0.126859(15) 0.401868(15) 0.164333(14) 0.02557(7) Uani 1 1 d . . .
O1 O 0.21276(9) 0.23593(8) 0.20564(8) 0.0334(4) Uani 1 1 d . . .
O2 O 0.10470(9) 0.28260(8) 0.08961(8) 0.0302(4) Uani 1 1 d . . .
O3 O -0.21239(9) 0.55966(9) -0.37452(8) 0.0338(4) Uani 1 1 d . . .
O4 O -0.16170(9) 0.48824(8) -0.25837(8) 0.0282(4) Uani 1 1 d . . .
O5 O -0.06967(9) 0.73564(8) -0.27906(8) 0.0308(4) Uani 1 1 d . . .
O6 O 0.00682(8) 0.65542(8) -0.18063(8) 0.0286(4) Uani 1 1 d . . .
O7 O 0.35606(9) 0.40669(9) 0.30364(8) 0.0361(4) Uani 1 1 d . . .
O8 O 0.27501(8) 0.44706(8) 0.17089(8) 0.0312(4) Uani 1 1 d . . .
O9 O 0.28959(9) 0.28178(9) 0.42217(8) 0.0369(4) Uani 1 1 d . . .
O10 O 0.06892(9) 0.45075(8) 0.04626(7) 0.0284(4) Uani 1 1 d D . .
N1 N -0.05465(12) 0.10947(11) -0.23062(11) 0.0387(5) Uani 1 1 d . . .
N2 N -0.14525(11) 0.17389(11) -0.34584(11) 0.0365(5) Uani 1 1 d . . .
N3 N 0.40285(11) 0.71021(10) -0.07440(10) 0.0274(5) Uani 1 1 d . . .
N4 N 0.48699(10) 0.63777(10) 0.03421(9) 0.0271(5) Uani 1 1 d . . .
N5 N 0.41395(13) 0.25944(14) 0.54344(12) 0.0579(7) Uani 1 1 d . . .
C1 C 0.15111(13) 0.22649(12) 0.12088(12) 0.0296(6) Uani 1 1 d . . .
C2 C 0.13370(13) 0.14470(13) 0.05332(13) 0.0315(6) Uani 1 1 d . . .
C3 C 0.18262(15) 0.07929(13) 0.08050(15) 0.0439(7) Uani 1 1 d . . .
H3 H 0.2282 0.0871 0.1440 0.053 Uiso 1 1 calc R . .
C4 C 0.16488(16) 0.00274(14) 0.01498(14) 0.0504(7) Uani 1 1 d . . .
H4 H 0.2004 -0.0406 0.0333 0.060 Uiso 1 1 calc R . .
C5 C 0.09771(15) -0.01017(13) -0.07410(14) 0.0414(6) Uani 1 1 d . . .
H5 H 0.0853 -0.0638 -0.1176 0.050 Uiso 1 1 calc R . .
C6 C 0.04496(13) 0.05270(13) -0.10544(13) 0.0335(6) Uani 1 1 d . . .
C7 C 0.06617(13) 0.13071(13) -0.04094(12) 0.0312(6) Uani 1 1 d . . .
H7 H 0.0344 0.1759 -0.0608 0.037 Uiso 1 1 calc R . .
C8 C -0.03190(14) 0.03650(13) -0.20352(14) 0.0389(6) Uani 1 1 d . . .
C9 C -0.07985(15) -0.05151(14) -0.26213(14) 0.0438(7) Uani 1 1 d . . .
H9 H -0.0626 -0.1020 -0.2396 0.053 Uiso 1 1 calc R . .
C10 C -0.14958(15) -0.06397(14) -0.34940(15) 0.0485(7) Uani 1 1 d . . .
H10 H -0.1820 -0.1236 -0.3891 0.058 Uiso 1 1 calc R . .
C11 C -0.17574(15) 0.01067(14) -0.38342(15) 0.0450(7) Uani 1 1 d . . .
C12 C -0.12452(14) 0.09786(13) -0.31997(13) 0.0374(6) Uani 1 1 d . . .
C13 C -0.24750(16) 0.00657(16) -0.47333(15) 0.0546(8) Uani 1 1 d . . .
H13 H -0.2828 -0.0503 -0.5180 0.066 Uiso 1 1 calc R . .
C14 C -0.26663(15) 0.08305(14) -0.49672(15) 0.0462(7) Uani 1 1 d . . .
H14 H -0.3166 0.0800 -0.5573 0.055 Uiso 1 1 calc R . .
C15 C -0.21245(14) 0.16736(14) -0.43106(13) 0.0359(6) Uani 1 1 d . . .
C16 C -0.22767(14) 0.25233(14) -0.45724(14) 0.0376(7) Uani 1 1 d . . .
C17 C -0.26493(15) 0.25740(15) -0.54973(14) 0.0450(7) Uani 1 1 d . . .
H17 H -0.2814 0.2050 -0.5965 0.054 Uiso 1 1 calc R . .
C18 C -0.27883(15) 0.33657(15) -0.57608(14) 0.0469(7) Uani 1 1 d . . .
H18 H -0.3027 0.3393 -0.6398 0.056 Uiso 1 1 calc R . .
C19 C -0.25735(14) 0.41136(14) -0.50816(13) 0.0376(6) Uani 1 1 d . . .
H19 H -0.2697 0.4653 -0.5256 0.045 Uiso 1 1 calc R . .
C20 C -0.21779(13) 0.40920(13) -0.41446(12) 0.0292(6) Uani 1 1 d . . .
C21 C -0.20163(14) 0.33039(13) -0.38816(13) 0.0339(6) Uani 1 1 d . . .
H21 H -0.1732 0.3291 -0.3241 0.041 Uiso 1 1 calc R . .
C22 C -0.19518(12) 0.49147(12) -0.34271(12) 0.0271(6) Uani 1 1 d . . .
C23 C 0.01039(13) 0.71493(12) -0.22799(12) 0.0274(6) Uani 1 1 d . . .
C24 C 0.11739(13) 0.76574(12) -0.22580(12) 0.0244(5) Uani 1 1 d . . .
C25 C 0.12931(13) 0.83898(12) -0.26946(11) 0.0261(5) Uani 1 1 d . . .
H25 H 0.0681 0.8563 -0.3012 0.031 Uiso 1 1 calc R . .
C26 C 0.22718(13) 0.88570(12) -0.26709(12) 0.0295(6) Uani 1 1 d . . .
H26 H 0.2342 0.9368 -0.2949 0.035 Uiso 1 1 calc R . .
C27 C 0.31627(14) 0.85985(12) -0.22488(12) 0.0316(6) Uani 1 1 d . . .
H27 H 0.3842 0.8931 -0.2237 0.038 Uiso 1 1 calc R . .
C28 C 0.30731(13) 0.78540(12) -0.18401(12) 0.0245(5) Uani 1 1 d . . .
C29 C 0.20830(13) 0.74045(12) -0.18221(12) 0.0263(5) Uani 1 1 d . . .
H29 H 0.2025 0.6919 -0.1509 0.032 Uiso 1 1 calc R . .
C30 C 0.40209(13) 0.75475(12) -0.14147(12) 0.0274(6) Uani 1 1 d . . .
C31 C 0.48401(13) 0.77025(13) -0.17508(13) 0.0312(6) Uani 1 1 d . . .
H31 H 0.4787 0.8007 -0.2247 0.037 Uiso 1 1 calc R . .
C32 C 0.57004(13) 0.74229(13) -0.13750(12) 0.0324(6) Uani 1 1 d . . .
H32 H 0.6250 0.7518 -0.1608 0.039 Uiso 1 1 calc R . .
C33 C 0.57698(13) 0.69882(13) -0.06310(12) 0.0280(6) Uani 1 1 d . . .
C34 C 0.48977(13) 0.68259(12) -0.03501(13) 0.0276(6) Uani 1 1 d . . .
C35 C 0.66252(13) 0.66738(12) -0.01762(12) 0.0292(6) Uani 1 1 d . . .
H35 H 0.7221 0.6766 -0.0351 0.035 Uiso 1 1 calc R . .
C36 C 0.65952(13) 0.62376(13) 0.05136(13) 0.0331(6) Uani 1 1 d . . .
H36 H 0.7170 0.6019 0.0823 0.040 Uiso 1 1 calc R . .
C37 C 0.57050(13) 0.61074(12) 0.07747(12) 0.0260(5) Uani 1 1 d . . .
C38 C 0.56657(13) 0.56476(12) 0.15329(12) 0.0252(5) Uani 1 1 d . . .
C39 C 0.65692(14) 0.55284(14) 0.21692(13) 0.0419(7) Uani 1 1 d . . .
H39 H 0.7243 0.5751 0.2121 0.050 Uiso 1 1 calc R . .
C40 C 0.65143(15) 0.50964(15) 0.28667(14) 0.0479(7) Uani 1 1 d . . .
H40 H 0.7153 0.5035 0.3300 0.058 Uiso 1 1 calc R . .
C41 C 0.55622(14) 0.47524(14) 0.29528(13) 0.0405(7) Uani 1 1 d . . .
H41 H 0.5530 0.4441 0.3432 0.049 Uiso 1 1 calc R . .
C42 C 0.46405(12) 0.48660(12) 0.23270(12) 0.0259(5) Uani 1 1 d . . .
C43 C 0.46999(13) 0.53131(12) 0.16338(12) 0.0292(6) Uani 1 1 d . . .
H43 H 0.4066 0.5395 0.1215 0.035 Uiso 1 1 calc R . .
C44 C 0.35708(13) 0.44511(12) 0.23711(12) 0.0269(6) Uani 1 1 d . . .
C45 C 0.43488(17) 0.25023(18) 0.39508(16) 0.0758(9) Uani 1 1 d . . .
H45A H 0.3924 0.2504 0.3306 0.114 Uiso 1 1 calc R . .
H45B H 0.4459 0.1907 0.3974 0.114 Uiso 1 1 calc R . .
H45C H 0.5051 0.2985 0.4183 0.114 Uiso 1 1 calc R . .
C46 C 0.37433(16) 0.26760(15) 0.45589(15) 0.0488(7) Uani 1 1 d . . .
C47 C 0.5164(2) 0.2466(2) 0.5894(2) 0.1260(14) Uani 1 1 d . . .
H47A H 0.5362 0.2169 0.5429 0.189 Uiso 1 1 calc R . .
H47B H 0.5110 0.2078 0.6335 0.189 Uiso 1 1 calc R . .
H47C H 0.5716 0.3061 0.6231 0.189 Uiso 1 1 calc R . .
C48 C 0.35885(15) 0.27243(14) 0.60148(13) 0.0679(10) Uani 1 1 d . . .
H48A H 0.3223 0.3174 0.5834 0.102 Uiso 1 1 d R . .
H48B H 0.4108 0.2948 0.6666 0.102 Uiso 1 1 d R . .
H48C H 0.3054 0.2141 0.5945 0.102 Uiso 1 1 d R . .
C50B C -0.01904(15) 0.34648(14) -0.11359(13) 0.0336(10) Uiso 0.50 1 d PRD A 2
H50A H -0.0345 0.3458 -0.0577 0.050 Uiso 0.50 1 calc PR B 2
H50B H 0.0000 0.2920 -0.1286 0.050 Uiso 0.50 1 calc PR C 2
H50C H -0.0830 0.3466 -0.1660 0.050 Uiso 0.50 1 calc PR D 2
N6B N 0.0756(2) 0.43266(18) -0.09568(17) 0.0363(11) Uani 0.50 1 d PD A 2
C49B C 0.1070(2) 0.4779(2) -0.0096(2) 0.0334(13) Uani 0.50 1 d PD A 2
C51 C 0.10063(15) 0.47238(15) -0.16789(12) 0.0469(7) Uani 1 1 d D A 2
H51A H 0.0493 0.5041 -0.1955 0.070 Uiso 1 1 calc R A 2
H51B H 0.0952 0.4236 -0.2164 0.070 Uiso 1 1 calc R A 2
H51C H 0.1742 0.5161 -0.1403 0.070 Uiso 1 1 calc R A 2
N6A N 0.12316(19) 0.48675(17) -0.06753(16) 0.0226(9) Uani 0.50 1 d PD A 1
C49A C 0.0604(2) 0.4321(2) -0.03464(18) 0.0195(8) Uiso 0.50 1 d PD A 1
C50A C -0.0190(6) 0.3463(4) -0.1116(5) 0.199(6) Uani 0.50 1 d PD A 1
H50D H -0.0221 0.2919 -0.0854 0.299 Uiso 0.50 1 calc PR A 1
H50E H 0.0058 0.3398 -0.1621 0.299 Uiso 0.50 1 calc PR A 1
H50F H -0.0910 0.3527 -0.1361 0.299 Uiso 0.50 1 calc PR A 1
C52A C 0.2013(3) 0.5741(2) 0.0020(3) 0.0492(17) Uani 0.50 1 d PD A 1
H52A H 0.1634 0.6184 0.0052 0.074 Uiso 0.50 1 calc PR A 1
H52B H 0.2597 0.5996 -0.0176 0.074 Uiso 0.50 1 calc PR A 1
H52C H 0.2317 0.5611 0.0635 0.074 Uiso 0.50 1 calc PR A 1
C52B C 0.1928(3) 0.5719(3) 0.0208(5) 0.110(3) Uani 0.50 1 d PD A 2
H52D H 0.1645 0.6123 -0.0174 0.165 Uiso 0.50 1 calc PR A 2
H52E H 0.2571 0.5657 0.0126 0.165 Uiso 0.50 1 calc PR A 2
H52F H 0.2120 0.5980 0.0865 0.165 Uiso 0.50 1 calc PR A 2

loop_
_atom_site_aniso_label
_atom_site_aniso_U_11
_atom_site_aniso_U_22
_atom_site_aniso_U_33
_atom_site_aniso_U_23
_atom_site_aniso_U_13
_atom_site_aniso_U_12
Cu1 0.02739(10) 0.03676(12) 0.03402(11) 0.01870(9) 0.01551(8) 0.01640(9)
Cu2 0.02451(9) 0.02949(11) 0.02976(11) 0.01271(9) 0.01364(8) 0.01360(8)
O1 0.0348(5) 0.0402(7) 0.0387(6) 0.0182(5) 0.0195(5) 0.0230(5)
O2 0.0331(6) 0.0294(6) 0.0325(6) 0.0096(5) 0.0126(5) 0.0168(5)
O3 0.0337(6) 0.0439(7) 0.0287(6) 0.0139(6) 0.0134(5) 0.0169(5)
O4 0.0320(5) 0.0316(6) 0.0259(6) 0.0092(5) 0.0129(5) 0.0153(5)
O5 0.0273(5) 0.0326(6) 0.0399(6) 0.0176(5) 0.0151(5) 0.0155(5)
O6 0.0254(5) 0.0334(6) 0.0360(6) 0.0183(5) 0.0149(5) 0.0159(5)
O7 0.0307(6) 0.0511(7) 0.0379(6) 0.0273(6) 0.0162(5) 0.0204(5)
O8 0.0250(5) 0.0471(7) 0.0296(6) 0.0181(5) 0.0125(5) 0.0185(5)
O9 0.0313(6) 0.0477(7) 0.0378(7) 0.0225(6) 0.0143(5) 0.0162(6)
O10 0.0357(5) 0.0300(6) 0.0305(6) 0.0165(5) 0.0188(4) 0.0165(5)
N1 0.0418(8) 0.0296(8) 0.0489(9) 0.0044(7) 0.0227(7) 0.0141(7)
N2 0.0355(7) 0.0346(9) 0.0404(9) 0.0016(7) 0.0146(6) 0.0170(6)
N3 0.0244(6) 0.0257(8) 0.0323(7) 0.0071(6) 0.0119(6) 0.0078(6)
N4 0.0287(6) 0.0319(8) 0.0291(7) 0.0140(6) 0.0159(5) 0.0140(6)
N5 0.0388(9) 0.0890(13) 0.0489(10) 0.0342(9) 0.0117(8) 0.0261(9)
C1 0.0275(7) 0.0349(10) 0.0407(9) 0.0172(8) 0.0251(6) 0.0131(7)
C2 0.0323(8) 0.0300(10) 0.0446(10) 0.0117(8) 0.0254(7) 0.0143(7)
C3 0.0503(10) 0.0392(11) 0.0577(12) 0.0208(9) 0.0298(9) 0.0238(8)
C4 0.0705(11) 0.0458(10) 0.0707(12) 0.0384(9) 0.0462(9) 0.0400(9)
C5 0.0591(10) 0.0243(10) 0.0574(11) 0.0103(9) 0.0378(8) 0.0192(8)
C6 0.0376(8) 0.0305(10) 0.0435(10) 0.0095(8) 0.0247(7) 0.0165(8)
C7 0.0348(8) 0.0243(9) 0.0442(10) 0.0131(8) 0.0233(7) 0.0125(7)
C8 0.0405(9) 0.0250(10) 0.0615(12) 0.0076(9) 0.0301(8) 0.0144(8)
C9 0.0462(10) 0.0271(10) 0.0622(12) 0.0044(10) 0.0281(9) 0.0119(8)
C10 0.0494(10) 0.0249(11) 0.0691(13) -0.0026(10) 0.0288(9) 0.0075(9)
C11 0.0352(9) 0.0408(12) 0.0497(12) -0.0111(10) 0.0137(9) 0.0114(9)
C12 0.0351(9) 0.0307(11) 0.0428(11) -0.0064(9) 0.0189(8) 0.0066(8)
C13 0.0534(11) 0.0468(13) 0.0543(13) -0.0144(11) 0.0252(10) 0.0075(11)
C14 0.0407(10) 0.0452(12) 0.0472(12) -0.0021(10) 0.0161(9) 0.0127(9)
C15 0.0317(9) 0.0404(11) 0.0324(10) -0.0002(9) 0.0118(8) 0.0120(8)
C16 0.0273(8) 0.0439(12) 0.0386(10) 0.0028(9) 0.0128(8) 0.0104(8)
C17 0.0395(10) 0.0567(13) 0.0292(11) -0.0082(10) 0.0057(8) 0.0196(9)
C18 0.0424(10) 0.0679(14) 0.0306(11) 0.0136(10) 0.0091(9) 0.0249(10)
C19 0.0354(9) 0.0446(11) 0.0366(10) 0.0107(9) 0.0167(8) 0.0155(8)
C20 0.0220(8) 0.0400(11) 0.0246(9) 0.0079(8) 0.0106(7) 0.0067(8)
C21 0.0373(9) 0.0369(11) 0.0276(9) 0.0032(8) 0.0138(7) 0.0130(8)
C22 0.0156(7) 0.0365(10) 0.0343(9) 0.0151(8) 0.0130(6) 0.0095(7)
C23 0.0287(8) 0.0304(9) 0.0303(9) 0.0103(8) 0.0161(7) 0.0133(7)
C24 0.0254(8) 0.0232(9) 0.0223(8) 0.0037(7) 0.0086(7) 0.0062(7)
C25 0.0305(8) 0.0276(9) 0.0245(9) 0.0077(7) 0.0116(7) 0.0146(7)
C26 0.0353(8) 0.0224(9) 0.0379(9) 0.0157(8) 0.0169(7) 0.0139(7)
C27 0.0304(8) 0.0322(10) 0.0363(9) 0.0107(8) 0.0170(7) 0.0108(8)
C28 0.0231(8) 0.0280(9) 0.0249(8) 0.0102(7) 0.0098(6) 0.0103(7)
C29 0.0329(8) 0.0247(9) 0.0266(9) 0.0111(7) 0.0139(7) 0.0130(7)
C30 0.0263(8) 0.0271(10) 0.0280(9) 0.0037(8) 0.0139(7) 0.0044(7)
C31 0.0302(8) 0.0353(10) 0.0309(9) 0.0126(8) 0.0131(7) 0.0118(8)
C32 0.0274(8) 0.0468(11) 0.0328(9) 0.0157(8) 0.0151(7) 0.0204(8)
C33 0.0233(7) 0.0372(10) 0.0294(9) 0.0092(8) 0.0142(7) 0.0134(7)
C34 0.0240(8) 0.0245(9) 0.0335(10) 0.0069(8) 0.0073(7) 0.0123(7)
C35 0.0268(8) 0.0344(10) 0.0327(9) 0.0076(8) 0.0184(7) 0.0108(7)
C36 0.0257(8) 0.0354(10) 0.0404(10) 0.0081(9) 0.0144(7) 0.0120(8)
C37 0.0242(7) 0.0266(9) 0.0292(9) 0.0045(8) 0.0126(7) 0.0096(7)
C38 0.0207(8) 0.0274(9) 0.0263(9) 0.0072(7) 0.0079(7) 0.0072(7)
C39 0.0230(8) 0.0618(13) 0.0500(11) 0.0248(10) 0.0205(7) 0.0148(9)
C40 0.0277(9) 0.0855(14) 0.0442(10) 0.0375(10) 0.0171(8) 0.0267(9)
C41 0.0309(9) 0.0616(12) 0.0391(10) 0.0315(9) 0.0151(8) 0.0208(9)
C42 0.0237(7) 0.0306(9) 0.0315(9) 0.0140(7) 0.0167(6) 0.0109(7)
C43 0.0305(8) 0.0322(10) 0.0295(9) 0.0103(8) 0.0129(7) 0.0149(7)
C44 0.0270(8) 0.0258(9) 0.0303(9) 0.0069(8) 0.0128(7) 0.0104(7)
C45 0.0757(12) 0.1116(17) 0.0882(14) 0.0573(13) 0.0563(10) 0.0595(12)
C46 0.0436(10) 0.0638(13) 0.0535(11) 0.0319(10) 0.0257(9) 0.0242(10)
C47 0.0542(14) 0.232(3) 0.123(2) 0.1184(19) 0.0306(14) 0.0697(16)
C48 0.0632(13) 0.1016(19) 0.0369(12) 0.0197(13) 0.0146(11) 0.0298(13)
N6B 0.0345(15) 0.0309(16) 0.0365(18) 0.0067(14) 0.0035(14) 0.0150(13)
C49B 0.0247(18) 0.0245(18) 0.039(2) 0.0116(17) -0.0027(17) 0.0090(15)
C51 0.0523(10) 0.0704(13) 0.0411(10) 0.0264(10) 0.0281(8) 0.0380(9)
N6A 0.0241(12) 0.0281(15) 0.0232(14) 0.0151(12) 0.0122(11) 0.0130(11)
C50A 0.146(8) 0.050(4) 0.268(12) 0.027(6) -0.030(8) -0.017(5)
C52A 0.036(2) 0.022(2) 0.050(3) 0.001(2) -0.013(2) -0.006(2)
C52B 0.0351(18) 0.092(3) 0.250(6) 0.079(4) 0.075(3) 0.052(2)

_geom_special_details            
;
All esds (except the esd in the dihedral angle between two l.s. planes)
are estimated using the full covariance matrix. The cell esds are taken
into account individually in the estimation of esds in distances, angles
and torsion angles; correlations between esds in cell parameters are only
used when they are defined by crystal symmetry. An approximate (isotropic)
treatment of cell esds is used for estimating esds involving l.s. planes.
;

loop_
_geom_bond_atom_site_label_1
_geom_bond_atom_site_label_2
_geom_bond_distance
_geom_bond_site_symmetry_2
_geom_bond_publ_flag
Cu1 O7 1.9531(15) . ?
Cu1 O5 1.9643(15) 2_565 ?
Cu1 O1 1.9647(15) . ?
Cu1 O3 1.9659(16) 2_565 ?
Cu1 O9 2.1380(15) . ?
Cu1 Cu2 2.6188(10) . ?
Cu2 O4 1.9549(14) 2_565 ?
Cu2 O2 1.9640(15) . ?
Cu2 O8 1.9699(15) . ?
Cu2 O6 1.9722(15) 2_565 ?
Cu2 O10 2.0674(14) . ?
O1 C1 1.274(2) . ?
O2 C1 1.262(2) . ?
O3 C22 1.266(2) . ?
O3 Cu1 1.9658(16) 2_565 ?
O4 C22 1.255(2) . ?
O4 Cu2 1.9550(14) 2_565 ?
O5 C23 1.271(2) . ?
O5 Cu1 1.9644(15) 2_565 ?
O6 C23 1.256(2) . ?
O6 Cu2 1.9722(15) 2_565 ?
O7 C44 1.268(2) . ?
O8 C44 1.259(2) . ?
O9 C46 1.206(3) . ?
O10 C49A 1.230(3) . ?
O10 C49B 1.240(4) . ?
N1 C8 1.331(3) . ?
N1 C12 1.358(2) . ?
N2 C15 1.312(2) . ?
N2 C12 1.361(3) . ?
N3 C30 1.327(3) . ?
N3 C34 1.359(2) . ?
N4 C37 1.328(2) . ?
N4 C34 1.367(3) . ?
N5 C46 1.328(3) . ?
N5 C48 1.418(3) . ?
N5 C47 1.438(3) . ?
C1 C2 1.467(3) . ?
C2 C3 1.393(3) . ?
C2 C7 1.404(2) . ?
C3 C4 1.387(3) . ?
C3 H3 0.9500 . ?
C4 C5 1.340(3) . ?
C4 H4 0.9500 . ?
C5 C6 1.404(3) . ?
C5 H5 0.9500 . ?
C6 C7 1.381(3) . ?
C6 C8 1.484(3) . ?
C7 H7 0.9500 . ?
C8 C9 1.402(3) . ?
C9 C10 1.331(3) . ?
C9 H9 0.9500 . ?
C10 C11 1.411(3) . ?
C10 H10 0.9500 . ?
C11 C13 1.399(3) . ?
C11 C12 1.423(3) . ?
C13 C14 1.348(3) . ?
C13 H13 0.9500 . ?
C14 C15 1.406(3) . ?
C14 H14 0.9500 . ?
C15 C16 1.473(3) . ?
C16 C17 1.383(3) . ?
C16 C21 1.405(3) . ?
C17 C18 1.381(3) . ?
C17 H17 0.9500 . ?
C18 C19 1.375(3) . ?
C18 H18 0.9500 . ?
C19 C20 1.389(3) . ?
C19 H19 0.9500 . ?
C20 C21 1.385(3) . ?
C20 C22 1.489(3) . ?
C21 H21 0.9500 . ?
C23 C24 1.487(3) . ?
C24 C29 1.396(3) . ?
C24 C25 1.400(3) . ?
C25 C26 1.359(3) . ?
C25 H25 0.9500 . ?
C26 C27 1.376(3) . ?
C26 H26 0.9500 . ?
C27 C28 1.387(3) . ?
C27 H27 0.9500 . ?
C28 C29 1.393(3) . ?
C28 C30 1.486(3) . ?
C29 H29 0.9500 . ?
C30 C31 1.404(3) . ?
C31 C32 1.347(3) . ?
C31 H31 0.9500 . ?
C32 C33 1.406(3) . ?
C32 H32 0.9500 . ?
C33 C35 1.401(3) . ?
C33 C34 1.414(3) . ?
C35 C36 1.353(3) . ?
C35 H35 0.9500 . ?
C36 C37 1.420(3) . ?
C36 H36 0.9500 . ?
C37 C38 1.471(3) . ?
C38 C39 1.380(3) . ?
C38 C43 1.389(3) . ?
C39 C40 1.367(3) . ?
C39 H39 0.9500 . ?
C40 C41 1.362(3) . ?
C40 H40 0.9500 . ?
C41 C42 1.388(3) . ?
C41 H41 0.9500 . ?
C42 C43 1.376(3) . ?
C42 C44 1.499(3) . ?
C43 H43 0.9500 . ?
C45 C46 1.532(4) . ?
C45 H45A 0.9800 . ?
C45 H45B 0.9800 . ?
C45 H45C 0.9800 . ?
C47 H47A 0.9800 . ?
C47 H47B 0.9800 . ?
C47 H47C 0.9800 . ?
C48 H48A 0.9800 . ?
C48 H48B 0.9801 . ?
C48 H48C 0.9800 . ?
C50B N6B 1.534(3) . ?
C50B H50A 0.9800 . ?
C50B H50B 0.9800 . ?
C50B H50C 0.9800 . ?
N6B C49B 1.314(4) . ?
N6B C51 1.460(3) . ?
C49B C52B 1.525(5) . ?
C51 H51A 0.9800 . ?
C51 H51B 0.9800 . ?
C51 H51C 0.9800 . ?
N6A C49A 1.341(4) . ?
N6A C52A 1.508(4) . ?
C49A C50A 1.545(5) . ?
C50A H50D 0.9800 . ?
C50A H50E 0.9800 . ?
C50A H50F 0.9800 . ?
C52A H52A 0.9800 . ?
C52A H52B 0.9800 . ?
C52A H52C 0.9800 . ?
C52B H52D 0.9800 . ?
C52B H52E 0.9800 . ?
C52B H52F 0.9800 . ?

loop_
_geom_angle_atom_site_label_1
_geom_angle_atom_site_label_2
_geom_angle_atom_site_label_3
_geom_angle
_geom_angle_site_symmetry_1
_geom_angle_site_symmetry_3
_geom_angle_publ_flag
O7 Cu1 O5 169.15(5) . 2_565 ?
O7 Cu1 O1 89.00(6) . . ?
O5 Cu1 O1 88.65(6) 2_565 . ?
O7 Cu1 O3 89.23(6) . 2_565 ?
O5 Cu1 O3 90.65(6) 2_565 2_565 ?
O1 Cu1 O3 166.84(5) . 2_565 ?
O7 Cu1 O9 95.98(6) . . ?
O5 Cu1 O9 94.85(5) 2_565 . ?
O1 Cu1 O9 99.04(7) . . ?
O3 Cu1 O9 94.11(6) 2_565 . ?
O7 Cu1 Cu2 86.02(5) . . ?
O5 Cu1 Cu2 83.24(4) 2_565 . ?
O1 Cu1 Cu2 85.79(5) . . ?
O3 Cu1 Cu2 81.08(5) 2_565 . ?
O9 Cu1 Cu2 174.79(4) . . ?
O4 Cu2 O2 169.42(5) 2_565 . ?
O4 Cu2 O8 88.44(5) 2_565 . ?
O2 Cu2 O8 90.22(5) . . ?
O4 Cu2 O6 90.99(6) 2_565 2_565 ?
O2 Cu2 O6 88.02(6) . 2_565 ?
O8 Cu2 O6 167.31(5) . 2_565 ?
O4 Cu2 O10 98.66(6) 2_565 . ?
O2 Cu2 O10 91.86(6) . . ?
O8 Cu2 O10 90.87(5) . . ?
O6 Cu2 O10 101.74(5) 2_565 . ?
O4 Cu2 Cu1 87.05(5) 2_565 . ?
O2 Cu2 Cu1 82.37(5) . . ?
O8 Cu2 Cu1 82.31(4) . . ?
O6 Cu2 Cu1 85.00(5) 2_565 . ?
O10 Cu2 Cu1 171.02(4) . . ?
C1 O1 Cu1 119.43(13) . . ?
C1 O2 Cu2 124.10(11) . . ?
C22 O3 Cu1 124.40(13) . 2_565 ?
C22 O4 Cu2 118.80(13) . 2_565 ?
C23 O5 Cu1 122.66(12) . 2_565 ?
C23 O6 Cu2 120.35(11) . 2_565 ?
C44 O7 Cu1 120.20(10) . . ?
C44 O8 Cu2 123.87(13) . . ?
C46 O9 Cu1 132.87(15) . . ?
C49A O10 C49B 36.51(17) . . ?
C49A O10 Cu2 135.58(19) . . ?
C49B O10 Cu2 133.84(18) . . ?
C8 N1 C12 118.03(16) . . ?
C15 N2 C12 119.75(16) . . ?
C30 N3 C34 117.38(17) . . ?
C37 N4 C34 118.37(17) . . ?
C46 N5 C48 119.7(2) . . ?
C46 N5 C47 125.0(2) . . ?
C48 N5 C47 115.0(2) . . ?
O2 C1 O1 125.33(17) . . ?
O2 C1 C2 116.91(15) . . ?
O1 C1 C2 117.75(17) . . ?
C3 C2 C7 118.50(18) . . ?
C3 C2 C1 121.40(17) . . ?
C7 C2 C1 120.11(18) . . ?
C4 C3 C2 120.10(19) . . ?
C4 C3 H3 120.0 . . ?
C2 C3 H3 120.0 . . ?
C5 C4 C3 120.2(2) . . ?
C5 C4 H4 119.9 . . ?
C3 C4 H4 119.9 . . ?
C4 C5 C6 122.33(19) . . ?
C4 C5 H5 118.8 . . ?
C6 C5 H5 118.8 . . ?
C7 C6 C5 117.43(17) . . ?
C7 C6 C8 120.57(18) . . ?
C5 C6 C8 122.00(17) . . ?
C6 C7 C2 121.39(19) . . ?
C6 C7 H7 119.3 . . ?
C2 C7 H7 119.3 . . ?
N1 C8 C9 122.76(18) . . ?
N1 C8 C6 116.01(16) . . ?
C9 C8 C6 121.19(19) . . ?
C10 C9 C8 119.7(2) . . ?
C10 C9 H9 120.1 . . ?
C8 C9 H9 120.1 . . ?
C9 C10 C11 120.53(19) . . ?
C9 C10 H10 119.7 . . ?
C11 C10 H10 119.7 . . ?
C13 C11 C10 126.01(19) . . ?
C13 C11 C12 117.3(2) . . ?
C10 C11 C12 116.69(18) . . ?
N1 C12 N2 116.64(16) . . ?
N1 C12 C11 122.2(2) . . ?
N2 C12 C11 121.13(17) . . ?
C14 C13 C11 120.15(19) . . ?
C14 C13 H13 119.9 . . ?
C11 C13 H13 119.9 . . ?
C13 C14 C15 119.76(19) . . ?
C13 C14 H14 120.1 . . ?
C15 C14 H14 120.1 . . ?
N2 C15 C14 121.9(2) . . ?
N2 C15 C16 117.71(16) . . ?
C14 C15 C16 120.39(17) . . ?
C17 C16 C21 119.0(2) . . ?
C17 C16 C15 120.69(19) . . ?
C21 C16 C15 120.31(18) . . ?
C18 C17 C16 121.8(2) . . ?
C18 C17 H17 119.1 . . ?
C16 C17 H17 119.1 . . ?
C19 C18 C17 118.7(2) . . ?
C19 C18 H18 120.7 . . ?
C17 C18 H18 120.7 . . ?
C18 C19 C20 121.0(2) . . ?
C18 C19 H19 119.5 . . ?
C20 C19 H19 119.5 . . ?
C21 C20 C19 120.18(18) . . ?
C21 C20 C22 120.25(17) . . ?
C19 C20 C22 119.56(19) . . ?
C20 C21 C16 119.30(18) . . ?
C20 C21 H21 120.3 . . ?
C16 C21 H21 120.3 . . ?
O4 C22 O3 125.99(17) . . ?
O4 C22 C20 119.13(18) . . ?
O3 C22 C20 114.88(16) . . ?
O6 C23 O5 126.03(16) . . ?
O6 C23 C24 117.74(16) . . ?
O5 C23 C24 116.22(17) . . ?
C29 C24 C25 118.03(17) . . ?
C29 C24 C23 121.05(17) . . ?
C25 C24 C23 120.90(16) . . ?
C26 C25 C24 120.91(17) . . ?
C26 C25 H25 119.5 . . ?
C24 C25 H25 119.5 . . ?
C25 C26 C27 120.76(18) . . ?
C25 C26 H26 119.6 . . ?
C27 C26 H26 119.6 . . ?
C26 C27 C28 120.28(17) . . ?
C26 C27 H27 119.9 . . ?
C28 C27 H27 119.9 . . ?
C27 C28 C29 118.93(17) . . ?
C27 C28 C30 120.68(16) . . ?
C29 C28 C30 120.38(17) . . ?
C28 C29 C24 120.94(18) . . ?
C28 C29 H29 119.5 . . ?
C24 C29 H29 119.5 . . ?
N3 C30 C31 122.78(18) . . ?
N3 C30 C28 117.28(17) . . ?
C31 C30 C28 119.90(18) . . ?
C32 C31 C30 120.48(19) . . ?
C32 C31 H31 119.8 . . ?
C30 C31 H31 119.8 . . ?
C31 C32 C33 118.74(19) . . ?
C31 C32 H32 120.6 . . ?
C33 C32 H32 120.6 . . ?
C35 C33 C32 124.25(19) . . ?
C35 C33 C34 118.00(18) . . ?
C32 C33 C34 117.70(17) . . ?
N3 C34 N4 115.03(18) . . ?
N3 C34 C33 122.80(18) . . ?
N4 C34 C33 122.16(17) . . ?
C36 C35 C33 119.44(19) . . ?
C36 C35 H35 120.3 . . ?
C33 C35 H35 120.3 . . ?
C35 C36 C37 119.97(18) . . ?
C35 C36 H36 120.0 . . ?
C37 C36 H36 120.0 . . ?
N4 C37 C36 122.02(18) . . ?
N4 C37 C38 117.20(17) . . ?
C36 C37 C38 120.78(17) . . ?
C39 C38 C43 117.17(19) . . ?
C39 C38 C37 122.29(17) . . ?
C43 C38 C37 120.54(15) . . ?
C40 C39 C38 121.36(19) . . ?
C40 C39 H39 119.3 . . ?
C38 C39 H39 119.3 . . ?
C41 C40 C39 121.36(19) . . ?
C41 C40 H40 119.3 . . ?
C39 C40 H40 119.3 . . ?
C40 C41 C42 118.6(2) . . ?
C40 C41 H41 120.7 . . ?
C42 C41 H41 120.7 . . ?
C43 C42 C41 119.93(18) . . ?
C43 C42 C44 120.08(15) . . ?
C41 C42 C44 119.88(18) . . ?
C42 C43 C38 121.52(16) . . ?
C42 C43 H43 119.2 . . ?
C38 C43 H43 119.2 . . ?
O8 C44 O7 125.54(17) . . ?
O8 C44 C42 116.57(17) . . ?
O7 C44 C42 117.76(15) . . ?
C46 C45 H45A 109.5 . . ?
C46 C45 H45B 109.5 . . ?
H45A C45 H45B 109.5 . . ?
C46 C45 H45C 109.5 . . ?
H45A C45 H45C 109.5 . . ?
H45B C45 H45C 109.5 . . ?
O9 C46 N5 122.0(2) . . ?
O9 C46 C45 120.0(2) . . ?
N5 C46 C45 117.8(2) . . ?
N5 C47 H47A 109.5 . . ?
N5 C47 H47B 109.5 . . ?
H47A C47 H47B 109.5 . . ?
N5 C47 H47C 109.5 . . ?
H47A C47 H47C 109.5 . . ?
H47B C47 H47C 109.5 . . ?
N5 C48 H48A 109.5 . . ?
N5 C48 H48B 109.5 . . ?
H48A C48 H48B 109.5 . . ?
N5 C48 H48C 109.4 . . ?
H48A C48 H48C 109.4 . . ?
H48B C48 H48C 109.5 . . ?
N6B C50B H50A 109.5 . . ?
N6B C50B H50B 109.5 . . ?
H50A C50B H50B 109.5 . . ?
N6B C50B H50C 109.5 . . ?
H50A C50B H50C 109.5 . . ?
H50B C50B H50C 109.5 . . ?
C49B N6B C51 124.5(2) . . ?
C49B N6B C50B 107.2(3) . . ?
C51 N6B C50B 125.18(18) . . ?
O10 C49B N6B 124.5(3) . . ?
O10 C49B C52B 118.8(4) . . ?
N6B C49B C52B 116.6(4) . . ?
N6B C51 H51A 109.5 . . ?
N6B C51 H51B 109.5 . . ?
H51A C51 H51B 109.5 . . ?
N6B C51 H51C 109.5 . . ?
H51A C51 H51C 109.5 . . ?
H51B C51 H51C 109.5 . . ?
C49A N6A C52A 114.2(3) . . ?
O10 C49A N6A 122.5(2) . . ?
O10 C49A C50A 127.3(4) . . ?
N6A C49A C50A 110.2(4) . . ?
C49B C52B H52D 109.5 . . ?
C49B C52B H52E 109.5 . . ?
H52D C52B H52E 109.5 . . ?
C49B C52B H52F 109.5 . . ?
H52D C52B H52F 109.5 . . ?
H52E C52B H52F 109.5 . . ?

loop_
_geom_torsion_atom_site_label_1
_geom_torsion_atom_site_label_2
_geom_torsion_atom_site_label_3
_geom_torsion_atom_site_label_4
_geom_torsion
_geom_torsion_site_symmetry_1
_geom_torsion_site_symmetry_2
_geom_torsion_site_symmetry_3
_geom_torsion_site_symmetry_4
_geom_torsion_publ_flag
O7 Cu1 Cu2 O4 -78.61(6) . . . 2_565 ?
O5 Cu1 Cu2 O4 102.97(6) 2_565 . . 2_565 ?
O1 Cu1 Cu2 O4 -167.89(5) . . . 2_565 ?
O3 Cu1 Cu2 O4 11.24(5) 2_565 . . 2_565 ?
O9 Cu1 Cu2 O4 34.2(3) . . . 2_565 ?
O7 Cu1 Cu2 O2 101.47(6) . . . . ?
O5 Cu1 Cu2 O2 -76.95(6) 2_565 . . . ?
O1 Cu1 Cu2 O2 12.19(5) . . . . ?
O3 Cu1 Cu2 O2 -168.68(5) 2_565 . . . ?
O9 Cu1 Cu2 O2 -145.8(3) . . . . ?
O7 Cu1 Cu2 O8 10.22(5) . . . . ?
O5 Cu1 Cu2 O8 -168.20(5) 2_565 . . . ?
O1 Cu1 Cu2 O8 -79.07(5) . . . . ?
O3 Cu1 Cu2 O8 100.06(6) 2_565 . . . ?
O9 Cu1 Cu2 O8 123.0(3) . . . . ?
O7 Cu1 Cu2 O6 -169.86(5) . . . 2_565 ?
O5 Cu1 Cu2 O6 11.72(5) 2_565 . . 2_565 ?
O1 Cu1 Cu2 O6 100.85(5) . . . 2_565 ?
O3 Cu1 Cu2 O6 -80.02(5) 2_565 . . 2_565 ?
O9 Cu1 Cu2 O6 -57.1(3) . . . 2_565 ?
O7 Cu1 Cu2 O10 51.14(19) . . . . ?
O5 Cu1 Cu2 O10 -127.28(19) 2_565 . . . ?
O1 Cu1 Cu2 O10 -38.15(19) . . . . ?
O3 Cu1 Cu2 O10 140.98(19) 2_565 . . . ?
O9 Cu1 Cu2 O10 163.9(4) . . . . ?
O7 Cu1 O1 C1 -101.89(14) . . . . ?
O5 Cu1 O1 C1 67.52(13) 2_565 . . . ?
O3 Cu1 O1 C1 -19.6(3) 2_565 . . . ?
O9 Cu1 O1 C1 162.22(13) . . . . ?
Cu2 Cu1 O1 C1 -15.80(12) . . . . ?
O4 Cu2 O2 C1 -13.3(4) 2_565 . . . ?
O8 Cu2 O2 C1 69.30(15) . . . . ?
O6 Cu2 O2 C1 -98.13(15) 2_565 . . . ?
O10 Cu2 O2 C1 160.18(15) . . . . ?
Cu1 Cu2 O2 C1 -12.91(14) . . . . ?
O5 Cu1 O7 C44 -3.7(4) 2_565 . . . ?
O1 Cu1 O7 C44 73.83(15) . . . . ?
O3 Cu1 O7 C44 -93.13(15) 2_565 . . . ?
O9 Cu1 O7 C44 172.81(14) . . . . ?
Cu2 Cu1 O7 C44 -12.02(14) . . . . ?
O4 Cu2 O8 C44 75.05(15) 2_565 . . . ?
O2 Cu2 O8 C44 -94.45(15) . . . . ?
O6 Cu2 O8 C44 -12.5(3) 2_565 . . . ?
O10 Cu2 O8 C44 173.69(14) . . . . ?
Cu1 Cu2 O8 C44 -12.18(13) . . . . ?
O7 Cu1 O9 C46 -28.83(18) . . . . ?
O5 Cu1 O9 C46 150.50(18) 2_565 . . . ?
O1 Cu1 O9 C46 61.10(18) . . . . ?
O3 Cu1 O9 C46 -118.49(18) 2_565 . . . ?
Cu2 Cu1 O9 C46 -141.2(3) . . . . ?
O4 Cu2 O10 C49A 155.2(2) 2_565 . . . ?
O2 Cu2 O10 C49A -23.6(2) . . . . ?
O8 Cu2 O10 C49A 66.7(2) . . . . ?
O6 Cu2 O10 C49A -111.9(2) 2_565 . . . ?
Cu1 Cu2 O10 C49A 26.2(3) . . . . ?
O4 Cu2 O10 C49B 103.0(2) 2_565 . . . ?
O2 Cu2 O10 C49B -75.8(2) . . . . ?
O8 Cu2 O10 C49B 14.4(2) . . . . ?
O6 Cu2 O10 C49B -164.2(2) 2_565 . . . ?
Cu1 Cu2 O10 C49B -26.0(3) . . . . ?
Cu2 O2 C1 O1 4.9(3) . . . . ?
Cu2 O2 C1 C2 -174.01(12) . . . . ?
Cu1 O1 C1 O2 11.6(2) . . . . ?
Cu1 O1 C1 C2 -169.53(12) . . . . ?
O2 C1 C2 C3 179.00(18) . . . . ?
O1 C1 C2 C3 0.0(3) . . . . ?
O2 C1 C2 C7 -1.3(3) . . . . ?
O1 C1 C2 C7 179.75(17) . . . . ?
C7 C2 C3 C4 0.5(3) . . . . ?
C1 C2 C3 C4 -179.82(19) . . . . ?
C2 C3 C4 C5 -2.3(3) . . . . ?
C3 C4 C5 C6 1.5(3) . . . . ?
C4 C5 C6 C7 1.2(3) . . . . ?
C4 C5 C6 C8 -178.0(2) . . . . ?
C5 C6 C7 C2 -3.0(3) . . . . ?
C8 C6 C7 C2 176.20(18) . . . . ?
C3 C2 C7 C6 2.2(3) . . . . ?
C1 C2 C7 C6 -177.47(18) . . . . ?
C12 N1 C8 C9 -2.3(3) . . . . ?
C12 N1 C8 C6 179.87(18) . . . . ?
C7 C6 C8 N1 17.7(3) . . . . ?
C5 C6 C8 N1 -163.1(2) . . . . ?
C7 C6 C8 C9 -160.1(2) . . . . ?
C5 C6 C8 C9 19.1(3) . . . . ?
N1 C8 C9 C10 1.4(4) . . . . ?
C6 C8 C9 C10 179.1(2) . . . . ?
C8 C9 C10 C11 -0.1(4) . . . . ?
C9 C10 C11 C13 -180.0(2) . . . . ?
C9 C10 C11 C12 -0.3(3) . . . . ?
C8 N1 C12 N2 -179.33(19) . . . . ?
C8 N1 C12 C11 2.0(3) . . . . ?
C15 N2 C12 N1 -179.65(19) . . . . ?
C15 N2 C12 C11 -0.9(3) . . . . ?
C13 C11 C12 N1 179.0(2) . . . . ?
C10 C11 C12 N1 -0.7(3) . . . . ?
C13 C11 C12 N2 0.4(3) . . . . ?
C10 C11 C12 N2 -179.3(2) . . . . ?
C10 C11 C13 C14 179.1(2) . . . . ?
C12 C11 C13 C14 -0.6(4) . . . . ?
C11 C13 C14 C15 1.4(4) . . . . ?
C12 N2 C15 C14 1.7(3) . . . . ?
C12 N2 C15 C16 -176.71(19) . . . . ?
C13 C14 C15 N2 -2.0(4) . . . . ?
C13 C14 C15 C16 176.4(2) . . . . ?
N2 C15 C16 C17 157.5(2) . . . . ?
C14 C15 C16 C17 -21.0(3) . . . . ?
N2 C15 C16 C21 -20.8(3) . . . . ?
C14 C15 C16 C21 160.8(2) . . . . ?
C21 C16 C17 C18 -1.0(3) . . . . ?
C15 C16 C17 C18 -179.31(19) . . . . ?
C16 C17 C18 C19 -1.6(3) . . . . ?
C17 C18 C19 C20 2.9(3) . . . . ?
C18 C19 C20 C21 -1.5(3) . . . . ?
C18 C19 C20 C22 179.87(18) . . . . ?
C19 C20 C21 C16 -1.3(3) . . . . ?
C22 C20 C21 C16 177.40(17) . . . . ?
C17 C16 C21 C20 2.5(3) . . . . ?
C15 C16 C21 C20 -179.25(18) . . . . ?
Cu2 O4 C22 O3 -2.3(2) 2_565 . . . ?
Cu2 O4 C22 C20 177.63(12) 2_565 . . . ?
Cu1 O3 C22 O4 -13.3(2) 2_565 . . . ?
Cu1 O3 C22 C20 166.74(11) 2_565 . . . ?
C21 C20 C22 O4 -0.2(3) . . . . ?
C19 C20 C22 O4 178.45(16) . . . . ?
C21 C20 C22 O3 179.75(16) . . . . ?
C19 C20 C22 O3 -1.6(2) . . . . ?
Cu2 O6 C23 O5 -10.0(2) 2_565 . . . ?
Cu2 O6 C23 C24 170.80(12) 2_565 . . . ?
Cu1 O5 C23 O6 -5.9(3) 2_565 . . . ?
Cu1 O5 C23 C24 173.32(11) 2_565 . . . ?
O6 C23 C24 C29 7.8(3) . . . . ?
O5 C23 C24 C29 -171.46(16) . . . . ?
O6 C23 C24 C25 -173.78(16) . . . . ?
O5 C23 C24 C25 6.9(3) . . . . ?
C29 C24 C25 C26 -1.9(3) . . . . ?
C23 C24 C25 C26 179.69(17) . . . . ?
C24 C25 C26 C27 2.6(3) . . . . ?
C25 C26 C27 C28 0.0(3) . . . . ?
C26 C27 C28 C29 -3.3(3) . . . . ?
C26 C27 C28 C30 177.63(17) . . . . ?
C27 C28 C29 C24 4.0(3) . . . . ?
C30 C28 C29 C24 -176.90(16) . . . . ?
C25 C24 C29 C28 -1.5(3) . . . . ?
C23 C24 C29 C28 176.97(16) . . . . ?
C34 N3 C30 C31 2.9(2) . . . . ?
C34 N3 C30 C28 -179.61(14) . . . . ?
C27 C28 C30 N3 154.31(16) . . . . ?
C29 C28 C30 N3 -24.8(2) . . . . ?
C27 C28 C30 C31 -28.1(2) . . . . ?
C29 C28 C30 C31 152.83(17) . . . . ?
N3 C30 C31 C32 -2.1(3) . . . . ?
C28 C30 C31 C32 -179.59(15) . . . . ?
C30 C31 C32 C33 -1.1(2) . . . . ?
C31 C32 C33 C35 -179.43(16) . . . . ?
C31 C32 C33 C34 3.2(2) . . . . ?
C30 N3 C34 N4 179.45(14) . . . . ?
C30 N3 C34 C33 -0.5(2) . . . . ?
C37 N4 C34 N3 -178.38(14) . . . . ?
C37 N4 C34 C33 1.6(2) . . . . ?
C35 C33 C34 N3 179.95(15) . . . . ?
C32 C33 C34 N3 -2.5(2) . . . . ?
C35 C33 C34 N4 0.0(2) . . . . ?
C32 C33 C34 N4 177.51(15) . . . . ?
C32 C33 C35 C36 -177.89(16) . . . . ?
C34 C33 C35 C36 -0.6(2) . . . . ?
C33 C35 C36 C37 -0.4(2) . . . . ?
C34 N4 C37 C36 -2.6(2) . . . . ?
C34 N4 C37 C38 178.48(14) . . . . ?
C35 C36 C37 N4 2.1(3) . . . . ?
C35 C36 C37 C38 -179.04(15) . . . . ?
N4 C37 C38 C39 -164.56(17) . . . . ?
C36 C37 C38 C39 16.5(3) . . . . ?
N4 C37 C38 C43 15.4(2) . . . . ?
C36 C37 C38 C43 -163.53(17) . . . . ?
C43 C38 C39 C40 0.2(3) . . . . ?
C37 C38 C39 C40 -179.77(19) . . . . ?
C38 C39 C40 C41 1.1(3) . . . . ?
C39 C40 C41 C42 -1.4(3) . . . . ?
C40 C41 C42 C43 0.4(3) . . . . ?
C40 C41 C42 C44 176.66(19) . . . . ?
C41 C42 C43 C38 0.9(3) . . . . ?
C44 C42 C43 C38 -175.31(17) . . . . ?
C39 C38 C43 C42 -1.2(3) . . . . ?
C37 C38 C43 C42 178.78(17) . . . . ?
Cu2 O8 C44 O7 7.1(3) . . . . ?
Cu2 O8 C44 C42 -177.14(12) . . . . ?
Cu1 O7 C44 O8 6.9(3) . . . . ?
Cu1 O7 C44 C42 -168.82(12) . . . . ?
C43 C42 C44 O8 5.7(3) . . . . ?
C41 C42 C44 O8 -170.53(18) . . . . ?
C43 C42 C44 O7 -178.21(17) . . . . ?
C41 C42 C44 O7 5.6(3) . . . . ?
Cu1 O9 C46 N5 161.63(15) . . . . ?
Cu1 O9 C46 C45 -23.7(3) . . . . ?
C48 N5 C46 O9 -3.4(3) . . . . ?
C47 N5 C46 O9 -177.1(2) . . . . ?
C48 N5 C46 C45 -178.27(19) . . . . ?
C47 N5 C46 C45 8.0(3) . . . . ?
C49A O10 C49B N6B -3.2(3) . . . . ?
Cu2 O10 C49B N6B 108.4(3) . . . . ?
C49A O10 C49B C52B 174.0(6) . . . . ?
Cu2 O10 C49B C52B -74.4(4) . . . . ?
C51 N6B C49B O10 164.8(3) . . . . ?
C50B N6B C49B O10 3.7(5) . . . . ?
C51 N6B C49B C52B -12.5(5) . . . . ?
C50B N6B C49B C52B -173.6(3) . . . . ?
C49B O10 C49A N6A -1.2(3) . . . . ?
Cu2 O10 C49A N6A -107.7(3) . . . . ?
C49B O10 C49A C50A 178.2(7) . . . . ?
Cu2 O10 C49A C50A 71.7(5) . . . . ?
C52A N6A C49A O10 -2.3(5) . . . . ?
C52A N6A C49A C50A 178.2(4) . . . . ?

_diffrn_measured_fraction_theta_max 0.991
_diffrn_reflns_theta_full        25.60
_diffrn_measured_fraction_theta_full 0.991
_refine_diff_density_max         0.473
_refine_diff_density_min         -0.345
_refine_diff_density_rms         0.082


# start Validation Reply Form
_vrf_PLAT215_I                   
;
PROBLEM: Disordered C52B has ADP max/min Ratio ..... 18.1
RESPONSE: disordered
;
_vrf_PLAT602_I                   
;
PROBLEM: VERY LARGE Solvent Accessible VOID(S) in Structure !
RESPONSE: Diffraction peaks from disordered uncoordinated solvent molecules have been
removed by SQUEEZE function of platon.
;
