####################################################################### 
# 
# This file contains crystal structure data downloaded from the 
# Cambridge Structural Database (CSD) hosted by the Cambridge 
# Crystallographic Data Centre (CCDC).
# 
# Full information about CCDC data access policies and citation 
# guidelines are available at http://www.ccdc.cam.ac.uk/access/V1 
# 
# Audit and citation data items may have been added by the CCDC. 
# Please retain this information to preserve the provenance of 
# this file and to allow appropriate attribution of the data. 
# 
#######################################################################

data_tube2
_audit_block_doi                 10.5517/cc80dh4
_database_code_depnum_ccdc_archive 'CCDC 238715'
loop_
_citation_id
_citation_doi
_citation_year
1 10.1021/ja047048n 2004
2 10.1002/asia.200600429 2007
_audit_update_record             
;
2004-05-13 deposited with the CCDC.	2019-03-04 downloaded from the CCDC.
;



_audit_creation_method           SHELXL-97
_chemical_name_systematic        
;
?
;
_chemical_name_common            ?
_chemical_melting_point          ?
_chemical_formula_moiety         ?
_chemical_formula_sum            'C234 H250 N68.25 O113.63 Pd12'
_chemical_formula_weight         7113.32

loop_
_atom_type_symbol
_atom_type_description
_atom_type_scat_dispersion_real
_atom_type_scat_dispersion_imag
_atom_type_scat_source
C C 0.0019 0.0015 'International Tables Vol C Tables 4.2.6.8 and 6.1.1.4'
H H 0.0000 0.0000 'International Tables Vol C Tables 4.2.6.8 and 6.1.1.4'
N N 0.0037 0.0031 'International Tables Vol C Tables 4.2.6.8 and 6.1.1.4'
O O 0.0071 0.0057 'International Tables Vol C Tables 4.2.6.8 and 6.1.1.4'
Pd Pd -1.2465 0.9541 'International Tables Vol C Tables 4.2.6.8 and 6.1.1.4'

_symmetry_cell_setting           orthorhombic
_symmetry_space_group_name_H-M   Fdd2

loop_
_symmetry_equiv_pos_as_xyz
'x, y, z'
'-x, -y, z'
'x+1/4, -y+1/4, z+1/4'
'-x+1/4, y+1/4, z+1/4'
'x, y+1/2, z+1/2'
'-x, -y+1/2, z+1/2'
'x+1/4, -y+3/4, z+3/4'
'-x+1/4, y+3/4, z+3/4'
'x+1/2, y, z+1/2'
'-x+1/2, -y, z+1/2'
'x+3/4, -y+1/4, z+3/4'
'-x+3/4, y+1/4, z+3/4'
'x+1/2, y+1/2, z'
'-x+1/2, -y+1/2, z'
'x+3/4, -y+3/4, z+1/4'
'-x+3/4, y+3/4, z+1/4'

_cell_length_a                   49.2540(12)
_cell_length_b                   122.86(4)
_cell_length_c                   27.6620(5)
_cell_angle_alpha                90.00
_cell_angle_beta                 90.00
_cell_angle_gamma                90.00
_cell_volume                     167395(55)
_cell_formula_units_Z            16
_cell_measurement_temperature    88(2)
_cell_measurement_reflns_used    1450
_cell_measurement_theta_min      2
_cell_measurement_theta_max      16

_exptl_crystal_description       block
_exptl_crystal_colour            yellow
_exptl_crystal_size_max          0.33
_exptl_crystal_size_mid          0.14
_exptl_crystal_size_min          0.10
_exptl_crystal_density_meas      ?
_exptl_crystal_density_diffrn    1.129
_exptl_crystal_density_method    'not measured'
_exptl_crystal_F_000             57484
_exptl_absorpt_coefficient_mu    0.527
_exptl_absorpt_correction_type   none
_exptl_absorpt_correction_T_min  0.8453
_exptl_absorpt_correction_T_max  0.9492
_exptl_absorpt_process_details   ?

_exptl_special_details           
;
?
;

_diffrn_ambient_temperature      88(2)
_diffrn_radiation_wavelength     0.68900
_diffrn_radiation_type           synchrotron
_diffrn_radiation_source         KEK
_diffrn_radiation_monochromator  Si
_diffrn_measurement_device_type  CCD
_diffrn_measurement_method       omega
_diffrn_detector_area_resol_mean ?
_diffrn_standards_number         ?
_diffrn_standards_interval_count ?
_diffrn_standards_interval_time  ?
_diffrn_standards_decay_%        ?
_diffrn_reflns_number            113067
_diffrn_reflns_av_R_equivalents  0.0705
_diffrn_reflns_av_sigmaI/netI    0.0500
_diffrn_reflns_limit_h_min       -36
_diffrn_reflns_limit_h_max       40
_diffrn_reflns_limit_k_min       -101
_diffrn_reflns_limit_k_max       102
_diffrn_reflns_limit_l_min       -22
_diffrn_reflns_limit_l_max       22
_diffrn_reflns_theta_min         1.66
_diffrn_reflns_theta_max         16.67
_reflns_number_total             24687
_reflns_number_gt                19168
_reflns_threshold_expression     >2sigma(I)

_computing_data_collection       'Rigaku CrystalClear'
_computing_cell_refinement       HKL2000
_computing_data_reduction        HKL2000
_computing_structure_solution    'SHELXS-97 (Sheldrick, 1990)'
_computing_structure_refinement  'SHELXL-97 (Sheldrick, 1997)'
_computing_molecular_graphics    'Bruker XP'
_computing_publication_material  'Bruker SHELXTL'

_refine_special_details          
;
Refinement of F^2^ against ALL reflections. The weighted R-factor wR and
goodness of fit S are based on F^2^, conventional R-factors R are based
on F, with F set to zero for negative F^2^. The threshold expression of
F^2^ > 2sigma(F^2^) is used only for calculating R-factors(gt) etc. and is
not relevant to the choice of reflections for refinement. R-factors based
on F^2^ are statistically about twice as large as those based on F, and R-
factors based on ALL data will be even larger.
The crystal turned out to be racemic twin. The least-squares refinement was
performed with TWIN and BASF commands. The BASF parameter was 0.66(6).
Palladium atoms were refined anisotropically and the other atoms were
refined isotropically. Some of the carbon atoms of ethylene diamine, water
molecules, and nitrate anions showed large thermal temperature factors
because of severe disorder. The number of sites found for nitrate and
water were 23 and 47, respectively.
;

_refine_ls_structure_factor_coef Fsqd
_refine_ls_matrix_type           full
_refine_ls_weighting_scheme      calc
_refine_ls_weighting_details     
'calc w=1/[\s^2^(Fo^2^)+(0.2000P)^2^+0.0000P] where P=(Fo^2^+2Fc^2^)/3'
_atom_sites_solution_primary     direct
_atom_sites_solution_secondary   difmap
_atom_sites_solution_hydrogens   geom
_refine_ls_hydrogen_treatment    mixed
_refine_ls_extinction_method     none
_refine_ls_extinction_coef       ?
_refine_ls_abs_structure_details 'Flack H D (1983), Acta Cryst. A39, 876-881'
_refine_ls_abs_structure_Flack   0.66(6)
_refine_ls_number_reflns         24687
_refine_ls_number_parameters     1451
_refine_ls_number_restraints     1624
_refine_ls_R_factor_all          0.1814
_refine_ls_R_factor_gt           0.1579
_refine_ls_wR_factor_ref         0.4216
_refine_ls_wR_factor_gt          0.3948
_refine_ls_goodness_of_fit_ref   1.779
_refine_ls_restrained_S_all      1.742
_refine_ls_shift/su_max          0.092
_refine_ls_shift/su_mean         0.011

loop_
_atom_site_label
_atom_site_type_symbol
_atom_site_fract_x
_atom_site_fract_y
_atom_site_fract_z
_atom_site_U_iso_or_equiv
_atom_site_adp_type
_atom_site_occupancy
_atom_site_symmetry_multiplicity
_atom_site_calc_flag
_atom_site_refinement_flags
_atom_site_disorder_assembly
_atom_site_disorder_group
Pd1 Pd -0.69678(6) 1.033528(19) 0.53513(13) 0.1432(11) Uani 1 1 d . . .
N11 N -0.6557(7) 1.0327(3) 0.5258(13) 0.183(11) Uiso 1 1 d . . .
H11A H -0.6476 1.0375 0.5466 0.219 Uiso 1 1 calc R . .
H11B H -0.6499 1.0258 0.5341 0.219 Uiso 1 1 calc R . .
C11 C -0.6456(12) 1.0353(6) 0.471(3) 0.32(3) Uiso 1 1 d D . .
H11C H -0.6420 1.0432 0.4661 0.379 Uiso 1 1 calc R . .
H11D H -0.6295 1.0310 0.4618 0.379 Uiso 1 1 calc R . .
C12 C -0.6710(9) 1.0316(3) 0.4449(16) 0.174(14) Uiso 1 1 d D . .
H12A H -0.6711 1.0354 0.4132 0.209 Uiso 1 1 calc R . .
H12B H -0.6686 1.0238 0.4382 0.209 Uiso 1 1 calc R . .
N12 N -0.6981(7) 1.0329(2) 0.4656(12) 0.173(11) Uiso 1 1 d . . .
H12C H -0.7089 1.0272 0.4562 0.208 Uiso 1 1 calc R . .
H12D H -0.7057 1.0393 0.4540 0.208 Uiso 1 1 calc R . .
Pd2 Pd -0.86981(10) 1.06535(4) 0.62681(16) 0.2198(19) Uani 1 1 d D . .
N21 N -0.9024(6) 1.0665(3) 0.6697(11) 0.214(14) Uiso 1 1 d D . .
H21A H -0.9012 1.0616 0.6948 0.257 Uiso 1 1 calc R . .
H21B H -0.9037 1.0734 0.6825 0.257 Uiso 1 1 calc R . .
C21 C -0.9260(8) 1.0641(6) 0.6395(19) 0.32(3) Uiso 1 1 d D . .
H21C H -0.9423 1.0677 0.6534 0.381 Uiso 1 1 calc R . .
H21D H -0.9294 1.0562 0.6393 0.381 Uiso 1 1 calc R . .
C22 C -0.9219(10) 1.0680(6) 0.5886(18) 0.40(5) Uiso 1 1 d D . .
H22A H -0.9360 1.0648 0.5675 0.481 Uiso 1 1 calc R . .
H22B H -0.9241 1.0760 0.5875 0.481 Uiso 1 1 calc R . .
N22 N -0.8958(7) 1.0651(4) 0.5711(10) 0.242(17) Uiso 1 1 d D . .
H22C H -0.8903 1.0700 0.5478 0.291 Uiso 1 1 calc R . .
H22D H -0.8963 1.0583 0.5575 0.291 Uiso 1 1 calc R . .
Pd3 Pd -0.65406(8) 1.07073(3) 0.84184(17) 0.1949(15) Uani 1 1 d D . .
N31 N -0.6259(6) 1.0740(3) 0.8928(9) 0.208(14) Uiso 1 1 d D . .
H31A H -0.6330 1.0786 0.9157 0.250 Uiso 1 1 calc R . .
H31B H -0.6208 1.0676 0.9080 0.250 Uiso 1 1 calc R . .
C31 C -0.6020(10) 1.0791(6) 0.8698(18) 0.46(7) Uiso 1 1 d D . .
H31C H -0.5856 1.0775 0.8893 0.558 Uiso 1 1 calc R . .
H31D H -0.6045 1.0871 0.8691 0.558 Uiso 1 1 calc R . .
C32 C -0.5978(7) 1.0750(4) 0.8186(16) 0.23(2) Uiso 1 1 d D . .
H32A H -0.5892 1.0677 0.8195 0.279 Uiso 1 1 calc R . .
H32B H -0.5854 1.0799 0.8009 0.279 Uiso 1 1 calc R . .
N32 N -0.6252(6) 1.0743(3) 0.7923(10) 0.223(15) Uiso 1 1 d D . .
H32C H -0.6246 1.0690 0.7689 0.268 Uiso 1 1 calc R . .
H32D H -0.6290 1.0808 0.7775 0.268 Uiso 1 1 calc R . .
Pd4 Pd -0.87138(8) 1.00037(4) 0.61694(14) 0.1942(16) Uani 1 1 d D . .
N41 N -0.9075(6) 0.9983(3) 0.6511(11) 0.201(13) Uiso 1 1 d D . .
H41A H -0.9067 0.9919 0.6686 0.241 Uiso 1 1 calc R . .
H41B H -0.9098 1.0039 0.6726 0.241 Uiso 1 1 calc R . .
C41 C -0.9312(9) 0.9978(5) 0.6194(19) 0.29(3) Uiso 1 1 d D . .
H41C H -0.9453 1.0028 0.6317 0.343 Uiso 1 1 calc R . .
H41D H -0.9387 0.9903 0.6196 0.343 Uiso 1 1 calc R . .
C42 C -0.9222(10) 1.0015(6) 0.559(2) 0.35(4) Uiso 1 1 d D . .
H42A H -0.9335 0.9975 0.5355 0.415 Uiso 1 1 calc R . .
H42B H -0.9247 1.0094 0.5541 0.415 Uiso 1 1 calc R . .
N42 N -0.8923(8) 0.9984(4) 0.5538(11) 0.27(2) Uiso 1 1 d D . .
H42C H -0.8845 1.0026 0.5301 0.319 Uiso 1 1 calc R . .
H42D H -0.8911 0.9912 0.5442 0.319 Uiso 1 1 calc R . .
Pd5 Pd -0.62932(6) 1.00521(3) 0.84488(14) 0.1620(12) Uani 1 1 d D . .
N51 N -0.6114(5) 1.0054(2) 0.9102(7) 0.165(10) Uiso 1 1 d D . .
H51A H -0.6211 1.0098 0.9310 0.198 Uiso 1 1 calc R . .
H51B H -0.6109 0.9985 0.9229 0.198 Uiso 1 1 calc R . .
C51 C -0.5834(9) 1.0097(7) 0.9049(18) 0.47(5) Uiso 1 1 d D . .
H51C H -0.5721 1.0073 0.9326 0.560 Uiso 1 1 calc R . .
H51D H -0.5837 1.0178 0.9044 0.560 Uiso 1 1 calc R . .
C52 C -0.5712(7) 1.0054(7) 0.8579(19) 0.47(5) Uiso 1 1 d D . .
H52A H -0.5664 0.9976 0.8616 0.560 Uiso 1 1 calc R . .
H52B H -0.5544 1.0095 0.8503 0.560 Uiso 1 1 calc R . .
N52 N -0.5918(5) 1.0068(3) 0.8166(11) 0.237(17) Uiso 1 1 d D . .
H52C H -0.5889 1.0015 0.7933 0.285 Uiso 1 1 calc R . .
H52D H -0.5898 1.0135 0.8024 0.285 Uiso 1 1 calc R . .
Pd6 Pd -0.81372(5) 1.03047(2) 0.92677(12) 0.1277(9) Uani 1 1 d . . .
N61 N -0.8131(5) 1.03039(19) 0.9935(9) 0.130(8) Uiso 1 1 d . . .
H61A H -0.8029 1.0245 1.0033 0.156 Uiso 1 1 calc R . .
H61B H -0.8042 1.0366 1.0036 0.156 Uiso 1 1 calc R . .
C61 C -0.8403(9) 1.0299(3) 1.0200(16) 0.172(13) Uiso 1 1 d . . .
H61C H -0.8392 1.0247 1.0472 0.207 Uiso 1 1 calc R . .
H61D H -0.8450 1.0372 1.0330 0.207 Uiso 1 1 calc R . .
C62 C -0.8594(10) 1.0266(4) 0.9877(18) 0.196(16) Uiso 1 1 d . . .
H62A H -0.8767 1.0300 0.9979 0.235 Uiso 1 1 calc R . .
H62B H -0.8615 1.0187 0.9921 0.235 Uiso 1 1 calc R . .
N62 N -0.8565(6) 1.0288(2) 0.9281(11) 0.159(9) Uiso 1 1 d . . .
H62C H -0.8653 1.0350 0.9183 0.191 Uiso 1 1 calc R . .
H62D H -0.8624 1.0229 0.9101 0.191 Uiso 1 1 calc R . .
Pd7 Pd -0.78240(5) 0.86029(2) 0.95875(13) 0.1442(10) Uani 1 1 d D . .
N71 N -0.8160(6) 0.8597(3) 1.0014(12) 0.210(14) Uiso 1 1 d D . .
H71A H -0.8247 0.8663 0.9993 0.252 Uiso 1 1 calc R . .
H71B H -0.8275 0.8545 0.9892 0.252 Uiso 1 1 calc R . .
C71 C -0.8113(10) 0.8573(5) 1.0521(17) 0.27(3) Uiso 1 1 d D . .
H71C H -0.8223 0.8509 1.0616 0.322 Uiso 1 1 calc R . .
H71D H -0.8174 0.8636 1.0719 0.322 Uiso 1 1 calc R . .
C72 C -0.7763(13) 0.8546(7) 1.064(2) 0.46(7) Uiso 1 1 d D . .
H72A H -0.7708 0.8579 1.0949 0.555 Uiso 1 1 calc R . .
H72B H -0.7730 0.8467 1.0656 0.555 Uiso 1 1 calc R . .
N72 N -0.7603(6) 0.8596(3) 1.0222(11) 0.200(13) Uiso 1 1 d D . .
H72C H -0.7449 0.8555 1.0170 0.240 Uiso 1 1 calc R . .
H72D H -0.7550 0.8665 1.0306 0.240 Uiso 1 1 calc R . .
Pd8 Pd -0.61903(5) 0.83373(2) 0.79423(13) 0.1425(10) Uani 1 1 d D . .
N81 N -0.5780(4) 0.8337(2) 0.7812(10) 0.180(11) Uiso 1 1 d D . .
H81A H -0.5727 0.8269 0.7704 0.216 Uiso 1 1 calc R . .
H81B H -0.5740 0.8387 0.7576 0.216 Uiso 1 1 calc R . .
C81 C -0.5633(6) 0.8364(3) 0.8258(13) 0.181(15) Uiso 1 1 d D . .
H81C H -0.5622 0.8444 0.8296 0.217 Uiso 1 1 calc R . .
H81D H -0.5445 0.8335 0.8241 0.217 Uiso 1 1 calc R . .
C82 C -0.5781(7) 0.8314(4) 0.8687(14) 0.27(3) Uiso 1 1 d D . .
H82A H -0.5708 0.8345 0.8992 0.320 Uiso 1 1 calc R . .
H82B H -0.5753 0.8234 0.8691 0.320 Uiso 1 1 calc R . .
N82 N -0.6087(5) 0.8339(2) 0.8651(7) 0.153(9) Uiso 1 1 d D . .
H82C H -0.6123 0.8406 0.8783 0.184 Uiso 1 1 calc R . .
H82D H -0.6185 0.8288 0.8818 0.184 Uiso 1 1 calc R . .
Pd9 Pd -0.69844(7) 0.86463(3) 0.50184(15) 0.1800(13) Uani 1 1 d D . .
N91 N -0.6688(6) 0.8616(3) 0.4523(12) 0.242(17) Uiso 1 1 d D . .
H91A H -0.6544 0.8662 0.4585 0.290 Uiso 1 1 calc R . .
H91B H -0.6627 0.8546 0.4569 0.290 Uiso 1 1 calc R . .
C91 C -0.6763(11) 0.8628(5) 0.4018(17) 0.27(3) Uiso 1 1 d D . .
H91C H -0.6675 0.8570 0.3824 0.328 Uiso 1 1 calc R . .
H91D H -0.6700 0.8699 0.3896 0.328 Uiso 1 1 calc R . .
C92 C -0.7123(14) 0.8618(7) 0.3958(18) 0.39(5) Uiso 1 1 d D . .
H92A H -0.7188 0.8669 0.3704 0.469 Uiso 1 1 calc R . .
H92B H -0.7176 0.8543 0.3866 0.469 Uiso 1 1 calc R . .
N92 N -0.7249(7) 0.8648(4) 0.4442(12) 0.27(2) Uiso 1 1 d D . .
H92C H -0.7388 0.8600 0.4506 0.323 Uiso 1 1 calc R . .
H92D H -0.7323 0.8716 0.4418 0.323 Uiso 1 1 calc R . .
Pd10 Pd -0.77573(8) 0.79672(4) 0.9281(2) 0.253(3) Uani 1 1 d D . .
N101 N -0.7494(9) 0.7946(3) 0.9831(16) 0.49(6) Uiso 1 1 d D . .
H10A H -0.7458 0.7874 0.9877 0.587 Uiso 1 1 calc R . .
H10B H -0.7334 0.7982 0.9773 0.587 Uiso 1 1 calc R . .
C101 C -0.7636(14) 0.7992(7) 1.0253(19) 0.46(5) Uiso 1 1 d D . .
H10C H -0.7637 0.8073 1.0233 0.558 Uiso 1 1 calc R . .
H10D H -0.7541 0.7971 1.0554 0.558 Uiso 1 1 calc R . .
C102 C -0.7923(14) 0.7950(8) 1.0262(16) 0.46(5) Uiso 1 1 d D . .
H10E H -0.7923 0.7875 1.0392 0.558 Uiso 1 1 calc R . .
H10F H -0.8033 0.7996 1.0481 0.558 Uiso 1 1 calc R . .
N102 N -0.8044(7) 0.7950(2) 0.9796(14) 0.27(2) Uiso 1 1 d D . .
H10G H -0.8167 0.8007 0.9774 0.319 Uiso 1 1 calc R . .
H10H H -0.8136 0.7886 0.9749 0.319 Uiso 1 1 calc R . .
Pd11 Pd -0.85739(6) 0.83239(2) 0.65504(14) 0.1522(11) Uani 1 1 d D . .
N111 N -0.8976(4) 0.8289(3) 0.6637(12) 0.239(17) Uiso 1 1 d D . .
H11E H -0.8995 0.8220 0.6761 0.287 Uiso 1 1 calc R . .
H11F H -0.9052 0.8337 0.6852 0.287 Uiso 1 1 calc R . .
C111 C -0.9117(7) 0.8296(5) 0.6167(17) 0.28(3) Uiso 1 1 d D . .
H11G H -0.9169 0.8372 0.6101 0.334 Uiso 1 1 calc R . .
H11H H -0.9284 0.8251 0.6172 0.334 Uiso 1 1 calc R . .
C112 C -0.8925(11) 0.8255(6) 0.5773(17) 0.47(7) Uiso 1 1 d D . .
H11I H -0.9002 0.8269 0.5449 0.563 Uiso 1 1 calc R . .
H11J H -0.8894 0.8176 0.5809 0.563 Uiso 1 1 calc R . .
N112 N -0.8656(7) 0.8317(3) 0.5836(7) 0.233(16) Uiso 1 1 d D . .
H11K H -0.8672 0.8386 0.5711 0.280 Uiso 1 1 calc R . .
H11L H -0.8518 0.8282 0.5675 0.280 Uiso 1 1 calc R . .
Pd12 Pd -0.69462(10) 0.80289(5) 0.5043(2) 0.286(3) Uani 1 1 d D . .
N121 N -0.6720(7) 0.8000(4) 0.4495(15) 0.258(19) Uiso 1 1 d D . .
H12E H -0.6560 0.8038 0.4528 0.310 Uiso 1 1 calc R . .
H12F H -0.6678 0.7927 0.4488 0.310 Uiso 1 1 calc R . .
C121 C -0.6850(13) 0.8031(9) 0.404(2) 0.50(8) Uiso 1 1 d D . .
H12G H -0.6763 0.7991 0.3766 0.606 Uiso 1 1 calc R . .
H12H H -0.6828 0.8110 0.3979 0.606 Uiso 1 1 calc R . .
C122 C -0.7139(12) 0.8003(6) 0.406(2) 0.33(4) Uiso 1 1 d D . .
H12I H -0.7163 0.7923 0.4035 0.396 Uiso 1 1 calc R . .
H12J H -0.7240 0.8038 0.3799 0.396 Uiso 1 1 calc R . .
N122 N -0.7247(8) 0.8041(5) 0.4551(18) 0.32(3) Uiso 1 1 d D . .
H12K H -0.7393 0.8000 0.4644 0.387 Uiso 1 1 calc R . .
H12L H -0.7304 0.8113 0.4528 0.387 Uiso 1 1 calc R . .
N1A N -0.8432(4) 1.06359(18) 0.6869(7) 0.150(9) Uiso 1 1 d G . .
C1A C -0.8262(5) 1.07215(15) 0.6995(9) 0.185(15) Uiso 1 1 d G . .
H1A H -0.8267 1.0788 0.6816 0.222 Uiso 1 1 calc R . .
C2A C -0.8084(5) 1.07106(17) 0.7383(10) 0.182(15) Uiso 1 1 d G . .
H2A H -0.7968 1.0769 0.7469 0.218 Uiso 1 1 calc R . .
C3A C -0.8077(5) 1.0614(2) 0.7645(8) 0.138(10) Uiso 1 1 d G . .
H3A H -0.7956 1.0607 0.7910 0.165 Uiso 1 1 calc R . .
C4A C -0.8248(5) 1.05285(15) 0.7519(9) 0.185(15) Uiso 1 1 d G . .
C5A C -0.8425(4) 1.05394(15) 0.7131(9) 0.137(10) Uiso 1 1 d G . .
H5A H -0.8541 1.0481 0.7044 0.165 Uiso 1 1 calc R . .
C6A C -0.8237(5) 1.04125(14) 0.7774(8) 0.174(14) Uiso 1 1 d G . .
C7A C -0.8195(4) 1.04121(13) 0.8271(8) 0.123(9) Uiso 1 1 d G . .
H7A H -0.8185 1.0479 0.8443 0.148 Uiso 1 1 calc R . .
N2A N -0.8168(4) 1.03140(17) 0.8516(6) 0.133(8) Uiso 1 1 d G . .
C8A C -0.8183(4) 1.02162(13) 0.8265(8) 0.150(12) Uiso 1 1 d G . .
H8A H -0.8164 1.0149 0.8432 0.180 Uiso 1 1 calc R . .
C9A C -0.8225(5) 1.02166(14) 0.7768(8) 0.139(10) Uiso 1 1 d G . .
C10A C -0.8252(5) 1.03148(19) 0.7522(6) 0.140(11) Uiso 1 1 d G . .
H10I H -0.8281 1.0315 0.7183 0.169 Uiso 1 1 calc R . .
C11A C -0.8280(7) 1.0103(3) 0.7487(14) 0.145(11) Uiso 1 1 d . . .
C12A C -0.8452(5) 1.0099(2) 0.7061(10) 0.100(8) Uiso 1 1 d . . .
H12M H -0.8530 1.0165 0.6948 0.120 Uiso 1 1 calc R . .
N3A N -0.8509(6) 1.0007(2) 0.6813(11) 0.153(9) Uiso 1 1 d . . .
C13A C -0.8363(7) 0.9916(2) 0.6969(13) 0.132(10) Uiso 1 1 d . . .
H13A H -0.8357 0.9855 0.6756 0.158 Uiso 1 1 calc R . .
C14A C -0.8227(7) 0.9905(3) 0.7400(15) 0.149(12) Uiso 1 1 d . . .
C15A C -0.8189(7) 1.0000(2) 0.7679(13) 0.135(10) Uiso 1 1 d . . .
H15A H -0.8105 0.9996 0.7988 0.163 Uiso 1 1 calc R . .
C16A C -0.8106(7) 0.9792(2) 0.7651(13) 0.135(10) Uiso 1 1 d . . .
H16A H -0.7905 0.9791 0.7648 0.162 Uiso 1 1 calc R . .
H16B H -0.8171 0.9784 0.7988 0.162 Uiso 1 1 calc R . .
O1A O -0.8221(5) 0.97032(17) 0.7328(8) 0.146(7) Uiso 1 1 d . . .
C17A C -0.8212(5) 0.95971(14) 0.7530(9) 0.147(11) Uiso 1 1 d G . .
C18A C -0.8376(5) 0.9523(2) 0.7287(8) 0.171(13) Uiso 1 1 d G . .
H18A H -0.8491 0.9548 0.7033 0.205 Uiso 1 1 calc R . .
C19A C -0.8373(5) 0.94139(18) 0.7415(9) 0.176(14) Uiso 1 1 d G . .
H19A H -0.8485 0.9363 0.7249 0.212 Uiso 1 1 calc R . .
C20A C -0.8205(5) 0.93783(13) 0.7787(10) 0.149(11) Uiso 1 1 d G . .
C21A C -0.8040(4) 0.94521(17) 0.8030(8) 0.137(10) Uiso 1 1 d G . .
H21E H -0.7926 0.9428 0.8284 0.164 Uiso 1 1 calc R . .
C22A C -0.8044(4) 0.95615(15) 0.7902(8) 0.125(9) Uiso 1 1 d G . .
H22E H -0.7931 0.9612 0.8068 0.150 Uiso 1 1 calc R . .
C23A C -0.8218(5) 0.92472(13) 0.7952(9) 0.159(12) Uiso 1 1 d G . .
C24A C -0.8290(5) 0.91657(18) 0.7628(7) 0.127(10) Uiso 1 1 d G . .
H24A H -0.8325 0.9183 0.7299 0.153 Uiso 1 1 calc R . .
C25A C -0.8310(5) 0.90585(15) 0.7784(8) 0.140(11) Uiso 1 1 d G . .
H25A H -0.8359 0.9003 0.7562 0.168 Uiso 1 1 calc R . .
C26A C -0.8258(5) 0.90328(13) 0.8264(9) 0.156(12) Uiso 1 1 d G . .
C27A C -0.8186(5) 0.91143(19) 0.8589(7) 0.142(11) Uiso 1 1 d G . .
H27A H -0.8151 0.9097 0.8917 0.170 Uiso 1 1 calc R . .
C28A C -0.8166(5) 0.92215(16) 0.8432(8) 0.155(12) Uiso 1 1 d G . .
H28A H -0.8117 0.9277 0.8654 0.186 Uiso 1 1 calc R . .
O2A O -0.8280(4) 0.89200(14) 0.8426(7) 0.122(6) Uiso 1 1 d . . .
C29A C -0.8341(6) 0.88344(17) 0.8104(10) 0.105(8) Uiso 1 1 d D . .
H29A H -0.8230 0.8843 0.7809 0.126 Uiso 1 1 calc R . .
H29B H -0.8534 0.8840 0.8007 0.126 Uiso 1 1 calc R . .
C30A C -0.8292(6) 0.87255(19) 0.8315(11) 0.124(10) Uiso 1 1 d D . .
C31A C -0.8159(6) 0.8727(2) 0.8797(12) 0.120(9) Uiso 1 1 d . . .
H31E H -0.8132 0.8792 0.8975 0.144 Uiso 1 1 calc R . .
N4A N -0.8070(5) 0.8616(2) 0.8986(10) 0.138(8) Uiso 1 1 d . . .
C32A C -0.8138(6) 0.8525(2) 0.8740(12) 0.128(10) Uiso 1 1 d . . .
H32E H -0.8082 0.8457 0.8868 0.153 Uiso 1 1 calc R . .
C33A C -0.8303(6) 0.8525(2) 0.8259(11) 0.115(9) Uiso 1 1 d . . .
C34A C -0.8401(6) 0.86268(19) 0.8101(10) 0.103(8) Uiso 1 1 d . . .
H34A H -0.8537 0.8631 0.7857 0.124 Uiso 1 1 calc R . .
C35A C -0.8374(4) 0.84133(12) 0.8009(7) 0.136(10) Uiso 1 1 d G . .
C36A C -0.8443(4) 0.84132(11) 0.7521(7) 0.114(9) Uiso 1 1 d G . .
H36A H -0.8460 0.8480 0.7352 0.137 Uiso 1 1 calc R . .
N5A N -0.8486(4) 0.83152(14) 0.7282(5) 0.124(8) Uiso 1 1 d G . .
C37A C -0.8460(4) 0.82174(11) 0.7530(7) 0.096(7) Uiso 1 1 d G . .
H37A H -0.8490 0.8150 0.7367 0.115 Uiso 1 1 calc R . .
C38A C -0.8392(4) 0.82175(12) 0.8018(7) 0.125(9) Uiso 1 1 d G . .
C39A C -0.8348(5) 0.83155(17) 0.8257(5) 0.136(10) Uiso 1 1 d G . .
H39A H -0.8302 0.8316 0.8590 0.163 Uiso 1 1 calc R . .
C40A C -0.8355(5) 0.80958(15) 0.8281(8) 0.129(10) Uiso 1 1 d G . .
C41A C -0.8147(4) 0.80853(15) 0.8617(9) 0.166(13) Uiso 1 1 d G . .
H41E H -0.8036 0.8146 0.8693 0.199 Uiso 1 1 calc R . .
N6A N -0.8101(4) 0.79858(19) 0.8841(8) 0.161(10) Uiso 1 1 d GD . .
C42A C -0.8263(5) 0.78967(14) 0.8729(9) 0.172(14) Uiso 1 1 d G . .
H42E H -0.8232 0.7829 0.8882 0.206 Uiso 1 1 calc R . .
C43A C -0.8471(5) 0.79071(16) 0.8393(10) 0.171(14) Uiso 1 1 d G . .
H43A H -0.8582 0.7846 0.8317 0.205 Uiso 1 1 calc R . .
C44A C -0.8517(4) 0.8007(2) 0.8169(8) 0.154(12) Uiso 1 1 d G . .
H44A H -0.8660 0.8014 0.7939 0.185 Uiso 1 1 calc R . .
N1B N -0.8365(4) 1.0646(2) 0.5784(9) 0.195(13) Uiso 1 1 d G . .
C1B C -0.8275(5) 1.07382(16) 0.5538(9) 0.154(12) Uiso 1 1 d G . .
H1B H -0.8366 1.0806 0.5577 0.185 Uiso 1 1 calc R . .
C2B C -0.8051(5) 1.07311(15) 0.5234(8) 0.142(11) Uiso 1 1 d G . .
H2B H -0.7989 1.0794 0.5066 0.170 Uiso 1 1 calc R . .
C3B C -0.7917(4) 1.06323(18) 0.5177(8) 0.134(10) Uiso 1 1 d G . .
H3B H -0.7764 1.0627 0.4970 0.161 Uiso 1 1 calc R . .
C4B C -0.8007(5) 1.05406(14) 0.5424(9) 0.142(11) Uiso 1 1 d G . .
C5B C -0.8232(5) 1.05477(17) 0.5727(9) 0.194(16) Uiso 1 1 d G . .
H5B H -0.8293 1.0485 0.5895 0.233 Uiso 1 1 calc R . .
C6B C -0.7813(4) 1.04318(13) 0.5405(8) 0.116(9) Uiso 1 1 d G . .
C7B C -0.7531(4) 1.04338(10) 0.5408(7) 0.128(10) Uiso 1 1 d G . .
H7B H -0.7437 1.0501 0.5410 0.154 Uiso 1 1 calc R . .
N2B N -0.7385(3) 1.03369(13) 0.5409(7) 0.099(6) Uiso 1 1 d G . .
C8B C -0.7522(4) 1.02379(10) 0.5407(8) 0.135(10) Uiso 1 1 d G . .
H8B H -0.7422 1.0172 0.5407 0.162 Uiso 1 1 calc R . .
C9B C -0.7804(4) 1.02359(13) 0.5403(9) 0.144(11) Uiso 1 1 d G . .
C10B C -0.7949(3) 1.03328(17) 0.5402(9) 0.148(11) Uiso 1 1 d G . .
H10J H -0.8142 1.0331 0.5400 0.177 Uiso 1 1 calc R . .
C11B C -0.7967(5) 1.01104(14) 0.5514(9) 0.134(10) Uiso 1 1 d G . .
C12B C -0.8227(5) 1.01083(14) 0.5708(8) 0.140(11) Uiso 1 1 d G . .
H12N H -0.8317 1.0174 0.5784 0.168 Uiso 1 1 calc R . .
N3B N -0.8355(4) 1.00093(18) 0.5793(8) 0.160(10) Uiso 1 1 d G . .
C13B C -0.8223(5) 0.99124(14) 0.5682(9) 0.156(12) Uiso 1 1 d G . .
H13B H -0.8311 0.9845 0.5739 0.187 Uiso 1 1 calc R . .
C14B C -0.7963(5) 0.99146(15) 0.5487(9) 0.150(11) Uiso 1 1 d G . .
C15B C -0.7835(4) 1.00136(19) 0.5403(9) 0.155(12) Uiso 1 1 d G . .
H15B H -0.7657 1.0015 0.5270 0.186 Uiso 1 1 calc R . .
C16B C -0.7819(9) 0.9797(3) 0.5417(17) 0.187(15) Uiso 1 1 d . . .
H16C H -0.7930 0.9750 0.5206 0.224 Uiso 1 1 calc R . .
H16D H -0.7637 0.9806 0.5271 0.224 Uiso 1 1 calc R . .
O1B O -0.7797(5) 0.97492(18) 0.5926(10) 0.164(8) Uiso 1 1 d . . .
C17B C -0.7731(7) 0.96325(18) 0.5963(13) 0.190(15) Uiso 1 1 d G . .
C18B C -0.7579(6) 0.9572(3) 0.5637(10) 0.184(15) Uiso 1 1 d G . .
H18B H -0.7514 0.9604 0.5348 0.221 Uiso 1 1 calc R . .
C19B C -0.7522(7) 0.9463(3) 0.5733(12) 0.24(2) Uiso 1 1 d G . .
H19B H -0.7418 0.9422 0.5511 0.285 Uiso 1 1 calc R . .
C20B C -0.7617(7) 0.94152(18) 0.6156(14) 0.23(2) Uiso 1 1 d G . .
C21B C -0.7769(6) 0.9476(3) 0.6482(10) 0.172(14) Uiso 1 1 d G . .
H21F H -0.7835 0.9443 0.6770 0.206 Uiso 1 1 calc R . .
C22B C -0.7826(6) 0.9585(3) 0.6385(12) 0.24(2) Uiso 1 1 d G . .
H22F H -0.7930 0.9626 0.6608 0.291 Uiso 1 1 calc R . .
C23B C -0.7578(7) 0.92850(16) 0.6228(11) 0.178(14) Uiso 1 1 d G . .
C24B C -0.7330(6) 0.9237(3) 0.6115(12) 0.24(2) Uiso 1 1 d G . .
H24B H -0.7183 0.9281 0.6007 0.287 Uiso 1 1 calc R . .
C25B C -0.7297(5) 0.9125(3) 0.6160(12) 0.221(19) Uiso 1 1 d G . .
H25B H -0.7128 0.9093 0.6083 0.265 Uiso 1 1 calc R . .
C26B C -0.7512(7) 0.90611(17) 0.6318(11) 0.204(17) Uiso 1 1 d G . .
C27B C -0.7760(5) 0.9109(2) 0.6431(10) 0.149(11) Uiso 1 1 d G . .
H27B H -0.7907 0.9065 0.6539 0.179 Uiso 1 1 calc R . .
C28B C -0.7793(5) 0.9221(2) 0.6386(10) 0.173(14) Uiso 1 1 d G . .
H28B H -0.7962 0.9254 0.6463 0.207 Uiso 1 1 calc R . .
O2B O -0.7450(6) 0.8939(2) 0.6335(11) 0.191(10) Uiso 1 1 d . . .
C29B C -0.7672(7) 0.88612(19) 0.6324(12) 0.139(11) Uiso 1 1 d D . .
H29C H -0.7826 0.8894 0.6143 0.167 Uiso 1 1 calc R . .
H29D H -0.7734 0.8848 0.6659 0.167 Uiso 1 1 calc R . .
C30B C -0.7597(4) 0.87526(13) 0.6090(8) 0.120(9) Uiso 1 1 d GD . .
C31B C -0.7396(4) 0.87538(13) 0.5738(8) 0.137(11) Uiso 1 1 d G . .
H31F H -0.7311 0.8820 0.5651 0.165 Uiso 1 1 calc R . .
N4B N -0.7319(4) 0.86575(17) 0.5511(7) 0.151(9) Uiso 1 1 d G . .
C32B C -0.7444(5) 0.85600(13) 0.5638(8) 0.158(12) Uiso 1 1 d G . .
H32F H -0.7392 0.8494 0.5483 0.190 Uiso 1 1 calc R . .
C33B C -0.7645(4) 0.85589(13) 0.5991(8) 0.121(9) Uiso 1 1 d G . .
C34B C -0.7721(4) 0.86552(17) 0.6217(7) 0.159(13) Uiso 1 1 d G . .
H34B H -0.7859 0.8654 0.6458 0.191 Uiso 1 1 calc R . .
C35B C -0.7765(4) 0.84388(14) 0.6127(8) 0.138(11) Uiso 1 1 d G . .
C36B C -0.8034(4) 0.84339(13) 0.6280(8) 0.146(11) Uiso 1 1 d G . .
H36B H -0.8136 0.8499 0.6317 0.175 Uiso 1 1 calc R . .
N5B N -0.8153(3) 0.83338(16) 0.6378(7) 0.129(8) Uiso 1 1 d G . .
C37B C -0.8004(4) 0.82386(12) 0.6323(8) 0.145(11) Uiso 1 1 d G . .
H37B H -0.8086 0.8170 0.6389 0.174 Uiso 1 1 calc R . .
C38B C -0.7736(4) 0.82434(14) 0.6170(9) 0.174(14) Uiso 1 1 d G . .
C39B C -0.7616(3) 0.83436(19) 0.6072(8) 0.133(10) Uiso 1 1 d G . .
H39B H -0.7433 0.8347 0.5968 0.160 Uiso 1 1 calc R . .
C40B C -0.7557(6) 0.81293(17) 0.6028(11) 0.144(11) Uiso 1 1 d G . .
C41B C -0.7366(6) 0.8115(2) 0.5664(10) 0.196(16) Uiso 1 1 d G . .
H41F H -0.7327 0.8173 0.5448 0.235 Uiso 1 1 calc R . .
N6B N -0.7233(6) 0.8016(3) 0.5614(11) 0.27(2) Uiso 1 1 d G . .
C42B C -0.7290(7) 0.7931(2) 0.5929(13) 0.33(4) Uiso 1 1 d G . .
H42F H -0.7199 0.7863 0.5895 0.398 Uiso 1 1 calc R . .
C43B C -0.7481(6) 0.79452(19) 0.6294(11) 0.155(12) Uiso 1 1 d G . .
H43B H -0.7521 0.7887 0.6509 0.186 Uiso 1 1 calc R . .
C44B C -0.7615(5) 0.8044(2) 0.6343(10) 0.23(2) Uiso 1 1 d G . .
H44B H -0.7746 0.8054 0.6592 0.272 Uiso 1 1 calc R . .
N1C N -0.6803(5) 1.0682(2) 0.7790(8) 0.179(11) Uiso 1 1 d G . .
C1C C -0.7007(5) 1.07545(16) 0.7663(9) 0.157(12) Uiso 1 1 d G . .
H1C H -0.7032 1.0820 0.7843 0.188 Uiso 1 1 calc R . .
C2C C -0.7176(5) 1.07318(19) 0.7273(10) 0.157(12) Uiso 1 1 d G . .
H2C H -0.7315 1.0781 0.7186 0.188 Uiso 1 1 calc R . .
C3C C -0.7140(5) 1.0636(2) 0.7010(8) 0.181(15) Uiso 1 1 d G . .
H3C H -0.7255 1.0621 0.6743 0.217 Uiso 1 1 calc R . .
C4C C -0.6936(6) 1.05639(17) 0.7137(10) 0.178(14) Uiso 1 1 d G . .
C5C C -0.6767(5) 1.05866(18) 0.7527(10) 0.168(13) Uiso 1 1 d G . .
H5C H -0.6627 1.0537 0.7614 0.201 Uiso 1 1 calc R . .
C6C C -0.6869(5) 1.04446(14) 0.6862(8) 0.134(10) Uiso 1 1 d G . .
C7C C -0.6936(4) 1.04427(13) 0.6374(8) 0.134(10) Uiso 1 1 d G . .
H7C H -0.6986 1.0508 0.6215 0.161 Uiso 1 1 calc R . .
N2C N -0.6929(4) 1.03452(17) 0.6120(6) 0.136(8) Uiso 1 1 d G . .
C8C C -0.6855(4) 1.02495(13) 0.6353(8) 0.174(14) Uiso 1 1 d G . .
H8C H -0.6850 1.0183 0.6180 0.208 Uiso 1 1 calc R . .
C9C C -0.6788(4) 1.02514(14) 0.6841(8) 0.106(8) Uiso 1 1 d G . .
C10C C -0.6795(5) 1.03489(19) 0.7096(6) 0.186(15) Uiso 1 1 d G . .
H10K H -0.6749 1.0350 0.7429 0.224 Uiso 1 1 calc R . .
C11C C -0.6698(4) 1.01371(10) 0.7091(8) 0.147(11) Uiso 1 1 d G . .
C12C C -0.6571(4) 1.01437(11) 0.7538(8) 0.136(10) Uiso 1 1 d G . .
H12P H -0.6546 1.0212 0.7689 0.163 Uiso 1 1 calc R . .
N3C N -0.6479(5) 1.00497(14) 0.7765(6) 0.184(12) Uiso 1 1 d G . .
C13C C -0.6515(4) 0.99490(11) 0.7544(5) 0.144(11) Uiso 1 1 d G . .
H13C H -0.6452 0.9885 0.7699 0.172 Uiso 1 1 calc R . .
C14C C -0.6642(2) 0.99425(10) 0.7097(5) 0.110(8) Uiso 1 1 d G . .
C15C C -0.6734(4) 1.00365(12) 0.6871(6) 0.125(9) Uiso 1 1 d G . .
H15C H -0.6821 1.0032 0.6565 0.150 Uiso 1 1 calc R . .
C16C C -0.6637(4) 0.98426(11) 0.6824(6) 0.133(10) Uiso 1 1 d G . .
H16E H -0.6543 0.9856 0.6512 0.160 Uiso 1 1 calc R . .
H16F H -0.6826 0.9820 0.6750 0.160 Uiso 1 1 calc R . .
O1C O -0.6501(4) 0.97548(10) 0.7076(8) 0.169(8) Uiso 1 1 d G . .
C17C C -0.6502(6) 0.96370(14) 0.6898(9) 0.202(17) Uiso 1 1 d G . .
C18C C -0.6313(5) 0.9567(2) 0.7102(8) 0.170(13) Uiso 1 1 d G . .
H18C H -0.6194 0.9592 0.7347 0.204 Uiso 1 1 calc R . .
C19C C -0.6299(4) 0.94592(18) 0.6948(9) 0.167(13) Uiso 1 1 d G . .
H19C H -0.6170 0.9411 0.7088 0.200 Uiso 1 1 calc R . .
C20C C -0.6473(5) 0.94220(12) 0.6590(8) 0.124(9) Uiso 1 1 d G . .
C21C C -0.6663(4) 0.94923(16) 0.6385(7) 0.117(9) Uiso 1 1 d G . .
H21G H -0.6782 0.9467 0.6140 0.141 Uiso 1 1 calc R . .
C22C C -0.6677(4) 0.95998(15) 0.6540(9) 0.128(10) Uiso 1 1 d G . .
H22G H -0.6806 0.9648 0.6400 0.153 Uiso 1 1 calc R . .
C23C C -0.6477(5) 0.92956(12) 0.6445(9) 0.153(12) Uiso 1 1 d G . .
C24C C -0.6382(5) 0.92228(16) 0.6790(7) 0.127(9) Uiso 1 1 d G . .
H24C H -0.6326 0.9248 0.7099 0.152 Uiso 1 1 calc R . .
C25C C -0.6368(4) 0.91123(15) 0.6684(7) 0.131(10) Uiso 1 1 d G . .
H25C H -0.6303 0.9063 0.6920 0.157 Uiso 1 1 calc R . .
C26C C -0.6450(4) 0.90747(12) 0.6233(8) 0.125(10) Uiso 1 1 d G . .
C27C C -0.6544(4) 0.91476(17) 0.5888(7) 0.134(10) Uiso 1 1 d G . .
H27C H -0.6600 0.9122 0.5579 0.161 Uiso 1 1 calc R . .
C28C C -0.6558(5) 0.92580(15) 0.5994(8) 0.138(11) Uiso 1 1 d G . .
H28C H -0.6623 0.9308 0.5758 0.166 Uiso 1 1 calc R . .
O2C O -0.6475(4) 0.89595(15) 0.6083(7) 0.128(6) Uiso 1 1 d . . .
C29C C -0.6428(8) 0.88703(19) 0.6409(13) 0.155(12) Uiso 1 1 d D . .
H29E H -0.6538 0.8883 0.6703 0.186 Uiso 1 1 calc R . .
H29F H -0.6234 0.8872 0.6507 0.186 Uiso 1 1 calc R . .
C30C C -0.6492(4) 0.87556(13) 0.6217(8) 0.149(12) Uiso 1 1 d GD . .
C31C C -0.6653(4) 0.87508(13) 0.5805(7) 0.108(8) Uiso 1 1 d G . .
H31G H -0.6710 0.8816 0.5652 0.129 Uiso 1 1 calc R . .
N4C N -0.6729(4) 0.86506(17) 0.5617(7) 0.153(9) Uiso 1 1 d G . .
C32C C -0.6645(5) 0.85551(12) 0.5841(9) 0.163(13) Uiso 1 1 d G . .
H32G H -0.6698 0.8487 0.5712 0.196 Uiso 1 1 calc R . .
C33C C -0.6484(5) 0.85599(13) 0.6253(8) 0.138(10) Uiso 1 1 d G . .
C34C C -0.6407(4) 0.86602(18) 0.6441(7) 0.133(10) Uiso 1 1 d G . .
H34C H -0.6297 0.8663 0.6723 0.160 Uiso 1 1 calc R . .
C35C C -0.6375(4) 0.84473(12) 0.6501(7) 0.108(8) Uiso 1 1 d G . .
C36C C -0.6322(4) 0.84413(13) 0.6994(7) 0.137(10) Uiso 1 1 d G . .
H36C H -0.6315 0.8506 0.7182 0.164 Uiso 1 1 calc R . .
N5C N -0.6280(4) 0.83407(17) 0.7212(6) 0.145(9) Uiso 1 1 d G . .
C37C C -0.6292(4) 0.82462(12) 0.6936(8) 0.130(10) Uiso 1 1 d G . .
H37C H -0.6263 0.8177 0.7085 0.156 Uiso 1 1 calc R . .
C38C C -0.6345(4) 0.82522(12) 0.6444(7) 0.144(11) Uiso 1 1 d G . .
C39C C -0.6386(4) 0.83528(16) 0.6226(6) 0.116(9) Uiso 1 1 d G . .
H39C H -0.6423 0.8357 0.5889 0.139 Uiso 1 1 calc R . .
C40C C -0.6370(5) 0.81389(15) 0.6132(9) 0.142(11) Uiso 1 1 d G . .
C41C C -0.6579(5) 0.8130(2) 0.5797(10) 0.206(17) Uiso 1 1 d G . .
H41G H -0.6700 0.8189 0.5748 0.248 Uiso 1 1 calc R . .
N6C N -0.6610(5) 0.8034(2) 0.5534(9) 0.198(13) Uiso 1 1 d G . .
C42C C -0.6432(6) 0.79477(19) 0.5606(10) 0.23(2) Uiso 1 1 d G . .
H42G H -0.6453 0.7882 0.5426 0.276 Uiso 1 1 calc R . .
C43C C -0.6223(5) 0.79570(17) 0.5941(11) 0.188(16) Uiso 1 1 d G . .
H43C H -0.6101 0.7898 0.5990 0.226 Uiso 1 1 calc R . .
C44C C -0.6192(4) 0.8053(2) 0.6204(8) 0.129(10) Uiso 1 1 d G . .
H44C H -0.6049 0.8059 0.6433 0.154 Uiso 1 1 calc R . .
N1D N -0.6838(4) 1.06732(17) 0.8896(8) 0.161(10) Uiso 1 1 d G . .
C1D C -0.6948(5) 1.07565(13) 0.9174(10) 0.177(14) Uiso 1 1 d G . .
H1D H -0.6874 1.0828 0.9154 0.212 Uiso 1 1 calc R . .
C2D C -0.7165(6) 1.07355(19) 0.9480(9) 0.182(15) Uiso 1 1 d G . .
H2D H -0.7241 1.0793 0.9669 0.218 Uiso 1 1 calc R . .
C3D C -0.7273(5) 1.0631(2) 0.9508(9) 0.193(16) Uiso 1 1 d G . .
H3D H -0.7422 1.0617 0.9718 0.232 Uiso 1 1 calc R . .
C4D C -0.7163(5) 1.05478(16) 0.9231(9) 0.167(13) Uiso 1 1 d G . .
C5D C -0.6945(4) 1.05688(14) 0.8925(7) 0.103(8) Uiso 1 1 d G . .
H5D H -0.6870 1.0512 0.8735 0.123 Uiso 1 1 calc R . .
C6D C -0.7310(4) 1.04301(11) 0.9207(7) 0.112(8) Uiso 1 1 d G . .
C7D C -0.7590(3) 1.04199(11) 0.9239(7) 0.113(9) Uiso 1 1 d G . .
H7D H -0.7700 1.0483 0.9277 0.136 Uiso 1 1 calc R . .
N2D N -0.7710(3) 1.03175(13) 0.9216(7) 0.114(7) Uiso 1 1 d G . .
C8D C -0.7549(3) 1.02254(10) 0.9161(7) 0.104(8) Uiso 1 1 d G . .
H8D H -0.7631 1.0155 0.9145 0.125 Uiso 1 1 calc R . .
C9D C -0.7268(3) 1.02357(12) 0.9128(7) 0.110(8) Uiso 1 1 d G . .
C10D C -0.7149(3) 1.03380(14) 0.9152(7) 0.123(9) Uiso 1 1 d G . .
H10L H -0.6957 1.0345 0.9130 0.148 Uiso 1 1 calc R . .
C11D C -0.7093(4) 1.01231(12) 0.9073(7) 0.123(9) Uiso 1 1 d G . .
C12D C -0.6839(4) 1.01360(11) 0.8862(7) 0.108(8) Uiso 1 1 d G . .
H12Q H -0.6775 1.0207 0.8784 0.130 Uiso 1 1 calc R . .
N3D N -0.6679(3) 1.00454(15) 0.8766(7) 0.141(8) Uiso 1 1 d G . .
C13D C -0.6773(4) 0.99418(12) 0.8880(7) 0.108(8) Uiso 1 1 d G . .
H13D H -0.6664 0.9880 0.8814 0.130 Uiso 1 1 calc R . .
C14D C -0.7027(4) 0.99290(11) 0.9090(7) 0.120(9) Uiso 1 1 d G . .
C15D C -0.7187(3) 1.00196(14) 0.9187(7) 0.101(8) Uiso 1 1 d G . .
H15D H -0.7361 1.0011 0.9331 0.121 Uiso 1 1 calc R . .
C16D C -0.7152(7) 0.9819(2) 0.9127(13) 0.143(11) Uiso 1 1 d . . .
H16G H -0.7235 0.9798 0.8814 0.171 Uiso 1 1 calc R . .
H16H H -0.7296 0.9818 0.9377 0.171 Uiso 1 1 calc R . .
O1D O -0.6925(5) 0.97361(17) 0.9265(9) 0.158(8) Uiso 1 1 d . . .
C17D C -0.6990(5) 0.96152(12) 0.9158(8) 0.120(9) Uiso 1 1 d G . .
C18D C -0.7247(4) 0.95777(17) 0.9030(9) 0.159(12) Uiso 1 1 d G . .
H18D H -0.7394 0.9627 0.9005 0.191 Uiso 1 1 calc R . .
C19D C -0.7288(4) 0.94677(19) 0.8939(9) 0.154(12) Uiso 1 1 d G . .
H19D H -0.7463 0.9442 0.8852 0.185 Uiso 1 1 calc R . .
C20D C -0.7072(5) 0.93951(13) 0.8976(9) 0.177(14) Uiso 1 1 d G . .
C21D C -0.6816(4) 0.94325(16) 0.9104(9) 0.132(10) Uiso 1 1 d G . .
H21H H -0.6669 0.9383 0.9129 0.158 Uiso 1 1 calc R . .
C22D C -0.6775(4) 0.95426(17) 0.9195(8) 0.157(12) Uiso 1 1 d G . .
H22H H -0.6600 0.9568 0.9282 0.189 Uiso 1 1 calc R . .
C23D C -0.7106(5) 0.92635(13) 0.8892(8) 0.117(9) Uiso 1 1 d G . .
C24D C -0.7363(4) 0.92182(19) 0.8848(11) 0.220(19) Uiso 1 1 d G . .
H24D H -0.7518 0.9264 0.8834 0.264 Uiso 1 1 calc R . .
C25D C -0.7393(4) 0.9106(2) 0.8824(11) 0.24(2) Uiso 1 1 d G . .
H25D H -0.7569 0.9075 0.8794 0.283 Uiso 1 1 calc R . .
C26D C -0.7166(6) 0.90388(13) 0.8844(9) 0.121(9) Uiso 1 1 d G . .
C27D C -0.6909(5) 0.90841(17) 0.8888(9) 0.187(15) Uiso 1 1 d G . .
H27D H -0.6754 0.9038 0.8901 0.224 Uiso 1 1 calc R . .
C28D C -0.6879(4) 0.91964(18) 0.8912(9) 0.149(12) Uiso 1 1 d G . .
H28D H -0.6703 0.9227 0.8942 0.179 Uiso 1 1 calc R . .
O2D O -0.7229(6) 0.8933(2) 0.8721(11) 0.193(10) Uiso 1 1 d . . .
C29D C -0.7030(8) 0.8845(2) 0.8745(17) 0.180(15) Uiso 1 1 d D . .
H29G H -0.6922 0.8854 0.9044 0.216 Uiso 1 1 calc R . .
H29H H -0.6904 0.8853 0.8468 0.216 Uiso 1 1 calc R . .
C30D C -0.7149(5) 0.87305(14) 0.8738(9) 0.159(12) Uiso 1 1 d GD . .
C31D C -0.7373(4) 0.87231(11) 0.9043(7) 0.121(9) Uiso 1 1 d G . .
H31H H -0.7449 0.8787 0.9179 0.145 Uiso 1 1 calc R . .
N4D N -0.7485(3) 0.86220(13) 0.9147(6) 0.108(7) Uiso 1 1 d G . .
C32D C -0.7374(4) 0.85283(10) 0.8948(7) 0.099(8) Uiso 1 1 d G . .
H32H H -0.7450 0.8459 0.9019 0.118 Uiso 1 1 calc R . .
C33D C -0.7150(4) 0.85357(15) 0.8643(8) 0.138(11) Uiso 1 1 d G . .
C34D C -0.7038(4) 0.8637(2) 0.8539(9) 0.193(16) Uiso 1 1 d G . .
H34D H -0.6885 0.8642 0.8331 0.232 Uiso 1 1 calc R . .
C35D C -0.7013(4) 0.84220(13) 0.8452(8) 0.119(9) Uiso 1 1 d G . .
C36D C -0.6749(4) 0.84294(14) 0.8276(8) 0.133(10) Uiso 1 1 d G . .
H36D H -0.6662 0.8498 0.8256 0.160 Uiso 1 1 calc R . .
N5D N -0.6612(4) 0.83360(19) 0.8131(9) 0.188(12) Uiso 1 1 d G . .
C37D C -0.6739(5) 0.82352(15) 0.8160(9) 0.147(11) Uiso 1 1 d G . .
H37D H -0.6646 0.8171 0.8061 0.176 Uiso 1 1 calc R . .
C38D C -0.7003(5) 0.82278(12) 0.8335(8) 0.149(12) Uiso 1 1 d G . .
C39D C -0.7140(4) 0.83212(17) 0.8481(8) 0.124(9) Uiso 1 1 d G . .
H39D H -0.7320 0.8316 0.8601 0.148 Uiso 1 1 calc R . .
C40D C -0.7183(5) 0.81141(19) 0.8305(11) 0.179(14) Uiso 1 1 d G . .
C41D C -0.7358(5) 0.80899(16) 0.8683(9) 0.144(11) Uiso 1 1 d G . .
H41H H -0.7384 0.8141 0.8938 0.173 Uiso 1 1 calc R . .
N6D N -0.7496(5) 0.79913(18) 0.8689(9) 0.157(10) Uiso 1 1 d GD . .
C42D C -0.7459(6) 0.79168(16) 0.8317(11) 0.29(3) Uiso 1 1 d G . .
H42H H -0.7554 0.7849 0.8321 0.350 Uiso 1 1 calc R . .
C43D C -0.7283(7) 0.7941(2) 0.7938(9) 0.197(16) Uiso 1 1 d G . .
H43D H -0.7258 0.7890 0.7684 0.236 Uiso 1 1 calc R . .
C44D C -0.7145(6) 0.8040(3) 0.7932(10) 0.25(2) Uiso 1 1 d G . .
H44D H -0.7025 0.8056 0.7673 0.302 Uiso 1 1 calc R . .
O1G O -0.6984(5) 0.97438(16) 0.8051(9) 0.146(7) Uiso 1 1 d . . .
O2G O -0.7211(5) 0.9636(2) 0.7455(10) 0.170(9) Uiso 1 1 d . . .
O3G O -0.7112(5) 0.9345(2) 0.7582(10) 0.170(8) Uiso 1 1 d . . .
O4G O -0.7201(5) 0.9049(2) 0.7464(9) 0.166(8) Uiso 1 1 d . . .
O5G O -0.6811(7) 0.8958(2) 0.7437(11) 0.198(10) Uiso 1 1 d . . .
C1G C -0.7285(6) 0.9833(3) 0.7544(14) 0.162(13) Uiso 1 1 d D . .
C2G C -0.7304(5) 0.9930(3) 0.7654(14) 0.160(13) Uiso 1 1 d D . .
H2G H -0.7230 0.9934 0.7971 0.192 Uiso 1 1 calc R . .
C3G C -0.7378(5) 1.0039(2) 0.7554(12) 0.123(10) Uiso 1 1 d D . .
C4G C -0.7383(6) 1.0140(2) 0.7754(11) 0.114(9) Uiso 1 1 d D . .
H4G H -0.7316 1.0143 0.8075 0.136 Uiso 1 1 calc R . .
C5G C -0.7468(6) 1.0235(2) 0.7572(13) 0.127(10) Uiso 1 1 d D . .
C6G C -0.7456(8) 1.0352(3) 0.7782(17) 0.177(14) Uiso 1 1 d D . .
H6G H -0.7401 1.0359 0.8109 0.212 Uiso 1 1 calc R . .
C7G C -0.7520(7) 1.0446(3) 0.7530(15) 0.158(13) Uiso 1 1 d D . .
H7G H -0.7482 1.0516 0.7661 0.190 Uiso 1 1 calc R . .
C8G C -0.7641(9) 1.0434(4) 0.7083(19) 0.201(17) Uiso 1 1 d D . .
H8G H -0.7707 1.0498 0.6927 0.241 Uiso 1 1 calc R . .
C9G C -0.7672(8) 1.0329(3) 0.6833(15) 0.160(12) Uiso 1 1 d D . .
H9G H -0.7752 1.0323 0.6521 0.192 Uiso 1 1 calc R . .
C10G C -0.7574(7) 1.0234(3) 0.7094(14) 0.142(11) Uiso 1 1 d D . .
C11G C -0.7599(7) 1.0128(3) 0.6779(15) 0.162(13) Uiso 1 1 d D . .
H11M H -0.7661 1.0125 0.6454 0.195 Uiso 1 1 calc R . .
C12G C -0.7507(7) 1.0031(3) 0.7079(14) 0.147(11) Uiso 1 1 d D . .
C13G C -0.7514(8) 0.9915(3) 0.6795(16) 0.167(13) Uiso 1 1 d D . .
H13G H -0.7572 0.9908 0.6469 0.200 Uiso 1 1 calc R . .
C14G C -0.7435(7) 0.9834(3) 0.7051(14) 0.151(12) Uiso 1 1 d D . .
H14G H -0.7473 0.9764 0.6919 0.181 Uiso 1 1 calc R . .
C15G C -0.7153(7) 0.9739(2) 0.7696(13) 0.128(10) Uiso 1 1 d D . .
C16G C -0.7098(9) 0.9536(3) 0.7575(16) 0.180(15) Uiso 1 1 d . . .
H16I H -0.6921 0.9531 0.7406 0.216 Uiso 1 1 calc R . .
H16J H -0.7058 0.9538 0.7926 0.216 Uiso 1 1 calc R . .
C17G C -0.7230(7) 0.9443(3) 0.7489(14) 0.146(11) Uiso 1 1 d . . .
H17A H -0.7281 0.9444 0.7143 0.175 Uiso 1 1 calc R . .
H17B H -0.7401 0.9446 0.7677 0.175 Uiso 1 1 calc R . .
C18G C -0.7270(9) 0.9255(3) 0.7466(16) 0.176(14) Uiso 1 1 d . . .
H18E H -0.7357 0.9267 0.7147 0.211 Uiso 1 1 calc R . .
H18F H -0.7415 0.9247 0.7710 0.211 Uiso 1 1 calc R . .
C19G C -0.7085(11) 0.9143(4) 0.7446(19) 0.210(18) Uiso 1 1 d . . .
H19E H -0.6978 0.9145 0.7144 0.253 Uiso 1 1 calc R . .
H19F H -0.6955 0.9146 0.7717 0.253 Uiso 1 1 calc R . .
C20G C -0.7083(9) 0.8953(3) 0.7457(14) 0.157(12) Uiso 1 1 d . . .
C21G C -0.7208(8) 0.8848(3) 0.7431(10) 0.152(12) Uiso 1 1 d D . .
C22G C -0.7113(8) 0.8758(3) 0.7295(11) 0.176(14) Uiso 1 1 d D . .
H22I H -0.6937 0.8765 0.7160 0.211 Uiso 1 1 calc R . .
C23G C -0.7209(6) 0.8641(2) 0.7293(8) 0.130(10) Uiso 1 1 d D . .
C24G C -0.7088(6) 0.8546(2) 0.7126(10) 0.120(9) Uiso 1 1 d D . .
H24G H -0.6908 0.8544 0.7004 0.144 Uiso 1 1 calc R . .
C25G C -0.7256(7) 0.8449(2) 0.7152(11) 0.130(10) Uiso 1 1 d D . .
C26G C -0.7112(7) 0.8348(3) 0.7037(12) 0.141(11) Uiso 1 1 d D . .
H26G H -0.6923 0.8353 0.6969 0.169 Uiso 1 1 calc R . .
C27G C -0.7224(8) 0.8247(3) 0.7018(14) 0.170(14) Uiso 1 1 d D . .
H27G H -0.7146 0.8188 0.6846 0.203 Uiso 1 1 calc R . .
C28G C -0.7505(9) 0.8237(4) 0.7317(16) 0.192(15) Uiso 1 1 d D . .
H28G H -0.7574 0.8167 0.7397 0.230 Uiso 1 1 calc R . .
C29G C -0.7655(11) 0.8333(4) 0.7466(16) 0.205(17) Uiso 1 1 d D . .
H29I H -0.7829 0.8330 0.7616 0.246 Uiso 1 1 calc R . .
C30G C -0.7505(7) 0.8441(2) 0.7356(12) 0.128(10) Uiso 1 1 d D . .
C31G C -0.7615(8) 0.8546(3) 0.7547(13) 0.159(13) Uiso 1 1 d D . .
H31I H -0.7786 0.8542 0.7705 0.191 Uiso 1 1 calc R . .
C32G C -0.7505(6) 0.8645(2) 0.7523(11) 0.121(9) Uiso 1 1 d D . .
C33G C -0.7617(9) 0.8757(3) 0.7658(13) 0.165(13) Uiso 1 1 d D . .
H33G H -0.7801 0.8760 0.7758 0.199 Uiso 1 1 calc R . .
C34G C -0.7477(8) 0.8850(3) 0.7646(13) 0.159(13) Uiso 1 1 d D . .
H34G H -0.7551 0.8915 0.7775 0.191 Uiso 1 1 calc R . .
N1X N -0.3750(9) 0.8783(4) 1.5240(14) 0.62(9) Uiso 1 1 d D . .
O11X O -0.3666(10) 0.8743(4) 1.5673(15) 0.36(3) Uiso 1 1 d D . .
O12X O -0.3690(8) 0.8720(3) 1.4866(13) 0.277(17) Uiso 1 1 d D . .
O13X O -0.3967(6) 0.8835(2) 1.5256(10) 0.193(10) Uiso 1 1 d D . .
N2X N -0.3910(6) 0.7130(3) 1.5943(16) 0.235(17) Uiso 1 1 d D . .
O21X O -0.3802(7) 0.7030(3) 1.5925(17) 0.281(17) Uiso 1 1 d D . .
O22X O -0.4161(5) 0.71345(19) 1.5793(10) 0.185(9) Uiso 1 1 d D . .
O23X O -0.3752(7) 0.7211(3) 1.5940(18) 0.291(19) Uiso 1 1 d D . .
N3X N -0.3842(8) 0.7726(3) 1.7190(13) 0.243(18) Uiso 1 1 d D . .
O31X O -0.3850(8) 0.7797(2) 1.7555(12) 0.250(14) Uiso 1 1 d D . .
O32X O -0.3903(8) 0.7625(2) 1.7313(13) 0.253(15) Uiso 1 1 d D . .
O33X O -0.3689(8) 0.7741(3) 1.6836(12) 0.247(14) Uiso 1 1 d D . .
N4X N -0.4680(7) 0.7393(2) 1.1410(9) 0.198(13) Uiso 1 1 d D . .
O41X O -0.4702(6) 0.74849(19) 1.1153(9) 0.202(10) Uiso 1 1 d D . .
O42X O -0.4723(6) 0.73039(18) 1.1158(9) 0.194(10) Uiso 1 1 d D . .
O43X O -0.4694(5) 0.73997(15) 1.1862(8) 0.149(7) Uiso 1 1 d D . .
N5X N -0.5442(6) 0.7442(2) 1.8083(11) 0.213(14) Uiso 1 1 d D . .
O51X O -0.5704(6) 0.7410(3) 1.8125(16) 0.301(19) Uiso 1 1 d D . .
O52X O -0.5402(5) 0.75381(19) 1.8288(9) 0.180(9) Uiso 1 1 d D . .
O53X O -0.5315(4) 0.74115(15) 1.7713(8) 0.146(7) Uiso 1 1 d D . .
N6X N -0.5686(5) 0.6916(2) 1.7279(10) 0.172(11) Uiso 1 1 d D . .
O61X O -0.5604(6) 0.6893(2) 1.6825(9) 0.206(11) Uiso 1 1 d D . .
O62X O -0.5929(5) 0.6886(2) 1.7406(10) 0.195(10) Uiso 1 1 d D . .
O63X O -0.5520(5) 0.69565(18) 1.7566(8) 0.160(8) Uiso 1 1 d D . .
N7X N -0.5352(6) 0.9217(3) 1.6985(11) 0.200(13) Uiso 1 1 d D . .
O71X O -0.5225(7) 0.9291(3) 1.7267(12) 0.256(15) Uiso 1 1 d D . .
O72X O -0.5613(6) 0.9201(3) 1.7082(12) 0.242(14) Uiso 1 1 d D . .
O73X O -0.5275(5) 0.92006(18) 1.6563(9) 0.168(8) Uiso 1 1 d D . .
N8X N -0.2523(15) 0.7673(5) 1.584(2) 0.36(3) Uiso 0.61(5) 1 d PD . .
O81X O -0.261(2) 0.7641(7) 1.628(3) 0.36(3) Uiso 0.61(5) 1 d PD . .
O82X O -0.2437(19) 0.7775(5) 1.583(3) 0.36(3) Uiso 0.61(5) 1 d PD . .
O83X O -0.261(2) 0.7623(6) 1.548(3) 0.36(3) Uiso 0.61(5) 1 d PD . .
N9X N -0.3293(9) 0.7083(3) 1.2121(15) 0.241(17) Uiso 1 1 d D . .
O91X O -0.3311(15) 0.7139(5) 1.1704(19) 0.41(3) Uiso 1 1 d D . .
O92X O -0.320(2) 0.7139(6) 1.249(2) 0.58(6) Uiso 1 1 d D . .
O93X O -0.3415(10) 0.6995(3) 1.2177(16) 0.284(18) Uiso 1 1 d D . .
N0X N -0.4471(5) 0.6884(2) 1.2248(10) 0.154(9) Uiso 1 1 d D . .
O01X O -0.4266(9) 0.6821(4) 1.2086(15) 0.35(2) Uiso 1 1 d D . .
O02X O -0.4580(6) 0.6946(2) 1.1912(9) 0.189(9) Uiso 1 1 d D . .
O03X O -0.4474(7) 0.6904(2) 1.2690(10) 0.222(12) Uiso 1 1 d D . .
N1Y N -0.4932(11) 0.8251(4) 0.107(2) 0.419(19) Uiso 1 1 d D . .
O11Y O -0.4925(14) 0.8361(4) 0.110(3) 0.419(19) Uiso 1 1 d D . .
O12Y O -0.4728(13) 0.8197(5) 0.126(2) 0.419(19) Uiso 1 1 d D . .
O13Y O -0.5062(13) 0.8213(5) 0.073(2) 0.419(19) Uiso 1 1 d D . .
N2Y N -0.3680(13) 0.9460(4) 1.6302(19) 0.266(19) Uiso 0.68(4) 1 d PD . .
O21Y O -0.3563(12) 0.9429(4) 1.5881(18) 0.266(19) Uiso 0.68(4) 1 d PD . .
O22Y O -0.3772(12) 0.9560(3) 1.630(2) 0.266(19) Uiso 0.68(4) 1 d PD . .
O23Y O -0.3755(12) 0.9390(4) 1.6601(18) 0.266(19) Uiso 0.68(4) 1 d PD . .
N3Y N -0.635(2) 0.7410(5) 1.542(3) 0.54(3) Uiso 1 1 d D . .
O31Y O -0.629(2) 0.7319(6) 1.567(3) 0.54(3) Uiso 1 1 d D . .
O32Y O -0.6535(18) 0.7398(7) 1.508(3) 0.54(3) Uiso 1 1 d D . .
O33Y O -0.626(2) 0.7500(6) 1.557(4) 0.54(3) Uiso 1 1 d D . .
N4Y N -0.5902(9) 0.8763(3) 1.4260(16) 0.344(14) Uiso 1 1 d D . .
O41Y O -0.6172(8) 0.8752(4) 1.437(2) 0.344(14) Uiso 1 1 d D . .
O42Y O -0.5791(10) 0.8847(3) 1.448(2) 0.344(14) Uiso 1 1 d D . .
O43Y O -0.5770(10) 0.8674(3) 1.430(2) 0.344(14) Uiso 1 1 d D . .
N5Y N -0.2187(12) 0.7786(5) 1.801(2) 0.33(3) Uiso 0.62(4) 1 d PD . .
O51Y O -0.2460(12) 0.7777(6) 1.807(3) 0.33(3) Uiso 0.62(4) 1 d PD . .
O52Y O -0.2115(15) 0.7872(6) 1.775(3) 0.33(3) Uiso 0.62(4) 1 d PD . .
O53Y O -0.2042(14) 0.7755(6) 1.836(3) 0.33(3) Uiso 0.62(4) 1 d PD . .
N5" N -0.7625(19) 0.7380(6) 1.432(3) 0.38(3) Uiso 0.50 1 d PD A 2
O51" O -0.763(3) 0.7410(9) 1.480(3) 0.38(3) Uiso 0.50 1 d PD A 2
O52" O -0.768(3) 0.7277(7) 1.424(4) 0.38(3) Uiso 0.50 1 d PD A 2
O53" O -0.749(3) 0.7437(7) 1.404(4) 0.38(3) Uiso 0.50 1 d PD . 2
N7Y N -0.7409(7) 0.9265(2) 1.1087(13) 0.216(15) Uiso 1 1 d D . .
O71Y O -0.7407(11) 0.9155(3) 1.102(2) 0.35(3) Uiso 1 1 d D . .
O72Y O -0.7260(8) 0.9298(3) 1.1447(14) 0.282(17) Uiso 1 1 d D . .
O73Y O -0.7598(7) 0.9320(2) 1.0919(12) 0.228(12) Uiso 1 1 d D . .
N8Y N -0.6023(15) 0.9502(6) 1.396(3) 0.60(3) Uiso 1 1 d D . .
O81Y O -0.589(2) 0.9550(9) 1.433(3) 0.60(3) Uiso 1 1 d D . .
O82Y O -0.600(2) 0.9549(9) 1.354(3) 0.60(3) Uiso 1 1 d D . .
O83Y O -0.6229(19) 0.9448(8) 1.407(4) 0.60(3) Uiso 1 1 d D . .
N9Y N -0.5940(15) 0.8104(5) 1.334(3) 0.291(14) Uiso 0.45(2) 1 d PD B 1
O91Y O -0.5937(19) 0.8209(5) 1.348(3) 0.291(14) Uiso 0.45(2) 1 d PD B 1
O92Y O -0.5728(18) 0.8075(7) 1.308(3) 0.291(14) Uiso 0.45(2) 1 d PD B 1
O93Y O -0.6075(17) 0.8036(6) 1.358(3) 0.291(14) Uiso 0.45(2) 1 d PD B 1
N9" N -0.5976(12) 0.8452(5) 0.302(2) 0.291(14) Uiso 0.55(2) 1 d PD B 2
O91" O -0.6056(15) 0.8480(6) 0.256(2) 0.291(14) Uiso 0.55(2) 1 d PD B 2
O92" O -0.6074(15) 0.8515(6) 0.336(2) 0.291(14) Uiso 0.55(2) 1 d PD B 2
O93" O -0.5743(13) 0.8411(6) 0.305(3) 0.291(14) Uiso 0.55(2) 1 d PD B 2
N0Y N -0.6901(8) 0.8350(4) 0.5024(13) 0.22(2) Uiso 0.80(4) 1 d PD . .
O01Y O -0.7011(6) 0.8342(2) 0.5466(12) 0.177(13) Uiso 0.80(4) 1 d PD . .
O02Y O -0.6636(8) 0.8341(4) 0.4989(16) 0.25(2) Uiso 0.80(4) 1 d PD . .
O03Y O -0.7052(12) 0.8353(8) 0.4661(16) 0.44(5) Uiso 0.80(4) 1 d PD . .
N2Z N -0.455(2) 1.0292(5) 1.514(4) 0.48(2) Uiso 1 1 d D . .
O21Z O -0.4453(18) 1.0200(7) 1.537(3) 0.48(2) Uiso 1 1 d D . .
O22Z O -0.413(2) 0.9999(7) 1.475(3) 0.48(2) Uiso 1 1 d . . .
O23Z O -0.4681(18) 1.0276(7) 1.477(3) 0.48(2) Uiso 1 1 d D . .
N3Z N -0.5415(17) 0.8876(7) 0.954(5) 0.72(5) Uiso 1 1 d D . .
O31Z O -0.565(2) 0.8824(11) 0.945(6) 0.72(5) Uiso 1 1 d D . .
O32Z O -0.540(3) 0.8975(7) 0.936(6) 0.72(5) Uiso 1 1 d D . .
O33Z O -0.522(2) 0.8824(11) 0.970(6) 0.72(5) Uiso 1 1 d D . .
O1S O -0.6805(11) 0.7909(4) 1.036(2) 0.32(2) Uiso 1 1 d . . .
O2S O -0.815(2) 0.8268(8) 0.506(4) 0.32(6) Uiso 0.50(8) 1 d P . .
O2T O -0.7743(17) 0.8274(6) 0.500(3) 0.26(5) Uiso 0.50(8) 1 d P . .
O3S O -0.7094(17) 0.8394(6) 0.974(3) 0.45(4) Uiso 1 1 d . . .
O4S O -0.6267(12) 0.8924(4) 0.879(2) 0.34(2) Uiso 1 1 d . . .
O5S O -0.5740(7) 0.8588(2) 1.7247(12) 0.221(12) Uiso 1 1 d . . .
O6S O -0.586(2) 0.9981(9) 1.627(4) 0.56(6) Uiso 1 1 d . . .
O7S O -0.3829(15) 0.9631(6) 1.733(3) 0.40(3) Uiso 1 1 d . . .
O8S O -0.4225(7) 0.7527(3) 1.1943(13) 0.230(12) Uiso 1 1 d . . .
O9S O -0.1053(15) 0.7576(5) 1.321(3) 0.39(3) Uiso 1 1 d . . .
O11S O -0.5115(18) 0.8749(6) 0.055(3) 0.45(4) Uiso 1 1 d . . .
O13S O -0.6209(11) 0.7684(5) 1.564(2) 0.13(4) Uiso 0.37(8) 1 d P . .
O13T O -0.6151(12) 0.7594(6) 1.580(2) 0.24(3) Uiso 0.63(8) 1 d P . .
O14S O -0.6401(9) 0.6989(3) 1.2350(17) 0.277(17) Uiso 1 1 d . . .
O15S O -0.6530(6) 0.9321(2) 0.7966(12) 0.211(11) Uiso 1 1 d . . .
O17S O -0.3998(11) 0.7308(4) 1.718(2) 0.12(4) Uiso 0.35(8) 1 d P . .
O17T O -0.384(2) 0.7211(10) 1.710(4) 0.40(6) Uiso 0.65(8) 1 d P . .
O19S O -0.5377(12) 0.8627(4) 1.717(2) 0.35(2) Uiso 1 1 d . . .
O20S O -0.587(2) 0.9717(9) 0.828(4) 0.53(5) Uiso 1 1 d . . .
O22S O -0.702(2) 0.6424(8) 1.353(4) 0.50(5) Uiso 1 1 d . . .
O23S O -0.5097(13) 0.6466(4) 1.261(2) 0.35(2) Uiso 1 1 d . . .
O24S O -0.2003(13) 0.7052(5) 1.225(2) 0.35(2) Uiso 1 1 d . . .
O25S O -0.7818(16) 0.8121(7) 1.211(3) 0.44(4) Uiso 1 1 d . . .
O26S O -0.7909(15) 0.7877(6) 1.349(3) 0.42(3) Uiso 1 1 d . . .
O27S O -0.5190(14) 0.9054(5) 1.189(3) 0.39(3) Uiso 1 1 d . . .
O29S O -0.7057(18) 0.8219(7) 1.206(3) 0.47(4) Uiso 1 1 d . . .
O30S O -0.6873(11) 0.8956(4) 1.0100(19) 0.31(2) Uiso 1 1 d . . .
O31S O -0.6635(9) 0.8947(3) 1.4699(17) 0.279(17) Uiso 1 1 d . . .
O33S O -0.3652(9) 0.8021(3) 1.5793(16) 0.266(16) Uiso 1 1 d . . .
O34S O -0.765(3) 0.8995(10) 1.516(5) 0.63(7) Uiso 1 1 d . . .
O35S O -0.7816(14) 0.8003(5) 1.173(2) 0.37(3) Uiso 1 1 d . . .
O36S O -0.6198(18) 0.9818(7) 1.631(4) 0.47(4) Uiso 1 1 d . . .
O38S O -0.3887(6) 0.78039(19) 1.5865(10) 0.173(8) Uiso 1 1 d . . .
O39S O -0.5991(6) 0.7177(2) 1.3777(12) 0.131(15) Uiso 0.64(5) 1 d P . .
O39T O -0.6328(14) 0.7099(5) 1.364(3) 0.16(3) Uiso 0.36(5) 1 d P . .
O40S O -0.5566(10) 0.8674(4) -0.1162(18) 0.296(19) Uiso 1 1 d . . .
O42S O -0.6218(11) 0.8586(4) 0.892(2) 0.31(2) Uiso 1 1 d . . .
O43S O -0.8864(9) 1.0893(3) 0.7123(16) 0.276(16) Uiso 1 1 d . . .
O44S O -0.6320(12) 0.9043(4) 0.794(2) 0.35(2) Uiso 1 1 d . . .
O45S O -0.2859(17) 0.8010(6) 1.781(3) 0.44(4) Uiso 1 1 d . . .
O47S O -0.642(2) 0.8057(8) 1.234(4) 0.51(5) Uiso 1 1 d . . .
O48S O -0.6163(15) 0.7796(6) 1.363(3) 0.41(3) Uiso 1 1 d . . .
O49S O -0.3219(12) 0.7694(4) 1.462(2) 0.28(3) Uiso 0.75(6) 1 d P . .
O49T O -0.3412(14) 0.7679(5) 1.569(3) 0.11(4) Uiso 0.25(6) 1 d P . .
O50S O -1.050(2) 1.0173(9) 0.989(4) 0.38(6) Uiso 0.59(8) 1 d P . .
O50T O -0.9978(17) 1.0165(6) 1.060(3) 0.23(5) Uiso 0.41(8) 1 d P . .

loop_
_atom_site_aniso_label
_atom_site_aniso_U_11
_atom_site_aniso_U_22
_atom_site_aniso_U_33
_atom_site_aniso_U_23
_atom_site_aniso_U_13
_atom_site_aniso_U_12
Pd1 0.165(3) 0.1175(17) 0.147(3) 0.0137(16) 0.030(2) -0.0334(15)
Pd2 0.260(5) 0.236(4) 0.164(3) 0.056(3) 0.023(3) 0.097(3)
Pd3 0.191(3) 0.191(3) 0.203(4) -0.008(3) 0.002(3) -0.052(2)
Pd4 0.159(3) 0.272(4) 0.152(3) 0.056(3) -0.006(2) -0.086(3)
Pd5 0.118(2) 0.220(3) 0.147(3) -0.014(2) 0.022(2) 0.038(2)
Pd6 0.130(2) 0.1379(18) 0.115(2) 0.0062(15) 0.0150(16) 0.0362(15)
Pd7 0.0950(19) 0.181(2) 0.156(3) -0.0205(19) 0.0020(18) 0.0026(16)
Pd8 0.1034(19) 0.1440(19) 0.180(3) -0.0204(18) 0.0005(19) 0.0237(14)
Pd9 0.132(2) 0.248(3) 0.159(3) 0.002(2) 0.021(2) -0.008(2)
Pd10 0.170(3) 0.243(4) 0.346(6) 0.137(4) -0.103(4) -0.100(3)
Pd11 0.115(2) 0.167(2) 0.174(3) -0.0003(19) -0.019(2) -0.0438(16)
Pd12 0.192(4) 0.374(7) 0.292(6) -0.181(5) -0.054(4) 0.100(4)

_geom_special_details            
;
All esds (except the esd in the dihedral angle between two l.s. planes)
are estimated using the full covariance matrix. The cell esds are taken
into account individually in the estimation of esds in distances, angles
and torsion angles; correlations between esds in cell parameters are only
used when they are defined by crystal symmetry. An approximate (isotropic)
treatment of cell esds is used for estimating esds involving l.s. planes.
;

loop_
_geom_bond_atom_site_label_1
_geom_bond_atom_site_label_2
_geom_bond_distance
_geom_bond_site_symmetry_2
_geom_bond_publ_flag
Pd1 N12 1.92(3) . ?
Pd1 N11 2.04(3) . ?
Pd1 N2B 2.062(15) . ?
Pd1 N2C 2.138(17) . ?
N11 C11 1.63(8) . ?
C11 C12 1.51(2) . ?
C12 N12 1.46(5) . ?
Pd2 N21 2.00(3) . ?
Pd2 N22 2.00(3) . ?
Pd2 N1B 2.118(19) . ?
Pd2 N1A 2.128(19) . ?
N21 C21 1.47(3) . ?
C21 C22 1.50(3) . ?
C22 N22 1.42(3) . ?
Pd3 N1D 2.017(19) . ?
Pd3 N31 2.02(2) . ?
Pd3 N32 2.02(2) . ?
Pd3 N1C 2.19(2) . ?
N31 C31 1.48(3) . ?
C31 C32 1.52(3) . ?
C32 N32 1.54(3) . ?
Pd4 N41 2.03(3) . ?
Pd4 N42 2.04(3) . ?
Pd4 N3A 2.05(3) . ?
Pd4 N3B 2.053(18) . ?
N41 C41 1.46(4) . ?
C41 C42 1.78(6) . ?
C42 N42 1.53(3) . ?
Pd5 N51 2.013(18) . ?
Pd5 N52 2.02(2) . ?
Pd5 N3D 2.094(14) . ?
Pd5 N3C 2.101(17) . ?
N51 C51 1.48(3) . ?
C51 C52 1.52(3) . ?
C52 N52 1.54(3) . ?
Pd6 N61 1.85(3) . ?
Pd6 N2A 2.087(17) . ?
Pd6 N2D 2.116(14) . ?
Pd6 N62 2.12(3) . ?
N61 C61 1.52(4) . ?
C61 C62 1.36(5) . ?
C62 N62 1.68(5) . ?
Pd7 N71 2.03(3) . ?
Pd7 N4A 2.06(3) . ?
Pd7 N72 2.07(3) . ?
Pd7 N4D 2.079(15) . ?
N71 C71 1.45(4) . ?
C71 C72 1.79(6) . ?
C72 N72 1.53(3) . ?
Pd8 N82 2.026(19) . ?
Pd8 N81 2.052(19) . ?
Pd8 N5C 2.070(16) . ?
Pd8 N5D 2.142(17) . ?
N81 C81 1.47(3) . ?
C81 C82 1.52(3) . ?
C82 N82 1.54(3) . ?
Pd9 N91 2.04(3) . ?
Pd9 N92 2.06(3) . ?
Pd9 N4C 2.079(17) . ?
Pd9 N4B 2.145(16) . ?
N91 C91 1.45(4) . ?
C91 C92 1.78(6) . ?
C92 N92 1.52(3) . ?
Pd10 N101 2.01(3) . ?
Pd10 N102 2.02(3) . ?
Pd10 N6A 2.098(18) . ?
Pd10 N6D 2.10(2) . ?
N101 C101 1.48(3) . ?
C101 C102 1.50(3) . ?
C102 N102 1.42(3) . ?
Pd11 N112 2.020(19) . ?
Pd11 N111 2.041(19) . ?
Pd11 N5A 2.073(15) . ?
Pd11 N5B 2.128(17) . ?
N111 C111 1.48(3) . ?
C111 C112 1.53(3) . ?
C112 N112 1.54(3) . ?
Pd12 N121 1.91(3) . ?
Pd12 N122 2.02(4) . ?
Pd12 N6B 2.12(2) . ?
Pd12 N6C 2.14(2) . ?
N121 C121 1.47(5) . ?
C121 C122 1.47(4) . ?
C122 N122 1.52(4) . ?
N1A C1A 1.3900 . ?
N1A C5A 1.3900 . ?
C1A C2A 1.3900 . ?
C2A C3A 1.3900 . ?
C3A C4A 1.3900 . ?
C4A C5A 1.3900 . ?
C4A C6A 1.59(2) . ?
C6A C7A 1.3900 . ?
C6A C10A 1.3900 . ?
C7A N2A 1.3900 . ?
N2A C8A 1.3900 . ?
C8A C9A 1.3900 . ?
C9A C10A 1.3900 . ?
C9A C11A 1.62(4) . ?
C11A C15A 1.45(4) . ?
C11A C12A 1.45(4) . ?
C12A N3A 1.36(3) . ?
N3A C13A 1.40(4) . ?
C13A C14A 1.37(4) . ?
C14A C15A 1.41(4) . ?
C14A C16A 1.66(5) . ?
C16A O1A 1.52(4) . ?
O1A C17A 1.42(2) . ?
C17A C18A 1.3900 . ?
C17A C22A 1.3900 . ?
C18A C19A 1.3900 . ?
C19A C20A 1.3900 . ?
C20A C21A 1.3900 . ?
C20A C23A 1.68(2) . ?
C21A C22A 1.3900 . ?
C23A C24A 1.3900 . ?
C23A C28A 1.3900 . ?
C24A C25A 1.3900 . ?
C25A C26A 1.3900 . ?
C26A C27A 1.3900 . ?
C26A O2A 1.46(2) . ?
C27A C28A 1.3900 . ?
O2A C29A 1.41(3) . ?
C29A C30A 1.480(18) . ?
C30A C34A 1.45(3) . ?
C30A C31A 1.48(4) . ?
C31A N4A 1.52(4) . ?
N4A C32A 1.35(3) . ?
C32A C33A 1.56(4) . ?
C33A C34A 1.41(3) . ?
C33A C35A 1.57(3) . ?
C35A C36A 1.3900 . ?
C35A C39A 1.3900 . ?
C36A N5A 1.3900 . ?
N5A C37A 1.3900 . ?
C37A C38A 1.3900 . ?
C38A C39A 1.3900 . ?
C38A C40A 1.67(2) . ?
C40A C41A 1.3900 . ?
C40A C44A 1.3900 . ?
C41A N6A 1.3900 . ?
N6A C42A 1.3900 . ?
C42A C43A 1.3900 . ?
C43A C44A 1.3900 . ?
N1B C1B 1.3900 . ?
N1B C5B 1.3900 . ?
C1B C2B 1.3900 . ?
C2B C3B 1.3900 . ?
C3B C4B 1.3900 . ?
C4B C5B 1.3900 . ?
C4B C6B 1.65(2) . ?
C6B C7B 1.3900 . ?
C6B C10B 1.3900 . ?
C7B N2B 1.3900 . ?
N2B C8B 1.3900 . ?
C8B C9B 1.3900 . ?
C9B C10B 1.3900 . ?
C9B C11B 1.76(2) . ?
C11B C12B 1.3900 . ?
C11B C15B 1.3900 . ?
C12B N3B 1.3900 . ?
N3B C13B 1.3900 . ?
C13B C14B 1.3900 . ?
C14B C15B 1.3900 . ?
C14B C16B 1.62(4) . ?
C16B O1B 1.53(4) . ?
O1B C17B 1.47(3) . ?
C17B C18B 1.3900 . ?
C17B C22B 1.3900 . ?
C18B C19B 1.3900 . ?
C19B C20B 1.3900 . ?
C20B C21B 1.3900 . ?
C20B C23B 1.62(3) . ?
C21B C22B 1.3900 . ?
C23B C24B 1.3900 . ?
C23B C28B 1.3900 . ?
C24B C25B 1.3900 . ?
C25B C26B 1.3900 . ?
C26B C27B 1.3900 . ?
C26B O2B 1.53(3) . ?
C27B C28B 1.3900 . ?
O2B C29B 1.45(4) . ?
C29B C30B 1.529(17) . ?
C30B C31B 1.3900 . ?
C30B C34B 1.3900 . ?
C31B N4B 1.3900 . ?
N4B C32B 1.3900 . ?
C32B C33B 1.3900 . ?
C33B C34B 1.3900 . ?
C33B C35B 1.63(2) . ?
C35B C36B 1.3900 . ?
C35B C39B 1.3900 . ?
C36B N5B 1.3900 . ?
N5B C37B 1.3900 . ?
C37B C38B 1.3900 . ?
C38B C39B 1.3900 . ?
C38B C40B 1.70(3) . ?
C40B C41B 1.3900 . ?
C40B C44B 1.3900 . ?
C41B N6B 1.3900 . ?
N6B C42B 1.3900 . ?
C42B C43B 1.3900 . ?
C43B C44B 1.3900 . ?
N1C C1C 1.3900 . ?
N1C C5C 1.3900 . ?
C1C C2C 1.3900 . ?
C2C C3C 1.3900 . ?
C3C C4C 1.3900 . ?
C4C C5C 1.3900 . ?
C4C C6C 1.68(2) . ?
C6C C7C 1.3900 . ?
C6C C10C 1.3900 . ?
C7C N2C 1.3900 . ?
N2C C8C 1.3900 . ?
C8C C9C 1.3900 . ?
C9C C10C 1.3900 . ?
C9C C11C 1.63(2) . ?
C11C C12C 1.3900 . ?
C11C C15C 1.3900 . ?
C12C N3C 1.3900 . ?
N3C C13C 1.3900 . ?
C13C C14C 1.3900 . ?
C14C C15C 1.3900 . ?
C14C C16C 1.4414 . ?
C16C O1C 1.4496 . ?
O1C C17C 1.529(19) . ?
C17C C18C 1.3900 . ?
C17C C22C 1.3900 . ?
C18C C19C 1.3900 . ?
C19C C20C 1.3900 . ?
C20C C21C 1.3900 . ?
C20C C23C 1.60(2) . ?
C21C C22C 1.3900 . ?
C23C C24C 1.3900 . ?
C23C C28C 1.3900 . ?
C24C C25C 1.3900 . ?
C25C C26C 1.3900 . ?
C26C C27C 1.3900 . ?
C26C O2C 1.48(2) . ?
C27C C28C 1.3900 . ?
O2C C29C 1.44(4) . ?
C29C C30C 1.538(18) . ?
C30C C31C 1.3900 . ?
C30C C34C 1.3900 . ?
C31C N4C 1.3900 . ?
N4C C32C 1.3900 . ?
C32C C33C 1.3900 . ?
C33C C34C 1.3900 . ?
C33C C35C 1.63(2) . ?
C35C C36C 1.3900 . ?
C35C C39C 1.3900 . ?
C36C N5C 1.3900 . ?
N5C C37C 1.3900 . ?
C37C C38C 1.3900 . ?
C38C C39C 1.3900 . ?
C38C C40C 1.64(2) . ?
C40C C41C 1.3900 . ?
C40C C44C 1.3900 . ?
C41C N6C 1.3900 . ?
N6C C42C 1.3900 . ?
C42C C43C 1.3900 . ?
C43C C44C 1.3900 . ?
N1D C1D 1.3900 . ?
N1D C5D 1.3900 . ?
C1D C2D 1.3900 . ?
C2D C3D 1.3900 . ?
C3D C4D 1.3900 . ?
C4D C5D 1.3900 . ?
C4D C6D 1.62(2) . ?
C6D C7D 1.3900 . ?
C6D C10D 1.3900 . ?
C7D N2D 1.3900 . ?
N2D C8D 1.3900 . ?
C8D C9D 1.3900 . ?
C9D C10D 1.3900 . ?
C9D C11D 1.638(17) . ?
C11D C12D 1.3900 . ?
C11D C15D 1.3900 . ?
C12D N3D 1.3900 . ?
N3D C13D 1.3900 . ?
C13D C14D 1.3900 . ?
C14D C15D 1.3900 . ?
C14D C16D 1.49(3) . ?
C16D O1D 1.56(4) . ?
O1D C17D 1.55(3) . ?
C17D C18D 1.3900 . ?
C17D C22D 1.3900 . ?
C18D C19D 1.3900 . ?
C19D C20D 1.3900 . ?
C20D C21D 1.3900 . ?
C20D C23D 1.64(2) . ?
C21D C22D 1.3900 . ?
C23D C24D 1.3900 . ?
C23D C28D 1.3900 . ?
C24D C25D 1.3900 . ?
C25D C26D 1.3900 . ?
C26D O2D 1.38(3) . ?
C26D C27D 1.3900 . ?
C27D C28D 1.3900 . ?
O2D C29D 1.46(4) . ?
C29D C30D 1.528(18) . ?
C30D C31D 1.3900 . ?
C30D C34D 1.3900 . ?
C31D N4D 1.3900 . ?
N4D C32D 1.3900 . ?
C32D C33D 1.3900 . ?
C33D C34D 1.3900 . ?
C33D C35D 1.64(2) . ?
C35D C36D 1.3900 . ?
C35D C39D 1.3900 . ?
C36D N5D 1.3900 . ?
N5D C37D 1.3900 . ?
C37D C38D 1.3900 . ?
C38D C39D 1.3900 . ?
C38D C40D 1.66(2) . ?
C40D C41D 1.3900 . ?
C40D C44D 1.3900 . ?
C41D N6D 1.3900 . ?
N6D C42D 1.3900 . ?
C42D C43D 1.3900 . ?
C43D C44D 1.3900 . ?
O1G C15G 1.29(3) . ?
O2G C16G 1.39(4) . ?
O2G C15G 1.45(4) . ?
O3G C17G 1.36(3) . ?
O3G C18G 1.39(4) . ?
O4G C19G 1.29(4) . ?
O4G C20G 1.31(4) . ?
O5G C20G 1.34(4) . ?
C1G C2G 1.24(4) . ?
C1G C15G 1.39(4) . ?
C1G C14G 1.55(5) . ?
C2G C3G 1.41(4) . ?
C3G C4G 1.36(3) . ?
C3G C12G 1.46(4) . ?
C4G C5G 1.34(3) . ?
C5G C10G 1.42(4) . ?
C5G C6G 1.55(5) . ?
C6G C7G 1.39(5) . ?
C7G C8G 1.38(5) . ?
C8G C9G 1.48(5) . ?
C9G C10G 1.45(4) . ?
C10G C11G 1.58(5) . ?
C11G C12G 1.52(5) . ?
C12G C13G 1.63(5) . ?
C13G C14G 1.28(4) . ?
C16G C17G 1.33(4) . ?
C18G C19G 1.65(6) . ?
C20G C21G 1.43(5) . ?
C21G C22G 1.26(4) . ?
C21G C34G 1.45(5) . ?
C22G C23G 1.51(5) . ?
C23G C24G 1.39(4) . ?
C23G C32G 1.59(4) . ?
C24G C25G 1.45(4) . ?
C25G C30G 1.35(4) . ?
C25G C26G 1.47(4) . ?
C26G C27G 1.35(4) . ?
C27G C28G 1.62(6) . ?
C28G C29G 1.45(6) . ?
C29G C30G 1.55(5) . ?
C30G C31G 1.49(4) . ?
C31G C32G 1.33(4) . ?
C32G C33G 1.52(4) . ?
C33G C34G 1.34(4) . ?
N1X O13X 1.25(2) . ?
N1X O12X 1.32(2) . ?
N1X O11X 1.36(2) . ?
N2X O23X 1.254(19) . ?
N2X O22X 1.309(18) . ?
N2X O21X 1.347(19) . ?
N3X O33X 1.250(19) . ?
N3X O32X 1.317(18) . ?
N3X O31X 1.335(19) . ?
N4X O43X 1.257(18) . ?
N4X O42X 1.313(18) . ?
N4X O41X 1.340(18) . ?
N5X O53X 1.259(18) . ?
N5X O52X 1.319(18) . ?
N5X O51X 1.354(19) . ?
N6X O63X 1.245(18) . ?
N6X O62X 1.298(18) . ?
N6X O61X 1.348(18) . ?
N7X O73X 1.246(18) . ?
N7X O72X 1.327(18) . ?
N7X O71X 1.355(19) . ?
N8X O83X 1.25(2) . ?
N8X O82X 1.32(2) . ?
N8X O81X 1.36(2) . ?
N9X O93X 1.249(19) . ?
N9X O92X 1.314(19) . ?
N9X O91X 1.35(2) . ?
N0X O03X 1.246(18) . ?
N0X O02X 1.316(17) . ?
N0X O01X 1.352(19) . ?
N1Y O13Y 1.25(2) . ?
N1Y O12Y 1.31(2) . ?
N1Y O11Y 1.35(2) . ?
N2Y O23Y 1.246(19) . ?
N2Y O22Y 1.315(19) . ?
N2Y O21Y 1.35(2) . ?
N3Y O33Y 1.25(2) . ?
N3Y O32Y 1.32(2) . ?
N3Y O31Y 1.35(2) . ?
O33Y O13T 1.43(8) . ?
N4Y O43Y 1.27(2) . ?
N4Y O42Y 1.32(2) . ?
N4Y O41Y 1.37(2) . ?
N5Y O53Y 1.26(2) . ?
N5Y O52Y 1.32(2) . ?
N5Y O51Y 1.36(2) . ?
N5" O53" 1.25(2) . ?
N5" O52" 1.32(2) . ?
N5" O51" 1.35(2) . ?
N7Y O73Y 1.238(18) . ?
N7Y O72Y 1.304(18) . ?
N7Y O71Y 1.363(19) . ?
N8Y O83Y 1.25(2) . ?
N8Y O82Y 1.32(2) . ?
N8Y O81Y 1.35(2) . ?
N9Y O93Y 1.25(2) . ?
N9Y O92Y 1.32(2) . ?
N9Y O91Y 1.35(2) . ?
N9" O93" 1.26(2) . ?
N9" O92" 1.32(2) . ?
N9" O91" 1.36(2) . ?
N0Y O03Y 1.250(19) . ?
N0Y O02Y 1.311(19) . ?
N0Y O01Y 1.342(19) . ?
N2Z O23Z 1.25(2) . ?
N2Z O21Z 1.36(2) . ?
N3Z O33Z 1.25(2) . ?
N3Z O32Z 1.32(2) . ?
N3Z O31Z 1.35(2) . ?
O13S O13T 1.22(6) . ?
O17S O17T 1.43(12) . ?
O20S O49T 1.32(11) 15_464 ?
O25S O35S 1.80(9) . ?
O49T O20S 1.32(11) 7_565 ?

loop_
_geom_angle_atom_site_label_1
_geom_angle_atom_site_label_2
_geom_angle_atom_site_label_3
_geom_angle
_geom_angle_site_symmetry_1
_geom_angle_site_symmetry_3
_geom_angle_publ_flag
N12 Pd1 N11 84.5(14) . . ?
N12 Pd1 N2B 92.6(11) . . ?
N11 Pd1 N2B 176.4(11) . . ?
N12 Pd1 N2C 176.6(12) . . ?
N11 Pd1 N2C 92.3(12) . . ?
N2B Pd1 N2C 90.6(8) . . ?
C11 N11 Pd1 114(3) . . ?
C12 C11 N11 98(5) . . ?
N12 C12 C11 122(5) . . ?
C12 N12 Pd1 111(3) . . ?
N21 Pd2 N22 86.9(12) . . ?
N21 Pd2 N1B 176.8(13) . . ?
N22 Pd2 N1B 90.4(13) . . ?
N21 Pd2 N1A 92.1(12) . . ?
N22 Pd2 N1A 173.3(14) . . ?
N1B Pd2 N1A 90.7(10) . . ?
C21 N21 Pd2 107(2) . . ?
N21 C21 C22 111(3) . . ?
N22 C22 C21 111(3) . . ?
C22 N22 Pd2 108(2) . . ?
N1D Pd3 N31 94.8(11) . . ?
N1D Pd3 N32 178.1(13) . . ?
N31 Pd3 N32 86.9(10) . . ?
N1D Pd3 N1C 93.6(9) . . ?
N31 Pd3 N1C 171.5(12) . . ?
N32 Pd3 N1C 84.7(11) . . ?
C31 N31 Pd3 109(2) . . ?
N31 C31 C32 111(3) . . ?
C31 C32 N32 110(3) . . ?
C32 N32 Pd3 108.0(18) . . ?
N41 Pd4 N42 86.6(13) . . ?
N41 Pd4 N3A 91.7(13) . . ?
N42 Pd4 N3A 174.0(15) . . ?
N41 Pd4 N3B 174.0(12) . . ?
N42 Pd4 N3B 90.2(13) . . ?
N3A Pd4 N3B 90.9(11) . . ?
C41 N41 Pd4 115(2) . . ?
N41 C41 C42 111(3) . . ?
N42 C42 C41 105(4) . . ?
C42 N42 Pd4 112(3) . . ?
N51 Pd5 N52 86.8(9) . . ?
N51 Pd5 N3D 91.3(10) . . ?
N52 Pd5 N3D 176.4(13) . . ?
N51 Pd5 N3C 179.7(13) . . ?
N52 Pd5 N3C 92.9(12) . . ?
N3D Pd5 N3C 88.9(9) . . ?
C51 N51 Pd5 109(2) . . ?
N51 C51 C52 109(3) . . ?
C51 C52 N52 110(3) . . ?
C52 N52 Pd5 107.8(19) . . ?
N61 Pd6 N2A 175.7(10) . . ?
N61 Pd6 N2D 93.0(9) . . ?
N2A Pd6 N2D 90.1(8) . . ?
N61 Pd6 N62 89.9(12) . . ?
N2A Pd6 N62 87.1(10) . . ?
N2D Pd6 N62 176.8(10) . . ?
C61 N61 Pd6 118(2) . . ?
C62 C61 N61 108(4) . . ?
C61 C62 N62 123(4) . . ?
C62 N62 Pd6 97(2) . . ?
N71 Pd7 N4A 89.6(12) . . ?
N71 Pd7 N72 86.2(12) . . ?
N4A Pd7 N72 175.2(13) . . ?
N71 Pd7 N4D 175.6(11) . . ?
N4A Pd7 N4D 89.5(9) . . ?
N72 Pd7 N4D 94.5(11) . . ?
C71 N71 Pd7 116(2) . . ?
N71 C71 C72 111(3) . . ?
N72 C72 C71 107(4) . . ?
C72 N72 Pd7 113(3) . . ?
N82 Pd8 N81 85.5(9) . . ?
N82 Pd8 N5C 177.1(10) . . ?
N81 Pd8 N5C 92.3(10) . . ?
N82 Pd8 N5D 90.5(10) . . ?
N81 Pd8 N5D 176.0(10) . . ?
N5C Pd8 N5D 91.7(9) . . ?
C81 N81 Pd8 109.8(17) . . ?
N81 C81 C82 109(3) . . ?
C81 C82 N82 110(3) . . ?
C82 N82 Pd8 107.9(17) . . ?
N91 Pd9 N92 86.3(12) . . ?
N91 Pd9 N4C 96.1(12) . . ?
N92 Pd9 N4C 177.1(14) . . ?
N91 Pd9 N4B 172.2(13) . . ?
N92 Pd9 N4B 90.3(13) . . ?
N4C Pd9 N4B 87.5(9) . . ?
C91 N91 Pd9 116(2) . . ?
N91 C91 C92 110(3) . . ?
N92 C92 C91 108(4) . . ?
C92 N92 Pd9 115(3) . . ?
N101 Pd10 N102 84.5(13) . . ?
N101 Pd10 N6A 166.2(18) . . ?
N102 Pd10 N6A 81.7(15) . . ?
N101 Pd10 N6D 102.3(17) . . ?
N102 Pd10 N6D 173.0(15) . . ?
N6A Pd10 N6D 91.4(10) . . ?
C101 N101 Pd10 104(2) . . ?
N101 C101 C102 109(3) . . ?
N102 C102 C101 112(3) . . ?
C102 N102 Pd10 110(2) . . ?
N112 Pd11 N111 85.0(9) . . ?
N112 Pd11 N5A 174.7(12) . . ?
N111 Pd11 N5A 94.4(11) . . ?
N112 Pd11 N5B 88.7(11) . . ?
N111 Pd11 N5B 169.2(12) . . ?
N5A Pd11 N5B 91.1(8) . . ?
C111 N111 Pd11 109.8(17) . . ?
N111 C111 C112 108(3) . . ?
C111 C112 N112 107(3) . . ?
C112 N112 Pd11 107.6(19) . . ?
N121 Pd12 N122 84.7(17) . . ?
N121 Pd12 N6B 164.2(17) . . ?
N122 Pd12 N6B 91.1(18) . . ?
N121 Pd12 N6C 93.3(15) . . ?
N122 Pd12 N6C 173(2) . . ?
N6B Pd12 N6C 92.5(13) . . ?
C121 N121 Pd12 113(3) . . ?
N121 C121 C122 108(4) . . ?
C121 C122 N122 108(4) . . ?
C122 N122 Pd12 108(3) . . ?
C1A N1A C5A 120.0 . . ?
C1A N1A Pd2 119.4(13) . . ?
C5A N1A Pd2 120.6(13) . . ?
N1A C1A C2A 120.0 . . ?
C1A C2A C3A 120.0 . . ?
C4A C3A C2A 120.0 . . ?
C5A C4A C3A 120.0 . . ?
C5A C4A C6A 116.7(18) . . ?
C3A C4A C6A 123.1(18) . . ?
C4A C5A N1A 120.0 . . ?
C7A C6A C10A 120.0 . . ?
C7A C6A C4A 116.6(17) . . ?
C10A C6A C4A 123.3(17) . . ?
N2A C7A C6A 120.0 . . ?
C7A N2A C8A 120.0 . . ?
C7A N2A Pd6 122.7(12) . . ?
C8A N2A Pd6 117.1(12) . . ?
C9A C8A N2A 120.0 . . ?
C8A C9A C10A 120.0 . . ?
C8A C9A C11A 119.7(19) . . ?
C10A C9A C11A 119.9(19) . . ?
C9A C10A C6A 120.0 . . ?
C15A C11A C12A 117(3) . . ?
C15A C11A C9A 122(3) . . ?
C12A C11A C9A 121(3) . . ?
N3A C12A C11A 124(3) . . ?
C12A N3A C13A 114(3) . . ?
C12A N3A Pd4 124(2) . . ?
C13A N3A Pd4 120(2) . . ?
C14A C13A N3A 126(3) . . ?
C13A C14A C15A 118(3) . . ?
C13A C14A C16A 128(3) . . ?
C15A C14A C16A 114(3) . . ?
C14A C15A C11A 119(3) . . ?
O1A C16A C14A 103(3) . . ?
C17A O1A C16A 115(2) . . ?
C18A C17A C22A 120.0 . . ?
C18A C17A O1A 113.0(19) . . ?
C22A C17A O1A 126.8(19) . . ?
C17A C18A C19A 120.0 . . ?
C18A C19A C20A 120.0 . . ?
C19A C20A C21A 120.0 . . ?
C19A C20A C23A 118.7(17) . . ?
C21A C20A C23A 121.2(17) . . ?
C22A C21A C20A 120.0 . . ?
C21A C22A C17A 120.0 . . ?
C24A C23A C28A 120.0 . . ?
C24A C23A C20A 121.8(17) . . ?
C28A C23A C20A 118.2(17) . . ?
C23A C24A C25A 120.0 . . ?
C24A C25A C26A 120.0 . . ?
C27A C26A C25A 120.0 . . ?
C27A C26A O2A 120.4(17) . . ?
C25A C26A O2A 119.6(17) . . ?
C26A C27A C28A 120.0 . . ?
C27A C28A C23A 120.0 . . ?
C29A O2A C26A 122(2) . . ?
O2A C29A C30A 113(2) . . ?
C34A C30A C29A 122(3) . . ?
C34A C30A C31A 123(2) . . ?
C29A C30A C31A 115(2) . . ?
C30A C31A N4A 115(2) . . ?
C32A N4A C31A 119(3) . . ?
C32A N4A Pd7 119(2) . . ?
C31A N4A Pd7 121.2(19) . . ?
N4A C32A C33A 124(3) . . ?
C34A C33A C32A 116(2) . . ?
C34A C33A C35A 124(2) . . ?
C32A C33A C35A 120(2) . . ?
C33A C34A C30A 119(3) . . ?
C36A C35A C39A 120.0 . . ?
C36A C35A C33A 118.8(17) . . ?
C39A C35A C33A 121.0(17) . . ?
N5A C36A C35A 120.0 . . ?
C36A N5A C37A 120.0 . . ?
C36A N5A Pd11 116.9(10) . . ?
C37A N5A Pd11 123.1(10) . . ?
C38A C37A N5A 120.0 . . ?
C39A C38A C37A 120.0 . . ?
C39A C38A C40A 123.4(14) . . ?
C37A C38A C40A 116.5(14) . . ?
C38A C39A C35A 120.0 . . ?
C41A C40A C44A 120.0 . . ?
C41A C40A C38A 116.9(16) . . ?
C44A C40A C38A 123.1(16) . . ?
N6A C41A C40A 120.0 . . ?
C41A N6A C42A 120.0 . . ?
C41A N6A Pd10 119.1(13) . . ?
C42A N6A Pd10 120.5(13) . . ?
C43A C42A N6A 120.0 . . ?
C44A C43A C42A 120.0 . . ?
C43A C44A C40A 120.0 . . ?
C1B N1B C5B 120.0 . . ?
C1B N1B Pd2 121.7(14) . . ?
C5B N1B Pd2 118.3(14) . . ?
N1B C1B C2B 120.0 . . ?
C3B C2B C1B 120.0 . . ?
C4B C3B C2B 120.0 . . ?
C3B C4B C5B 120.0 . . ?
C3B C4B C6B 117.1(17) . . ?
C5B C4B C6B 122.2(17) . . ?
C4B C5B N1B 120.0 . . ?
C7B C6B C10B 120.0 . . ?
C7B C6B C4B 124.6(14) . . ?
C10B C6B C4B 115.4(14) . . ?
N2B C7B C6B 120.0 . . ?
C7B N2B C8B 120.0 . . ?
C7B N2B Pd1 121.5(9) . . ?
C8B N2B Pd1 118.3(9) . . ?
C9B C8B N2B 120.0 . . ?
C10B C9B C8B 120.0 . . ?
C10B C9B C11B 121.0(14) . . ?
C8B C9B C11B 118.0(14) . . ?
C9B C10B C6B 120.0 . . ?
C12B C11B C15B 120.0 . . ?
C12B C11B C9B 120.2(15) . . ?
C15B C11B C9B 119.8(15) . . ?
N3B C12B C11B 120.0 . . ?
C12B N3B C13B 120.0 . . ?
C12B N3B Pd4 120.4(13) . . ?
C13B N3B Pd4 119.0(13) . . ?
N3B C13B C14B 120.0 . . ?
C15B C14B C13B 120.0 . . ?
C15B C14B C16B 124(2) . . ?
C13B C14B C16B 116(2) . . ?
C14B C15B C11B 120.0 . . ?
O1B C16B C14B 105(3) . . ?
C17B O1B C16B 117(3) . . ?
C18B C17B C22B 120.0 . . ?
C18B C17B O1B 127(3) . . ?
C22B C17B O1B 113(3) . . ?
C19B C18B C17B 120.0 . . ?
C20B C19B C18B 120.0 . . ?
C19B C20B C21B 120.0 . . ?
C19B C20B C23B 119(3) . . ?
C21B C20B C23B 121(3) . . ?
C22B C21B C20B 120.0 . . ?
C21B C22B C17B 120.0 . . ?
C24B C23B C28B 120.0 . . ?
C24B C23B C20B 120(2) . . ?
C28B C23B C20B 120(2) . . ?
C23B C24B C25B 120.0 . . ?
C26B C25B C24B 120.0 . . ?
C25B C26B C27B 120.0 . . ?
C25B C26B O2B 114(2) . . ?
C27B C26B O2B 126(2) . . ?
C28B C27B C26B 120.0 . . ?
C27B C28B C23B 120.0 . . ?
C29B O2B C26B 120(3) . . ?
O2B C29B C30B 114(2) . . ?
C31B C30B C34B 120.0 . . ?
C31B C30B C29B 117.5(19) . . ?
C34B C30B C29B 122.5(19) . . ?
N4B C31B C30B 120.0 . . ?
C31B N4B C32B 120.0 . . ?
C31B N4B Pd9 123.3(12) . . ?
C32B N4B Pd9 116.4(12) . . ?
N4B C32B C33B 120.0 . . ?
C32B C33B C34B 120.0 . . ?
C32B C33B C35B 115.5(16) . . ?
C34B C33B C35B 124.5(16) . . ?
C33B C34B C30B 120.0 . . ?
C36B C35B C39B 120.0 . . ?
C36B C35B C33B 117.1(15) . . ?
C39B C35B C33B 122.9(15) . . ?
C35B C36B N5B 120.0 . . ?
C36B N5B C37B 120.0 . . ?
C36B N5B Pd11 120.4(11) . . ?
C37B N5B Pd11 119.4(11) . . ?
C38B C37B N5B 120.0 . . ?
C37B C38B C39B 120.0 . . ?
C37B C38B C40B 121.7(17) . . ?
C39B C38B C40B 117.8(17) . . ?
C38B C39B C35B 120.0 . . ?
C41B C40B C44B 120.0 . . ?
C41B C40B C38B 128(2) . . ?
C44B C40B C38B 112(2) . . ?
C40B C41B N6B 120.0 . . ?
C42B N6B C41B 120.0 . . ?
C42B N6B Pd12 131(2) . . ?
C41B N6B Pd12 109(2) . . ?
C43B C42B N6B 120.0 . . ?
C42B C43B C44B 120.0 . . ?
C43B C44B C40B 120.0 . . ?
C1C N1C C5C 120.0 . . ?
C1C N1C Pd3 122.5(15) . . ?
C5C N1C Pd3 117.4(15) . . ?
C2C C1C N1C 120.0 . . ?
C1C C2C C3C 120.0 . . ?
C2C C3C C4C 120.0 . . ?
C5C C4C C3C 120.0 . . ?
C5C C4C C6C 114(2) . . ?
C3C C4C C6C 125.9(19) . . ?
C4C C5C N1C 120.0 . . ?
C7C C6C C10C 120.0 . . ?
C7C C6C C4C 114.0(17) . . ?
C10C C6C C4C 125.3(17) . . ?
C6C C7C N2C 120.0 . . ?
C7C N2C C8C 120.0 . . ?
C7C N2C Pd1 123.4(12) . . ?
C8C N2C Pd1 115.9(12) . . ?
C9C C8C N2C 120.0 . . ?
C10C C9C C8C 120.0 . . ?
C10C C9C C11C 122.4(16) . . ?
C8C C9C C11C 117.6(16) . . ?
C9C C10C C6C 120.0 . . ?
C12C C11C C15C 120.0 . . ?
C12C C11C C9C 116.8(13) . . ?
C15C C11C C9C 123.1(13) . . ?
N3C C12C C11C 120.0 . . ?
C12C N3C C13C 120.0 . . ?
C12C N3C Pd5 122.4(8) . . ?
C13C N3C Pd5 117.6(8) . . ?
C14C C13C N3C 120.0 . . ?
C15C C14C C13C 120.0 . . ?
C15C C14C C16C 118.5 . . ?
C13C C14C C16C 120.5 . . ?
C14C C15C C11C 120.0 . . ?
C14C C16C O1C 112.9 . . ?
C16C O1C C17C 123.2(15) . . ?
C18C C17C C22C 120.0 . . ?
C18C C17C O1C 117.0(18) . . ?
C22C C17C O1C 122.9(18) . . ?
C17C C18C C19C 120.0 . . ?
C18C C19C C20C 120.0 . . ?
C21C C20C C19C 120.0 . . ?
C21C C20C C23C 119.6(16) . . ?
C19C C20C C23C 120.2(16) . . ?
C20C C21C C22C 120.0 . . ?
C21C C22C C17C 120.0 . . ?
C24C C23C C28C 120.0 . . ?
C24C C23C C20C 116.7(16) . . ?
C28C C23C C20C 123.3(16) . . ?
C23C C24C C25C 120.0 . . ?
C26C C25C C24C 120.0 . . ?
C27C C26C C25C 120.0 . . ?
C27C C26C O2C 113.3(16) . . ?
C25C C26C O2C 126.4(16) . . ?
C26C C27C C28C 120.0 . . ?
C27C C28C C23C 120.0 . . ?
C29C O2C C26C 122.7(19) . . ?
O2C C29C C30C 117(3) . . ?
C31C C30C C34C 120.0 . . ?
C31C C30C C29C 116.0(19) . . ?
C34C C30C C29C 124(2) . . ?
N4C C31C C30C 120.0 . . ?
C31C N4C C32C 120.0 . . ?
C31C N4C Pd9 119.0(12) . . ?
C32C N4C Pd9 120.9(12) . . ?
C33C C32C N4C 120.0 . . ?
C32C C33C C34C 120.0 . . ?
C32C C33C C35C 119.7(15) . . ?
C34C C33C C35C 120.2(15) . . ?
C33C C34C C30C 120.0 . . ?
C36C C35C C39C 120.0 . . ?
C36C C35C C33C 121.2(15) . . ?
C39C C35C C33C 117.7(15) . . ?
C35C C36C N5C 120.0 . . ?
C36C N5C C37C 120.0 . . ?
C36C N5C Pd8 118.2(11) . . ?
C37C N5C Pd8 121.7(11) . . ?
C38C C37C N5C 120.0 . . ?
C37C C38C C39C 120.0 . . ?
C37C C38C C40C 119.0(16) . . ?
C39C C38C C40C 121.0(15) . . ?
C38C C39C C35C 120.0 . . ?
C41C C40C C44C 120.0 . . ?
C41C C40C C38C 118.4(18) . . ?
C44C C40C C38C 121.6(18) . . ?
C40C C41C N6C 120.0 . . ?
C42C N6C C41C 120.0 . . ?
C42C N6C Pd12 123.8(16) . . ?
C41C N6C Pd12 116.2(16) . . ?
N6C C42C C43C 120.0 . . ?
C42C C43C C44C 120.0 . . ?
C43C C44C C40C 120.0 . . ?
C1D N1D C5D 120.0 . . ?
C1D N1D Pd3 119.4(13) . . ?
C5D N1D Pd3 120.4(13) . . ?
N1D C1D C2D 120.0 . . ?
C3D C2D C1D 120.0 . . ?
C4D C3D C2D 120.0 . . ?
C3D C4D C5D 120.0 . . ?
C3D C4D C6D 120.5(17) . . ?
C5D C4D C6D 119.1(17) . . ?
C4D C5D N1D 120.0 . . ?
C7D C6D C10D 120.0 . . ?
C7D C6D C4D 121.5(14) . . ?
C10D C6D C4D 118.5(14) . . ?
C6D C7D N2D 120.0 . . ?
C8D N2D C7D 120.0 . . ?
C8D N2D Pd6 120.9(9) . . ?
C7D N2D Pd6 119.1(9) . . ?
N2D C8D C9D 120.0 . . ?
C8D C9D C10D 120.0 . . ?
C8D C9D C11D 117.0(12) . . ?
C10D C9D C11D 123.0(12) . . ?
C9D C10D C6D 120.0 . . ?
C12D C11D C15D 120.0 . . ?
C12D C11D C9D 114.7(13) . . ?
C15D C11D C9D 125.1(13) . . ?
C11D C12D N3D 120.0 . . ?
C13D N3D C12D 120.0 . . ?
C13D N3D Pd5 115.7(10) . . ?
C12D N3D Pd5 124.3(10) . . ?
N3D C13D C14D 120.0 . . ?
C13D C14D C15D 120.0 . . ?
C13D C14D C16D 120.2(17) . . ?
C15D C14D C16D 118.8(17) . . ?
C14D C15D C11D 120.0 . . ?
C14D C16D O1D 108(2) . . ?
C17D O1D C16D 115(2) . . ?
C18D C17D C22D 120.0 . . ?
C18D C17D O1D 123.7(17) . . ?
C22D C17D O1D 116.3(17) . . ?
C17D C18D C19D 120.0 . . ?
C20D C19D C18D 120.0 . . ?
C19D C20D C21D 120.0 . . ?
C19D C20D C23D 123.0(17) . . ?
C21D C20D C23D 116.9(17) . . ?
C20D C21D C22D 120.0 . . ?
C21D C22D C17D 120.0 . . ?
C24D C23D C28D 120.0 . . ?
C24D C23D C20D 119.8(18) . . ?
C28D C23D C20D 119.9(18) . . ?
C25D C24D C23D 120.0 . . ?
C24D C25D C26D 120.0 . . ?
O2D C26D C27D 127(2) . . ?
O2D C26D C25D 112(2) . . ?
C27D C26D C25D 120.0 . . ?
C28D C27D C26D 120.0 . . ?
C27D C28D C23D 120.0 . . ?
C26D O2D C29D 122(3) . . ?
O2D C29D C30D 115(3) . . ?
C31D C30D C34D 120.0 . . ?
C31D C30D C29D 111(2) . . ?
C34D C30D C29D 128(2) . . ?
N4D C31D C30D 120.0 . . ?
C31D N4D C32D 120.0 . . ?
C31D N4D Pd7 122.8(10) . . ?
C32D N4D Pd7 117.2(10) . . ?
N4D C32D C33D 120.0 . . ?
C34D C33D C32D 120.0 . . ?
C34D C33D C35D 122.0(15) . . ?
C32D C33D C35D 117.8(15) . . ?
C33D C34D C30D 120.0 . . ?
C36D C35D C39D 120.0 . . ?
C36D C35D C33D 116.3(15) . . ?
C39D C35D C33D 123.7(15) . . ?
C35D C36D N5D 120.0 . . ?
C37D N5D C36D 120.0 . . ?
C37D N5D Pd8 117.2(12) . . ?
C36D N5D Pd8 122.3(12) . . ?
N5D C37D C38D 120.0 . . ?
C39D C38D C37D 120.0 . . ?
C39D C38D C40D 116.9(17) . . ?
C37D C38D C40D 122.5(17) . . ?
C38D C39D C35D 120.0 . . ?
C41D C40D C44D 120.0 . . ?
C41D C40D C38D 118(2) . . ?
C44D C40D C38D 122(2) . . ?
N6D C41D C40D 120.0 . . ?
C41D N6D C42D 120.0 . . ?
C41D N6D Pd10 115.5(14) . . ?
C42D N6D Pd10 124.5(15) . . ?
C43D C42D N6D 120.0 . . ?
C42D C43D C44D 120.0 . . ?
C43D C44D C40D 120.0 . . ?
C16G O2G C15G 126(3) . . ?
C17G O3G C18G 115(3) . . ?
C19G O4G C20G 127(4) . . ?
C2G C1G C15G 140(4) . . ?
C2G C1G C14G 100(4) . . ?
C15G C1G C14G 120(4) . . ?
C1G C2G C3G 152(4) . . ?
C4G C3G C2G 142(3) . . ?
C4G C3G C12G 115(3) . . ?
C2G C3G C12G 103(3) . . ?
C5G C4G C3G 131(3) . . ?
C4G C5G C10G 117(3) . . ?
C4G C5G C6G 131(3) . . ?
C10G C5G C6G 112(3) . . ?
C7G C6G C5G 125(4) . . ?
C8G C7G C6G 117(4) . . ?
C7G C8G C9G 124(4) . . ?
C10G C9G C8G 116(4) . . ?
C5G C10G C9G 125(3) . . ?
C5G C10G C11G 123(3) . . ?
C9G C10G C11G 111(3) . . ?
C12G C11G C10G 109(3) . . ?
C3G C12G C11G 125(3) . . ?
C3G C12G C13G 120(3) . . ?
C11G C12G C13G 115(3) . . ?
C14G C13G C12G 114(4) . . ?
C13G C14G C1G 130(4) . . ?
O1G C15G C1G 120(3) . . ?
O1G C15G O2G 121(3) . . ?
C1G C15G O2G 119(3) . . ?
C17G C16G O2G 121(4) . . ?
C16G C17G O3G 121(4) . . ?
O3G C18G C19G 111(4) . . ?
O4G C19G C18G 120(4) . . ?
O4G C20G O5G 114(3) . . ?
O4G C20G C21G 128(4) . . ?
O5G C20G C21G 118(4) . . ?
C22G C21G C20G 130(4) . . ?
C22G C21G C34G 118(4) . . ?
C20G C21G C34G 111(4) . . ?
C21G C22G C23G 136(4) . . ?
C24G C23G C22G 132(3) . . ?
C24G C23G C32G 123(3) . . ?
C22G C23G C32G 105(3) . . ?
C23G C24G C25G 115(3) . . ?
C30G C25G C24G 126(3) . . ?
C30G C25G C26G 118(3) . . ?
C24G C25G C26G 114(3) . . ?
C27G C26G C25G 126(4) . . ?
C26G C27G C28G 114(3) . . ?
C29G C28G C27G 121(4) . . ?
C28G C29G C30G 113(4) . . ?
C25G C30G C31G 115(3) . . ?
C25G C30G C29G 125(3) . . ?
C31G C30G C29G 120(3) . . ?
C32G C31G C30G 128(4) . . ?
C31G C32G C33G 131(3) . . ?
C31G C32G C23G 111(3) . . ?
C33G C32G C23G 117(3) . . ?
C34G C33G C32G 125(4) . . ?
C33G C34G C21G 118(4) . . ?
O13X N1X O12X 121(3) . . ?
O13X N1X O11X 114(3) . . ?
O12X N1X O11X 115(3) . . ?
O23X N2X O22X 124(3) . . ?
O23X N2X O21X 119(3) . . ?
O22X N2X O21X 113(2) . . ?
O33X N3X O32X 119(3) . . ?
O33X N3X O31X 121(3) . . ?
O32X N3X O31X 114(2) . . ?
O43X N4X O42X 125(2) . . ?
O43X N4X O41X 118(2) . . ?
O42X N4X O41X 114(2) . . ?
O53X N5X O52X 123(2) . . ?
O53X N5X O51X 117(2) . . ?
O52X N5X O51X 111(2) . . ?
O63X N6X O62X 123(2) . . ?
O63X N6X O61X 119(2) . . ?
O62X N6X O61X 118(2) . . ?
O73X N7X O72X 118(2) . . ?
O73X N7X O71X 120(2) . . ?
O72X N7X O71X 116(2) . . ?
O83X N8X O82X 124(3) . . ?
O83X N8X O81X 117(3) . . ?
O82X N8X O81X 114(3) . . ?
O93X N9X O92X 121(3) . . ?
O93X N9X O91X 121(3) . . ?
O92X N9X O91X 115(3) . . ?
O03X N0X O02X 125(2) . . ?
O03X N0X O01X 116(2) . . ?
O02X N0X O01X 114(2) . . ?
O13Y N1Y O12Y 120(3) . . ?
O13Y N1Y O11Y 116(3) . . ?
O12Y N1Y O11Y 118(3) . . ?
O23Y N2Y O22Y 123(3) . . ?
O23Y N2Y O21Y 120(3) . . ?
O22Y N2Y O21Y 114(3) . . ?
O33Y N3Y O32Y 124(3) . . ?
O33Y N3Y O31Y 119(3) . . ?
O32Y N3Y O31Y 115(3) . . ?
N3Y O33Y O13T 171(8) . . ?
O43Y N4Y O42Y 115(3) . . ?
O43Y N4Y O41Y 113(3) . . ?
O42Y N4Y O41Y 112(3) . . ?
O53Y N5Y O52Y 120(3) . . ?
O53Y N5Y O51Y 116(3) . . ?
O52Y N5Y O51Y 114(3) . . ?
O53" N5" O52" 123(3) . . ?
O53" N5" O51" 118(3) . . ?
O52" N5" O51" 115(3) . . ?
N5" O53" O53" 120(10) . 14_365 ?
O73Y N7Y O72Y 123(3) . . ?
O73Y N7Y O71Y 120(3) . . ?
O72Y N7Y O71Y 114(2) . . ?
O83Y N8Y O82Y 121(3) . . ?
O83Y N8Y O81Y 117(3) . . ?
O82Y N8Y O81Y 115(3) . . ?
O93Y N9Y O92Y 122(3) . . ?
O93Y N9Y O91Y 118(3) . . ?
O92Y N9Y O91Y 115(3) . . ?
O93" N9" O92" 121(3) . . ?
O93" N9" O91" 116(3) . . ?
O92" N9" O91" 114(3) . . ?
O03Y N0Y O02Y 122(3) . . ?
O03Y N0Y O01Y 120(3) . . ?
O02Y N0Y O01Y 118(2) . . ?
O23Z N2Z O21Z 116(3) . . ?
O33Z N3Z O32Z 123(3) . . ?
O33Z N3Z O31Z 120(3) . . ?
O32Z N3Z O31Z 115(3) . . ?
O13S O13T O33Y 119(7) . . ?

_diffrn_measured_fraction_theta_max 0.990
_diffrn_reflns_theta_full        16.67
_diffrn_measured_fraction_theta_full 0.990
_refine_diff_density_max         1.295
_refine_diff_density_min         -0.713
_refine_diff_density_rms         0.162
