####################################################################### 
# 
# This file contains crystal structure data downloaded from the 
# Cambridge Structural Database (CSD) hosted by the Cambridge 
# Crystallographic Data Centre (CCDC).
# 
# Full information about CCDC data access policies and citation 
# guidelines are available at http://www.ccdc.cam.ac.uk/access/V1 
# 
# Audit and citation data items may have been added by the CCDC. 
# Please retain this information to preserve the provenance of 
# this file and to allow appropriate attribution of the data. 
# 
#######################################################################

data_7
_audit_block_doi                 10.5517/ccxwjv4
_database_code_depnum_ccdc_archive 'CCDC 860617'
loop_
_citation_id
_citation_doi
_citation_year
1 10.1002/anie.201108731 2012
_audit_update_record             
;
2011-12-30 deposited with the CCDC.	2019-03-04 downloaded from the CCDC.
;

_audit_creation_date             2011-12-05T07:26:17-00:00
_audit_creation_method           'WinGX routine CIF_UPDATE'

#----------------------------------------------------------------------------#
# CHEMICAL INFORMATION #
#----------------------------------------------------------------------------#

_chemical_name_systematic        
;
?
;
_chemical_formula_sum            'C970 H520 N144 Pd24'
_chemical_formula_moiety         'C970 H520 N144 Pd24'
_chemical_formula_weight         16742.06
_chemical_compound_source        'synthesis as described'



#----------------------------------------------------------------------------#
# UNIT CELL INFORMATION #
#----------------------------------------------------------------------------#

_symmetry_cell_setting           tetragonal
_symmetry_space_group_name_H-M   'I 4/m'

loop_
_symmetry_equiv_pos_as_xyz
'x, y, z'
'-x, -y, z'
'-y, x, z'
'y, -x, z'
'x+1/2, y+1/2, z+1/2'
'-x+1/2, -y+1/2, z+1/2'
'-y+1/2, x+1/2, z+1/2'
'y+1/2, -x+1/2, z+1/2'
'-x, -y, -z'
'x, y, -z'
'y, -x, -z'
'-y, x, -z'
'-x+1/2, -y+1/2, -z+1/2'
'x+1/2, y+1/2, -z+1/2'
'y+1/2, -x+1/2, -z+1/2'
'-y+1/2, x+1/2, -z+1/2'

_cell_length_a                   43.7560(10)
_cell_length_b                   43.7560(10)
_cell_length_c                   69.505(2)
_cell_angle_alpha                90
_cell_angle_beta                 90
_cell_angle_gamma                90
_cell_volume                     133073(6)
_cell_formula_units_Z            2
_cell_measurement_temperature    100(2)
_cell_measurement_reflns_used    185167
_cell_measurement_theta_min      0.980
_cell_measurement_theta_max      15.8
_cell_measurement_wavelength     0.71073


#----------------------------------------------------------------------------#
# CRYSTAL INFORMATION #
#----------------------------------------------------------------------------#

_exptl_crystal_description       Block
_exptl_crystal_colour            colorless
_exptl_crystal_size_max          0.12
_exptl_crystal_size_mid          0.12
_exptl_crystal_size_min          0.03
_exptl_crystal_density_diffrn    0.418
_exptl_crystal_density_method    'not measured'
_exptl_crystal_F_000             16904
_exptl_special_details           
;
?
;

#----------------------------------------------------------------------------#
# ABSORPTION CORRECTION #
#----------------------------------------------------------------------------#

_exptl_absorpt_coefficient_mu    0.179
_exptl_absorpt_correction_type   Multi-Scan
_exptl_absorpt_process_details   'XDS (Kabsch, 1993)'

#----------------------------------------------------------------------------#
# DATA COLLECTION #
#----------------------------------------------------------------------------#

_diffrn_source                   'MX2 Beamline Australian Synchrotron'
_diffrn_radiation_wavelength     0.71073
_diffrn_radiation_type           Synchrotron
_diffrn_radiation_source         'MX2 Beamline Australian Synchrotron'
_diffrn_radiation_monochromator  'Silicon Double Crystal'
_diffrn_measurement_device_type  'ADSC Quantum 315r'
_diffrn_measurement_method       'Phi Scan'
_diffrn_detector_area_resol_mean 0
_diffrn_standards_number         0
_diffrn_standards_interval_count 0
_diffrn_standards_interval_time  0
_diffrn_standards_decay_%        0
_diffrn_measurement_details      
' 1.00 degrees, 1.0 sec, detector distance 260.01 mm'
_reflns_d_resolution_low         50.00
_reflns_d_resolution_high        1.32
_diffrn_ambient_temperature      100(2)
_diffrn_reflns_av_R_equivalents  0.1452
_diffrn_reflns_av_unetI/netI     0.0601
_diffrn_reflns_number            185167
_diffrn_reflns_limit_h_min       -33
_diffrn_reflns_limit_h_max       33
_diffrn_reflns_limit_k_min       -33
_diffrn_reflns_limit_k_max       33
_diffrn_reflns_limit_l_min       -52
_diffrn_reflns_limit_l_max       52
_diffrn_reflns_theta_min         0.89
_diffrn_reflns_theta_max         15.8
_diffrn_reflns_theta_full        15.8
_diffrn_measured_fraction_theta_full 0.979
_diffrn_measured_fraction_theta_max 0.979
_reflns_number_total             15157
_reflns_number_gt                8767
_reflns_threshold_expression     >2(J\(Bs(I)

#----------------------------------------------------------------------------#
# COMPUTER PROGRAMS USED #
#----------------------------------------------------------------------------#

_computing_structure_refinement  'SHELXL-97 (Sheldrick, 2008)'

#----------------------------------------------------------------------------#
# STRUCTURE SOLUTION
#----------------------------------------------------------------------------#

_atom_sites_solution_primary     direct
_atom_sites_solution_secondary   difmap
_atom_sites_solution_hydrogens   geom

#----------------------------------------------------------------------------#
# REFINEMENT INFORMATION #
#----------------------------------------------------------------------------#

_refine_special_details          
;
Refinement of F^2^ against ALL reflections. The weighted R-factor wR and
goodness of fit S are based on F^2^, conventional R-factors R are based
on F, with F set to zero for negative F^2^. The threshold expression of
F^2^ > 2(J\(Bs(F^2^) is used only for calculating R-factors(gt) etc. and is
not relevant to the choice of reflections for refinement. R-factors based
on F^2^ are statistically about twice as large as those based on F, and R-
factors based on ALL data will be even larger.
;
_refine_ls_structure_factor_coef Fsqd
_refine_ls_matrix_type           full
_refine_ls_weighting_scheme      calc
_refine_ls_weighting_details     
'calc w=1/[(J\(Bs^2^(Fo^2^)+(0.2000P)^2^+0.0000P] where P=(Fo^2^+2Fc^2^)/3'
_refine_ls_hydrogen_treatment    constr
_refine_ls_extinction_method     none
_refine_ls_number_reflns         15157
_refine_ls_number_parameters     1394
_refine_ls_number_restraints     1241
_refine_ls_R_factor_all          0.2021
_refine_ls_R_factor_gt           0.1565
_refine_ls_wR_factor_ref         0.419
_refine_ls_wR_factor_gt          0.3975
_refine_ls_goodness_of_fit_ref   1.45
_refine_ls_restrained_S_all      1.405
_refine_ls_shift/su_max          0
_refine_ls_shift/su_mean         0
_refine_diff_density_max         0.56
_refine_diff_density_min         -0.276
_refine_diff_density_rms         0.081

#----------------------------------------------------------------------------#
# ATOMIC TYPES, COORDINATES AND THERMAL PARAMETERS #
#----------------------------------------------------------------------------#

loop_
_atom_type_symbol
_atom_type_description
_atom_type_scat_dispersion_real
_atom_type_scat_dispersion_imag
_atom_type_scat_source
Pd Pd -0.9988 1.0072 'International Tables Vol C Tables 4.2.6.8 and 6.1.1.4'
N N 0.0061 0.0033 'International Tables Vol C Tables 4.2.6.8 and 6.1.1.4'
C C 0.0033 0.0016 'International Tables Vol C Tables 4.2.6.8 and 6.1.1.4'
H H 0 0 'International Tables Vol C Tables 4.2.6.8 and 6.1.1.4'

loop_
_atom_site_label
_atom_site_type_symbol
_atom_site_fract_x
_atom_site_fract_y
_atom_site_fract_z
_atom_site_U_iso_or_equiv
_atom_site_adp_type
_atom_site_occupancy
_atom_site_symmetry_multiplicity
_atom_site_calc_flag
_atom_site_refinement_flags
_atom_site_disorder_assembly
_atom_site_disorder_group
Pd1 Pd 0.22399(4) 0.02819(4) 0.24148(3) 0.2250(11) Uani 1 1 d DU . .
Pd2 Pd 0.40112(4) -0.10656(4) 0.10017(4) 0.2396(12) Uani 1 1 d DU . .
Pd3 Pd 0.35940(4) 0.20599(4) 0.10016(3) 0.2144(11) Uani 1 1 d DU . .
N1 N 0.2582(4) 0.0002(3) 0.2328(5) 0.237(10) Uani 1 1 d GDU . .
C2 C 0.2563(4) -0.0104(5) 0.2140(4) 0.241(11) Uani 1 1 d GU . .
H2 H 0.2387 -0.0058 0.2065 0.29 Uiso 1 1 calc R . .
C3 C 0.2800(7) -0.0275(5) 0.2062(2) 0.278(15) Uani 1 1 d GU . .
H3 H 0.2787 -0.0347 0.1934 0.334 Uiso 1 1 calc R . .
C4 C 0.3056(5) -0.0341(4) 0.2173(4) 0.29(2) Uani 1 1 d GDU . .
C5 C 0.3075(4) -0.0236(5) 0.2361(4) 0.294(19) Uani 1 1 d GU . .
H5 H 0.325 -0.0281 0.2437 0.353 Uiso 1 1 calc R . .
C6 C 0.2838(7) -0.0065(5) 0.2439(2) 0.41(3) Uani 1 1 d GU . .
H6 H 0.2851 0.0007 0.2568 0.491 Uiso 1 1 calc R . .
C7 C 0.3299(6) -0.0505(7) 0.2068(4) 0.319(17) Uani 0.5 1 d PDU . .
N7 N 0.3299(6) -0.0505(7) 0.2068(4) 0.319(17) Uani 0.5 1 d PDU . .
C8 C 0.3532(8) -0.0683(12) 0.2157(4) 0.59(5) Uani 1 1 d DU . .
H8 H 0.3554 -0.0733 0.2289 0.709 Uiso 1 1 calc R . .
C9 C 0.3723(6) -0.0769(8) 0.2001(2) 0.327(19) Uani 1 1 d DU . .
H9 H 0.3931 -0.0829 0.2014 0.393 Uiso 1 1 calc R . .
N10 N 0.3563(6) -0.0753(9) 0.1824(2) 0.33(2) Uani 0.5 1 d PDU . .
C10 C 0.3563(6) -0.0753(9) 0.1824(2) 0.33(2) Uani 0.5 1 d PDU . .
C11 C 0.3304(6) -0.0569(7) 0.1868(4) 0.298(16) Uani 1 1 d DU . .
H11 H 0.3156 -0.0501 0.1777 0.357 Uiso 1 1 calc R . .
C12 C 0.3682(6) -0.0817(4) 0.16374(18) 0.37(3) Uani 1 1 d GDU . .
C13 C 0.3966(5) -0.0944(4) 0.1598(3) 0.231(12) Uani 1 1 d GU . .
H13 H 0.4111 -0.0971 0.1698 0.277 Uiso 1 1 calc R . .
C14 C 0.4039(3) -0.1031(3) 0.1411(4) 0.251(16) Uani 1 1 d GU . .
H14 H 0.4234 -0.1118 0.1384 0.301 Uiso 1 1 calc R . .
N15 N 0.3828(5) -0.0992(3) 0.12639(17) 0.223(9) Uani 1 1 d GDU . .
C16 C 0.3543(4) -0.0866(4) 0.1304(3) 0.42(3) Uani 1 1 d GU . .
H16 H 0.3398 -0.0839 0.1203 0.506 Uiso 1 1 calc R . .
C17 C 0.3470(4) -0.0778(4) 0.1490(4) 0.36(2) Uani 1 1 d GU . .
H17 H 0.3276 -0.0692 0.1517 0.432 Uiso 1 1 calc R . .
N18 N 0.4154(6) -0.0625(2) 0.0990(3) 0.230(8) Uani 1 1 d GDU . .
C19 C 0.3929(4) -0.0443(6) 0.0907(3) 0.322(17) Uani 1 1 d GU . .
H19 H 0.3754 -0.0534 0.0851 0.386 Uiso 1 1 calc R . .
C20 C 0.3962(5) -0.0127(6) 0.0908(3) 0.37(2) Uani 1 1 d GU . .
H20 H 0.3808 -0.0002 0.0852 0.445 Uiso 1 1 calc R . .
C21 C 0.4219(6) 0.0007(2) 0.0990(3) 0.40(3) Uani 1 1 d GDU . .
C22 C 0.4443(4) -0.0176(5) 0.1072(3) 0.35(2) Uani 1 1 d GU . .
H22 H 0.4619 -0.0085 0.1128 0.417 Uiso 1 1 calc R . .
C23 C 0.4411(5) -0.0492(5) 0.1072(3) 0.285(14) Uani 1 1 d GU . .
H23 H 0.4565 -0.0617 0.1128 0.342 Uiso 1 1 calc R . .
N24 N 0.4336(5) 0.0306(4) 0.1031(2) 0.348(18) Uani 0.5 1 d PDU . .
C24 C 0.4336(5) 0.0306(4) 0.1031(2) 0.348(18) Uani 0.5 1 d PU . .
C25 C 0.4602(6) 0.0434(7) 0.1112(4) 0.39(2) Uani 1 1 d DU . .
H25 H 0.4777 0.0332 0.1161 0.474 Uiso 1 1 calc R . .
C26 C 0.4546(7) 0.0753(7) 0.1103(4) 0.46(3) Uani 1 1 d DU . .
H26 H 0.468 0.0909 0.1146 0.552 Uiso 1 1 calc R . .
C27 C 0.4255(7) 0.0800(4) 0.1018(3) 0.328(15) Uani 0.5 1 d PDU . .
N27 N 0.4255(7) 0.0800(4) 0.1018(3) 0.328(15) Uani 0.5 1 d PDU . .
C28 C 0.4108(5) 0.0514(4) 0.0969(3) 0.275(13) Uani 1 1 d DU . .
H28 H 0.3914 0.0476 0.0912 0.33 Uiso 1 1 calc R . .
C29 C 0.4120(6) 0.1099(3) 0.0992(3) 0.36(2) Uani 1 1 d GDU . .
C30 C 0.3828(6) 0.1128(4) 0.0915(3) 0.254(11) Uani 1 1 d GU . .
H30 H 0.3726 0.0953 0.0866 0.305 Uiso 1 1 calc R . .
C31 C 0.3687(3) 0.1412(7) 0.0910(2) 0.280(13) Uani 1 1 d GU . .
H31 H 0.3487 0.1432 0.0857 0.336 Uiso 1 1 calc R . .
N32 N 0.3837(5) 0.1668(4) 0.0982(3) 0.215(7) Uani 1 1 d GDU . .
C33 C 0.4129(5) 0.1639(4) 0.1059(2) 0.255(12) Uani 1 1 d GU . .
H33 H 0.4231 0.1814 0.1108 0.307 Uiso 1 1 calc R . .
C34 C 0.4270(3) 0.1355(6) 0.1064(3) 0.35(2) Uani 1 1 d GU . .
H34 H 0.447 0.1335 0.1116 0.425 Uiso 1 1 calc R . .
N35 N 0.3451(5) 0.1942(4) 0.12670(17) 0.237(11) Uani 1 1 d GDU . .
C36 C 0.3636(3) 0.2055(3) 0.1413(3) 0.272(18) Uani 1 1 d GU . .
H36 H 0.3799 0.2191 0.1383 0.326 Uiso 1 1 calc R . .
C37 C 0.3583(4) 0.1971(5) 0.1603(3) 0.250(14) Uani 1 1 d GU . .
H37 H 0.371 0.2048 0.1703 0.3 Uiso 1 1 calc R . .
C38 C 0.3345(5) 0.1773(5) 0.16467(17) 0.40(3) Uani 1 1 d GDU . .
C39 C 0.3159(4) 0.1660(4) 0.1501(3) 0.33(2) Uani 1 1 d GU . .
H39 H 0.2996 0.1524 0.1531 0.393 Uiso 1 1 calc R . .
C40 C 0.3212(4) 0.1744(4) 0.1311(3) 0.31(2) Uani 1 1 d GU . .
H40 H 0.3086 0.1667 0.1211 0.372 Uiso 1 1 calc R . .
N41 N 0.3263(12) 0.1629(10) 0.1825(2) 0.45(3) Uani 0.5 1 d PDU . .
C41 C 0.3263(12) 0.1629(10) 0.1825(2) 0.45(3) Uani 0.5 1 d PDU . .
C42 C 0.3374(14) 0.1717(12) 0.2010(2) 0.56(5) Uani 1 1 d DU . .
H42 H 0.35 0.1888 0.204 0.667 Uiso 1 1 calc R . .
C43 C 0.3256(11) 0.1496(11) 0.2140(5) 0.58(4) Uani 1 1 d DU . .
H43 H 0.3317 0.1473 0.227 0.699 Uiso 1 1 calc R . .
N44 N 0.3032(5) 0.1316(5) 0.2044(3) 0.275(11) Uani 0.5 1 d PDU . .
C44 C 0.3032(5) 0.1316(5) 0.2044(3) 0.275(11) Uani 0.5 1 d PDU . .
C45 C 0.3045(5) 0.1386(5) 0.1844(3) 0.264(13) Uani 1 1 d DU . .
H45 H 0.2933 0.1291 0.1743 0.317 Uiso 1 1 calc R . .
C46 C 0.2847(4) 0.1103(4) 0.2161(4) 0.35(3) Uani 1 1 d GDU . .
C47 C 0.2879(4) 0.1024(5) 0.2353(4) 0.57(5) Uani 1 1 d GU . .
H47 H 0.3029 0.1124 0.243 0.688 Uiso 1 1 calc R . .
C48 C 0.2694(5) 0.0799(6) 0.2433(2) 0.41(3) Uani 1 1 d GU . .
H48 H 0.2717 0.0745 0.2564 0.497 Uiso 1 1 calc R . .
N49 N 0.2476(4) 0.0653(3) 0.2320(4) 0.219(10) Uani 1 1 d GDU . .
C50 C 0.2443(3) 0.0733(5) 0.2127(4) 0.221(10) Uani 1 1 d GU . .
H50 H 0.2294 0.0633 0.205 0.265 Uiso 1 1 calc R . .
C51 C 0.2629(5) 0.0958(6) 0.2048(2) 0.291(15) Uani 1 1 d GU . .
H51 H 0.2606 0.1012 0.1916 0.35 Uiso 1 1 calc R . .
N52 N 0.1979(3) -0.0088(2) 0.2484(4) 0.192(8) Uani 1 1 d GDU . .
C53 C 0.2046(3) -0.0162(4) 0.2674(3) 0.269(15) Uani 1 1 d GU . .
H53 H 0.2192 -0.0046 0.2744 0.323 Uiso 1 1 calc R . .
C54 C 0.1897(5) -0.0406(6) 0.2762(2) 0.310(18) Uani 1 1 d GU . .
H54 H 0.1942 -0.0457 0.2892 0.372 Uiso 1 1 calc R . .
C55 C 0.1683(4) -0.0575(3) 0.2660(4) 0.231(12) Uani 1 1 d GDU . .
C56 C 0.1617(3) -0.0501(4) 0.2470(4) 0.236(11) Uani 1 1 d GU . .
H56 H 0.147 -0.0617 0.24 0.283 Uiso 1 1 calc R . .
C57 C 0.1765(4) -0.0257(5) 0.2382(2) 0.295(18) Uani 1 1 d GU . .
H57 H 0.172 -0.0206 0.2252 0.355 Uiso 1 1 calc R . .
N58 N 0.1528(6) -0.0864(4) 0.2707(3) 0.315(18) Uani 0.5 1 d PDU . .
C58 C 0.1528(6) -0.0864(4) 0.2707(3) 0.315(18) Uani 0.5 1 d PDU . .
C59 C 0.1314(5) -0.1022(5) 0.2585(3) 0.242(12) Uani 1 1 d DU . .
H59 H 0.1277 -0.0985 0.2452 0.29 Uiso 1 1 calc R . .
C60 C 0.1558(10) -0.1000(8) 0.2885(4) 0.50(2) Uani 1 1 d DU . .
H60 H 0.1693 -0.0953 0.2988 0.599 Uiso 1 1 calc R . .
N61 N 0.1903(3) 0.0581(2) 0.2477(4) 0.201(8) Uani 1 1 d GDU . .
C62 C 0.1944(4) 0.0664(5) 0.2668(4) 0.243(13) Uani 1 1 d GU . .
H62 H 0.2115 0.059 0.2738 0.291 Uiso 1 1 calc R . .
C63 C 0.1734(6) 0.0856(6) 0.2757(2) 0.35(2) Uani 1 1 d GU . .
H63 H 0.1761 0.0913 0.2888 0.422 Uiso 1 1 calc R . .
C64 C 0.1483(5) 0.0964(4) 0.2655(4) 0.39(3) Uani 1 1 d GDU . .
C65 C 0.1443(3) 0.0881(4) 0.2464(4) 0.256(15) Uani 1 1 d GU . .
H65 H 0.1272 0.0955 0.2394 0.307 Uiso 1 1 calc R . .
C66 C 0.1653(5) 0.0689(4) 0.2375(2) 0.257(15) Uani 1 1 d GU . .
H66 H 0.1625 0.0632 0.2244 0.308 Uiso 1 1 calc R . .
N67 N 0.1237(5) 0.1173(5) 0.2700(4) 0.302(15) Uani 0.5 1 d PU . .
C67 C 0.1237(5) 0.1173(5) 0.2700(4) 0.302(15) Uani 0.5 1 d PDU . .
C68 C 0.1228(10) 0.1331(10) 0.2872(5) 0.50(2) Uani 1 1 d U . .
H67A H 0.1366 0.129 0.2974 0.599 Uiso 1 1 calc R . .
N70 N 0.3874(8) -0.1508(3) 0.1022(2) 0.218(7) Uani 1 1 d GDU . .
C71 C 0.3575(7) -0.1564(6) 0.0965(2) 0.253(11) Uani 1 1 d GU . .
H71 H 0.345 -0.1401 0.0919 0.303 Uiso 1 1 calc R . .
C72 C 0.3458(4) -0.1859(9) 0.0974(3) 0.306(17) Uani 1 1 d GU . .
H72 H 0.3253 -0.1898 0.0935 0.367 Uiso 1 1 calc R . .
C73 C 0.3640(8) -0.2097(4) 0.1040(3) 0.292(17) Uani 1 1 d GDU . .
C74 C 0.3939(7) -0.2041(5) 0.1097(3) 0.259(13) Uani 1 1 d GU . .
H74 H 0.4063 -0.2203 0.1142 0.311 Uiso 1 1 calc R . .
C75 C 0.4056(4) -0.1746(8) 0.1088(2) 0.259(13) Uani 1 1 d GU . .
H75 H 0.426 -0.1707 0.1127 0.31 Uiso 1 1 calc R . .
N76 N 0.3526(7) -0.2408(4) 0.1044(6) 0.329(17) Uani 0.5 1 d PDU . .
C76 C 0.3526(7) -0.2408(4) 0.1044(6) 0.329(17) Uani 0.5 1 d PDU . .
C77 C 0.3745(7) -0.2628(8) 0.1100(6) 0.41(3) Uani 1 1 d DU . .
H77 H 0.396 -0.2613 0.1114 0.486 Uiso 1 1 calc R . .
N78 N 0.4133(5) -0.1119(3) 0.07276(16) 0.209(7) Uani 1 1 d GDU . .
C79 C 0.3946(3) -0.1060(3) 0.0570(3) 0.32(2) Uani 1 1 d GU . .
C80 C 0.4051(4) -0.1116(4) 0.0385(2) 0.265(16) Uani 1 1 d GU . .
H80 H 0.3923 -0.1076 0.0278 0.317 Uiso 1 1 calc R . .
C81 C 0.4344(4) -0.1230(4) 0.03569(12) 0.307(19) Uani 1 1 d GDU . .
C82 C 0.4532(3) -0.1289(4) 0.0514(2) 0.34(2) Uani 1 1 d GU . .
H82 H 0.4732 -0.1368 0.0495 0.409 Uiso 1 1 calc R . .
C83 C 0.4426(5) -0.1234(4) 0.06994(16) 0.38(3) Uani 1 1 d GU . .
H83 H 0.4554 -0.1274 0.0807 0.456 Uiso 1 1 calc R . .
N84 N 0.4435(5) -0.1250(7) 0.01578(19) 0.265(13) Uani 0.5 1 d PDU . .
C84 C 0.4435(5) -0.1250(7) 0.01578(19) 0.265(13) Uani 0.5 1 d PDU . .
C85 C 0.4234(7) -0.1218(9) 0 0.266(19) Uani 1 2 d SDU . .
H85 H 0.402 -0.1183 0 0.319 Uiso 1 2 calc SR . .
C87 C 0.4732(5) -0.1354(6) 0.01011(7) 0.298(13) Uani 1 1 d DU . .
H87 H 0.4896 -0.1411 0.0183 0.358 Uiso 1 1 calc R . .
N88 N 0.3718(4) 0.2156(4) 0.07365(14) 0.185(7) Uani 1 1 d GDU . .
C89 C 0.3548(3) 0.2030(3) 0.0587(3) 0.259(16) Uani 1 1 d GU . .
H89 H 0.3382 0.1898 0.0615 0.311 Uiso 1 1 calc R . .
C90 C 0.3622(4) 0.2099(3) 0.0397(2) 0.197(11) Uani 1 1 d GU . .
H90 H 0.3505 0.2013 0.0295 0.236 Uiso 1 1 calc R . .
C91 C 0.3865(4) 0.2292(4) 0.03569(11) 0.28(2) Uani 1 1 d GDU . .
C92 C 0.4035(3) 0.2418(3) 0.0506(2) 0.241(13) Uani 1 1 d GU . .
H92 H 0.4201 0.255 0.0478 0.289 Uiso 1 1 calc R . .
C93 C 0.3962(4) 0.2350(3) 0.06960(16) 0.239(15) Uani 1 1 d GU . .
H93 H 0.4078 0.2436 0.0798 0.287 Uiso 1 1 calc R . .
N94 N 0.3335(7) 0.2444(4) 0.1020(2) 0.219(7) Uani 1 1 d GDU . .
C95 C 0.3475(3) 0.2711(8) 0.1083(2) 0.239(10) Uani 1 1 d GU . .
H95 H 0.3685 0.271 0.1117 0.287 Uiso 1 1 calc R . .
C96 C 0.3307(7) 0.2981(5) 0.1095(3) 0.250(12) Uani 1 1 d GU . .
H96 H 0.3403 0.3163 0.1138 0.301 Uiso 1 1 calc R . .
C97 C 0.3000(7) 0.2983(4) 0.1044(3) 0.33(2) Uani 1 1 d GDU . .
C98 C 0.2860(3) 0.2716(8) 0.0982(2) 0.253(13) Uani 1 1 d GU . .
H98 H 0.265 0.2717 0.0947 0.303 Uiso 1 1 calc R . .
C99 C 0.3027(7) 0.2446(4) 0.0969(2) 0.273(15) Uani 1 1 d GU . .
H99 H 0.2932 0.2264 0.0926 0.327 Uiso 1 1 calc R . .
N104 N 0.2804(7) 0.3246(5) 0.1063(5) 0.280(14) Uani 0.5 1 d PDU . .
C104 C 0.2804(7) 0.3246(5) 0.1063(5) 0.280(14) Uani 0.5 1 d PDU . .
C105 C 0.2872(6) 0.3549(8) 0.1127(4) 0.303(14) Uani 1 1 d DU . .
H105 H 0.3061 0.3609 0.1182 0.364 Uiso 1 1 calc R . .
C106 C 0.2499(8) 0.3228(6) 0.1021(5) 0.302(17) Uani 1 1 d DU . .
H106 H 0.2381 0.3055 0.0984 0.362 Uiso 1 1 calc R . .
N107 N 0.3943(5) 0.2348(6) 0.01588(18) 0.254(13) Uani 0.5 1 d PDU . .
C107 C 0.3943(5) 0.2348(6) 0.01588(18) 0.254(13) Uani 0.5 1 d PDU . .
C108 C 0.3780(6) 0.2257(8) 0 0.231(17) Uani 1 2 d SDU . .
H108 H 0.359 0.2152 0 0.277 Uiso 1 2 calc SR . .
C109 C 0.4189(5) 0.2536(5) 0.00988(7) 0.291(14) Uani 1 1 d DU . .
H109 H 0.4327 0.2642 0.018 0.349 Uiso 1 1 calc R . .
C200 C 0.470(3) -0.124(3) 0.1863(12) 0.43(6) Uani 0.33 1 d PU . .
C201 C 0.4433(11) -0.1196(11) 0.2008(6) 0.26(2) Uani 0.5 1 d PU . .
C202 C 0.2835(9) -0.1420(10) 0.1263(6) 0.28(2) Uani 0.5 1 d PU . .
C203 C 0.3698(11) -0.0491(9) 0.2683(6) 0.28(2) Uani 0.5 1 d PU . .
C204 C 0.1790(7) -0.1375(6) 0.2398(5) 0.197(13) Uani 0.5 1 d PU . .
C205 C 0.0937(14) 0.0144(16) 0.2462(11) 0.31(3) Uani 0.33 1 d PU . .
C206 C 0.0886(7) 0.1143(8) 0.2144(5) 0.168(14) Uani 0.5 1 d PU . .
C207 C 0.0798(7) 0.1028(8) 0.1989(5) 0.172(14) Uani 0.5 1 d PU . .
C208 C 0.1904(15) 0.1427(15) 0.2145(11) 0.33(4) Uani 0.33 1 d PU . .
C209 C 0.4395(6) -0.0563(7) 0 0.265(13) Uani 1 2 d SU . .
C210 C 0.432(3) -0.0304(15) 0.0243(17) 0.46(6) Uani 0.33 1 d PU . .
C211 C 0.4176(15) 0.1680(12) 0 0.26(3) Uani 0.5 2 d SPU . .
C213 C 0.296(2) 0.159(2) 0 0.37(4) Uani 0.5 2 d SPU . .
C214 C 0.3130(13) 0.1899(15) 0 0.23(3) Uani 0.5 2 d SPU . .
C215 C 0.4788(19) 0.192(2) 0.0522(10) 0.40(5) Uani 0.5 1 d PU . .
C216 C 0.4258(18) 0.1967(17) 0.1959(11) 0.33(3) Uani 0.33 1 d PU . .
C217 C 0.4913(5) 0.1424(4) 0.1281(4) 0.216(9) Uani 1 1 d U . .
C218 C 0.5168(15) 0.124(3) 0.1064(13) 0.26(4) Uani 0.5 1 d PU . .
C219 C 0.5400(5) 0.1532(6) 0.1368(4) 0.205(11) Uani 0.75 1 d PU . .
C220 C 0.5292(4) 0.2727(5) 0.2001(3) 0.193(9) Uani 0.75 1 d PU . .
C222 C 0.5333(6) 0.2212(5) 0.1950(4) 0.166(8) Uani 0.75 1 d PU . .
C223 C 0.5225(3) 0.3156(4) 0.2995(4) 0.195(8) Uani 1 1 d U . .
C224 C 0.5218(3) 0.3303(4) 0.3171(2) 0.137(6) Uani 1 1 d U . .
C225 C 0.0369(14) 0.2533(16) 0.1387(9) 0.23(3) Uani 0.5 1 d PU . .
C226 C 0.0501(12) 0.2752(10) 0.1586(6) 0.25(3) Uani 0.5 1 d PU . .
C227 C 0.081(3) 0.320(3) 0 0.37(7) Uani 0.5 2 d SPU . .
C228 C 0.094(2) 0.350(3) 0 0.34(5) Uani 0.5 2 d SPU . .
C229 C 0.0884(6) 0.3383(6) 0.0841(4) 0.169(11) Uani 0.75 1 d PU . .
C230 C 0.0854(9) 0.3073(11) 0.0778(6) 0.25(2) Uani 1 1 d U . .
C231 C 0.0756(10) 0.3063(7) 0.0729(8) 0.31(3) Uani 0.75 1 d PU . .
C232 C 0 0.5 0.1530(10) 0.28(5) Uani 0.5 2 d SPU . .
C233 C 0.2367(10) 0.5738(19) 0.1238(6) 0.28(2) Uani 0.75 1 d PU . .
C234 C 0.1821(13) 0.5337(12) 0.0645(14) 0.37(4) Uani 0.5 1 d PU . .
C235 C 0.2645(7) 0.5444(6) 0.1239(4) 0.210(10) Uani 0.75 1 d PU . .
C238 C 0.1609(18) 0.3482(13) 0.2272(10) 0.34(4) Uani 0.5 1 d PU . .
C240 C 0.3051(6) 0.3895(6) 0.1664(4) 0.163(11) Uani 0.5 1 d PU . .
C241 C 0.3831(14) 0.3510(18) 0.1424(16) 0.35(5) Uani 0.33 1 d PU . .
C242 C 0.3696(16) 0.3665(10) 0.1216(14) 0.32(4) Uani 0.33 1 d PU . .
C244 C 0.1807(7) 0.3757(11) 0.1581(4) 0.27(2) Uani 0.5 1 d PU . .
C245 C 0.2470(12) 0.5840(16) 0.1116(8) 0.30(3) Uani 0.75 1 d PU . .
C246 C 0.3033(5) 0.1722(5) 0.0849(3) 0.192(9) Uani 1 1 d U . .
C247 C 0.2052(10) 0.2598(19) 0.0865(13) 0.38(4) Uani 0.5 1 d PU . .
C248 C 0.2812(11) 0.2508(9) 0.0438(5) 0.270(19) Uani 0.5 1 d PU . .
C249 C 0.2739(12) 0.1538(10) 0.0781(8) 0.169(16) Uani 1 1 d U . .
C250 C 0.2597(9) 0.1061(10) 0.1541(6) 0.23(2) Uani 0.5 1 d PU . .
C251 C 0.2341(5) 0.3012(6) 0.1432(4) 0.172(11) Uani 0.5 1 d PU . .
C252 C 0.3277(10) 0.0418(7) 0.0739(5) 0.250(17) Uani 0.5 1 d PU . .
C253 C 0.4943(17) 0.198(2) 0.0755(12) 0.22(4) Uani 0.25 1 d PU . .
C254 C 0.4726(9) 0.2966(8) 0.0502(6) 0.27(2) Uani 0.5 1 d PU . .
C255 C 0.221(2) 0.114(2) 0.1425(14) 0.27(4) Uani 0.33 1 d PU . .
C256 C 0.5136(12) 0.1542(11) 0.1093(10) 0.21(2) Uani 0.5 1 d PU . .
C257 C 0.279(3) 0.166(3) 0.071(2) 0.24(5) Uani 0.5 1 d PU . .
C258 C 0.2517(8) 0.4682(9) 0.1278(5) 0.115(12) Uani 0.75 1 d PU . .
C259 C 0.2425(12) 0.4697(12) 0.1081(13) 0.32(3) Uani 0.5 1 d PU . .
C260 C 0.2216(14) 0.4716(13) 0.1426(11) 0.27(3) Uani 0.5 1 d PU . .
C261 C 0.254(2) 0.4720(18) 0.1405(12) 0.21(4) Uani 0.5 1 d PU . .
C262 C 0.2509(7) 0.4358(9) 0.1340(5) 0.172(14) Uani 0.5 1 d PU . .
C263 C 0.2686(18) 0.1350(19) 0.0934(13) 0.22(4) Uani 0.25 1 d PU . .
C264 C 0.5247(14) 0.2378(16) 0.2199(11) 0.26(5) Uani 0.5 1 d PU . .
C265 C 0.5231(11) 0.1144(14) 0.1317(7) 0.20(2) Uani 0.5 1 d PU . .
C266 C 0.5662(9) 0.2325(9) 0.2067(7) 0.213(18) Uani 0.5 1 d PU . .
C267 C 0 0.5 0.1382(10) 0.21(3) Uani 0.5 2 d SPU . .
C268 C 0.5296(12) 0.1260(15) 0.1177(8) 0.29(4) Uani 0.75 1 d PU . .
C269 C 0.1869(9) 0.2515(10) 0.0780(8) 0.24(2) Uani 0.5 1 d PU . .
C270 C 0.1548(10) 0.3713(12) 0.2335(10) 0.28(2) Uani 0.5 1 d PU . .
C271 C 0.0488(16) 0.257(2) 0.1472(16) 0.28(2) Uani 0.5 1 d PU . .
C272 C 0.063(3) 0.334(3) 0 0.33(5) Uani 0.5 2 d SPU . .
C273 C 0.237(2) 0.100(2) 0.1406(19) 0.21(5) Uani 0.25 1 d PU . .
C274 C 0.537(2) 0.2359(15) 0.2151(13) 0.192(12) Uani 0.5 1 d PU . .
C275 C 0.5307(16) 0.2076(13) 0.2130(10) 0.192(12) Uani 0.33 1 d PU . .
C276 C 0.2390(18) 0.5621(15) 0.1101(11) 0.192(12) Uani 0.5 1 d PU . .
C277 C 0.2335(11) 0.5470(9) 0.1004(6) 0.192(12) Uani 0.5 1 d PU . .

loop_
_atom_site_aniso_label
_atom_site_aniso_U_11
_atom_site_aniso_U_22
_atom_site_aniso_U_33
_atom_site_aniso_U_23
_atom_site_aniso_U_13
_atom_site_aniso_U_12
Pd1 0.2024(18) 0.1934(18) 0.279(2) 0.0070(15) 0.0118(15) -0.0033(16)
Pd2 0.2071(18) 0.195(2) 0.317(3) -0.0059(17) 0.0079(17) -0.0028(13)
Pd3 0.1898(16) 0.1796(17) 0.274(3) 0.0015(14) -0.0011(15) 0.0053(13)
N1 0.20(2) 0.202(15) 0.31(3) -0.071(18) 0.112(18) 0.002(15)
C2 0.20(3) 0.19(2) 0.33(4) -0.02(2) 0.05(2) 0.040(17)
C3 0.26(3) 0.23(2) 0.35(4) -0.03(2) 0.10(4) 0.05(2)
C4 0.21(3) 0.28(3) 0.39(6) 0.04(3) -0.13(3) 0.07(2)
C5 0.38(5) 0.35(4) 0.15(2) -0.02(2) -0.09(2) -0.04(3)
C6 0.23(3) 0.38(4) 0.62(7) -0.14(4) 0.07(4) 0.09(3)
C7 0.25(4) 0.33(4) 0.39(4) -0.04(3) 0.00(3) 0.02(3)
N7 0.25(4) 0.33(4) 0.39(4) -0.04(3) 0.00(3) 0.02(3)
C8 0.24(4) 0.93(10) 0.61(8) -0.21(7) -0.06(4) 0.29(5)
C9 0.21(3) 0.32(3) 0.45(5) 0.09(4) 0.00(3) 0.00(3)
N10 0.28(4) 0.35(4) 0.37(5) -0.05(4) 0.05(3) 0.07(3)
C10 0.28(4) 0.35(4) 0.37(5) -0.05(4) 0.05(3) 0.07(3)
C11 0.25(3) 0.22(3) 0.42(5) -0.03(3) 0.02(3) 0.03(2)
C12 0.20(4) 0.31(4) 0.59(8) 0.16(5) -0.17(4) -0.10(3)
C13 0.17(3) 0.22(3) 0.30(3) 0.00(2) -0.06(2) 0.03(2)
C14 0.14(2) 0.138(16) 0.47(5) -0.03(3) 0.02(3) 0.011(12)
N15 0.27(3) 0.218(18) 0.183(17) -0.014(12) -0.020(17) 0.002(19)
C16 0.19(3) 0.28(3) 0.80(8) -0.20(4) -0.17(4) 0.16(2)
C17 0.21(3) 0.32(3) 0.55(6) -0.19(4) 0.09(4) -0.03(2)
N18 0.20(2) 0.179(16) 0.31(2) 0.005(14) -0.005(17) 0.008(16)
C19 0.30(3) 0.23(3) 0.44(4) -0.02(3) 0.03(3) 0.01(3)
C20 0.31(4) 0.31(5) 0.49(5) -0.10(4) -0.09(4) 0.04(3)
C21 0.36(7) 0.29(4) 0.55(7) 0.00(5) 0.07(5) 0.08(5)
C22 0.26(3) 0.19(3) 0.60(6) -0.03(3) 0.00(3) -0.06(3)
C23 0.20(3) 0.37(5) 0.28(3) 0.03(3) -0.06(2) 0.05(3)
N24 0.24(3) 0.31(4) 0.49(5) -0.03(3) -0.05(3) 0.05(3)
C24 0.24(3) 0.31(4) 0.49(5) -0.03(3) -0.05(3) 0.05(3)
C25 0.28(4) 0.28(4) 0.62(6) -0.01(4) -0.15(4) 0.00(3)
C26 0.51(7) 0.21(3) 0.67(7) -0.07(4) -0.15(5) 0.04(4)
C27 0.23(3) 0.38(5) 0.38(4) 0.00(4) -0.02(3) 0.02(3)
N27 0.23(3) 0.38(5) 0.38(4) 0.00(4) -0.02(3) 0.02(3)
C28 0.20(3) 0.29(3) 0.34(3) 0.01(3) -0.02(2) -0.07(2)
C29 0.35(5) 0.34(6) 0.39(5) 0.01(4) -0.02(4) 0.15(5)
C30 0.24(3) 0.20(3) 0.32(3) -0.01(2) -0.03(2) 0.05(2)
C31 0.24(3) 0.20(2) 0.40(3) -0.02(3) 0.01(2) -0.02(3)
N32 0.173(16) 0.157(16) 0.31(2) 0.012(14) -0.064(14) -0.027(13)
C33 0.27(3) 0.22(3) 0.28(3) -0.05(2) -0.07(2) -0.12(2)
C34 0.44(5) 0.19(3) 0.44(4) -0.05(3) -0.01(3) 0.02(3)
N35 0.25(3) 0.28(3) 0.175(18) -0.020(16) -0.049(17) 0.05(2)
C36 0.17(2) 0.20(2) 0.44(5) 0.06(4) 0.00(3) 0.019(17)
C37 0.16(2) 0.23(3) 0.36(4) -0.05(2) -0.07(2) -0.049(17)
C38 0.19(3) 0.36(5) 0.63(8) -0.27(5) -0.18(4) 0.06(3)
C39 0.31(3) 0.23(2) 0.45(5) 0.08(3) 0.16(4) -0.02(2)
C40 0.21(3) 0.23(3) 0.49(6) 0.03(3) 0.02(3) -0.09(2)
N41 0.52(6) 0.32(5) 0.50(7) 0.11(5) 0.17(6) -0.09(4)
C41 0.52(6) 0.32(5) 0.50(7) 0.11(5) 0.17(6) -0.09(4)
C42 0.45(7) 0.39(6) 0.83(12) -0.05(7) 0.14(8) 0.00(5)
C43 0.43(6) 0.68(10) 0.64(8) 0.06(7) 0.12(6) -0.26(6)
N44 0.23(3) 0.29(3) 0.30(3) 0.08(2) -0.06(2) -0.049(18)
C44 0.23(3) 0.29(3) 0.30(3) 0.08(2) -0.06(2) -0.049(18)
C45 0.37(4) 0.24(3) 0.18(2) 0.06(2) -0.05(2) 0.03(2)
C46 0.19(3) 0.25(3) 0.60(8) -0.11(4) 0.13(3) -0.10(2)
C47 0.86(11) 0.51(7) 0.35(5) 0.03(4) 0.34(6) 0.13(7)
C48 0.20(3) 0.63(7) 0.42(5) 0.02(5) -0.08(3) 0.11(4)
N49 0.194(19) 0.25(2) 0.22(2) 0.092(16) 0.003(16) 0.057(15)
C50 0.21(2) 0.15(2) 0.30(4) -0.003(19) -0.04(2) -0.027(16)
C51 0.22(3) 0.25(3) 0.40(4) 0.11(3) 0.04(3) -0.04(2)
N52 0.207(19) 0.156(14) 0.21(2) 0.029(13) 0.035(13) 0.024(14)
C53 0.18(2) 0.29(3) 0.34(4) 0.02(3) 0.06(2) -0.078(19)
C54 0.25(3) 0.39(5) 0.29(3) -0.11(4) -0.05(3) 0.01(3)
C55 0.28(4) 0.25(3) 0.16(2) 0.03(2) -0.07(2) 0.03(2)
C56 0.22(2) 0.23(3) 0.26(3) -0.04(2) -0.04(2) -0.021(19)
C57 0.21(3) 0.27(4) 0.40(4) -0.14(3) -0.07(3) -0.01(2)
N58 0.25(3) 0.21(2) 0.48(6) -0.04(3) -0.05(3) -0.02(2)
C58 0.25(3) 0.21(2) 0.48(6) -0.04(3) -0.05(3) -0.02(2)
C59 0.24(3) 0.34(4) 0.14(2) 0.11(2) 0.018(18) 0.03(2)
C60 0.47(4) 0.65(6) 0.38(3) -0.07(5) -0.09(3) 0.13(4)
N61 0.23(2) 0.141(11) 0.23(2) -0.016(15) 0.013(15) -0.010(14)
C62 0.16(2) 0.30(3) 0.27(4) 0.08(3) 0.03(2) 0.018(19)
C63 0.16(3) 0.55(6) 0.34(4) -0.09(4) 0.04(3) -0.12(3)
C64 0.18(4) 0.57(7) 0.43(6) -0.26(5) 0.11(3) -0.12(4)
C65 0.19(2) 0.19(2) 0.39(4) 0.01(2) 0.06(2) 0.057(15)
C66 0.22(3) 0.29(3) 0.26(3) 0.07(2) -0.11(2) -0.03(2)
N67 0.32(4) 0.41(4) 0.17(2) 0.09(3) -0.04(2) -0.10(3)
C67 0.32(4) 0.41(4) 0.17(2) 0.09(3) -0.04(2) -0.10(3)
C68 0.47(4) 0.65(6) 0.38(3) -0.07(5) -0.09(3) 0.13(4)
N70 0.144(15) 0.23(2) 0.28(2) -0.017(16) -0.011(15) 0.004(15)
C71 0.18(3) 0.25(3) 0.33(3) 0.11(2) 0.00(3) -0.004(19)
C72 0.23(3) 0.37(4) 0.31(3) 0.15(3) 0.00(2) -0.10(4)
C73 0.35(5) 0.31(4) 0.22(3) 0.01(3) -0.13(3) -0.04(4)
C74 0.31(4) 0.20(3) 0.27(3) 0.00(2) -0.04(3) 0.02(2)
C75 0.20(2) 0.25(3) 0.32(3) 0.01(3) 0.011(18) 0.07(3)
N76 0.28(4) 0.22(3) 0.48(4) 0.05(3) -0.01(4) 0.07(3)
C76 0.28(4) 0.22(3) 0.48(4) 0.05(3) -0.01(4) 0.07(3)
C77 0.31(4) 0.41(5) 0.49(5) -0.03(5) 0.03(4) -0.19(4)
N78 0.25(2) 0.161(14) 0.215(19) 0.028(12) -0.016(16) 0.062(14)
C79 0.21(3) 0.23(3) 0.51(6) 0.09(4) -0.06(3) -0.05(2)
C80 0.16(2) 0.21(2) 0.42(5) -0.03(2) -0.06(3) 0.047(19)
C81 0.30(5) 0.22(3) 0.41(6) 0.07(4) -0.05(4) 0.02(3)
C82 0.22(3) 0.28(3) 0.52(7) 0.11(4) -0.03(4) -0.01(2)
C83 0.24(3) 0.26(3) 0.64(7) 0.20(4) -0.05(4) 0.11(3)
N84 0.16(2) 0.29(3) 0.35(4) 0.01(3) -0.02(2) 0.01(2)
C84 0.16(2) 0.29(3) 0.35(4) 0.01(3) -0.02(2) 0.01(2)
C85 0.12(3) 0.27(3) 0.40(6) 0 0 0.04(3)
C87 0.32(3) 0.38(3) 0.20(3) -0.005(16) 0.009(18) 0.05(3)
N88 0.21(2) 0.199(19) 0.146(15) -0.018(12) -0.014(14) 0.025(14)
C89 0.150(18) 0.20(2) 0.42(5) 0.01(3) -0.02(3) -0.010(14)
C90 0.15(2) 0.18(2) 0.26(3) 0.008(18) -0.016(17) -0.027(14)
C91 0.21(4) 0.27(4) 0.36(5) -0.16(4) -0.09(3) 0.07(3)
C92 0.25(3) 0.182(19) 0.29(3) 0.04(2) 0.02(2) -0.015(16)
C93 0.144(19) 0.150(19) 0.42(5) 0.04(2) -0.04(2) -0.021(13)
N94 0.22(2) 0.185(19) 0.253(18) 0.001(13) 0.012(15) -0.042(17)
C95 0.140(17) 0.20(2) 0.38(3) -0.04(2) -0.027(17) 0.00(2)
C96 0.21(3) 0.20(3) 0.35(3) -0.05(2) -0.02(2) 0.012(19)
C97 0.42(7) 0.17(3) 0.38(4) -0.05(3) -0.07(4) -0.07(3)
C98 0.22(2) 0.22(3) 0.32(3) 0.03(3) -0.016(19) 0.05(3)
C99 0.17(2) 0.24(4) 0.40(3) 0.08(2) -0.05(3) -0.08(2)
N104 0.24(3) 0.20(3) 0.41(4) 0.00(3) 0.02(3) -0.04(2)
C104 0.24(3) 0.20(3) 0.41(4) 0.00(3) 0.02(3) -0.04(2)
C105 0.26(3) 0.32(4) 0.33(3) -0.01(3) -0.02(3) -0.08(3)
C106 0.34(5) 0.17(3) 0.40(4) -0.02(3) 0.06(4) 0.01(3)
N107 0.17(2) 0.22(2) 0.37(4) -0.07(2) -0.03(2) 0.011(18)
C107 0.17(2) 0.22(2) 0.37(4) -0.07(2) -0.03(2) 0.011(18)
C108 0.12(3) 0.22(3) 0.36(5) 0 0 -0.03(2)
C109 0.33(3) 0.33(3) 0.21(3) -0.036(17) 0.003(18) -0.07(2)
C200 0.49(12) 0.58(13) 0.23(8) 0.27(9) -0.08(8) -0.19(11)
C201 0.29(5) 0.29(5) 0.20(4) 0.00(4) 0.05(4) -0.03(4)
C202 0.25(4) 0.30(4) 0.28(5) -0.13(4) 0.08(3) -0.05(3)
C203 0.38(5) 0.20(3) 0.26(4) -0.09(3) -0.02(4) 0.04(4)
C204 0.22(3) 0.12(2) 0.26(4) 0.02(2) -0.04(3) 0.00(2)
C205 0.22(6) 0.31(7) 0.42(9) -0.02(6) -0.04(6) -0.11(5)
C206 0.20(3) 0.24(3) 0.06(3) -0.01(2) -0.07(2) 0.01(2)
C207 0.17(3) 0.28(4) 0.07(3) -0.04(3) -0.04(2) 0.05(3)
C208 0.29(6) 0.30(6) 0.40(8) 0.12(6) 0.24(6) 0.12(5)
C209 0.21(3) 0.22(3) 0.36(4) 0 0 -0.02(2)
C210 0.53(12) 0.16(5) 0.68(14) -0.10(7) 0.02(11) -0.04(7)
C211 0.38(7) 0.23(5) 0.17(5) 0 0 -0.06(5)
C213 0.42(9) 0.39(9) 0.29(8) 0 0 -0.20(8)
C214 0.29(6) 0.34(7) 0.07(3) 0 0 -0.15(5)
C215 0.46(9) 0.42(9) 0.31(7) 0.28(7) 0.14(6) 0.06(7)
C216 0.36(8) 0.30(7) 0.31(8) 0.04(6) -0.04(6) -0.04(6)
C217 0.175(18) 0.169(17) 0.30(3) 0.032(17) -0.041(19) -0.045(15)
C218 0.20(5) 0.31(7) 0.27(8) -0.22(7) 0.07(5) -0.06(5)
C219 0.18(2) 0.24(3) 0.20(3) -0.01(2) -0.043(18) -0.050(19)
C220 0.170(19) 0.22(2) 0.19(2) -0.005(19) 0.005(15) 0.018(16)
C222 0.14(2) 0.17(2) 0.19(3) 0.02(2) 0.012(19) 0.024(15)
C223 0.128(13) 0.173(17) 0.28(3) 0.036(17) 0.015(16) 0.013(11)
C224 0.148(13) 0.161(14) 0.103(13) -0.047(11) -0.005(11) 0.023(10)
C225 0.22(6) 0.24(5) 0.24(5) 0.00(4) -0.06(4) -0.08(4)
C226 0.38(6) 0.18(4) 0.19(4) -0.06(3) 0.12(4) -0.12(4)
C227 0.24(10) 0.33(12) 0.55(14) 0 0 0.15(8)
C228 0.25(7) 0.55(14) 0.20(6) 0 0 -0.12(8)
C229 0.124(19) 0.18(2) 0.21(3) 0.02(2) 0.000(16) -0.032(19)
C230 0.15(3) 0.34(5) 0.27(3) 0.08(3) -0.04(2) -0.08(3)
C231 0.14(3) 0.10(2) 0.68(8) -0.17(3) -0.15(3) 0.039(18)
C232 0.45(10) 0.24(6) 0.16(8) 0 0 -0.06(6)
C233 0.20(3) 0.50(7) 0.16(4) -0.05(4) 0.08(3) 0.11(4)
C234 0.31(5) 0.23(5) 0.59(11) -0.12(6) 0.32(7) 0.03(4)
C235 0.24(3) 0.17(2) 0.23(3) -0.01(2) 0.02(2) -0.07(2)
C238 0.49(9) 0.22(5) 0.32(6) -0.05(5) -0.01(5) -0.09(6)
C240 0.19(3) 0.19(3) 0.11(2) -0.03(2) -0.003(19) 0.07(2)
C241 0.18(5) 0.28(7) 0.60(12) -0.21(8) -0.10(7) 0.10(5)
C242 0.28(7) 0.08(3) 0.61(12) -0.05(5) -0.18(7) 0.08(4)
C244 0.19(3) 0.59(7) 0.04(2) 0.07(3) 0.00(2) 0.09(4)
C245 0.39(5) 0.29(5) 0.24(5) -0.06(4) 0.13(4) -0.13(4)
C246 0.157(18) 0.161(17) 0.26(2) 0.017(14) -0.010(16) 0.006(16)
C247 0.09(4) 0.49(9) 0.57(11) 0.08(8) -0.03(5) 0.09(5)
C248 0.37(5) 0.24(4) 0.20(4) -0.03(3) 0.05(4) 0.05(4)
C249 0.15(3) 0.13(3) 0.22(4) 0.04(2) -0.02(3) -0.032(18)
C250 0.16(4) 0.30(5) 0.23(4) 0.06(3) -0.04(3) -0.09(3)
C251 0.11(2) 0.19(3) 0.21(3) 0.01(2) 0.01(2) -0.039(19)
C252 0.36(5) 0.13(3) 0.26(4) 0.02(3) 0.02(4) 0.04(3)
C253 0.20(7) 0.29(8) 0.16(7) -0.19(7) 0.00(5) 0.03(6)
C254 0.26(4) 0.23(4) 0.31(5) 0.10(3) 0.14(4) 0.02(3)
C255 0.23(9) 0.33(10) 0.23(7) -0.01(6) 0.07(7) 0.07(7)
C256 0.23(5) 0.21(4) 0.19(5) -0.05(5) -0.02(4) 0.06(4)
C257 0.14(6) 0.21(9) 0.36(12) 0.02(7) 0.05(6) 0.04(6)
C258 0.14(3) 0.13(2) 0.08(3) -0.05(3) -0.02(2) 0.003(17)
C259 0.21(5) 0.25(5) 0.49(9) -0.11(6) 0.05(6) -0.10(4)
C260 0.24(5) 0.26(5) 0.31(7) 0.01(4) 0.01(6) -0.04(5)
C261 0.31(8) 0.16(5) 0.16(7) -0.01(5) -0.09(7) -0.09(4)
C262 0.18(3) 0.12(3) 0.22(4) 0.03(3) -0.05(2) -0.01(2)
C263 0.23(7) 0.19(7) 0.24(8) 0.13(6) 0.01(6) -0.08(6)
C264 0.26(6) 0.23(5) 0.30(9) 0.10(5) 0.07(4) 0.16(4)
C265 0.24(5) 0.24(5) 0.13(4) 0.02(4) -0.02(4) 0.04(4)
C266 0.15(3) 0.25(4) 0.24(4) 0.10(3) 0.06(4) 0.03(3)
C267 0.22(5) 0.23(6) 0.17(7) 0 0 0.01(4)
C268 0.27(5) 0.33(6) 0.28(6) 0.25(5) -0.14(4) -0.07(4)
C269 0.12(4) 0.24(4) 0.35(5) -0.11(3) -0.13(4) 0.07(3)
C270 0.17(3) 0.22(4) 0.44(7) -0.02(4) -0.03(3) -0.09(3)
C271 0.17(3) 0.22(4) 0.44(7) -0.02(4) -0.03(3) -0.09(3)
C272 0.38(12) 0.26(9) 0.35(9) 0 0 0.07(9)
C273 0.10(7) 0.27(10) 0.25(10) 0.05(8) 0.10(7) 0.08(6)
C274 0.25(3) 0.14(3) 0.19(3) -0.06(2) 0.05(3) -0.03(2)
C275 0.25(3) 0.14(3) 0.19(3) -0.06(2) 0.05(3) -0.03(2)
C276 0.25(3) 0.14(3) 0.19(3) -0.06(2) 0.05(3) -0.03(2)
C277 0.25(3) 0.14(3) 0.19(3) -0.06(2) 0.05(3) -0.03(2)


#----------------------------------------------------------------------------#
# MOLECULAR GEOMETRY #
#----------------------------------------------------------------------------#

_geom_special_details            
;
All s.u.'s (except the s.u. in the dihedral angle between two l.s. planes)
are estimated using the full covariance matrix. The cell s.u.'s are taken
into account individually in the estimation of s.u.'s in distances, angles
and torsion angles; correlations between s.u.'s in cell parameters are only
used when they are defined by crystal symmetry. An approximate (isotropic)
treatment of cell s.u.'s is used for estimating s.u.'s involving l.s. planes.
;
loop_
_geom_bond_atom_site_label_1
_geom_bond_atom_site_label_2
_geom_bond_distance
_geom_bond_site_symmetry_2
_geom_bond_publ_flag
Pd1 N61 2.016(8) . ?
Pd1 N1 2.025(8) . ?
Pd1 N49 2.037(8) . ?
Pd1 N52 2.037(8) . ?
Pd2 N78 1.992(8) . ?
Pd2 N15 2.018(8) . ?
Pd2 N18 2.027(8) . ?
Pd2 N70 2.029(9) . ?
Pd3 N88 1.966(7) . ?
Pd3 N35 2.015(8) . ?
Pd3 N32 2.023(8) . ?
Pd3 N94 2.032(8) . ?
N1 C2 1.39 . ?
N1 C6 1.39 . ?
C2 C3 1.39 . ?
C2 H2 0.95 . ?
C3 C4 1.39 . ?
C3 H3 0.95 . ?
C4 C5 1.39 . ?
C4 C7 1.475(10) . ?
C5 C6 1.39 . ?
C5 H5 0.95 . ?
C6 H6 0.95 . ?
C7 C8 1.422(10) . ?
C7 C11 1.425(10) . ?
C8 C9 1.418(10) . ?
C8 H8 0.95 . ?
C9 N10 1.418(10) . ?
C9 H9 0.95 . ?
N10 C11 1.421(9) . ?
N10 C12 1.429(9) . ?
C11 H11 0.95 . ?
C12 C13 1.39 . ?
C12 C17 1.39 . ?
C13 C14 1.39 . ?
C13 H13 0.95 . ?
C14 N15 1.39 . ?
C14 H14 0.95 . ?
N15 C16 1.39 . ?
C16 C17 1.39 . ?
C16 H16 0.95 . ?
C17 H17 0.95 . ?
N18 C19 1.39 . ?
N18 C23 1.39 . ?
C19 C20 1.39 . ?
C19 H19 0.95 . ?
C20 C21 1.39 . ?
C20 H20 0.95 . ?
C21 C22 1.39 . ?
C21 N24 1.437(9) . ?
C22 C23 1.39 . ?
C22 H22 0.95 . ?
C23 H23 0.95 . ?
N24 C25 1.411(9) . ?
N24 C28 1.416(7) . ?
C25 C26 1.416(10) . ?
C25 H25 0.95 . ?
C26 C27 1.417(10) . ?
C26 H26 0.95 . ?
C27 C28 1.45(3) . ?
C27 C29 1.448(10) . ?
C28 H28 0.95 . ?
C29 C30 1.39 . ?
C29 C34 1.39 . ?
C30 C31 1.39 . ?
C30 H30 0.95 . ?
C31 N32 1.39 . ?
C31 H31 0.95 . ?
N32 C33 1.39 . ?
C33 C34 1.39 . ?
C33 H33 0.95 . ?
C34 H34 0.95 . ?
N35 C36 1.39 . ?
N35 C40 1.39 . ?
C36 C37 1.39 . ?
C36 H36 0.95 . ?
C37 C38 1.39 . ?
C37 H37 0.95 . ?
C38 C39 1.39 . ?
C38 N41 1.438(10) . ?
C39 C40 1.39 . ?
C39 H39 0.95 . ?
C40 H40 0.95 . ?
N41 C42 1.428(10) . ?
N41 C45 1.432(10) . ?
C42 C43 1.418(10) . ?
C42 H42 0.95 . ?
C43 H43 0.95 . ?
N44 C46 1.475(10) . ?
C45 H45 0.95 . ?
C46 C47 1.39 . ?
C46 C51 1.39 . ?
C47 C48 1.39 . ?
C47 H47 0.95 . ?
C48 N49 1.39 . ?
C48 H48 0.95 . ?
N49 C50 1.39 . ?
C50 C51 1.39 . ?
C50 H50 0.95 . ?
C51 H51 0.95 . ?
N52 C53 1.39 . ?
N52 C57 1.39 . ?
C53 C54 1.39 . ?
C53 H53 0.95 . ?
C54 C55 1.39 . ?
C54 H54 0.95 . ?
C55 C56 1.39 . ?
C55 N58 1.470(9) . ?
C56 C57 1.39 . ?
C56 H56 0.95 . ?
C57 H57 0.95 . ?
N58 C60 1.377(10) . ?
C59 N67 1.378(9) 4 ?
C59 H59 0.95 . ?
C60 C68 1.411(10) 4 ?
C60 H60 0.95 . ?
N61 C62 1.39 . ?
N61 C66 1.39 . ?
C62 C63 1.39 . ?
C62 H62 0.95 . ?
C63 C64 1.39 . ?
C63 H63 0.95 . ?
C64 C65 1.39 . ?
C64 N67 1.447(10) . ?
C65 C66 1.39 . ?
C65 H65 0.95 . ?
C66 H66 0.95 . ?
N67 C59 1.378(9) 3 ?
C68 C60 1.411(10) 3 ?
C68 H67A 0.95 . ?
N70 C71 1.39 . ?
N70 C75 1.39 . ?
C71 C72 1.39 . ?
C71 H71 0.95 . ?
C72 C73 1.39 . ?
C72 H72 0.95 . ?
C73 C74 1.39 . ?
C73 N76 1.448(10) . ?
C74 C75 1.39 . ?
C74 H74 0.95 . ?
C75 H75 0.95 . ?
N76 C106 1.374(10) 4 ?
N76 C77 1.410(10) . ?
C77 C105 1.381(10) 4 ?
C77 H77 0.95 . ?
N78 C79 1.39 . ?
N78 C83 1.39 . ?
C79 C80 1.39 . ?
C80 C81 1.39 . ?
C80 H80 0.95 . ?
C81 C82 1.39 . ?
C81 N84 1.443(9) . ?
C82 C83 1.39 . ?
C82 H82 0.95 . ?
C83 H83 0.95 . ?
N84 C85 1.414(7) . ?
N84 C87 1.431(9) . ?
C85 C84 1.414(7) 10 ?
C85 H85 0.95 . ?
C87 C87 1.405(10) 10 ?
C87 H87 0.95 . ?
N88 C89 1.39 . ?
N88 C93 1.39 . ?
C89 C90 1.39 . ?
C89 H89 0.95 . ?
C90 C91 1.39 . ?
C90 H90 0.95 . ?
C91 C92 1.39 . ?
C91 N107 1.440(9) . ?
C92 C93 1.39 . ?
C92 H92 0.95 . ?
C93 H93 0.95 . ?
N94 C95 1.39 . ?
N94 C99 1.39 . ?
C95 C96 1.39 . ?
C95 H95 0.95 . ?
C96 C97 1.39 . ?
C96 H96 0.95 . ?
C97 C98 1.39 . ?
C97 N104 1.441(10) . ?
C98 C99 1.39 . ?
C98 H98 0.95 . ?
C99 H99 0.95 . ?
C105 C77 1.381(10) 3 ?
C105 H105 0.95 . ?
C106 N76 1.374(10) 3 ?
C106 H106 0.95 . ?
C108 C107 1.373(7) 10 ?
C108 H108 0.95 . ?
C109 C109 1.373(10) 10 ?
C109 H109 0.95 . ?
C200 C201 1.56(11) . ?
C206 C207 1.25(3) . ?
C213 C214 1.55(7) . ?
C215 C234 1.11(5) 3_655 ?
C215 C253 1.77(9) . ?
C217 C256 1.71(6) . ?
C217 C265 1.87(6) . ?
C217 C268 1.96(7) . ?
C217 C218 2.04(6) . ?
C218 C268 0.97(9) . ?
C218 C256 1.33(9) . ?
C218 C265 1.84(12) . ?
C219 C268 1.84(7) . ?
C219 C265 1.89(6) . ?
C220 C274 1.95(8) . ?
C222 C275 1.39(6) . ?
C222 C274 1.55(7) . ?
C222 C266 1.72(5) . ?
C222 C264 1.91(8) . ?
C223 C224 1.38(2) . ?
C225 C271 0.81(9) . ?
C225 C226 1.78(7) . ?
C226 C271 1.12(10) . ?
C227 C272 1.02(9) . ?
C227 C228 1.41(15) . ?
C228 C272 1.52(12) . ?
C229 C230 1.43(4) . ?
C229 C231 1.69(5) . ?
C230 C231 0.55(8) . ?
C232 C267 1.03(8) . ?
C233 C245 1.06(5) . ?
C233 C276 1.08(6) . ?
C233 C235 1.77(6) . ?
C233 C277 2.01(8) . ?
C234 C215 1.11(5) 4_565 ?
C234 C253 1.59(8) 4_565 ?
C235 C276 1.66(7) . ?
C238 C270 1.13(6) . ?
C241 C242 1.70(11) . ?
C245 C276 1.02(5) . ?
C245 C277 1.89(8) . ?
C246 C257 1.46(15) . ?
C246 C249 1.59(6) . ?
C247 C269 1.06(6) . ?
C249 C257 0.73(13) . ?
C249 C263 1.37(8) . ?
C250 C273 1.41(13) . ?
C250 C255 1.92(10) . ?
C253 C234 1.59(8) 3_655 ?
C255 C273 0.95(8) . ?
C256 C268 1.53(6) . ?
C258 C261 0.90(6) . ?
C258 C259 1.43(8) . ?
C258 C262 1.48(4) . ?
C258 C260 1.68(7) . ?
C260 C261 1.42(9) . ?
C261 C262 1.65(8) . ?
C264 C274 0.64(12) . ?
C264 C275 1.43(8) . ?
C265 C268 1.13(5) . ?
C266 C274 1.41(8) . ?
C266 C275 1.95(7) . ?
C274 C275 1.28(7) . ?
C276 C277 0.97(5) . ?

loop_
_geom_angle_atom_site_label_1
_geom_angle_atom_site_label_2
_geom_angle_atom_site_label_3
_geom_angle
_geom_angle_site_symmetry_1
_geom_angle_site_symmetry_3
_geom_angle_publ_flag
N61 Pd1 N1 174.7(10) . . ?
N61 Pd1 N49 85.6(5) . . ?
N1 Pd1 N49 90.7(5) . . ?
N61 Pd1 N52 93.2(5) . . ?
N1 Pd1 N52 90.1(5) . . ?
N49 Pd1 N52 174.1(11) . . ?
N78 Pd2 N15 171.5(10) . . ?
N78 Pd2 N18 89.4(6) . . ?
N15 Pd2 N18 90.5(6) . . ?
N78 Pd2 N70 91.8(5) . . ?
N15 Pd2 N70 88.4(6) . . ?
N18 Pd2 N70 178.3(11) . . ?
N88 Pd3 N35 176.7(10) . . ?
N88 Pd3 N32 88.4(5) . . ?
N35 Pd3 N32 90.5(6) . . ?
N88 Pd3 N94 92.1(5) . . ?
N35 Pd3 N94 88.9(6) . . ?
N32 Pd3 N94 177.7(13) . . ?
C2 N1 C6 120 . . ?
C2 N1 Pd1 116(2) . . ?
C6 N1 Pd1 124(2) . . ?
C3 C2 N1 120 . . ?
C3 C2 H2 120 . . ?
N1 C2 H2 120 . . ?
C2 C3 C4 120 . . ?
C2 C3 H3 120 . . ?
C4 C3 H3 120 . . ?
C3 C4 C5 120 . . ?
C3 C4 C7 114(3) . . ?
C5 C4 C7 126(3) . . ?
C6 C5 C4 120 . . ?
C6 C5 H5 120 . . ?
C4 C5 H5 120 . . ?
C5 C6 N1 120 . . ?
C5 C6 H6 120 . . ?
N1 C6 H6 120 . . ?
C8 C7 C11 107.8(19) . . ?
C8 C7 C4 125(2) . . ?
C11 C7 C4 126(2) . . ?
C9 C8 C7 104(2) . . ?
C9 C8 H8 128.1 . . ?
C7 C8 H8 128.1 . . ?
C8 C9 N10 111(2) . . ?
C8 C9 H9 124.6 . . ?
N10 C9 H9 124.6 . . ?
C9 N10 C11 104(2) . . ?
C9 N10 C12 126.8(12) . . ?
C11 N10 C12 126.5(12) . . ?
N10 C11 C7 109.2(16) . . ?
N10 C11 H11 125.4 . . ?
C7 C11 H11 125.4 . . ?
C13 C12 C17 120 . . ?
C13 C12 N10 125.9(17) . . ?
C17 C12 N10 113.7(18) . . ?
C14 C13 C12 120 . . ?
C14 C13 H13 120 . . ?
C12 C13 H13 120 . . ?
C13 C14 N15 120 . . ?
C13 C14 H14 120 . . ?
N15 C14 H14 120 . . ?
C16 N15 C14 120 . . ?
C16 N15 Pd2 126.8(16) . . ?
C14 N15 Pd2 112.3(16) . . ?
N15 C16 C17 120 . . ?
N15 C16 H16 120 . . ?
C17 C16 H16 120 . . ?
C16 C17 C12 120 . . ?
C16 C17 H17 120 . . ?
C12 C17 H17 120 . . ?
C19 N18 C23 120 . . ?
C19 N18 Pd2 110.2(18) . . ?
C23 N18 Pd2 129.1(18) . . ?
C20 C19 N18 120 . . ?
C20 C19 H19 120 . . ?
N18 C19 H19 120 . . ?
C21 C20 C19 120 . . ?
C21 C20 H20 120 . . ?
C19 C20 H20 120 . . ?
C20 C21 C22 120 . . ?
C20 C21 N24 138.9(17) . . ?
C22 C21 N24 101.0(17) . . ?
C23 C22 C21 120 . . ?
C23 C22 H22 120 . . ?
C21 C22 H22 120 . . ?
C22 C23 N18 120 . . ?
C22 C23 H23 120 . . ?
N18 C23 H23 120 . . ?
C25 N24 C28 116.7(17) . . ?
C25 N24 C21 137.4(14) . . ?
C28 N24 C21 105.8(8) . . ?
N24 C25 C26 103(2) . . ?
N24 C25 H25 128.4 . . ?
C26 C25 H25 128.4 . . ?
C25 C26 C27 109(2) . . ?
C25 C26 H26 125.7 . . ?
C27 C26 H26 125.7 . . ?
C26 C27 C28 111.7(18) . . ?
C26 C27 C29 123(3) . . ?
C28 C27 C29 125(2) . . ?
N24 C28 C27 99.7(16) . . ?
N24 C28 H28 130.1 . . ?
C27 C28 H28 130.1 . . ?
C30 C29 C34 120 . . ?
C30 C29 C27 120(3) . . ?
C34 C29 C27 119(3) . . ?
C31 C30 C29 120 . . ?
C31 C30 H30 120 . . ?
C29 C30 H30 120 . . ?
N32 C31 C30 120 . . ?
N32 C31 H31 120 . . ?
C30 C31 H31 120 . . ?
C31 N32 C33 120 . . ?
C31 N32 Pd3 117.3(19) . . ?
C33 N32 Pd3 122.2(19) . . ?
N32 C33 C34 120 . . ?
N32 C33 H33 120 . . ?
C34 C33 H33 120 . . ?
C33 C34 C29 120 . . ?
C33 C34 H34 120 . . ?
C29 C34 H34 120 . . ?
C36 N35 C40 120 . . ?
C36 N35 Pd3 113.3(16) . . ?
C40 N35 Pd3 126.4(16) . . ?
N35 C36 C37 120 . . ?
N35 C36 H36 120 . . ?
C37 C36 H36 120 . . ?
C36 C37 C38 120 . . ?
C36 C37 H37 120 . . ?
C38 C37 H37 120 . . ?
C39 C38 C37 120 . . ?
C39 C38 N41 109.2(17) . . ?
C37 C38 N41 130.5(18) . . ?
C38 C39 C40 120 . . ?
C38 C39 H39 120 . . ?
C40 C39 H39 120 . . ?
C39 C40 N35 120 . . ?
C39 C40 H40 120 . . ?
N35 C40 H40 120 . . ?
C42 N41 C45 110.4(19) . . ?
C42 N41 C38 124.9(12) . . ?
C45 N41 C38 124.6(12) . . ?
C43 C42 N41 105(3) . . ?
C43 C42 H42 127.4 . . ?
N41 C42 H42 127.4 . . ?
C42 C43 H43 125.2 . . ?
N41 C45 H45 127.1 . . ?
C47 C46 C51 120 . . ?
C47 C46 N44 129(3) . . ?
C51 C46 N44 111(3) . . ?
C48 C47 C46 120 . . ?
C48 C47 H47 120 . . ?
C46 C47 H47 120 . . ?
C47 C48 N49 120 . . ?
C47 C48 H48 120 . . ?
N49 C48 H48 120 . . ?
C50 N49 C48 120 . . ?
C50 N49 Pd1 117(2) . . ?
C48 N49 Pd1 122(2) . . ?
N49 C50 C51 120 . . ?
N49 C50 H50 120 . . ?
C51 C50 H50 120 . . ?
C50 C51 C46 120 . . ?
C50 C51 H51 120 . . ?
C46 C51 H51 120 . . ?
C53 N52 C57 120 . . ?
C53 N52 Pd1 107.1(17) . . ?
C57 N52 Pd1 132.9(17) . . ?
N52 C53 C54 120 . . ?
N52 C53 H53 120 . . ?
C54 C53 H53 120 . . ?
C53 C54 C55 120 . . ?
C53 C54 H54 120 . . ?
C55 C54 H54 120 . . ?
C56 C55 C54 120 . . ?
C56 C55 N58 108.4(17) . . ?
C54 C55 N58 131.0(17) . . ?
C55 C56 C57 120 . . ?
C55 C56 H56 120 . . ?
C57 C56 H56 120 . . ?
C56 C57 N52 120 . . ?
C56 C57 H57 120 . . ?
N52 C57 H57 120 . . ?
C60 N58 C55 121.7(11) . . ?
N67 C59 H59 126.9 4 . ?
N58 C60 C68 100(2) . 4 ?
N58 C60 H60 129.8 . . ?
C68 C60 H60 129.8 4 . ?
C62 N61 C66 120 . . ?
C62 N61 Pd1 106.4(19) . . ?
C66 N61 Pd1 133.5(19) . . ?
C63 C62 N61 120 . . ?
C63 C62 H62 120 . . ?
N61 C62 H62 120 . . ?
C62 C63 C64 120 . . ?
C62 C63 H63 120 . . ?
C64 C63 H63 120 . . ?
C65 C64 C63 120 . . ?
C65 C64 N67 106(3) . . ?
C63 C64 N67 134(3) . . ?
C64 C65 C66 120 . . ?
C64 C65 H65 120 . . ?
C66 C65 H65 120 . . ?
C65 C66 N61 120 . . ?
C65 C66 H66 120 . . ?
N61 C66 H66 120 . . ?
C59 N67 C64 132(3) 3 . ?
C60 C68 H67A 122.3 3 . ?
C71 N70 C75 120 . . ?
C71 N70 Pd2 115(3) . . ?
C75 N70 Pd2 125(3) . . ?
N70 C71 C72 120 . . ?
N70 C71 H71 120 . . ?
C72 C71 H71 120 . . ?
C71 C72 C73 120 . . ?
C71 C72 H72 120 . . ?
C73 C72 H72 120 . . ?
C74 C73 C72 120 . . ?
C74 C73 N76 119(3) . . ?
C72 C73 N76 121(3) . . ?
C73 C74 C75 120 . . ?
C73 C74 H74 120 . . ?
C75 C74 H74 120 . . ?
C74 C75 N70 120 . . ?
C74 C75 H75 120 . . ?
N70 C75 H75 120 . . ?
C106 N76 C77 118.7(18) 4 . ?
C106 N76 C73 127(3) 4 . ?
C77 N76 C73 114(3) . . ?
C105 C77 N76 98(2) 4 . ?
C105 C77 H77 130.9 4 . ?
N76 C77 H77 130.9 . . ?
C79 N78 C83 120 . . ?
C79 N78 Pd2 124.9(14) . . ?
C83 N78 Pd2 115.0(13) . . ?
N78 C79 C80 120 . . ?
C81 C80 C79 120 . . ?
C81 C80 H80 120 . . ?
C79 C80 H80 120 . . ?
C80 C81 C82 120 . . ?
C80 C81 N84 114.3(11) . . ?
C82 C81 N84 125.4(11) . . ?
C83 C82 C81 120 . . ?
C83 C82 H82 120 . . ?
C81 C82 H82 120 . . ?
C82 C83 N78 120 . . ?
C82 C83 H83 120 . . ?
N78 C83 H83 120 . . ?
C85 N84 C87 112.6(15) . . ?
C85 N84 C81 124.5(10) . . ?
C87 N84 C81 122.3(10) . . ?
C84 C85 N84 101.8(18) 10 . ?
C84 C85 H85 129.1 10 . ?
N84 C85 H85 129.1 . . ?
C87 C87 N84 106.0(6) 10 . ?
C87 C87 H87 127 10 . ?
N84 C87 H87 127 . . ?
C89 N88 C93 120 . . ?
C89 N88 Pd3 117.8(12) . . ?
C93 N88 Pd3 122.1(12) . . ?
N88 C89 C90 120 . . ?
N88 C89 H89 120 . . ?
C90 C89 H89 120 . . ?
C89 C90 C91 120 . . ?
C89 C90 H90 120 . . ?
C91 C90 H90 120 . . ?
C92 C91 C90 120 . . ?
C92 C91 N107 121.3(11) . . ?
C90 C91 N107 118.6(11) . . ?
C93 C92 C91 120 . . ?
C93 C92 H92 120 . . ?
C91 C92 H92 120 . . ?
C92 C93 N88 120 . . ?
C92 C93 H93 120 . . ?
N88 C93 H93 120 . . ?
C95 N94 C99 120 . . ?
C95 N94 Pd3 118(2) . . ?
C99 N94 Pd3 122(2) . . ?
N94 C95 C96 120 . . ?
N94 C95 H95 120 . . ?
C96 C95 H95 120 . . ?
C95 C96 C97 120 . . ?
C95 C96 H96 120 . . ?
C97 C96 H96 120 . . ?
C98 C97 C96 120 . . ?
C98 C97 N104 116(3) . . ?
C96 C97 N104 124(3) . . ?
C99 C98 C97 120 . . ?
C99 C98 H98 120 . . ?
C97 C98 H98 120 . . ?
C98 C99 N94 120 . . ?
C98 C99 H99 120 . . ?
N94 C99 H99 120 . . ?
C77 C105 H105 124.1 3 . ?
N76 C106 H106 129.2 3 . ?
C107 C108 H108 126.5 10 . ?
C109 C109 H109 126.4 10 . ?
C234 C215 C253 62(6) 3_655 . ?
C256 C217 C265 83(2) . . ?
C256 C217 C268 48.8(18) . . ?
C265 C217 C268 34.3(15) . . ?
C256 C217 C218 40(3) . . ?
C265 C217 C218 56(4) . . ?
C268 C217 C218 28(3) . . ?
C268 C218 C256 82(6) . . ?
C268 C218 C265 32(7) . . ?
C256 C218 C265 96(4) . . ?
C268 C218 C217 72(6) . . ?
C256 C218 C217 56(3) . . ?
C265 C218 C217 58(2) . . ?
C268 C219 C265 35.4(17) . . ?
C275 C222 C274 51(3) . . ?
C275 C222 C266 77(3) . . ?
C274 C222 C266 51(3) . . ?
C275 C222 C264 48(3) . . ?
C274 C222 C264 17(5) . . ?
C266 C222 C264 68(3) . . ?
C271 C225 C226 27(10) . . ?
C271 C226 C225 19(6) . . ?
C272 C227 C228 76(10) . . ?
C227 C228 C272 40(4) . . ?
C230 C229 C231 18(3) . . ?
C231 C230 C229 109(9) . . ?
C230 C231 C229 53(7) . . ?
C245 C233 C276 57(3) . . ?
C245 C233 C235 91(5) . . ?
C276 C233 C235 66(5) . . ?
C245 C233 C277 68(7) . . ?
C276 C233 C277 12(7) . . ?
C235 C233 C277 68(3) . . ?
C215 C234 C253 80(6) 4_565 4_565 ?
C276 C235 C233 37(2) . . ?
C276 C245 C233 63(5) . . ?
C276 C245 C277 19(7) . . ?
C233 C245 C277 81(8) . . ?
C257 C246 C249 27(5) . . ?
C257 C249 C263 168(10) . . ?
C257 C249 C246 67(10) . . ?
C263 C249 C246 102(4) . . ?
C273 C250 C255 28(5) . . ?
C234 C253 C215 38(2) 3_655 . ?
C273 C255 C250 44(10) . . ?
C218 C256 C268 39(4) . . ?
C218 C256 C217 83(6) . . ?
C268 C256 C217 74(3) . . ?
C249 C257 C246 86(10) . . ?
C261 C258 C259 163(8) . . ?
C261 C258 C262 84(7) . . ?
C259 C258 C262 109(4) . . ?
C261 C258 C260 58(7) . . ?
C259 C258 C260 111(4) . . ?
C262 C258 C260 84(3) . . ?
C261 C260 C258 33(3) . . ?
C258 C261 C260 90(8) . . ?
C258 C261 C262 63(6) . . ?
C260 C261 C262 87(5) . . ?
C258 C262 C261 33(3) . . ?
C274 C264 C275 63(10) . . ?
C274 C264 C222 47(10) . . ?
C275 C264 C222 46(4) . . ?
C268 C265 C218 27(4) . . ?
C268 C265 C217 77(5) . . ?
C218 C265 C217 67(3) . . ?
C268 C265 C219 70(4) . . ?
C218 C265 C219 91(4) . . ?
C217 C265 C219 74(2) . . ?
C274 C266 C222 58(3) . . ?
C274 C266 C275 41(3) . . ?
C222 C266 C275 44(2) . . ?
C218 C268 C265 121(10) . . ?
C218 C268 C256 59(7) . . ?
C265 C268 C256 125(7) . . ?
C218 C268 C219 141(10) . . ?
C265 C268 C219 75(5) . . ?
C256 C268 C219 82(5) . . ?
C218 C268 C217 80(6) . . ?
C265 C268 C217 69(5) . . ?
C256 C268 C217 57(3) . . ?
C219 C268 C217 73(3) . . ?
C225 C271 C226 134(10) . . ?
C227 C272 C228 64(10) . . ?
C255 C273 C250 107(10) . . ?
C264 C274 C275 90(10) . . ?
C264 C274 C266 173(10) . . ?
C275 C274 C266 93(7) . . ?
C264 C274 C222 116(10) . . ?
C275 C274 C222 58(4) . . ?
C266 C274 C222 71(4) . . ?
C264 C274 C220 91(10) . . ?
C275 C274 C220 134(6) . . ?
C266 C274 C220 91(5) . . ?
C222 C274 C220 81(4) . . ?
C274 C275 C222 71(5) . . ?
C274 C275 C264 27(6) . . ?
C222 C275 C264 86(5) . . ?
C274 C275 C266 46(4) . . ?
C222 C275 C266 59(3) . . ?
C264 C275 C266 73(4) . . ?
C277 C276 C245 142(10) . . ?
C277 C276 C233 155(10) . . ?
C245 C276 C233 60(4) . . ?
C277 C276 C235 104(7) . . ?
C245 C276 C235 99(6) . . ?
C233 C276 C235 77(5) . . ?
C276 C277 C245 20(7) . . ?
C276 C277 C233 13(7) . . ?
C245 C277 C233 31.4(19) . . ?

# The following lines are used to test the character set of files sent by
# network email or other means. They are not part of the CIF data set
# abcdefghijklmnopqrstuvwxyzABCDEFGHIJKLMNOPQRSTUVWXYZ0123456789
# !@#$%^&*()_+{}:"~<>?|(J\(B-=[];'`,./

# END of CIF




