####################################################################### 
# 
# This file contains crystal structure data downloaded from the 
# Cambridge Structural Database (CSD) hosted by the Cambridge 
# Crystallographic Data Centre (CCDC).
# 
# Full information about CCDC data access policies and citation 
# guidelines are available at http://www.ccdc.cam.ac.uk/access/V1 
# 
# Audit and citation data items may have been added by the CCDC. 
# Please retain this information to preserve the provenance of 
# this file and to allow appropriate attribution of the data. 
# 
#######################################################################

data_squeezed
_audit_block_doi                 10.5517/ccyqn6h
_database_code_depnum_ccdc_archive 'CCDC 885707'
loop_
_citation_id
_citation_doi
_citation_year
1 10.1002/anie.201206990 2013
_audit_update_record             
;
2012-06-08 deposited with the CCDC.	2019-03-04 downloaded from the CCDC.
;
#TrackingRef 'SQUEEZEDuu.CIF'


_audit_creation_method           SHELXL-97
_chemical_name_systematic        
;
?
;
_chemical_name_common            ?
_chemical_melting_point          ?
_chemical_formula_moiety         
;
C468 H396 Cd12 N72 O36, 24(C S O3 F3), 30(C2 H3 N), 30(C4 H10 O)
;
_chemical_formula_sum            'C672 H786 Cd12 F72 N102 O138 S24'
_chemical_formula_weight         15986.27

loop_
_atom_type_symbol
_atom_type_description
_atom_type_scat_dispersion_real
_atom_type_scat_dispersion_imag
_atom_type_scat_source
C C 0.0033 0.0016 'International Tables Vol C Tables 4.2.6.8 and 6.1.1.4'
H H 0.0000 0.0000 'International Tables Vol C Tables 4.2.6.8 and 6.1.1.4'
N N 0.0061 0.0033 'International Tables Vol C Tables 4.2.6.8 and 6.1.1.4'
O O 0.0106 0.0060 'International Tables Vol C Tables 4.2.6.8 and 6.1.1.4'
F F 0.0171 0.0103 'International Tables Vol C Tables 4.2.6.8 and 6.1.1.4'
S S 0.1246 0.1234 'International Tables Vol C Tables 4.2.6.8 and 6.1.1.4'
Cd Cd -0.8075 1.2024 'International Tables Vol C Tables 4.2.6.8 and 6.1.1.4'

_symmetry_cell_setting           orthorhombic
_symmetry_space_group_name_H-M   Pnnn
_symmetry_space_group_name_Hall  '-P 2ab 2bc'
_symmetry_Inl_Tables_number      48

loop_
_symmetry_equiv_pos_as_xyz
'x, y, z'
'-x+1/2, -y+1/2, z'
'-x+1/2, y, -z+1/2'
'x, -y+1/2, -z+1/2'
'-x, -y, -z'
'x-1/2, y-1/2, -z'
'x-1/2, -y, z-1/2'
'-x, y-1/2, z-1/2'

_cell_length_a                   26.219(5)
_cell_length_b                   32.257(7)
_cell_length_c                   42.860(9)
_cell_angle_alpha                90.00
_cell_angle_beta                 90.00
_cell_angle_gamma                90.00
_cell_volume                     36248(13)
_cell_formula_units_Z            2
_cell_measurement_temperature    180(2)
_cell_measurement_reflns_used    175781
_cell_measurement_theta_min      1.02
_cell_measurement_theta_max      20.82

_exptl_crystal_description       block
_exptl_crystal_colour            colourless
_exptl_crystal_size_max          0.30
_exptl_crystal_size_mid          0.20
_exptl_crystal_size_min          0.15
_exptl_crystal_density_meas      ?
_exptl_crystal_density_diffrn    1.465
_exptl_crystal_density_method    'not measured'
_exptl_crystal_F_000             16488
_exptl_absorpt_coefficient_mu    0.515
_exptl_absorpt_correction_type   multi-scan
_exptl_absorpt_correction_T_min  0.602
_exptl_absorpt_correction_T_max  0.877
_exptl_absorpt_process_details   
;
multi-scan from symmetry-related measurements
Sortav (Blessing 1995)
;

_exptl_special_details           
;
?
;

loop_
_platon_squeeze_void_nr
_platon_squeeze_void_average_x
_platon_squeeze_void_average_y
_platon_squeeze_void_average_z
_platon_squeeze_void_volume
_platon_squeeze_void_count_electrons
_platon_squeeze_void_content
1 0.657 -0.024 0.088 15422 5778 ' '
_platon_squeeze_details          
;
density included as triflate anions, acetonitrile and diethyl ether
;

_diffrn_ambient_temperature      180(2)
_diffrn_radiation_wavelength     0.71073
_diffrn_radiation_type           MoK\a
_diffrn_radiation_source         'fine-focus sealed tube'
_diffrn_radiation_monochromator  graphite
_diffrn_measurement_device_type  'Nonius Kappa CCD'
_diffrn_measurement_method       'Thin slice \w and \f scans'
_diffrn_detector_area_resol_mean ?
_diffrn_standards_number         0
_diffrn_standards_interval_count 0
_diffrn_standards_interval_time  0
_diffrn_standards_decay_%        0
_diffrn_reflns_number            109845
_diffrn_reflns_av_R_equivalents  0.0923
_diffrn_reflns_av_sigmaI/netI    0.0803
_diffrn_reflns_limit_h_min       -24
_diffrn_reflns_limit_h_max       26
_diffrn_reflns_limit_k_min       -32
_diffrn_reflns_limit_k_max       32
_diffrn_reflns_limit_l_min       -42
_diffrn_reflns_limit_l_max       42
_diffrn_reflns_theta_min         1.11
_diffrn_reflns_theta_max         20.77
_reflns_number_total             18830
_reflns_number_gt                9322
_reflns_threshold_expression     >2sigma(I)

_computing_data_collection       'Collect (Nonius B.V. 1998)'
_computing_cell_refinement       'HKL Scalepack (Otwinowski & Minor 1997)'
_computing_data_reduction        
;
HKL Denzo and Scalepack (Otwinowski & Minor 1997)
;
_computing_structure_solution    'SUPERFLIP (Palatinus & Chapuis, 2007)'
_computing_structure_refinement  'SHELXL-97 (Sheldrick 1997)'
_computing_molecular_graphics    
;ORTEP-3 (Farrugia, 1997)
WINGX-32 (Farrugia, 1999)
;
_computing_publication_material  'enCIFer 1.1 (CCDC, 2005)'

_refine_special_details          
;
Refinement of F^2^ against ALL reflections. The weighted R-factor wR and
goodness of fit S are based on F^2^, conventional R-factors R are based
on F, with F set to zero for negative F^2^. The threshold expression of
F^2^ > 2sigma(F^2^) is used only for calculating R-factors(gt) etc. and is
not relevant to the choice of reflections for refinement. R-factors based
on F^2^ are statistically about twice as large as those based on F, and R-
factors based on ALL data will be even larger.
;

_refine_ls_structure_factor_coef Fsqd
_refine_ls_matrix_type           full
_refine_ls_weighting_scheme      calc
_refine_ls_weighting_details     
'calc w=1/[\s^2^(Fo^2^)+(0.1000P)^2^+75.0000P] where P=(Fo^2^+2Fc^2^)/3'
_atom_sites_solution_primary     direct
_atom_sites_solution_secondary   difmap
_atom_sites_solution_hydrogens   geom
_refine_ls_hydrogen_treatment    constr
_refine_ls_extinction_method     none
_refine_ls_extinction_coef       ?
_refine_ls_number_reflns         18830
_refine_ls_number_parameters     555
_refine_ls_number_restraints     33
_refine_ls_R_factor_all          0.1651
_refine_ls_R_factor_gt           0.1176
_refine_ls_wR_factor_ref         0.3078
_refine_ls_wR_factor_gt          0.2903
_refine_ls_goodness_of_fit_ref   1.328
_refine_ls_restrained_S_all      1.338
_refine_ls_shift/su_max          0.000
_refine_ls_shift/su_mean         0.000

loop_
_atom_site_label
_atom_site_type_symbol
_atom_site_fract_x
_atom_site_fract_y
_atom_site_fract_z
_atom_site_U_iso_or_equiv
_atom_site_adp_type
_atom_site_occupancy
_atom_site_symmetry_multiplicity
_atom_site_calc_flag
_atom_site_refinement_flags
_atom_site_disorder_assembly
_atom_site_disorder_group
C1 C -0.0814(7) -0.4283(5) -0.0086(4) 0.195(3) Uiso 1 1 d D . .
H1A H -0.0941 -0.4525 -0.0201 0.293 Uiso 0.50 1 calc PR . .
H1B H -0.1104 -0.4123 -0.0006 0.293 Uiso 0.50 1 calc PR . .
H1C H -0.0602 -0.4376 0.0088 0.293 Uiso 0.50 1 calc PR . .
H1D H -0.0823 -0.4158 0.0122 0.293 Uiso 0.50 1 calc PR . .
H1E H -0.0660 -0.4560 -0.0073 0.293 Uiso 0.50 1 calc PR . .
H1F H -0.1162 -0.4307 -0.0168 0.293 Uiso 0.50 1 calc PR . .
C2 C -0.0233(5) -0.3623(3) -0.0192(3) 0.195(3) Uiso 1 1 d GD . .
C3 C -0.0312(5) -0.3493(4) 0.0113(2) 0.195(3) Uiso 1 1 d GD . .
H3 H -0.0494 -0.3665 0.0255 0.234 Uiso 1 1 calc R . .
C4 C -0.0123(5) -0.3113(4) 0.0212(3) 0.195(3) Uiso 1 1 d G . .
H4 H -0.0176 -0.3024 0.0421 0.234 Uiso 1 1 calc R . .
C5 C 0.0144(5) -0.2861(3) 0.0006(4) 0.195(3) Uiso 1 1 d G . .
C6 C 0.0222(5) -0.2991(4) -0.0300(4) 0.195(3) Uiso 1 1 d G . .
H6 H 0.0405 -0.2819 -0.0441 0.234 Uiso 1 1 calc R . .
C7 C 0.0034(5) -0.3371(4) -0.0399(2) 0.195(3) Uiso 1 1 d GD . .
H7 H 0.0087 -0.3460 -0.0608 0.234 Uiso 1 1 calc R . .
C8 C 0.0379(5) -0.2172(5) -0.0053(4) 0.101(5) Uiso 1 1 d . . .
H8 H 0.0244 -0.2191 -0.0258 0.121 Uiso 1 1 calc R . .
C9 C 0.0587(3) -0.1773(2) 0.00527(19) 0.105(5) Uiso 1 1 d G . .
N2 N 0.0752(3) -0.1764(2) 0.03610(18) 0.091(3) Uani 1 1 d G . .
C10 C 0.0915(3) -0.1394(3) 0.04931(15) 0.092(4) Uiso 1 1 d G . .
H10 H 0.1028 -0.1388 0.0704 0.110 Uiso 1 1 calc R . .
C11 C 0.0914(3) -0.1032(2) 0.0317(2) 0.099(4) Uiso 1 1 d G . .
C12 C 0.0750(4) -0.1041(2) 0.0009(2) 0.119(5) Uiso 1 1 d G . .
H12 H 0.0749 -0.0793 -0.0112 0.143 Uiso 1 1 calc R . .
C13 C 0.0586(3) -0.1411(3) -0.01234(15) 0.113(5) Uiso 1 1 d G . .
H13 H 0.0474 -0.1417 -0.0334 0.135 Uiso 1 1 calc R . .
C14 C 0.1096(5) -0.0646(4) 0.0449(3) 0.092(4) Uiso 1 1 d . . .
C15 C 0.1030(5) -0.0544(5) 0.0770(3) 0.096(4) Uiso 1 1 d . . .
H15 H 0.0839 -0.0730 0.0895 0.115 Uiso 1 1 calc R . .
C16 C 0.1498(6) 0.0042(5) 0.0752(3) 0.096(4) Uiso 1 1 d . . .
C17 C 0.1578(6) -0.0020(5) 0.0429(4) 0.121(5) Uiso 1 1 d . . .
H17 H 0.1772 0.0175 0.0312 0.145 Uiso 1 1 calc R . .
C18 C 0.1367(6) -0.0371(5) 0.0282(4) 0.115(5) Uiso 1 1 d . . .
H18 H 0.1416 -0.0414 0.0064 0.139 Uiso 1 1 calc R . .
C19 C 0.1743(5) 0.0401(4) 0.0912(3) 0.089(4) Uiso 1 1 d . . .
H19 H 0.1945 0.0586 0.0792 0.107 Uiso 1 1 calc R . .
C20 C 0.1919(5) 0.0819(4) 0.1335(3) 0.089(4) Uiso 1 1 d . . .
C21 C 0.1999(5) 0.0824(4) 0.1643(3) 0.088(4) Uiso 1 1 d . . .
H21 H 0.1927 0.0577 0.1756 0.106 Uiso 1 1 calc R . .
C22 C 0.2181(5) 0.1163(4) 0.1813(3) 0.090(4) Uiso 1 1 d . . .
H22 H 0.2211 0.1160 0.2034 0.108 Uiso 1 1 calc R . .
C23 C 0.2310(6) 0.1494(5) 0.1638(4) 0.107(5) Uiso 1 1 d . . .
C24 C 0.2276(6) 0.1515(5) 0.1317(4) 0.125(5) Uiso 1 1 d . . .
H24 H 0.2383 0.1755 0.1205 0.150 Uiso 1 1 calc R . .
C25 C 0.2081(5) 0.1177(5) 0.1166(4) 0.112(5) Uiso 1 1 d . . .
H25 H 0.2053 0.1180 0.0945 0.134 Uiso 1 1 calc R . .
C26 C 0.2542(6) 0.1886(5) 0.2098(4) 0.123(5) Uiso 1 1 d . . .
H26A H 0.2737 0.2131 0.2161 0.184 Uiso 0.50 1 calc PR . .
H26B H 0.2699 0.1638 0.2188 0.184 Uiso 0.50 1 calc PR . .
H26C H 0.2191 0.1911 0.2175 0.184 Uiso 0.50 1 calc PR . .
H26D H 0.2348 0.1655 0.2188 0.184 Uiso 0.50 1 calc PR . .
H26E H 0.2385 0.2149 0.2161 0.184 Uiso 0.50 1 calc PR . .
H26F H 0.2894 0.1876 0.2174 0.184 Uiso 0.50 1 calc PR . .
C27 C 0.2386(7) -0.0983(5) -0.0775(3) 0.160(2) Uiso 1 1 d D . .
H27A H 0.2562 -0.0721 -0.0819 0.239 Uiso 0.50 1 calc PR . .
H27B H 0.2031 -0.0964 -0.0844 0.239 Uiso 0.50 1 calc PR . .
H27C H 0.2557 -0.1209 -0.0887 0.239 Uiso 0.50 1 calc PR . .
H27D H 0.2205 -0.1208 -0.0881 0.239 Uiso 0.50 1 calc PR . .
H27E H 0.2735 -0.0966 -0.0856 0.239 Uiso 0.50 1 calc PR . .
H27F H 0.2209 -0.0721 -0.0813 0.239 Uiso 0.50 1 calc PR . .
C28 C 0.2186(4) -0.1431(3) -0.0267(3) 0.160(2) Uiso 1 1 d GD . .
C29 C 0.2187(4) -0.1465(3) 0.0056(3) 0.160(2) Uiso 1 1 d G . .
H29 H 0.2323 -0.1247 0.0180 0.191 Uiso 1 1 calc R . .
C30 C 0.1989(5) -0.1818(4) 0.0198(2) 0.160(2) Uiso 1 1 d G . .
H30 H 0.1990 -0.1841 0.0419 0.191 Uiso 1 1 calc R . .
C31 C 0.1790(5) -0.2136(3) 0.0017(3) 0.160(2) Uiso 1 1 d G . .
C32 C 0.1789(4) -0.2102(4) -0.0306(3) 0.160(2) Uiso 1 1 d G . .
H32 H 0.1653 -0.2320 -0.0430 0.191 Uiso 1 1 calc R . .
C33 C 0.1987(5) -0.1749(5) -0.0448(2) 0.160(2) Uiso 1 1 d G . .
H33 H 0.1986 -0.1726 -0.0669 0.191 Uiso 1 1 calc R . .
C34 C 0.1660(5) -0.2839(5) 0.0079(3) 0.102(5) Uiso 1 1 d . . .
H34 H 0.1896 -0.2872 -0.0087 0.122 Uiso 1 1 calc R . .
C35 C 0.1425(4) -0.3183(3) 0.0187(2) 0.111(5) Uiso 1 1 d G . .
N6 N 0.1133(4) -0.3151(2) 0.0457(2) 0.116(4) Uani 1 1 d G . .
C36 C 0.0898(3) -0.3502(3) 0.05799(18) 0.118(5) Uiso 1 1 d G . .
H36 H 0.0699 -0.3480 0.0764 0.142 Uiso 1 1 calc R . .
C37 C 0.0956(4) -0.3883(2) 0.0433(2) 0.094(4) Uiso 1 1 d G . .
C38 C 0.1248(4) -0.3914(2) 0.0164(2) 0.143(6) Uiso 1 1 d G . .
H38 H 0.1287 -0.4175 0.0064 0.171 Uiso 1 1 calc R . .
C39 C 0.1483(4) -0.3564(4) 0.00408(19) 0.121(5) Uiso 1 1 d G . .
H39 H 0.1683 -0.3586 -0.0143 0.146 Uiso 1 1 calc R . .
C41 C -0.0378(6) -0.2199(4) 0.1276(4) 0.218(4) Uiso 1 1 d G . .
H41 H -0.0195 -0.2224 0.1466 0.262 Uiso 1 1 calc R . .
C42 C -0.0907(6) -0.2177(4) 0.1279(3) 0.218(4) Uiso 1 1 d G . .
H42 H -0.1086 -0.2187 0.1471 0.262 Uiso 1 1 calc R . .
C43 C -0.1175(5) -0.2140(2) 0.1000(3) 0.218(4) Uiso 1 1 d GD . .
C44 C -0.0913(6) -0.2126(3) 0.0718(3) 0.218(4) Uiso 1 1 d GD . .
H44 H -0.1096 -0.2101 0.0528 0.262 Uiso 1 1 calc R . .
C45 C -0.0384(6) -0.2147(4) 0.0715(4) 0.218(4) Uiso 1 1 d G . .
H45 H -0.0205 -0.2137 0.0523 0.262 Uiso 1 1 calc R . .
C46 C -0.0116(5) -0.2184(4) 0.0994(5) 0.218(4) Uiso 1 1 d GD . .
C47 C 0.0672(6) -0.2161(4) 0.1237(3) 0.096(4) Uiso 1 1 d . . .
H47 H 0.0509 -0.2038 0.1412 0.115 Uiso 1 1 calc R . .
C48 C 0.1203(5) -0.2232(4) 0.1252(3) 0.079(4) Uiso 1 1 d . . .
C49 C 0.1945(5) -0.2464(3) 0.1000(3) 0.073(3) Uiso 1 1 d . . .
H49 H 0.2103 -0.2560 0.0814 0.088 Uiso 1 1 calc R . .
C50 C 0.2245(4) -0.2431(3) 0.1262(3) 0.068(3) Uiso 1 1 d . . .
C51 C 0.2002(5) -0.2284(4) 0.1534(3) 0.085(4) Uiso 1 1 d . . .
H51 H 0.2187 -0.2247 0.1722 0.101 Uiso 1 1 calc R . .
C52 C 0.1485(5) -0.2195(3) 0.1517(3) 0.080(4) Uiso 1 1 d . . .
H52 H 0.1318 -0.2102 0.1701 0.096 Uiso 1 1 calc R . .
C53 C 0.0564(7) 0.0957(5) -0.0304(5) 0.195(9) Uiso 1 1 d D . .
H53A H 0.0512 0.0948 -0.0530 0.293 Uiso 0.50 1 calc PR . .
H53B H 0.0930 0.0939 -0.0259 0.293 Uiso 0.50 1 calc PR . .
H53C H 0.0428 0.1217 -0.0221 0.293 Uiso 0.50 1 calc PR . .
H53D H 0.0735 0.1122 -0.0143 0.293 Uiso 0.50 1 calc PR . .
H53E H 0.0317 0.1130 -0.0415 0.293 Uiso 0.50 1 calc PR . .
H53F H 0.0818 0.0852 -0.0452 0.293 Uiso 0.50 1 calc PR . .
C54 C 0.0366(4) 0.0624(3) 0.01886(18) 0.144(6) Uiso 1 1 d G . .
C55 C 0.0644(4) 0.0944(3) 0.0323(2) 0.135(6) Uiso 1 1 d GD . .
H55 H 0.0799 0.1149 0.0195 0.162 Uiso 1 1 calc R . .
C56 C 0.0696(4) 0.0965(3) 0.0646(2) 0.133(6) Uiso 1 1 d G . .
H56 H 0.0886 0.1184 0.0738 0.159 Uiso 1 1 calc R . .
C57 C 0.0469(4) 0.0666(4) 0.08334(18) 0.119(5) Uiso 1 1 d G . .
C58 C 0.0191(4) 0.0346(3) 0.0698(2) 0.136(6) Uiso 1 1 d G . .
H58 H 0.0036 0.0141 0.0827 0.164 Uiso 1 1 calc R . .
C59 C 0.0140(4) 0.0325(3) 0.0376(2) 0.134(6) Uiso 1 1 d GD . .
H59 H -0.0050 0.0106 0.0284 0.161 Uiso 1 1 calc R . .
C60 C 0.0478(6) 0.0940(5) 0.1322(4) 0.117(5) Uiso 1 1 d . . .
H60 H 0.0364 0.1188 0.1224 0.141 Uiso 1 1 calc R . .
C61 C 0.0585(3) 0.0941(3) 0.16598(16) 0.103(5) Uiso 1 1 d G . .
N10 N 0.0766(3) 0.0575(2) 0.17891(19) 0.101(4) Uani 1 1 d G . .
C62 C 0.0869(3) 0.0553(2) 0.2107(2) 0.098(4) Uiso 1 1 d G . .
H62 H 0.0993 0.0303 0.2195 0.118 Uiso 1 1 calc R . .
C63 C 0.0791(3) 0.0898(3) 0.22952(15) 0.093(4) Uiso 1 1 d G . .
C64 C 0.0609(4) 0.1265(2) 0.2166(2) 0.134(6) Uiso 1 1 d G . .
H64 H 0.0556 0.1500 0.2295 0.161 Uiso 1 1 calc R . .
C65 C 0.0506(4) 0.1286(2) 0.1848(2) 0.130(6) Uiso 1 1 d G . .
H65 H 0.0382 0.1537 0.1760 0.156 Uiso 1 1 calc R . .
C66 C 0.0932(5) 0.0886(4) 0.2640(3) 0.090(4) Uiso 1 1 d . . .
C67 C 0.0864(5) 0.0533(4) 0.2802(3) 0.084(4) Uiso 1 1 d . . .
H67 H 0.0703 0.0304 0.2703 0.100 Uiso 1 1 calc R . .
C68 C 0.1297(5) 0.0807(4) 0.3238(3) 0.091(4) Uiso 1 1 d . . .
C69 C 0.1355(5) 0.1171(4) 0.3074(3) 0.088(4) Uiso 1 1 d . . .
H69 H 0.1514 0.1399 0.3175 0.106 Uiso 1 1 calc R . .
C70 C 0.1195(5) 0.1221(4) 0.2771(3) 0.089(4) Uiso 1 1 d . . .
H70 H 0.1259 0.1468 0.2657 0.107 Uiso 1 1 calc R . .
C71 C 0.1492(5) 0.0751(5) 0.3541(3) 0.093(4) Uiso 1 1 d . . .
H71 H 0.1666 0.0975 0.3638 0.111 Uiso 1 1 calc R . .
C72 C 0.1665(3) 0.0368(3) 0.40001(18) 0.095(4) Uiso 1 1 d G . .
C73 C 0.1748(4) 0.0702(2) 0.4199(2) 0.118(5) Uiso 1 1 d G . .
H73 H 0.1673 0.0976 0.4131 0.141 Uiso 1 1 calc R . .
C74 C 0.1941(4) 0.0636(3) 0.4496(2) 0.108(5) Uiso 1 1 d G . .
H74 H 0.1998 0.0864 0.4632 0.130 Uiso 1 1 calc R . .
C75 C 0.2050(4) 0.0235(3) 0.45960(18) 0.135(6) Uiso 1 1 d G . .
C76 C 0.1967(4) -0.0099(2) 0.4398(2) 0.121(5) Uiso 1 1 d G . .
H76 H 0.2041 -0.0372 0.4466 0.145 Uiso 1 1 calc R . .
C77 C 0.1774(4) -0.0032(3) 0.4100(2) 0.114(5) Uiso 1 1 d G . .
H77 H 0.1717 -0.0261 0.3964 0.137 Uiso 1 1 calc R . .
C78 C 0.2271(9) -0.0233(5) 0.5013(5) 0.217(10) Uiso 1 1 d D . .
H78A H 0.2454 -0.0244 0.5213 0.326 Uiso 0.50 1 calc PR . .
H78B H 0.2430 -0.0423 0.4865 0.326 Uiso 0.50 1 calc PR . .
H78C H 0.1914 -0.0313 0.5046 0.326 Uiso 0.50 1 calc PR . .
H78D H 0.2078 -0.0409 0.4870 0.326 Uiso 0.50 1 calc PR . .
H78E H 0.2102 -0.0230 0.5217 0.326 Uiso 0.50 1 calc PR . .
H78F H 0.2618 -0.0341 0.5036 0.326 Uiso 0.50 1 calc PR . .
C80 C -0.1021(5) -0.0602(4) 0.1254(4) 0.278(5) Uiso 1 1 d GD . .
C81 C -0.0687(6) -0.0936(4) 0.1251(4) 0.278(5) Uiso 1 1 d GD . .
H81 H -0.0806 -0.1203 0.1190 0.333 Uiso 1 1 calc R . .
C82 C -0.0180(6) -0.0882(6) 0.1337(4) 0.278(5) Uiso 1 1 d G . .
H82 H 0.0048 -0.1111 0.1334 0.333 Uiso 1 1 calc R . .
C83 C -0.0007(6) -0.0492(7) 0.1426(4) 0.278(5) Uiso 1 1 d G . .
C84 C -0.0341(8) -0.0157(6) 0.1429(4) 0.278(5) Uiso 1 1 d G . .
H84 H -0.0222 0.0109 0.1491 0.333 Uiso 1 1 calc R . .
C85 C -0.0848(7) -0.0212(4) 0.1344(4) 0.278(5) Uiso 1 1 d GD . .
H85 H -0.1076 0.0017 0.1346 0.333 Uiso 1 1 calc R . .
C86 C 0.0703(6) -0.0749(5) 0.1679(3) 0.103(5) Uiso 1 1 d . . .
H86 H 0.0503 -0.0982 0.1737 0.124 Uiso 1 1 calc R . .
C87 C 0.1243(6) -0.0726(5) 0.1761(3) 0.090(4) Uiso 1 1 d . . .
C88 C 0.1985(5) -0.0387(4) 0.1765(3) 0.071(3) Uiso 1 1 d . . .
H88 H 0.2169 -0.0137 0.1732 0.085 Uiso 1 1 calc R . .
C89 C 0.2250(5) -0.0728(4) 0.1877(3) 0.078(4) Uiso 1 1 d . . .
C90 C 0.1969(5) -0.1080(4) 0.1955(3) 0.088(4) Uiso 1 1 d . . .
H90 H 0.2133 -0.1313 0.2047 0.106 Uiso 1 1 calc R . .
C91 C 0.1449(5) -0.1087(4) 0.1897(3) 0.090(4) Uiso 1 1 d . . .
H91 H 0.1244 -0.1320 0.1946 0.108 Uiso 1 1 calc R . .
C92 C -0.2118(7) -0.0317(8) 0.3441(5) 0.257(4) Uiso 1 1 d D . .
H92A H -0.2480 -0.0344 0.3388 0.386 Uiso 0.50 1 calc PR . .
H92B H -0.2027 -0.0022 0.3452 0.386 Uiso 0.50 1 calc PR . .
H92C H -0.2053 -0.0448 0.3643 0.386 Uiso 0.50 1 calc PR . .
H92D H -0.1894 -0.0199 0.3601 0.386 Uiso 0.50 1 calc PR . .
H92E H -0.2346 -0.0521 0.3537 0.386 Uiso 0.50 1 calc PR . .
H92F H -0.2320 -0.0095 0.3346 0.386 Uiso 0.50 1 calc PR . .
C93 C -0.1238(5) -0.0556(5) 0.3193(3) 0.257(4) Uiso 1 1 d GD . .
C94 C -0.0978(7) -0.0751(5) 0.2952(3) 0.257(4) Uiso 1 1 d GD . .
H94 H -0.1163 -0.0889 0.2792 0.309 Uiso 1 1 calc R . .
C95 C -0.0448(7) -0.0746(5) 0.2944(4) 0.257(4) Uiso 1 1 d G . .
H95 H -0.0271 -0.0879 0.2779 0.309 Uiso 1 1 calc R . .
C96 C -0.0178(5) -0.0544(6) 0.3178(5) 0.257(4) Uiso 1 1 d G . .
C97 C -0.0437(6) -0.0348(5) 0.3419(4) 0.257(4) Uiso 1 1 d G . .
H97 H -0.0252 -0.0210 0.3579 0.309 Uiso 1 1 calc R . .
C98 C -0.0967(6) -0.0354(5) 0.3427(3) 0.257(4) Uiso 1 1 d GD . .
H98 H -0.1144 -0.0220 0.3592 0.309 Uiso 1 1 calc R . .
C99 C 0.0599(5) -0.0712(4) 0.2999(3) 0.095(4) Uiso 1 1 d . . .
H99 H 0.0431 -0.0895 0.2859 0.114 Uiso 1 1 calc R . .
C100 C 0.1136(2) -0.0719(2) 0.30030(18) 0.079(4) Uiso 1 1 d G . .
N16 N 0.1367(3) -0.0478(2) 0.32324(16) 0.075(3) Uani 1 1 d G . .
C101 C 0.1894(3) -0.0479(2) 0.32640(15) 0.086(4) Uiso 1 1 d G . .
H101 H 0.2052 -0.0315 0.3421 0.103 Uiso 1 1 calc R . .
C102 C 0.2192(2) -0.0721(3) 0.30663(19) 0.073(3) Uiso 1 1 d G . .
C103 C 0.1961(3) -0.0961(2) 0.28370(17) 0.098(4) Uiso 1 1 d G . .
H103 H 0.2165 -0.1126 0.2702 0.117 Uiso 1 1 calc R . .
C104 C 0.1434(3) -0.0960(2) 0.28053(16) 0.087(4) Uiso 1 1 d G . .
H104 H 0.1276 -0.1124 0.2648 0.105 Uiso 1 1 calc R . .
C105 C -0.0086(10) 0.2310(6) 0.3250(6) 0.264(5) Uiso 1 1 d D . .
H10A H -0.0162 0.2536 0.3105 0.396 Uiso 0.50 1 calc PR . .
H10B H 0.0280 0.2309 0.3298 0.396 Uiso 0.50 1 calc PR . .
H10C H -0.0281 0.2348 0.3443 0.396 Uiso 0.50 1 calc PR . .
H10D H 0.0053 0.2260 0.3459 0.396 Uiso 0.50 1 calc PR . .
H10E H -0.0389 0.2487 0.3266 0.396 Uiso 0.50 1 calc PR . .
H10F H 0.0172 0.2448 0.3121 0.396 Uiso 0.50 1 calc PR . .
C106 C -0.0258(6) 0.1154(4) 0.3160(3) 0.264(5) Uiso 1 1 d GD . .
H106 H -0.0447 0.1143 0.2971 0.317 Uiso 1 1 calc R . .
C107 C -0.0100(6) 0.1534(4) 0.3279(3) 0.264(5) Uiso 1 1 d GD . .
C108 C 0.0176(6) 0.1551(3) 0.3555(3) 0.264(5) Uiso 1 1 d GD . .
H108 H 0.0284 0.1810 0.3636 0.317 Uiso 1 1 calc R . .
C109 C 0.0293(5) 0.1187(4) 0.3714(3) 0.264(5) Uiso 1 1 d GD . .
H109 H 0.0481 0.1198 0.3903 0.317 Uiso 1 1 calc R . .
C110 C 0.0134(5) 0.0807(3) 0.3595(3) 0.264(5) Uiso 1 1 d GD . .
C111 C -0.0141(6) 0.0791(4) 0.3319(3) 0.264(5) Uiso 1 1 d GD . .
H111 H -0.0250 0.0531 0.3238 0.317 Uiso 1 1 calc R . .
C112 C 0.0250(7) 0.0414(6) 0.4031(5) 0.166(8) Uiso 1 1 d . . .
H112 H 0.0148 0.0641 0.4158 0.199 Uiso 1 1 calc R . .
C113 C 0.0402(4) -0.0005(3) 0.4167(3) 0.174(8) Uiso 1 1 d G . .
N18 N 0.0588(4) -0.0310(3) 0.3969(2) 0.143(5) Uani 1 1 d GD . .
C114 C 0.0751(4) -0.0687(3) 0.4089(3) 0.116(5) Uiso 1 1 d G . .
H114 H 0.0878 -0.0896 0.3953 0.139 Uiso 1 1 calc R . .
C115 C 0.0729(4) -0.0759(3) 0.4409(3) 0.143(6) Uiso 1 1 d G . .
C116 C 0.0544(5) -0.0454(4) 0.46075(19) 0.177(8) Uiso 1 1 d G . .
H116 H 0.0529 -0.0503 0.4826 0.212 Uiso 1 1 calc R . .
C117 C 0.0380(4) -0.0077(4) 0.4487(3) 0.152(7) Uiso 1 1 d G . .
H117 H 0.0254 0.0132 0.4623 0.183 Uiso 1 1 calc R . .
C118 C -0.2055(5) -0.2075(4) 0.0686(4) 0.218(4) Uiso 1 1 d D . .
H11A H -0.2418 -0.2099 0.0739 0.327 Uiso 0.50 1 calc PR . .
H11B H -0.1962 -0.2295 0.0540 0.327 Uiso 0.50 1 calc PR . .
H11C H -0.1992 -0.1804 0.0590 0.327 Uiso 0.50 1 calc PR . .
H11D H -0.1830 -0.2033 0.0506 0.327 Uiso 0.50 1 calc PR . .
H11E H -0.2286 -0.1837 0.0706 0.327 Uiso 0.50 1 calc PR . .
H11F H -0.2255 -0.2328 0.0656 0.327 Uiso 0.50 1 calc PR . .
C119 C -0.1785(8) -0.1067(7) 0.1042(6) 0.278(5) Uiso 1 1 d D . .
H11G H -0.2146 -0.1021 0.0991 0.417 Uiso 0.50 1 calc PR . .
H11H H -0.1757 -0.1288 0.1197 0.417 Uiso 0.50 1 calc PR . .
H11I H -0.1600 -0.1147 0.0853 0.417 Uiso 0.50 1 calc PR . .
H11J H -0.1523 -0.1283 0.1036 0.417 Uiso 0.50 1 calc PR . .
H11K H -0.1912 -0.1016 0.0830 0.417 Uiso 0.50 1 calc PR . .
H11L H -0.2068 -0.1158 0.1175 0.417 Uiso 0.50 1 calc PR . .
N1 N 0.0373(4) -0.2483(4) 0.0114(3) 0.109(4) Uani 1 1 d . . .
N3 N 0.1218(4) -0.0202(3) 0.0908(2) 0.088(3) Uani 1 1 d . . .
N4 N 0.1693(4) 0.0469(3) 0.1199(2) 0.090(3) Uani 1 1 d . . .
N5 N 0.1592(4) -0.2480(3) 0.0182(2) 0.097(3) Uani 1 1 d . . .
N7 N 0.0402(4) -0.2253(4) 0.0998(3) 0.104(4) Uani 1 1 d . . .
N8 N 0.1428(4) -0.2369(3) 0.0985(2) 0.080(3) Uani 1 1 d . . .
N9 N 0.0536(5) 0.0618(4) 0.1161(2) 0.119(4) Uani 1 1 d . . .
N11 N 0.1018(4) 0.0495(3) 0.3104(2) 0.082(3) Uani 1 1 d . . .
N12 N 0.1445(4) 0.0411(3) 0.3691(2) 0.095(3) Uani 1 1 d . . .
N13 N 0.0503(4) -0.0443(5) 0.1526(3) 0.130(5) Uani 1 1 d . . .
N14 N 0.1507(4) -0.0391(3) 0.1704(2) 0.073(3) Uani 1 1 d . . .
N15 N 0.0333(4) -0.0491(3) 0.3160(3) 0.105(4) Uani 1 1 d . . .
N17 N 0.0269(5) 0.0436(3) 0.3739(3) 0.178(8) Uani 1 1 d D . .
O1 O -0.0494(5) -0.4008(4) -0.0307(3) 0.195(3) Uiso 1 1 d D . .
O2 O 0.2539(4) 0.1855(3) 0.1779(3) 0.134(4) Uiso 1 1 d . . .
O3 O 0.2402(5) -0.1069(4) -0.0427(3) 0.160(2) Uiso 1 1 d D . .
O4 O -0.1735(6) -0.2115(3) 0.0982(3) 0.218(4) Uiso 1 1 d D . .
O5 O 0.0296(5) 0.0602(4) -0.0156(2) 0.181(5) Uiso 1 1 d D . .
O6 O 0.2291(4) 0.0176(4) 0.4894(3) 0.142(4) Uiso 1 1 d D . .
O7 O -0.1557(6) -0.0668(6) 0.1174(4) 0.278(5) Uiso 1 1 d D . .
O8 O -0.1796(5) -0.0527(5) 0.3191(4) 0.257(4) Uiso 1 1 d D . .
O9 O -0.0228(7) 0.1910(4) 0.3106(4) 0.264(5) Uiso 1 1 d D . .
C201 C 0.2790(4) -0.1337(3) 0.1039(2) 0.1611(14) Uani 0.50 1 d P A 1
S1 S 0.2163(4) -0.1050(3) 0.1014(2) 0.1611(14) Uani 0.50 1 d P A 1
C20A C 0.2163(4) -0.1050(3) 0.1014(2) 0.1611(14) Uani 0.50 1 d P B 2
S1A S 0.2790(4) -0.1337(3) 0.1039(2) 0.1611(14) Uani 0.50 1 d P B 2
F1 F 0.3155(5) -0.1053(3) 0.0988(3) 0.1611(14) Uani 0.50 1 d P A 1
F2 F 0.2697(4) -0.1458(3) 0.1373(3) 0.1611(14) Uani 0.50 1 d P A 1
F3 F 0.2740(4) -0.1667(3) 0.0836(3) 0.1611(14) Uani 0.50 1 d P A 1
O10 O 0.2205(4) -0.0935(3) 0.0667(3) 0.1611(14) Uani 0.50 1 d P A 1
O11 O 0.1752(5) -0.1283(3) 0.1055(3) 0.1611(14) Uani 0.50 1 d P A 1
O12 O 0.2206(4) -0.0674(3) 0.1141(3) 0.1611(14) Uani 0.50 1 d P A 1
O10A O 0.3155(5) -0.1053(3) 0.0988(3) 0.1611(14) Uani 0.50 1 d P B 2
O11A O 0.2697(4) -0.1458(3) 0.1373(3) 0.1611(14) Uani 0.50 1 d P B 2
O12A O 0.2740(4) -0.1667(3) 0.0836(3) 0.1611(14) Uani 0.50 1 d P B 2
F1A F 0.2205(4) -0.0935(3) 0.0667(3) 0.1611(14) Uani 0.50 1 d P B 2
F2A F 0.1752(5) -0.1283(3) 0.1055(3) 0.1611(14) Uani 0.50 1 d P B 2
F3A F 0.2206(4) -0.0674(3) 0.1141(3) 0.1611(14) Uani 0.50 1 d P B 2
S4 S 0.02739(19) -0.1715(2) 0.21807(16) 0.258(3) Uani 1 1 d G . .
O17 O 0.0400(3) -0.1360(3) 0.2365(2) 0.258(3) Uani 1 1 d G . .
O16 O 0.0330(3) -0.1656(3) 0.18534(17) 0.258(3) Uani 1 1 d G . .
O18 O 0.0460(3) -0.2102(3) 0.2299(2) 0.258(3) Uani 1 1 d G . .
F16 F -0.0600(3) -0.2080(3) 0.2073(2) 0.258(3) Uani 1 1 d G . .
F17 F -0.0534(3) -0.1825(3) 0.25274(19) 0.258(3) Uani 1 1 d G . .
F18 F -0.0649(2) -0.1425(3) 0.2137(2) 0.258(3) Uani 1 1 d G . .
C122 C -0.04092(19) -0.1762(2) 0.22328(17) 0.258(3) Uani 1 1 d G . .
S2 S 0.2822(3) 0.0255(2) 0.24246(16) 0.130(2) Uani 0.50 1 d PG C -1
O13 O 0.2799(4) 0.0359(4) 0.21002(16) 0.130(2) Uani 0.50 1 d PG C -1
O14 O 0.2874(4) -0.0176(2) 0.2486(3) 0.130(2) Uani 0.50 1 d PG C -1
O15 O 0.3136(3) 0.0522(3) 0.2610(2) 0.130(2) Uani 0.50 1 d PG C -1
F13 F 0.2133(4) 0.0292(4) 0.28653(18) 0.130(2) Uani 0.50 1 d PG C -1
F14 F 0.2072(4) 0.0770(2) 0.2527(3) 0.130(2) Uani 0.50 1 d PG C -1
F15 F 0.1838(3) 0.0154(3) 0.2413(2) 0.130(2) Uani 0.50 1 d PG C -1
C123 C 0.2186(3) 0.0374(2) 0.25628(17) 0.130(2) Uani 0.50 1 d PG C -1
S3 S 0.1081(3) 0.2500 0.2500 0.166(2) Uiso 1 2 d SG . .
O19 O 0.1562(3) 0.2267(3) 0.24860(17) 0.166(2) Uiso 0.50 1 d PG . .
O20 O 0.1111(5) 0.28949(9) 0.23686(15) 0.166(2) Uiso 0.50 1 d PG . .
O21 O 0.0654(4) 0.2246(2) 0.23912(16) 0.166(2) Uiso 0.50 1 d PG . .
F19 F 0.0531(4) 0.2765(4) 0.29505(19) 0.166(2) Uiso 0.50 1 d PG . .
F20 F 0.0923(5) 0.2206(4) 0.30525(12) 0.166(2) Uiso 0.50 1 d PG . .
F21 F 0.1334(5) 0.2777(4) 0.30334(13) 0.166(2) Uiso 0.50 1 d PG . .
C124 C 0.0964(3) 0.2561(3) 0.29009(4) 0.166(2) Uiso 0.50 1 d PG . .
Cd1 Cd 0.09027(4) -0.24457(3) 0.05609(2) 0.1002(4) Uani 1 1 d . . .
Cd2 Cd 0.10158(4) 0.00897(3) 0.14095(2) 0.0898(4) Uani 1 1 d . . .
Cd3 Cd 0.08096(4) -0.00253(3) 0.34736(2) 0.0976(4) Uani 1 1 d . . .

loop_
_atom_site_aniso_label
_atom_site_aniso_U_11
_atom_site_aniso_U_22
_atom_site_aniso_U_33
_atom_site_aniso_U_23
_atom_site_aniso_U_13
_atom_site_aniso_U_12
N2 0.102(8) 0.108(8) 0.065(7) -0.014(6) -0.019(6) -0.003(6)
N6 0.161(11) 0.075(8) 0.111(10) 0.012(7) -0.057(9) -0.014(7)
N10 0.105(9) 0.110(9) 0.088(8) 0.013(7) 0.013(7) 0.015(7)
N16 0.098(8) 0.055(6) 0.072(7) -0.003(5) 0.013(6) -0.001(5)
N18 0.178(13) 0.075(8) 0.175(13) 0.001(8) 0.096(11) 0.017(8)
N1 0.109(9) 0.094(9) 0.124(10) -0.047(8) -0.025(8) -0.027(7)
N3 0.105(8) 0.070(7) 0.089(8) -0.009(6) -0.007(7) 0.003(6)
N4 0.127(9) 0.072(7) 0.071(8) 0.004(6) -0.005(7) 0.000(7)
N5 0.140(10) 0.062(7) 0.088(8) 0.006(6) -0.012(7) 0.001(7)
N7 0.072(8) 0.135(10) 0.106(9) 0.011(8) -0.008(7) -0.012(7)
N8 0.095(9) 0.072(7) 0.072(7) 0.000(5) 0.001(6) -0.012(6)
N9 0.167(12) 0.121(10) 0.069(8) -0.010(7) -0.041(8) 0.062(9)
N11 0.080(7) 0.070(7) 0.095(8) -0.020(6) 0.008(6) 0.002(6)
N12 0.134(10) 0.080(8) 0.071(7) -0.008(6) 0.011(7) 0.001(7)
N13 0.085(9) 0.175(13) 0.132(11) 0.017(10) -0.040(8) -0.009(8)
N14 0.082(8) 0.071(7) 0.066(7) -0.008(5) -0.006(6) 0.019(6)
N15 0.087(8) 0.108(9) 0.120(10) -0.032(8) 0.019(7) -0.006(7)
N17 0.30(2) 0.062(8) 0.168(14) 0.030(9) 0.121(14) 0.072(10)
C201 0.194(4) 0.115(3) 0.174(3) -0.001(3) 0.005(3) 0.003(3)
S1 0.194(4) 0.115(3) 0.174(3) -0.001(3) 0.005(3) 0.003(3)
C20A 0.194(4) 0.115(3) 0.174(3) -0.001(3) 0.005(3) 0.003(3)
S1A 0.194(4) 0.115(3) 0.174(3) -0.001(3) 0.005(3) 0.003(3)
F1 0.194(4) 0.115(3) 0.174(3) -0.001(3) 0.005(3) 0.003(3)
F2 0.194(4) 0.115(3) 0.174(3) -0.001(3) 0.005(3) 0.003(3)
F3 0.194(4) 0.115(3) 0.174(3) -0.001(3) 0.005(3) 0.003(3)
O10 0.194(4) 0.115(3) 0.174(3) -0.001(3) 0.005(3) 0.003(3)
O11 0.194(4) 0.115(3) 0.174(3) -0.001(3) 0.005(3) 0.003(3)
O12 0.194(4) 0.115(3) 0.174(3) -0.001(3) 0.005(3) 0.003(3)
O10A 0.194(4) 0.115(3) 0.174(3) -0.001(3) 0.005(3) 0.003(3)
O11A 0.194(4) 0.115(3) 0.174(3) -0.001(3) 0.005(3) 0.003(3)
O12A 0.194(4) 0.115(3) 0.174(3) -0.001(3) 0.005(3) 0.003(3)
F1A 0.194(4) 0.115(3) 0.174(3) -0.001(3) 0.005(3) 0.003(3)
F2A 0.194(4) 0.115(3) 0.174(3) -0.001(3) 0.005(3) 0.003(3)
F3A 0.194(4) 0.115(3) 0.174(3) -0.001(3) 0.005(3) 0.003(3)
S4 0.260(5) 0.249(6) 0.265(6) 0.020(5) -0.004(5) -0.084(5)
O17 0.260(5) 0.249(6) 0.265(6) 0.020(5) -0.004(5) -0.084(5)
O16 0.260(5) 0.249(6) 0.265(6) 0.020(5) -0.004(5) -0.084(5)
O18 0.260(5) 0.249(6) 0.265(6) 0.020(5) -0.004(5) -0.084(5)
F16 0.260(5) 0.249(6) 0.265(6) 0.020(5) -0.004(5) -0.084(5)
F17 0.260(5) 0.249(6) 0.265(6) 0.020(5) -0.004(5) -0.084(5)
F18 0.260(5) 0.249(6) 0.265(6) 0.020(5) -0.004(5) -0.084(5)
C122 0.260(5) 0.249(6) 0.265(6) 0.020(5) -0.004(5) -0.084(5)
S2 0.145(5) 0.152(5) 0.092(4) -0.021(4) 0.007(4) 0.013(4)
O13 0.145(5) 0.152(5) 0.092(4) -0.021(4) 0.007(4) 0.013(4)
O14 0.145(5) 0.152(5) 0.092(4) -0.021(4) 0.007(4) 0.013(4)
O15 0.145(5) 0.152(5) 0.092(4) -0.021(4) 0.007(4) 0.013(4)
F13 0.145(5) 0.152(5) 0.092(4) -0.021(4) 0.007(4) 0.013(4)
F14 0.145(5) 0.152(5) 0.092(4) -0.021(4) 0.007(4) 0.013(4)
F15 0.145(5) 0.152(5) 0.092(4) -0.021(4) 0.007(4) 0.013(4)
C123 0.145(5) 0.152(5) 0.092(4) -0.021(4) 0.007(4) 0.013(4)
Cd1 0.1309(10) 0.0889(8) 0.0809(7) -0.0177(6) -0.0165(7) -0.0167(7)
Cd2 0.1025(8) 0.0802(7) 0.0867(7) -0.0137(6) -0.0209(6) 0.0127(6)
Cd3 0.1164(9) 0.0877(8) 0.0888(7) -0.0170(6) 0.0216(6) -0.0043(6)

_geom_special_details            
;
All esds (except the esd in the dihedral angle between two l.s. planes)
are estimated using the full covariance matrix. The cell esds are taken
into account individually in the estimation of esds in distances, angles
and torsion angles; correlations between esds in cell parameters are only
used when they are defined by crystal symmetry. An approximate (isotropic)
treatment of cell esds is used for estimating esds involving l.s. planes.
;

loop_
_geom_bond_atom_site_label_1
_geom_bond_atom_site_label_2
_geom_bond_distance
_geom_bond_site_symmetry_2
_geom_bond_publ_flag
C1 O1 1.544(9) . ?
C1 H1A 0.9800 . ?
C1 H1B 0.9800 . ?
C1 H1C 0.9800 . ?
C1 H1D 0.9800 . ?
C1 H1E 0.9800 . ?
C1 H1F 0.9800 . ?
C2 C3 1.3900 . ?
C2 C7 1.3900 . ?
C2 O1 1.501(7) . ?
C3 C4 1.3900 . ?
C3 H3 0.9500 . ?
C4 C5 1.3900 . ?
C4 H4 0.9500 . ?
C5 C6 1.3900 . ?
C5 N1 1.436(13) . ?
C6 C7 1.3900 . ?
C6 H6 0.9500 . ?
C7 H7 0.9500 . ?
C8 N1 1.233(15) . ?
C8 C9 1.470(15) . ?
C8 H8 0.9500 . ?
C9 N2 1.3900 . ?
C9 C13 1.3900 . ?
N2 C10 1.3900 . ?
N2 Cd1 2.393(6) . ?
C10 C11 1.3900 . ?
C10 H10 0.9500 . ?
C11 C12 1.3900 . ?
C11 C14 1.447(14) . ?
C12 C13 1.3900 . ?
C12 H12 0.9500 . ?
C13 H13 0.9500 . ?
C14 C18 1.344(17) . ?
C14 C15 1.425(17) . ?
C15 N3 1.345(15) . ?
C15 H15 0.9500 . ?
C16 N3 1.267(15) . ?
C16 C17 1.415(18) . ?
C16 C19 1.490(17) . ?
C17 C18 1.412(18) . ?
C17 H17 0.9500 . ?
C18 H18 0.9500 . ?
C19 N4 1.257(14) . ?
C19 H19 0.9500 . ?
C20 C21 1.336(16) . ?
C20 N4 1.402(15) . ?
C20 C25 1.431(17) . ?
C21 C22 1.397(15) . ?
C21 H21 0.9500 . ?
C22 C23 1.349(16) . ?
C22 H22 0.9500 . ?
C23 C24 1.382(19) . ?
C23 O2 1.444(16) . ?
C24 C25 1.368(18) . ?
C24 H24 0.9500 . ?
C25 H25 0.9500 . ?
C26 O2 1.373(15) . ?
C26 H26A 0.9800 . ?
C26 H26B 0.9800 . ?
C26 H26C 0.9800 . ?
C26 H26D 0.9800 . ?
C26 H26E 0.9800 . ?
C26 H26F 0.9800 . ?
C27 O3 1.517(9) . ?
C27 H27A 0.9800 . ?
C27 H27B 0.9800 . ?
C27 H27C 0.9800 . ?
C27 H27D 0.9800 . ?
C27 H27E 0.9800 . ?
C27 H27F 0.9800 . ?
C28 C29 1.3900 . ?
C28 C33 1.3900 . ?
C28 O3 1.468(13) . ?
C29 C30 1.3900 . ?
C29 H29 0.9500 . ?
C30 C31 1.3900 . ?
C30 H30 0.9500 . ?
C31 C32 1.3900 . ?
C31 N5 1.416(12) . ?
C32 C33 1.3900 . ?
C32 H32 0.9500 . ?
C33 H33 0.9500 . ?
C34 N5 1.251(15) . ?
C34 C35 1.351(15) . ?
C34 H34 0.9500 . ?
C35 N6 1.3900 . ?
C35 C39 1.3900 . ?
N6 C36 1.3900 . ?
N6 Cd1 2.397(7) . ?
C36 C37 1.3900 . ?
C36 H36 0.9500 . ?
C37 C38 1.3900 . ?
C37 C115 1.465(13) 4_545 ?
C38 C39 1.3900 . ?
C38 H38 0.9500 . ?
C39 H39 0.9500 . ?
C41 C42 1.3900 . ?
C41 C46 1.3900 . ?
C41 H41 0.9500 . ?
C42 C43 1.3900 . ?
C42 H42 0.9500 . ?
C43 C44 1.3900 . ?
C43 O4 1.472(17) . ?
C44 C45 1.3900 . ?
C44 H44 0.9500 . ?
C45 C46 1.3900 . ?
C45 H45 0.9500 . ?
C46 N7 1.375(15) . ?
C47 N7 1.280(15) . ?
C47 C48 1.411(16) . ?
C47 H47 0.9500 . ?
C48 C52 1.360(15) . ?
C48 N8 1.362(14) . ?
C49 C50 1.376(14) . ?
C49 N8 1.392(14) . ?
C49 H49 0.9500 . ?
C50 C51 1.409(14) . ?
C50 C50 1.41(2) 2_545 ?
C51 C52 1.390(15) . ?
C51 H51 0.9500 . ?
C52 H52 0.9500 . ?
C53 O5 1.487(9) . ?
C53 H53A 0.9800 . ?
C53 H53B 0.9800 . ?
C53 H53C 0.9800 . ?
C53 H53D 0.9800 . ?
C53 H53E 0.9800 . ?
C53 H53F 0.9800 . ?
C54 C55 1.3900 . ?
C54 C59 1.3900 . ?
C54 O5 1.489(7) . ?
C55 C56 1.3900 . ?
C55 H55 0.9500 . ?
C56 C57 1.3900 . ?
C56 H56 0.9500 . ?
C57 C58 1.3900 . ?
C57 N9 1.422(12) . ?
C58 C59 1.3900 . ?
C58 H58 0.9500 . ?
C59 H59 0.9500 . ?
C60 N9 1.258(16) . ?
C60 C61 1.475(16) . ?
C60 H60 0.9500 . ?
C61 N10 1.3900 . ?
C61 C65 1.3900 . ?
N10 C62 1.3900 . ?
N10 Cd2 2.351(6) . ?
C62 C63 1.3900 . ?
C62 H62 0.9500 . ?
C63 C64 1.3900 . ?
C63 C66 1.526(14) . ?
C64 C65 1.3900 . ?
C64 H64 0.9500 . ?
C65 H65 0.9500 . ?
C66 C67 1.344(15) . ?
C66 C70 1.397(16) . ?
C67 N11 1.361(14) . ?
C67 H67 0.9500 . ?
C68 N11 1.371(15) . ?
C68 C69 1.376(16) . ?
C68 C71 1.409(16) . ?
C69 C70 1.374(15) . ?
C69 H69 0.9500 . ?
C70 H70 0.9500 . ?
C71 N12 1.277(14) . ?
C71 H71 0.9500 . ?
C72 C73 1.3900 . ?
C72 C77 1.3900 . ?
C72 N12 1.450(12) . ?
C73 C74 1.3900 . ?
C73 H73 0.9500 . ?
C74 C75 1.3900 . ?
C74 H74 0.9500 . ?
C75 C76 1.3900 . ?
C75 O6 1.436(12) . ?
C76 C77 1.3900 . ?
C76 H76 0.9500 . ?
C77 H77 0.9500 . ?
C78 O6 1.416(9) . ?
C78 H78A 0.9800 . ?
C78 H78B 0.9800 . ?
C78 H78C 0.9800 . ?
C78 H78D 0.9800 . ?
C78 H78E 0.9800 . ?
C78 H78F 0.9800 . ?
C80 C81 1.3900 . ?
C80 C85 1.3900 . ?
C80 O7 1.463(6) . ?
C81 C82 1.3900 . ?
C81 H81 0.9500 . ?
C82 C83 1.3900 . ?
C82 H82 0.9500 . ?
C83 C84 1.3900 . ?
C83 N13 1.415(16) . ?
C84 C85 1.3900 . ?
C84 H84 0.9500 . ?
C85 H85 0.9500 . ?
C86 N13 1.295(16) . ?
C86 C87 1.461(18) . ?
C86 H86 0.9500 . ?
C87 N14 1.305(15) . ?
C87 C91 1.410(16) . ?
C88 N14 1.279(13) . ?
C88 C89 1.386(15) . ?
C88 H88 0.9500 . ?
C89 C90 1.392(15) . ?
C89 C102 1.48(3) 3 ?
C90 C91 1.386(15) . ?
C90 H90 0.9500 . ?
C91 H91 0.9500 . ?
C92 O8 1.522(7) . ?
C92 H92A 0.9800 . ?
C92 H92B 0.9800 . ?
C92 H92C 0.9800 . ?
C92 H92D 0.9800 . ?
C92 H92E 0.9800 . ?
C92 H92F 0.9800 . ?
C93 C94 1.3900 . ?
C93 C98 1.3900 . ?
C93 O8 1.467(6) . ?
C94 C95 1.3900 . ?
C94 H94 0.9500 . ?
C95 C96 1.3900 . ?
C95 H95 0.9500 . ?
C96 N15 1.353(15) . ?
C96 C97 1.3900 . ?
C97 C98 1.3900 . ?
C97 H97 0.9500 . ?
C98 H98 0.9500 . ?
C99 N15 1.214(14) . ?
C99 C100 1.410(14) . ?
C99 H99 0.9500 . ?
C100 N16 1.3900 . ?
C100 C104 1.3900 . ?
N16 C101 1.3900 . ?
N16 Cd3 2.310(6) . ?
C101 C102 1.3900 . ?
C101 H101 0.9500 . ?
C102 C103 1.3900 . ?
C102 C89 1.485(13) 3 ?
C103 C104 1.3900 . ?
C103 H103 0.9500 . ?
C104 H104 0.9500 . ?
C105 O9 1.477(10) . ?
C105 H10A 0.9800 . ?
C105 H10B 0.9800 . ?
C105 H10C 0.9800 . ?
C105 H10D 0.9800 . ?
C105 H10E 0.9800 . ?
C105 H10F 0.9800 . ?
C106 C107 1.3900 . ?
C106 C111 1.3900 . ?
C106 H106 0.9500 . ?
C107 C108 1.3900 . ?
C107 O9 1.461(6) . ?
C108 C109 1.3900 . ?
C108 H108 0.9500 . ?
C109 C110 1.3900 . ?
C109 H109 0.9500 . ?
C110 C111 1.3900 . ?
C110 N17 1.391(7) . ?
C111 H111 0.9500 . ?
C112 N17 1.25(2) . ?
C112 C113 1.52(2) . ?
C112 H112 0.9500 . ?
C113 N18 1.3900 . ?
C113 C117 1.3900 . ?
N18 C114 1.3900 . ?
N18 Cd3 2.384(8) . ?
C114 C115 1.3900 . ?
C114 H114 0.9500 . ?
C115 C116 1.3900 . ?
C115 C37 1.465(13) 4_545 ?
C116 C117 1.3900 . ?
C116 H116 0.9500 . ?
C117 H117 0.9500 . ?
C118 O4 1.529(9) . ?
C118 H11A 0.9800 . ?
C118 H11B 0.9800 . ?
C118 H11C 0.9800 . ?
C118 H11D 0.9800 . ?
C118 H11E 0.9800 . ?
C118 H11F 0.9800 . ?
C119 O7 1.528(9) . ?
C119 H11G 0.9800 . ?
C119 H11H 0.9800 . ?
C119 H11I 0.9800 . ?
C119 H11J 0.9800 . ?
C119 H11K 0.9800 . ?
C119 H11L 0.9800 . ?
N1 Cd1 2.368(11) . ?
N3 Cd2 2.405(10) . ?
N4 Cd2 2.336(11) . ?
N5 Cd1 2.431(11) . ?
N7 Cd1 2.371(11) . ?
N8 Cd1 2.294(10) . ?
N9 Cd2 2.371(10) . ?
N11 Cd3 2.371(10) . ?
N12 Cd3 2.371(11) . ?
N13 Cd2 2.238(13) . ?
N14 Cd2 2.379(9) . ?
N15 Cd3 2.370(11) . ?
N17 Cd3 2.349(11) . ?
C201 F1 1.345(12) . ?
C201 F3 1.381(12) . ?
C201 F2 1.507(13) . ?
C201 S1 1.891(13) . ?
S1 O11 1.325(12) . ?
S1 O12 1.333(11) . ?
S1 O10 1.536(13) . ?
S4 O16 1.4233 . ?
S4 O18 1.4311 . ?
S4 O17 1.4314 . ?
S4 C122 1.8110 . ?
F16 C122 1.3308 . ?
F17 C122 1.3203 . ?
F18 C122 1.3226 . ?
S2 O14 1.4233 . ?
S2 O15 1.4310 . ?
S2 O13 1.4315 . ?
S2 C123 1.8109 . ?
F13 C123 1.3309 . ?
F14 C123 1.3203 . ?
F15 C123 1.3226 . ?
S3 O20 1.3950 4 ?
S3 O20 1.3950 . ?
S3 O21 1.4644 . ?
S3 O21 1.464(9) 4 ?
S3 O19 1.4683 . ?
S3 O19 1.468(8) 4 ?
S3 C124 1.756(3) 4 ?
S3 C124 1.7562 . ?
O19 O20 1.436(3) 4 ?
O19 O19 1.506(16) 4 ?
O20 O19 1.436(9) 4 ?
O20 O21 1.643(10) 4 ?
O20 C124 1.908(13) 4 ?
O21 F19 1.500(16) 4 ?
O21 C124 1.619(9) 4 ?
O21 O20 1.643(6) 4 ?
F19 C124 1.3308 . ?
F19 O21 1.500(13) 4 ?
F20 C124 1.3202 . ?
F21 C124 1.3226 . ?
C124 O21 1.619(12) 4 ?
C124 O20 1.908(12) 4 ?

loop_
_geom_angle_atom_site_label_1
_geom_angle_atom_site_label_2
_geom_angle_atom_site_label_3
_geom_angle
_geom_angle_site_symmetry_1
_geom_angle_site_symmetry_3
_geom_angle_publ_flag
O1 C1 H1A 109.5 . . ?
O1 C1 H1B 109.5 . . ?
H1A C1 H1B 109.5 . . ?
O1 C1 H1C 109.5 . . ?
H1A C1 H1C 109.5 . . ?
H1B C1 H1C 109.5 . . ?
O1 C1 H1D 109.5 . . ?
H1A C1 H1D 141.1 . . ?
H1B C1 H1D 56.3 . . ?
H1C C1 H1D 56.3 . . ?
O1 C1 H1E 109.5 . . ?
H1A C1 H1E 56.3 . . ?
H1B C1 H1E 141.1 . . ?
H1C C1 H1E 56.3 . . ?
H1D C1 H1E 109.5 . . ?
O1 C1 H1F 109.5 . . ?
H1A C1 H1F 56.3 . . ?
H1B C1 H1F 56.3 . . ?
H1C C1 H1F 141.1 . . ?
H1D C1 H1F 109.5 . . ?
H1E C1 H1F 109.5 . . ?
C3 C2 C7 120.0 . . ?
C3 C2 O1 119.3(5) . . ?
C7 C2 O1 120.3(5) . . ?
C2 C3 C4 120.0 . . ?
C2 C3 H3 120.0 . . ?
C4 C3 H3 120.0 . . ?
C3 C4 C5 120.0 . . ?
C3 C4 H4 120.0 . . ?
C5 C4 H4 120.0 . . ?
C6 C5 C4 120.0 . . ?
C6 C5 N1 119.8(12) . . ?
C4 C5 N1 120.0(12) . . ?
C5 C6 C7 120.0 . . ?
C5 C6 H6 120.0 . . ?
C7 C6 H6 120.0 . . ?
C6 C7 C2 120.0 . . ?
C6 C7 H7 120.0 . . ?
C2 C7 H7 120.0 . . ?
N1 C8 C9 122.7(14) . . ?
N1 C8 H8 118.7 . . ?
C9 C8 H8 118.7 . . ?
N2 C9 C13 120.0 . . ?
N2 C9 C8 115.1(9) . . ?
C13 C9 C8 124.6(9) . . ?
C10 N2 C9 120.0 . . ?
C10 N2 Cd1 126.4(4) . . ?
C9 N2 Cd1 111.9(4) . . ?
N2 C10 C11 120.0 . . ?
N2 C10 H10 120.0 . . ?
C11 C10 H10 120.0 . . ?
C10 C11 C12 120.0 . . ?
C10 C11 C14 120.6(8) . . ?
C12 C11 C14 119.4(8) . . ?
C13 C12 C11 120.0 . . ?
C13 C12 H12 120.0 . . ?
C11 C12 H12 120.0 . . ?
C12 C13 C9 120.0 . . ?
C12 C13 H13 120.0 . . ?
C9 C13 H13 120.0 . . ?
C18 C14 C15 115.2(14) . . ?
C18 C14 C11 122.2(13) . . ?
C15 C14 C11 122.5(13) . . ?
N3 C15 C14 124.8(13) . . ?
N3 C15 H15 117.6 . . ?
C14 C15 H15 117.6 . . ?
N3 C16 C17 121.0(14) . . ?
N3 C16 C19 119.3(13) . . ?
C17 C16 C19 119.7(15) . . ?
C18 C17 C16 119.5(15) . . ?
C18 C17 H17 120.2 . . ?
C16 C17 H17 120.2 . . ?
C14 C18 C17 119.9(15) . . ?
C14 C18 H18 120.0 . . ?
C17 C18 H18 120.0 . . ?
N4 C19 C16 122.8(13) . . ?
N4 C19 H19 118.6 . . ?
C16 C19 H19 118.6 . . ?
C21 C20 N4 119.2(13) . . ?
C21 C20 C25 116.5(14) . . ?
N4 C20 C25 124.3(13) . . ?
C20 C21 C22 125.3(14) . . ?
C20 C21 H21 117.3 . . ?
C22 C21 H21 117.3 . . ?
C23 C22 C21 114.5(14) . . ?
C23 C22 H22 122.7 . . ?
C21 C22 H22 122.7 . . ?
C22 C23 C24 125.3(16) . . ?
C22 C23 O2 120.7(14) . . ?
C24 C23 O2 113.8(14) . . ?
C25 C24 C23 117.1(16) . . ?
C25 C24 H24 121.4 . . ?
C23 C24 H24 121.4 . . ?
C24 C25 C20 121.0(15) . . ?
C24 C25 H25 119.5 . . ?
C20 C25 H25 119.5 . . ?
O2 C26 H26A 109.5 . . ?
O2 C26 H26B 109.5 . . ?
H26A C26 H26B 109.5 . . ?
O2 C26 H26C 109.5 . . ?
H26A C26 H26C 109.5 . . ?
H26B C26 H26C 109.5 . . ?
O2 C26 H26D 109.5 . . ?
H26A C26 H26D 141.1 . . ?
H26B C26 H26D 56.3 . . ?
H26C C26 H26D 56.3 . . ?
O2 C26 H26E 109.5 . . ?
H26A C26 H26E 56.3 . . ?
H26B C26 H26E 141.1 . . ?
H26C C26 H26E 56.3 . . ?
H26D C26 H26E 109.5 . . ?
O2 C26 H26F 109.5 . . ?
H26A C26 H26F 56.3 . . ?
H26B C26 H26F 56.3 . . ?
H26C C26 H26F 141.1 . . ?
H26D C26 H26F 109.5 . . ?
H26E C26 H26F 109.5 . . ?
O3 C27 H27A 109.5 . . ?
O3 C27 H27B 109.5 . . ?
H27A C27 H27B 109.5 . . ?
O3 C27 H27C 109.5 . . ?
H27A C27 H27C 109.5 . . ?
H27B C27 H27C 109.5 . . ?
O3 C27 H27D 109.5 . . ?
H27A C27 H27D 141.1 . . ?
H27B C27 H27D 56.3 . . ?
H27C C27 H27D 56.3 . . ?
O3 C27 H27E 109.5 . . ?
H27A C27 H27E 56.3 . . ?
H27B C27 H27E 141.1 . . ?
H27C C27 H27E 56.3 . . ?
H27D C27 H27E 109.5 . . ?
O3 C27 H27F 109.5 . . ?
H27A C27 H27F 56.3 . . ?
H27B C27 H27F 56.3 . . ?
H27C C27 H27F 141.1 . . ?
H27D C27 H27F 109.5 . . ?
H27E C27 H27F 109.5 . . ?
C29 C28 C33 120.0 . . ?
C29 C28 O3 121.9(10) . . ?
C33 C28 O3 118.1(10) . . ?
C30 C29 C28 120.0 . . ?
C30 C29 H29 120.0 . . ?
C28 C29 H29 120.0 . . ?
C29 C30 C31 120.0 . . ?
C29 C30 H30 120.0 . . ?
C31 C30 H30 120.0 . . ?
C32 C31 C30 120.0 . . ?
C32 C31 N5 124.1(12) . . ?
C30 C31 N5 115.9(12) . . ?
C31 C32 C33 120.0 . . ?
C31 C32 H32 120.0 . . ?
C33 C32 H32 120.0 . . ?
C32 C33 C28 120.0 . . ?
C32 C33 H33 120.0 . . ?
C28 C33 H33 120.0 . . ?
N5 C34 C35 125.0(15) . . ?
N5 C34 H34 117.5 . . ?
C35 C34 H34 117.5 . . ?
C34 C35 N6 118.5(11) . . ?
C34 C35 C39 121.5(11) . . ?
N6 C35 C39 120.0 . . ?
C36 N6 C35 120.0 . . ?
C36 N6 Cd1 126.1(6) . . ?
C35 N6 Cd1 111.3(6) . . ?
N6 C36 C37 120.0 . . ?
N6 C36 H36 120.0 . . ?
C37 C36 H36 120.0 . . ?
C38 C37 C36 120.0 . . ?
C38 C37 C115 123(2) . 4_545 ?
C36 C37 C115 116.4(19) . 4_545 ?
C39 C38 C37 120.0 . . ?
C39 C38 H38 120.0 . . ?
C37 C38 H38 120.0 . . ?
C38 C39 C35 120.0 . . ?
C38 C39 H39 120.0 . . ?
C35 C39 H39 120.0 . . ?
C42 C41 C46 120.0 . . ?
C42 C41 H41 120.0 . . ?
C46 C41 H41 120.0 . . ?
C41 C42 C43 120.0 . . ?
C41 C42 H42 120.0 . . ?
C43 C42 H42 120.0 . . ?
C44 C43 C42 120.0 . . ?
C44 C43 O4 116.5(10) . . ?
C42 C43 O4 123.5(10) . . ?
C45 C44 C43 120.0 . . ?
C45 C44 H44 120.0 . . ?
C43 C44 H44 120.0 . . ?
C44 C45 C46 120.0 . . ?
C44 C45 H45 120.0 . . ?
C46 C45 H45 120.0 . . ?
N7 C46 C45 121.5(13) . . ?
N7 C46 C41 118.1(13) . . ?
C45 C46 C41 120.0 . . ?
N7 C47 C48 123.1(14) . . ?
N7 C47 H47 118.4 . . ?
C48 C47 H47 118.4 . . ?
C52 C48 N8 119.7(12) . . ?
C52 C48 C47 124.1(14) . . ?
N8 C48 C47 116.1(13) . . ?
C50 C49 N8 125.3(11) . . ?
C50 C49 H49 117.4 . . ?
N8 C49 H49 117.4 . . ?
C49 C50 C51 116.3(10) . . ?
C49 C50 C50 121.2(8) . 2_545 ?
C51 C50 C50 122.3(7) . 2_545 ?
C52 C51 C50 117.9(12) . . ?
C52 C51 H51 121.0 . . ?
C50 C51 H51 121.0 . . ?
C48 C52 C51 123.7(13) . . ?
C48 C52 H52 118.1 . . ?
C51 C52 H52 118.1 . . ?
O5 C53 H53A 109.5 . . ?
O5 C53 H53B 109.5 . . ?
H53A C53 H53B 109.5 . . ?
O5 C53 H53C 109.5 . . ?
H53A C53 H53C 109.5 . . ?
H53B C53 H53C 109.5 . . ?
O5 C53 H53D 109.5 . . ?
H53A C53 H53D 141.1 . . ?
H53B C53 H53D 56.3 . . ?
H53C C53 H53D 56.3 . . ?
O5 C53 H53E 109.5 . . ?
H53A C53 H53E 56.3 . . ?
H53B C53 H53E 141.1 . . ?
H53C C53 H53E 56.3 . . ?
H53D C53 H53E 109.5 . . ?
O5 C53 H53F 109.5 . . ?
H53A C53 H53F 56.3 . . ?
H53B C53 H53F 56.3 . . ?
H53C C53 H53F 141.1 . . ?
H53D C53 H53F 109.5 . . ?
H53E C53 H53F 109.5 . . ?
C55 C54 C59 120.0 . . ?
C55 C54 O5 120.9(5) . . ?
C59 C54 O5 119.1(5) . . ?
C54 C55 C56 120.0 . . ?
C54 C55 H55 120.0 . . ?
C56 C55 H55 120.0 . . ?
C55 C56 C57 120.0 . . ?
C55 C56 H56 120.0 . . ?
C57 C56 H56 120.0 . . ?
C58 C57 C56 120.0 . . ?
C58 C57 N9 113.2(9) . . ?
C56 C57 N9 126.3(9) . . ?
C57 C58 C59 120.0 . . ?
C57 C58 H58 120.0 . . ?
C59 C58 H58 120.0 . . ?
C58 C59 C54 120.0 . . ?
C58 C59 H59 120.0 . . ?
C54 C59 H59 120.0 . . ?
N9 C60 C61 121.2(14) . . ?
N9 C60 H60 119.4 . . ?
C61 C60 H60 119.4 . . ?
N10 C61 C65 120.0 . . ?
N10 C61 C60 117.0(10) . . ?
C65 C61 C60 123.0(10) . . ?
C62 N10 C61 120.0 . . ?
C62 N10 Cd2 126.2(5) . . ?
C61 N10 Cd2 112.7(5) . . ?
N10 C62 C63 120.0 . . ?
N10 C62 H62 120.0 . . ?
C63 C62 H62 120.0 . . ?
C64 C63 C62 120.0 . . ?
C64 C63 C66 119.5(8) . . ?
C62 C63 C66 120.4(8) . . ?
C65 C64 C63 120.0 . . ?
C65 C64 H64 120.0 . . ?
C63 C64 H64 120.0 . . ?
C64 C65 C61 120.0 . . ?
C64 C65 H65 120.0 . . ?
C61 C65 H65 120.0 . . ?
C67 C66 C70 120.9(13) . . ?
C67 C66 C63 119.3(12) . . ?
C70 C66 C63 119.2(12) . . ?
C66 C67 N11 121.9(13) . . ?
C66 C67 H67 119.1 . . ?
N11 C67 H67 119.1 . . ?
N11 C68 C69 118.1(13) . . ?
N11 C68 C71 119.0(13) . . ?
C69 C68 C71 122.8(14) . . ?
C70 C69 C68 123.3(13) . . ?
C70 C69 H69 118.3 . . ?
C68 C69 H69 118.3 . . ?
C69 C70 C66 116.0(13) . . ?
C69 C70 H70 122.0 . . ?
C66 C70 H70 122.0 . . ?
N12 C71 C68 122.7(14) . . ?
N12 C71 H71 118.7 . . ?
C68 C71 H71 118.7 . . ?
C73 C72 C77 120.0 . . ?
C73 C72 N12 123.2(8) . . ?
C77 C72 N12 116.7(8) . . ?
C74 C73 C72 120.0 . . ?
C74 C73 H73 120.0 . . ?
C72 C73 H73 120.0 . . ?
C75 C74 C73 120.0 . . ?
C75 C74 H74 120.0 . . ?
C73 C74 H74 120.0 . . ?
C74 C75 C76 120.0 . . ?
C74 C75 O6 119.1(9) . . ?
C76 C75 O6 120.6(9) . . ?
C75 C76 C77 120.0 . . ?
C75 C76 H76 120.0 . . ?
C77 C76 H76 120.0 . . ?
C76 C77 C72 120.0 . . ?
C76 C77 H77 120.0 . . ?
C72 C77 H77 120.0 . . ?
O6 C78 H78A 109.5 . . ?
O6 C78 H78B 109.5 . . ?
H78A C78 H78B 109.5 . . ?
O6 C78 H78C 109.5 . . ?
H78A C78 H78C 109.5 . . ?
H78B C78 H78C 109.5 . . ?
O6 C78 H78D 109.5 . . ?
H78A C78 H78D 141.1 . . ?
H78B C78 H78D 56.3 . . ?
H78C C78 H78D 56.3 . . ?
O6 C78 H78E 109.5 . . ?
H78A C78 H78E 56.3 . . ?
H78B C78 H78E 141.1 . . ?
H78C C78 H78E 56.3 . . ?
H78D C78 H78E 109.5 . . ?
O6 C78 H78F 109.5 . . ?
H78A C78 H78F 56.3 . . ?
H78B C78 H78F 56.3 . . ?
H78C C78 H78F 141.1 . . ?
H78D C78 H78F 109.5 . . ?
H78E C78 H78F 109.5 . . ?
C81 C80 C85 120.0 . . ?
C81 C80 O7 119.2(6) . . ?
C85 C80 O7 120.7(6) . . ?
C82 C81 C80 120.0 . . ?
C82 C81 H81 120.0 . . ?
C80 C81 H81 120.0 . . ?
C81 C82 C83 120.0 . . ?
C81 C82 H82 120.0 . . ?
C83 C82 H82 120.0 . . ?
C84 C83 C82 120.0 . . ?
C84 C83 N13 120.3(16) . . ?
C82 C83 N13 119.6(16) . . ?
C85 C84 C83 120.0 . . ?
C85 C84 H84 120.0 . . ?
C83 C84 H84 120.0 . . ?
C84 C85 C80 120.0 . . ?
C84 C85 H85 120.0 . . ?
C80 C85 H85 120.0 . . ?
N13 C86 C87 118.4(14) . . ?
N13 C86 H86 120.8 . . ?
C87 C86 H86 120.8 . . ?
N14 C87 C91 123.8(14) . . ?
N14 C87 C86 120.8(13) . . ?
C91 C87 C86 115.4(14) . . ?
N14 C88 C89 123.6(12) . . ?
N14 C88 H88 118.2 . . ?
C89 C88 H88 118.2 . . ?
C88 C89 C90 117.7(12) . . ?
C88 C89 C102 122.5(14) . 3 ?
C90 C89 C102 119.7(14) . 3 ?
C91 C90 C89 119.3(13) . . ?
C91 C90 H90 120.4 . . ?
C89 C90 H90 120.4 . . ?
C90 C91 C87 116.0(13) . . ?
C90 C91 H91 122.0 . . ?
C87 C91 H91 122.0 . . ?
O8 C92 H92A 109.5 . . ?
O8 C92 H92B 109.5 . . ?
H92A C92 H92B 109.5 . . ?
O8 C92 H92C 109.5 . . ?
H92A C92 H92C 109.5 . . ?
H92B C92 H92C 109.5 . . ?
O8 C92 H92D 109.5 . . ?
H92A C92 H92D 141.1 . . ?
H92B C92 H92D 56.3 . . ?
H92C C92 H92D 56.3 . . ?
O8 C92 H92E 109.5 . . ?
H92A C92 H92E 56.3 . . ?
H92B C92 H92E 141.1 . . ?
H92C C92 H92E 56.3 . . ?
H92D C92 H92E 109.5 . . ?
O8 C92 H92F 109.5 . . ?
H92A C92 H92F 56.3 . . ?
H92B C92 H92F 56.3 . . ?
H92C C92 H92F 141.1 . . ?
H92D C92 H92F 109.5 . . ?
H92E C92 H92F 109.5 . . ?
C94 C93 C98 120.0 . . ?
C94 C93 O8 120.8(6) . . ?
C98 C93 O8 119.0(6) . . ?
C93 C94 C95 120.0 . . ?
C93 C94 H94 120.0 . . ?
C95 C94 H94 120.0 . . ?
C96 C95 C94 120.0 . . ?
C96 C95 H95 120.0 . . ?
C94 C95 H95 120.0 . . ?
N15 C96 C95 121.6(15) . . ?
N15 C96 C97 118.0(15) . . ?
C95 C96 C97 120.0 . . ?
C96 C97 C98 120.0 . . ?
C96 C97 H97 120.0 . . ?
C98 C97 H97 120.0 . . ?
C97 C98 C93 120.0 . . ?
C97 C98 H98 120.0 . . ?
C93 C98 H98 120.0 . . ?
N15 C99 C100 125.1(14) . . ?
N15 C99 H99 117.5 . . ?
C100 C99 H99 117.5 . . ?
N16 C100 C104 120.0 . . ?
N16 C100 C99 115.8(9) . . ?
C104 C100 C99 124.1(9) . . ?
C100 N16 C101 120.0 . . ?
C100 N16 Cd3 113.3(4) . . ?
C101 N16 Cd3 125.9(4) . . ?
C102 C101 N16 120.0 . . ?
C102 C101 H101 120.0 . . ?
N16 C101 H101 120.0 . . ?
C101 C102 C103 120.0 . . ?
C101 C102 C89 117.6(7) . 3 ?
C103 C102 C89 122.3(7) . 3 ?
C104 C103 C102 120.0 . . ?
C104 C103 H103 120.0 . . ?
C102 C103 H103 120.0 . . ?
C103 C104 C100 120.0 . . ?
C103 C104 H104 120.0 . . ?
C100 C104 H104 120.0 . . ?
O9 C105 H10A 109.5 . . ?
O9 C105 H10B 109.5 . . ?
H10A C105 H10B 109.5 . . ?
O9 C105 H10C 109.5 . . ?
H10A C105 H10C 109.5 . . ?
H10B C105 H10C 109.5 . . ?
O9 C105 H10D 109.5 . . ?
H10A C105 H10D 141.1 . . ?
H10B C105 H10D 56.3 . . ?
H10C C105 H10D 56.3 . . ?
O9 C105 H10E 109.5 . . ?
H10A C105 H10E 56.3 . . ?
H10B C105 H10E 141.1 . . ?
H10C C105 H10E 56.3 . . ?
H10D C105 H10E 109.5 . . ?
O9 C105 H10F 109.5 . . ?
H10A C105 H10F 56.3 . . ?
H10B C105 H10F 56.3 . . ?
H10C C105 H10F 141.1 . . ?
H10D C105 H10F 109.5 . . ?
H10E C105 H10F 109.5 . . ?
C107 C106 C111 120.0 . . ?
C107 C106 H106 120.0 . . ?
C111 C106 H106 120.0 . . ?
C106 C107 C108 120.0 . . ?
C106 C107 O9 118.6(6) . . ?
C108 C107 O9 121.4(6) . . ?
C109 C108 C107 120.0 . . ?
C109 C108 H108 120.0 . . ?
C107 C108 H108 120.0 . . ?
C108 C109 C110 120.0 . . ?
C108 C109 H109 120.0 . . ?
C110 C109 H109 120.0 . . ?
C109 C110 C111 120.0 . . ?
C109 C110 N17 121.5(4) . . ?
C111 C110 N17 118.5(5) . . ?
C110 C111 C106 120.0 . . ?
C110 C111 H111 120.0 . . ?
C106 C111 H111 120.0 . . ?
N17 C112 C113 114.9(17) . . ?
N17 C112 H112 122.5 . . ?
C113 C112 H112 122.5 . . ?
N18 C113 C117 120.0 . . ?
N18 C113 C112 119.0(12) . . ?
C117 C113 C112 120.9(12) . . ?
C114 N18 C113 120.0 . . ?
C114 N18 Cd3 126.4(6) . . ?
C113 N18 Cd3 111.0(6) . . ?
C115 C114 N18 120.0 . . ?
C115 C114 H114 120.0 . . ?
N18 C114 H114 120.0 . . ?
C114 C115 C116 120.0 . . ?
C114 C115 C37 124.8(18) . 4_545 ?
C116 C115 C37 114.7(14) . 4_545 ?
C117 C116 C115 120.0 . . ?
C117 C116 H116 120.0 . . ?
C115 C116 H116 120.0 . . ?
C116 C117 C113 120.0 . . ?
C116 C117 H117 120.0 . . ?
C113 C117 H117 120.0 . . ?
O4 C118 H11A 109.5 . . ?
O4 C118 H11B 109.5 . . ?
H11A C118 H11B 109.5 . . ?
O4 C118 H11C 109.5 . . ?
H11A C118 H11C 109.5 . . ?
H11B C118 H11C 109.5 . . ?
O4 C118 H11D 109.5 . . ?
H11A C118 H11D 141.1 . . ?
H11B C118 H11D 56.3 . . ?
H11C C118 H11D 56.3 . . ?
O4 C118 H11E 109.5 . . ?
H11A C118 H11E 56.3 . . ?
H11B C118 H11E 141.1 . . ?
H11C C118 H11E 56.3 . . ?
H11D C118 H11E 109.5 . . ?
O4 C118 H11F 109.5 . . ?
H11A C118 H11F 56.3 . . ?
H11B C118 H11F 56.3 . . ?
H11C C118 H11F 141.1 . . ?
H11D C118 H11F 109.5 . . ?
H11E C118 H11F 109.5 . . ?
O7 C119 H11G 109.5 . . ?
O7 C119 H11H 109.5 . . ?
H11G C119 H11H 109.5 . . ?
O7 C119 H11I 109.5 . . ?
H11G C119 H11I 109.5 . . ?
H11H C119 H11I 109.5 . . ?
O7 C119 H11J 109.5 . . ?
H11G C119 H11J 141.1 . . ?
H11H C119 H11J 56.3 . . ?
H11I C119 H11J 56.3 . . ?
O7 C119 H11K 109.5 . . ?
H11G C119 H11K 56.3 . . ?
H11H C119 H11K 141.1 . . ?
H11I C119 H11K 56.3 . . ?
H11J C119 H11K 109.5 . . ?
O7 C119 H11L 109.5 . . ?
H11G C119 H11L 56.3 . . ?
H11H C119 H11L 56.3 . . ?
H11I C119 H11L 141.1 . . ?
H11J C119 H11L 109.5 . . ?
H11K C119 H11L 109.5 . . ?
C8 N1 C5 120.6(14) . . ?
C8 N1 Cd1 114.8(10) . . ?
C5 N1 Cd1 123.4(10) . . ?
C16 N3 C15 119.3(13) . . ?
C16 N3 Cd2 110.9(9) . . ?
C15 N3 Cd2 129.3(9) . . ?
C19 N4 C20 120.3(12) . . ?
C19 N4 Cd2 111.4(9) . . ?
C20 N4 Cd2 125.6(9) . . ?
C34 N5 C31 119.7(13) . . ?
C34 N5 Cd1 112.6(10) . . ?
C31 N5 Cd1 124.8(8) . . ?
C47 N7 C46 121.3(14) . . ?
C47 N7 Cd1 112.7(9) . . ?
C46 N7 Cd1 125.4(11) . . ?
C48 N8 C49 117.1(11) . . ?
C48 N8 Cd1 116.2(8) . . ?
C49 N8 Cd1 126.7(8) . . ?
C60 N9 C57 115.9(12) . . ?
C60 N9 Cd2 114.3(10) . . ?
C57 N9 Cd2 126.0(8) . . ?
C67 N11 C68 119.3(11) . . ?
C67 N11 Cd3 129.1(8) . . ?
C68 N11 Cd3 111.3(9) . . ?
C71 N12 C72 120.1(11) . . ?
C71 N12 Cd3 112.3(9) . . ?
C72 N12 Cd3 125.6(7) . . ?
C86 N13 C83 116.8(16) . . ?
C86 N13 Cd2 117.1(10) . . ?
C83 N13 Cd2 125.9(12) . . ?
C88 N14 C87 119.2(11) . . ?
C88 N14 Cd2 129.3(9) . . ?
C87 N14 Cd2 110.5(9) . . ?
C99 N15 C96 121.7(15) . . ?
C99 N15 Cd3 113.2(10) . . ?
C96 N15 Cd3 124.7(12) . . ?
C112 N17 C110 118.7(14) . . ?
C112 N17 Cd3 118.1(12) . . ?
C110 N17 Cd3 118.9(9) . . ?
C2 O1 C1 121.6(8) . . ?
C26 O2 C23 118.5(12) . . ?
C28 O3 C27 126.4(11) . . ?
C43 O4 C118 126.6(14) . . ?
C53 O5 C54 109.1(11) . . ?
C78 O6 C75 115.4(13) . . ?
C80 O7 C119 125.9(10) . . ?
C93 O8 C92 125.2(9) . . ?
C107 O9 C105 117.0(14) . . ?
F1 C201 F3 119.4(11) . . ?
F1 C201 F2 116.4(10) . . ?
F3 C201 F2 112.7(9) . . ?
F1 C201 S1 106.0(8) . . ?
F3 C201 S1 105.1(9) . . ?
F2 C201 S1 92.2(8) . . ?
O11 S1 O12 122.2(11) . . ?
O11 S1 O10 108.7(10) . . ?
O12 S1 O10 99.8(9) . . ?
O11 S1 C201 114.8(8) . . ?
O12 S1 C201 110.4(9) . . ?
O10 S1 C201 96.3(8) . . ?
O16 S4 O18 115.5 . . ?
O16 S4 O17 114.3 . . ?
O18 S4 O17 115.1 . . ?
O16 S4 C122 103.6 . . ?
O18 S4 C122 102.7 . . ?
O17 S4 C122 103.2 . . ?
F17 C122 F18 107.8 . . ?
F17 C122 F16 106.4 . . ?
F18 C122 F16 107.1 . . ?
F17 C122 S4 112.1 . . ?
F18 C122 S4 111.2 . . ?
F16 C122 S4 111.9 . . ?
O14 S2 O15 115.5 . . ?
O14 S2 O13 114.3 . . ?
O15 S2 O13 115.1 . . ?
O14 S2 C123 103.6 . . ?
O15 S2 C123 102.7 . . ?
O13 S2 C123 103.2 . . ?
F14 C123 F15 107.8 . . ?
F14 C123 F13 106.4 . . ?
F15 C123 F13 107.1 . . ?
F14 C123 S2 112.1 . . ?
F15 C123 S2 111.2 . . ?
F13 C123 S2 111.9 . . ?
O20 S3 O20 173.6 4 . ?
O20 S3 O21 70.1(3) 4 . ?
O20 S3 O21 115.2 . . ?
O20 S3 O21 115.2(5) 4 4 ?
O20 S3 O21 70.1(6) . 4 ?
O21 S3 O21 80.2(4) . 4 ?
O20 S3 O19 60.14(16) 4 . ?
O20 S3 O19 113.7 . . ?
O21 S3 O19 110.9 . . ?
O21 S3 O19 162.9(5) 4 . ?
O20 S3 O19 113.7(5) 4 4 ?
O20 S3 O19 60.1(6) . 4 ?
O21 S3 O19 162.9(5) . 4 ?
O21 S3 O19 110.92(13) 4 4 ?
O19 S3 O19 61.7(5) . 4 ?
O20 S3 C124 107.63(12) 4 4 ?
O20 S3 C124 73.5(6) . 4 ?
O21 S3 C124 59.5(4) . 4 ?
O21 S3 C124 103.9(4) 4 4 ?
O19 S3 C124 93.0(3) . 4 ?
O19 S3 C124 104.3(5) 4 4 ?
O20 S3 C124 73.5(6) 4 . ?
O20 S3 C124 107.6 . . ?
O21 S3 C124 103.9 . . ?
O21 S3 C124 59.5(5) 4 . ?
O19 S3 C124 104.3 . . ?
O19 S3 C124 93.0(6) 4 . ?
C124 S3 C124 160.0 4 . ?
O20 O19 S3 57.40(8) 4 . ?
O20 O19 O19 109.2(3) 4 4 ?
S3 O19 O19 59.1 . 4 ?
S3 O20 O19 62.5(6) . 4 ?
S3 O20 O21 56.9(5) . 4 ?
O19 O20 O21 103.2(5) 4 4 ?
S3 O20 C124 62.0(4) . 4 ?
O19 O20 C124 98.5(7) 4 4 ?
O21 O20 C124 91.2(5) 4 4 ?
S3 O21 F19 119.2(7) . 4 ?
S3 O21 C124 69.2(3) . 4 ?
F19 O21 C124 50.3(5) 4 4 ?
S3 O21 O20 52.97(15) . 4 ?
F19 O21 O20 139.6(3) 4 4 ?
C124 O21 O20 102.98(10) 4 4 ?
C124 F19 O21 69.5(3) . 4 ?
F20 C124 F21 107.8 . . ?
F20 C124 F19 106.4 . . ?
F21 C124 F19 107.1 . . ?
F20 C124 O21 132.4(4) . 4 ?
F21 C124 O21 119.8(4) . 4 ?
F19 C124 O21 60.2(3) . 4 ?
F20 C124 S3 113.5 . . ?
F21 C124 S3 110.6 . . ?
F19 C124 S3 111.1 . . ?
O21 C124 S3 51.2(4) 4 . ?
F20 C124 O20 69.31(18) . 4 ?
F21 C124 O20 121.29(8) . 4 ?
F19 C124 O20 130.56(12) . 4 ?
O21 C124 O20 86.0(5) 4 4 ?
S3 C124 O20 44.51(19) . 4 ?
N8 Cd1 N1 176.5(4) . . ?
N8 Cd1 N7 71.2(4) . . ?
N1 Cd1 N7 109.1(4) . . ?
N8 Cd1 N2 106.5(3) . . ?
N1 Cd1 N2 70.2(4) . . ?
N7 Cd1 N2 87.1(3) . . ?
N8 Cd1 N6 95.6(3) . . ?
N1 Cd1 N6 87.1(3) . . ?
N7 Cd1 N6 122.4(4) . . ?
N2 Cd1 N6 148.0(3) . . ?
N8 Cd1 N5 95.1(4) . . ?
N1 Cd1 N5 83.9(4) . . ?
N7 Cd1 N5 162.0(4) . . ?
N2 Cd1 N5 85.7(3) . . ?
N6 Cd1 N5 69.2(4) . . ?
N13 Cd2 N4 160.8(4) . . ?
N13 Cd2 N10 100.9(4) . . ?
N4 Cd2 N10 97.5(3) . . ?
N13 Cd2 N9 109.5(5) . . ?
N4 Cd2 N9 81.6(4) . . ?
N10 Cd2 N9 71.7(4) . . ?
N13 Cd2 N14 72.9(4) . . ?
N4 Cd2 N14 97.7(4) . . ?
N10 Cd2 N14 102.5(3) . . ?
N9 Cd2 N14 173.9(4) . . ?
N13 Cd2 N3 91.8(4) . . ?
N4 Cd2 N3 72.1(4) . . ?
N10 Cd2 N3 160.1(3) . . ?
N9 Cd2 N3 89.8(4) . . ?
N14 Cd2 N3 95.8(3) . . ?
N16 Cd3 N17 177.3(4) . . ?
N16 Cd3 N15 71.3(3) . . ?
N17 Cd3 N15 110.9(5) . . ?
N16 Cd3 N12 96.2(3) . . ?
N17 Cd3 N12 81.8(4) . . ?
N15 Cd3 N12 165.7(4) . . ?
N16 Cd3 N11 90.2(3) . . ?
N17 Cd3 N11 90.9(4) . . ?
N15 Cd3 N11 101.0(4) . . ?
N12 Cd3 N11 71.4(4) . . ?
N16 Cd3 N18 108.0(3) . . ?
N17 Cd3 N18 70.5(4) . . ?
N15 Cd3 N18 97.6(4) . . ?
N12 Cd3 N18 92.8(4) . . ?
N11 Cd3 N18 157.4(3) . . ?

loop_
_geom_torsion_atom_site_label_1
_geom_torsion_atom_site_label_2
_geom_torsion_atom_site_label_3
_geom_torsion_atom_site_label_4
_geom_torsion
_geom_torsion_site_symmetry_1
_geom_torsion_site_symmetry_2
_geom_torsion_site_symmetry_3
_geom_torsion_site_symmetry_4
_geom_torsion_publ_flag
C7 C2 C3 C4 0.0 . . . . ?
O1 C2 C3 C4 -172.5(13) . . . . ?
C2 C3 C4 C5 0.0 . . . . ?
C3 C4 C5 C6 0.0 . . . . ?
C3 C4 C5 N1 -175.1(13) . . . . ?
C4 C5 C6 C7 0.0 . . . . ?
N1 C5 C6 C7 175.1(13) . . . . ?
C5 C6 C7 C2 0.0 . . . . ?
C3 C2 C7 C6 0.0 . . . . ?
O1 C2 C7 C6 172.4(13) . . . . ?
N1 C8 C9 N2 -3.4(17) . . . . ?
N1 C8 C9 C13 -177.7(11) . . . . ?
C13 C9 N2 C10 0.0 . . . . ?
C8 C9 N2 C10 -174.6(9) . . . . ?
C13 C9 N2 Cd1 -166.0(5) . . . . ?
C8 C9 N2 Cd1 19.3(8) . . . . ?
C9 N2 C10 C11 0.0 . . . . ?
Cd1 N2 C10 C11 163.9(6) . . . . ?
N2 C10 C11 C12 0.0 . . . . ?
N2 C10 C11 C14 -178.4(10) . . . . ?
C10 C11 C12 C13 0.0 . . . . ?
C14 C11 C12 C13 178.4(10) . . . . ?
C11 C12 C13 C9 0.0 . . . . ?
N2 C9 C13 C12 0.0 . . . . ?
C8 C9 C13 C12 174.1(10) . . . . ?
C10 C11 C14 C18 141.8(12) . . . . ?
C12 C11 C14 C18 -36.6(16) . . . . ?
C10 C11 C14 C15 -34.0(16) . . . . ?
C12 C11 C14 C15 147.6(10) . . . . ?
C18 C14 C15 N3 0(2) . . . . ?
C11 C14 C15 N3 175.8(11) . . . . ?
N3 C16 C17 C18 -4(2) . . . . ?
C19 C16 C17 C18 176.8(13) . . . . ?
C15 C14 C18 C17 2(2) . . . . ?
C11 C14 C18 C17 -173.8(12) . . . . ?
C16 C17 C18 C14 0(2) . . . . ?
N3 C16 C19 N4 2(2) . . . . ?
C17 C16 C19 N4 -179.0(13) . . . . ?
N4 C20 C21 C22 -174.4(12) . . . . ?
C25 C20 C21 C22 7(2) . . . . ?
C20 C21 C22 C23 -4(2) . . . . ?
C21 C22 C23 C24 0(2) . . . . ?
C21 C22 C23 O2 -175.4(11) . . . . ?
C22 C23 C24 C25 2(2) . . . . ?
O2 C23 C24 C25 177.6(12) . . . . ?
C23 C24 C25 C20 0(2) . . . . ?
C21 C20 C25 C24 -4(2) . . . . ?
N4 C20 C25 C24 176.8(13) . . . . ?
C33 C28 C29 C30 0.0 . . . . ?
O3 C28 C29 C30 -178.5(11) . . . . ?
C28 C29 C30 C31 0.0 . . . . ?
C29 C30 C31 C32 0.0 . . . . ?
C29 C30 C31 N5 -179.2(11) . . . . ?
C30 C31 C32 C33 0.0 . . . . ?
N5 C31 C32 C33 179.2(12) . . . . ?
C31 C32 C33 C28 0.0 . . . . ?
C29 C28 C33 C32 0.0 . . . . ?
O3 C28 C33 C32 178.5(11) . . . . ?
N5 C34 C35 N6 -8.5(18) . . . . ?
N5 C34 C35 C39 173.4(11) . . . . ?
C34 C35 N6 C36 -178.1(10) . . . . ?
C39 C35 N6 C36 0.0 . . . . ?
C34 C35 N6 Cd1 19.1(9) . . . . ?
C39 C35 N6 Cd1 -162.8(5) . . . . ?
C35 N6 C36 C37 0.0 . . . . ?
Cd1 N6 C36 C37 160.0(6) . . . . ?
N6 C36 C37 C38 0.0 . . . . ?
N6 C36 C37 C115 175(5) . . . 4_545 ?
C36 C37 C38 C39 0.0 . . . . ?
C115 C37 C38 C39 -175(5) 4_545 . . . ?
C37 C38 C39 C35 0.0 . . . . ?
C34 C35 C39 C38 178.1(11) . . . . ?
N6 C35 C39 C38 0.0 . . . . ?
C46 C41 C42 C43 0.0 . . . . ?
C41 C42 C43 C44 0.0 . . . . ?
C41 C42 C43 O4 180.00(14) . . . . ?
C42 C43 C44 C45 0.0 . . . . ?
O4 C43 C44 C45 179.9(9) . . . . ?
C43 C44 C45 C46 0.0 . . . . ?
C44 C45 C46 N7 172.7(10) . . . . ?
C44 C45 C46 C41 0.0 . . . . ?
C42 C41 C46 N7 -172.9(10) . . . . ?
C42 C41 C46 C45 0.0 . . . . ?
N7 C47 C48 C52 -169.9(13) . . . . ?
N7 C47 C48 N8 6.4(19) . . . . ?
N8 C49 C50 C51 -0.7(17) . . . . ?
N8 C49 C50 C50 174.4(12) . . . 2_545 ?
C49 C50 C51 C52 1.4(16) . . . . ?
C50 C50 C51 C52 -173.5(13) 2_545 . . . ?
N8 C48 C52 C51 0.9(19) . . . . ?
C47 C48 C52 C51 177.0(12) . . . . ?
C50 C51 C52 C48 -1.6(18) . . . . ?
C59 C54 C55 C56 0.0 . . . . ?
O5 C54 C55 C56 178.6(11) . . . . ?
C54 C55 C56 C57 0.0 . . . . ?
C55 C56 C57 C58 0.0 . . . . ?
C55 C56 C57 N9 172.2(11) . . . . ?
C56 C57 C58 C59 0.0 . . . . ?
N9 C57 C58 C59 -173.1(10) . . . . ?
C57 C58 C59 C54 0.0 . . . . ?
C55 C54 C59 C58 0.0 . . . . ?
O5 C54 C59 C58 -178.6(10) . . . . ?
N9 C60 C61 N10 2.0(18) . . . . ?
N9 C60 C61 C65 -177.4(12) . . . . ?
C65 C61 N10 C62 0.0 . . . . ?
C60 C61 N10 C62 -179.3(10) . . . . ?
C65 C61 N10 Cd2 -168.7(5) . . . . ?
C60 C61 N10 Cd2 12.0(9) . . . . ?
C61 N10 C62 C63 0.0 . . . . ?
Cd2 N10 C62 C63 167.0(6) . . . . ?
N10 C62 C63 C64 0.0 . . . . ?
N10 C62 C63 C66 -176.4(9) . . . . ?
C62 C63 C64 C65 0.0 . . . . ?
C66 C63 C64 C65 176.4(9) . . . . ?
C63 C64 C65 C61 0.0 . . . . ?
N10 C61 C65 C64 0.0 . . . . ?
C60 C61 C65 C64 179.3(10) . . . . ?
C64 C63 C66 C67 147.4(10) . . . . ?
C62 C63 C66 C67 -36.2(15) . . . . ?
C64 C63 C66 C70 -41.6(14) . . . . ?
C62 C63 C66 C70 134.8(10) . . . . ?
C70 C66 C67 N11 4(2) . . . . ?
C63 C66 C67 N11 175.0(10) . . . . ?
N11 C68 C69 C70 -7(2) . . . . ?
C71 C68 C69 C70 175.7(12) . . . . ?
C68 C69 C70 C66 4.3(19) . . . . ?
C67 C66 C70 C69 -2.7(19) . . . . ?
C63 C66 C70 C69 -173.6(11) . . . . ?
N11 C68 C71 N12 4(2) . . . . ?
C69 C68 C71 N12 -178.9(13) . . . . ?
C77 C72 C73 C74 0.0 . . . . ?
N12 C72 C73 C74 177.3(10) . . . . ?
C72 C73 C74 C75 0.0 . . . . ?
C73 C74 C75 C76 0.0 . . . . ?
C73 C74 C75 O6 174.5(10) . . . . ?
C74 C75 C76 C77 0.0 . . . . ?
O6 C75 C76 C77 -174.4(10) . . . . ?
C75 C76 C77 C72 0.0 . . . . ?
C73 C72 C77 C76 0.0 . . . . ?
N12 C72 C77 C76 -177.5(9) . . . . ?
C85 C80 C81 C82 0.0 . . . . ?
O7 C80 C81 C82 -177.9(18) . . . . ?
C80 C81 C82 C83 0.0 . . . . ?
C81 C82 C83 C84 0.0 . . . . ?
C81 C82 C83 N13 177.2(17) . . . . ?
C82 C83 C84 C85 0.0 . . . . ?
N13 C83 C84 C85 -177.2(17) . . . . ?
C83 C84 C85 C80 0.0 . . . . ?
C81 C80 C85 C84 0.0 . . . . ?
O7 C80 C85 C84 177.9(18) . . . . ?
N13 C86 C87 N14 6(2) . . . . ?
N13 C86 C87 C91 -173.4(13) . . . . ?
N14 C88 C89 C90 -6.3(18) . . . . ?
N14 C88 C89 C102 177.4(11) . . . 3 ?
C88 C89 C90 C91 4.6(18) . . . . ?
C102 C89 C90 C91 -179.0(11) 3 . . . ?
C89 C90 C91 C87 -0.1(18) . . . . ?
N14 C87 C91 C90 -4(2) . . . . ?
C86 C87 C91 C90 175.5(12) . . . . ?
C98 C93 C94 C95 0.0 . . . . ?
O8 C93 C94 C95 174.6(17) . . . . ?
C93 C94 C95 C96 0.0 . . . . ?
C94 C95 C96 N15 -172.4(16) . . . . ?
C94 C95 C96 C97 0.0 . . . . ?
N15 C96 C97 C98 172.6(16) . . . . ?
C95 C96 C97 C98 0.0 . . . . ?
C96 C97 C98 C93 0.0 . . . . ?
C94 C93 C98 C97 0.0 . . . . ?
O8 C93 C98 C97 -174.7(17) . . . . ?
N15 C99 C100 N16 6.3(17) . . . . ?
N15 C99 C100 C104 -176.7(11) . . . . ?
C104 C100 N16 C101 0.0 . . . . ?
C99 C100 N16 C101 177.1(8) . . . . ?
C104 C100 N16 Cd3 170.3(4) . . . . ?
C99 C100 N16 Cd3 -12.6(8) . . . . ?
C100 N16 C101 C102 0.0 . . . . ?
Cd3 N16 C101 C102 -169.0(5) . . . . ?
N16 C101 C102 C103 0.0 . . . . ?
N16 C101 C102 C89 -176.6(8) . . . 3 ?
C101 C102 C103 C104 0.0 . . . . ?
C89 C102 C103 C104 176.4(9) 3 . . . ?
C102 C103 C104 C100 0.0 . . . . ?
N16 C100 C104 C103 0.0 . . . . ?
C99 C100 C104 C103 -176.9(9) . . . . ?
C111 C106 C107 C108 0.0 . . . . ?
C111 C106 C107 O9 179.8(16) . . . . ?
C106 C107 C108 C109 0.0 . . . . ?
O9 C107 C108 C109 -179.8(17) . . . . ?
C107 C108 C109 C110 0.0 . . . . ?
C108 C109 C110 C111 0.0 . . . . ?
C108 C109 C110 N17 176.5(13) . . . . ?
C109 C110 C111 C106 0.0 . . . . ?
N17 C110 C111 C106 -176.6(12) . . . . ?
C107 C106 C111 C110 0.0 . . . . ?
N17 C112 C113 N18 5(2) . . . . ?
N17 C112 C113 C117 -177.5(13) . . . . ?
C117 C113 N18 C114 0.0 . . . . ?
C112 C113 N18 C114 177.0(12) . . . . ?
C117 C113 N18 Cd3 -162.7(6) . . . . ?
C112 C113 N18 Cd3 14.3(11) . . . . ?
C113 N18 C114 C115 0.0 . . . . ?
Cd3 N18 C114 C115 159.9(7) . . . . ?
N18 C114 C115 C116 0.0 . . . . ?
N18 C114 C115 C37 -171(5) . . . 4_545 ?
C114 C115 C116 C117 0.0 . . . . ?
C37 C115 C116 C117 172(5) 4_545 . . . ?
C115 C116 C117 C113 0.0 . . . . ?
N18 C113 C117 C116 0.0 . . . . ?
C112 C113 C117 C116 -177.0(13) . . . . ?
C9 C8 N1 C5 177.0(12) . . . . ?
C9 C8 N1 Cd1 -15.1(18) . . . . ?
C6 C5 N1 C8 41.7(17) . . . . ?
C4 C5 N1 C8 -143.2(13) . . . . ?
C6 C5 N1 Cd1 -125.1(9) . . . . ?
C4 C5 N1 Cd1 50.0(13) . . . . ?
C17 C16 N3 C15 6(2) . . . . ?
C19 C16 N3 C15 -174.8(11) . . . . ?
C17 C16 N3 Cd2 -166.5(11) . . . . ?
C19 C16 N3 Cd2 12.9(16) . . . . ?
C14 C15 N3 C16 -4(2) . . . . ?
C14 C15 N3 Cd2 166.8(9) . . . . ?
C16 C19 N4 C20 -178.0(12) . . . . ?
C16 C19 N4 Cd2 -15.6(16) . . . . ?
C21 C20 N4 C19 -159.5(13) . . . . ?
C25 C20 N4 C19 19(2) . . . . ?
C21 C20 N4 Cd2 40.8(17) . . . . ?
C25 C20 N4 Cd2 -140.3(11) . . . . ?
C35 C34 N5 C31 -169.1(12) . . . . ?
C35 C34 N5 Cd1 -7.2(18) . . . . ?
C32 C31 N5 C34 39.5(16) . . . . ?
C30 C31 N5 C34 -141.3(11) . . . . ?
C32 C31 N5 Cd1 -120.0(9) . . . . ?
C30 C31 N5 Cd1 59.2(11) . . . . ?
C48 C47 N7 C46 179.0(12) . . . . ?
C48 C47 N7 Cd1 -9.8(17) . . . . ?
C45 C46 N7 C47 157.9(11) . . . . ?
C41 C46 N7 C47 -29.3(16) . . . . ?
C45 C46 N7 Cd1 -12.2(13) . . . . ?
C41 C46 N7 Cd1 160.6(7) . . . . ?
C52 C48 N8 C49 0.0(16) . . . . ?
C47 C48 N8 C49 -176.4(10) . . . . ?
C52 C48 N8 Cd1 177.4(9) . . . . ?
C47 C48 N8 Cd1 1.0(14) . . . . ?
C50 C49 N8 C48 -0.1(17) . . . . ?
C50 C49 N8 Cd1 -177.1(8) . . . . ?
C61 C60 N9 C57 -174.2(11) . . . . ?
C61 C60 N9 Cd2 -14.9(19) . . . . ?
C58 C57 N9 C60 -137.3(12) . . . . ?
C56 C57 N9 C60 50.1(17) . . . . ?
C58 C57 N9 Cd2 66.1(12) . . . . ?
C56 C57 N9 Cd2 -106.5(11) . . . . ?
C66 C67 N11 C68 -6.8(18) . . . . ?
C66 C67 N11 Cd3 166.6(9) . . . . ?
C69 C68 N11 C67 8.0(18) . . . . ?
C71 C68 N11 C67 -174.7(11) . . . . ?
C69 C68 N11 Cd3 -166.5(9) . . . . ?
C71 C68 N11 Cd3 10.9(15) . . . . ?
C68 C71 N12 C72 178.6(11) . . . . ?
C68 C71 N12 Cd3 -16.5(16) . . . . ?
C73 C72 N12 C71 26.5(15) . . . . ?
C77 C72 N12 C71 -156.1(10) . . . . ?
C73 C72 N12 Cd3 -136.4(6) . . . . ?
C77 C72 N12 Cd3 41.1(10) . . . . ?
C87 C86 N13 C83 174.4(14) . . . . ?
C87 C86 N13 Cd2 -0.6(19) . . . . ?
C84 C83 N13 C86 142.7(13) . . . . ?
C82 C83 N13 C86 -35(2) . . . . ?
C84 C83 N13 Cd2 -42.8(18) . . . . ?
C82 C83 N13 Cd2 140.0(11) . . . . ?
C89 C88 N14 C87 2.8(18) . . . . ?
C89 C88 N14 Cd2 -164.7(8) . . . . ?
C91 C87 N14 C88 2.3(19) . . . . ?
C86 C87 N14 C88 -176.8(12) . . . . ?
C91 C87 N14 Cd2 172.0(10) . . . . ?
C86 C87 N14 Cd2 -7.1(15) . . . . ?
C100 C99 N15 C96 -169.9(13) . . . . ?
C100 C99 N15 Cd3 3.5(18) . . . . ?
C95 C96 N15 C99 -22(2) . . . . ?
C97 C96 N15 C99 165.0(12) . . . . ?
C95 C96 N15 Cd3 164.9(8) . . . . ?
C97 C96 N15 Cd3 -7.6(17) . . . . ?
C113 C112 N17 C110 179.9(10) . . . . ?
C113 C112 N17 Cd3 -24(2) . . . . ?
C109 C110 N17 C112 42.4(17) . . . . ?
C111 C110 N17 C112 -141.1(16) . . . . ?
C109 C110 N17 Cd3 -113.9(10) . . . . ?
C111 C110 N17 Cd3 62.7(9) . . . . ?
C3 C2 O1 C1 -4.7(19) . . . . ?
C7 C2 O1 C1 -177.1(12) . . . . ?
C22 C23 O2 C26 -11(2) . . . . ?
C24 C23 O2 C26 173.1(13) . . . . ?
C29 C28 O3 C27 -175.1(12) . . . . ?
C33 C28 O3 C27 6.4(17) . . . . ?
C44 C43 O4 C118 0.0(3) . . . . ?
C42 C43 O4 C118 -180.0(2) . . . . ?
C55 C54 O5 C53 0.4(16) . . . . ?
C59 C54 O5 C53 179.0(11) . . . . ?
C74 C75 O6 C78 164.4(12) . . . . ?
C76 C75 O6 C78 -21.1(16) . . . . ?
C81 C80 O7 C119 -8(3) . . . . ?
C85 C80 O7 C119 173.6(19) . . . . ?
C94 C93 O8 C92 -179.4(17) . . . . ?
C98 C93 O8 C92 -5(3) . . . . ?
C106 C107 O9 C105 175.7(16) . . . . ?
C108 C107 O9 C105 -5(3) . . . . ?
F1 C201 S1 O11 179.2(10) . . . . ?
F3 C201 S1 O11 51.8(13) . . . . ?
F2 C201 S1 O11 -62.5(11) . . . . ?
F1 C201 S1 O12 -37.8(13) . . . . ?
F3 C201 S1 O12 -165.2(9) . . . . ?
F2 C201 S1 O12 80.6(10) . . . . ?
F1 C201 S1 O10 65.2(11) . . . . ?
F3 C201 S1 O10 -62.2(10) . . . . ?
F2 C201 S1 O10 -176.4(8) . . . . ?
O16 S4 C122 F17 179.3 . . . . ?
O18 S4 C122 F17 58.7 . . . . ?
O17 S4 C122 F17 -61.3 . . . . ?
O16 S4 C122 F18 -59.9 . . . . ?
O18 S4 C122 F18 179.5 . . . . ?
O17 S4 C122 F18 59.5 . . . . ?
O16 S4 C122 F16 59.9 . . . . ?
O18 S4 C122 F16 -60.7 . . . . ?
O17 S4 C122 F16 179.3 . . . . ?
O14 S2 C123 F14 179.3 . . . . ?
O15 S2 C123 F14 58.7 . . . . ?
O13 S2 C123 F14 -61.3 . . . . ?
O14 S2 C123 F15 -59.9 . . . . ?
O15 S2 C123 F15 179.5 . . . . ?
O13 S2 C123 F15 59.5 . . . . ?
O14 S2 C123 F13 59.9 . . . . ?
O15 S2 C123 F13 -60.7 . . . . ?
O13 S2 C123 F13 179.4 . . . . ?
O20 S3 O19 O20 178.0(6) . . . 4 ?
O21 S3 O19 O20 -50.2(6) . . . 4 ?
O21 S3 O19 O20 78.6(17) 4 . . 4 ?
O19 S3 O19 O20 146.8(6) 4 . . 4 ?
C124 S3 O19 O20 -108.64(17) 4 . . 4 ?
C124 S3 O19 O20 61.1(6) . . . 4 ?
O20 S3 O19 O19 -146.8(6) 4 . . 4 ?
O20 S3 O19 O19 31.3(6) . . . 4 ?
O21 S3 O19 O19 163.0(6) . . . 4 ?
O21 S3 O19 O19 -68.2(19) 4 . . 4 ?
C124 S3 O19 O19 104.6(5) 4 . . 4 ?
C124 S3 O19 O19 -85.7(6) . . . 4 ?
O20 S3 O20 O19 -16(5) 4 . . 4 ?
O21 S3 O20 O19 -161.5(6) . . . 4 ?
O21 S3 O20 O19 130.2(5) 4 . . 4 ?
O19 S3 O20 O19 -31.8(6) . . . 4 ?
C124 S3 O20 O19 -117.8(6) 4 . . 4 ?
C124 S3 O20 O19 83.2(6) . . . 4 ?
O20 S3 O20 O21 -147(5) 4 . . 4 ?
O21 S3 O20 O21 68.3(5) . . . 4 ?
O19 S3 O20 O21 -162.1(5) . . . 4 ?
O19 S3 O20 O21 -130.2(5) 4 . . 4 ?
C124 S3 O20 O21 112.0(4) 4 . . 4 ?
C124 S3 O20 O21 -47.1(5) . . . 4 ?
O20 S3 O20 C124 101(5) 4 . . 4 ?
O21 S3 O20 C124 -43.67(7) . . . 4 ?
O21 S3 O20 C124 -112.0(4) 4 . . 4 ?
O19 S3 O20 C124 85.96(7) . . . 4 ?
O19 S3 O20 C124 117.8(6) 4 . . 4 ?
C124 S3 O20 C124 -159.06(7) . . . 4 ?
O20 S3 O21 F19 -132.1(6) 4 . . 4 ?
O20 S3 O21 F19 44.0(9) . . . 4 ?
O21 S3 O21 F19 106.4(10) 4 . . 4 ?
O19 S3 O21 F19 -87.0(9) . . . 4 ?
O19 S3 O21 F19 -26(3) 4 . . 4 ?
C124 S3 O21 F19 -6.2(5) 4 . . 4 ?
C124 S3 O21 F19 161.5(9) . . . 4 ?
O20 S3 O21 C124 -125.93(11) 4 . . 4 ?
O20 S3 O21 C124 50.2(5) . . . 4 ?
O21 S3 O21 C124 112.6(6) 4 . . 4 ?
O19 S3 O21 C124 -80.8(5) . . . 4 ?
O19 S3 O21 C124 -20(2) 4 . . 4 ?
C124 S3 O21 C124 167.7(5) . . . 4 ?
O20 S3 O21 O20 176.1(5) . . . 4 ?
O21 S3 O21 O20 -121.4(5) 4 . . 4 ?
O19 S3 O21 O20 45.1(5) . . . 4 ?
O19 S3 O21 O20 106(2) 4 . . 4 ?
C124 S3 O21 O20 125.93(11) 4 . . 4 ?
C124 S3 O21 O20 -66.4(5) . . . 4 ?
O21 F19 C124 F20 -129.9(5) 4 . . . ?
O21 F19 C124 F21 115.0(5) 4 . . . ?
O21 F19 C124 S3 -5.9(5) 4 . . . ?
O21 F19 C124 O20 -53.4(6) 4 . . 4 ?
O20 S3 C124 F20 -7.15(12) 4 . . . ?
O20 S3 C124 F20 179.4 . . . . ?
O21 S3 C124 F20 56.8 . . . . ?
O21 S3 C124 F20 126.4(5) 4 . . . ?
O19 S3 C124 F20 -59.5 . . . . ?
O19 S3 C124 F20 -121.0(6) 4 . . . ?
C124 S3 C124 F20 89.2(17) 4 . . . ?
O20 S3 C124 F21 114.18(12) 4 . . . ?
O20 S3 C124 F21 -59.3 . . . . ?
O21 S3 C124 F21 178.1 . . . . ?
O21 S3 C124 F21 -112.3(5) 4 . . . ?
O19 S3 C124 F21 61.8 . . . . ?
O19 S3 C124 F21 0.3(6) 4 . . . ?
C124 S3 C124 F21 -149.4(17) 4 . . . ?
O20 S3 C124 F19 -126.97(12) 4 . . . ?
O20 S3 C124 F19 59.6 . . . . ?
O21 S3 C124 F19 -63.0 . . . . ?
O21 S3 C124 F19 6.6(5) 4 . . . ?
O19 S3 C124 F19 -179.3 . . . . ?
O19 S3 C124 F19 119.1(6) 4 . . . ?
C124 S3 C124 F19 -30.6(17) 4 . . . ?
O20 S3 C124 O21 -133.5(6) 4 . . 4 ?
O20 S3 C124 O21 53.0(5) . . . 4 ?
O21 S3 C124 O21 -69.6(5) . . . 4 ?
O19 S3 C124 O21 174.1(5) . . . 4 ?
O19 S3 C124 O21 112.6(3) 4 . . 4 ?
C124 S3 C124 O21 -37.2(18) 4 . . 4 ?
O20 S3 C124 O20 -173.46(12) . . . 4 ?
O21 S3 C124 O20 63.94(12) . . . 4 ?
O21 S3 C124 O20 133.5(6) 4 . . 4 ?
O19 S3 C124 O20 -52.34(12) . . . 4 ?
O19 S3 C124 O20 -113.9(5) 4 . . 4 ?
C124 S3 C124 O20 96.4(16) 4 . . 4 ?
C48 N8 Cd1 N1 92(7) . . . . ?
C49 N8 Cd1 N1 -91(7) . . . . ?
C48 N8 Cd1 N7 -4.1(8) . . . . ?
C49 N8 Cd1 N7 173.0(10) . . . . ?
C48 N8 Cd1 N2 77.0(8) . . . . ?
C49 N8 Cd1 N2 -105.9(9) . . . . ?
C48 N8 Cd1 N6 -126.4(8) . . . . ?
C49 N8 Cd1 N6 50.7(9) . . . . ?
C48 N8 Cd1 N5 164.0(8) . . . . ?
C49 N8 Cd1 N5 -18.9(9) . . . . ?
C8 N1 Cd1 N8 3(7) . . . . ?
C5 N1 Cd1 N8 170(6) . . . . ?
C8 N1 Cd1 N7 97.7(11) . . . . ?
C5 N1 Cd1 N7 -94.8(11) . . . . ?
C8 N1 Cd1 N2 18.1(10) . . . . ?
C5 N1 Cd1 N2 -174.4(12) . . . . ?
C8 N1 Cd1 N6 -139.0(11) . . . . ?
C5 N1 Cd1 N6 28.5(11) . . . . ?
C8 N1 Cd1 N5 -69.6(11) . . . . ?
C5 N1 Cd1 N5 98.0(11) . . . . ?
C47 N7 Cd1 N8 7.0(9) . . . . ?
C46 N7 Cd1 N8 177.9(11) . . . . ?
C47 N7 Cd1 N1 -169.4(9) . . . . ?
C46 N7 Cd1 N1 1.5(12) . . . . ?
C47 N7 Cd1 N2 -101.5(10) . . . . ?
C46 N7 Cd1 N2 69.3(10) . . . . ?
C47 N7 Cd1 N6 91.7(10) . . . . ?
C46 N7 Cd1 N6 -97.5(10) . . . . ?
C47 N7 Cd1 N5 -34.7(18) . . . . ?
C46 N7 Cd1 N5 136.1(12) . . . . ?
C10 N2 Cd1 N8 -5.0(6) . . . . ?
C9 N2 Cd1 N8 160.0(4) . . . . ?
C10 N2 Cd1 N1 176.0(6) . . . . ?
C9 N2 Cd1 N1 -19.1(4) . . . . ?
C10 N2 Cd1 N7 64.4(5) . . . . ?
C9 N2 Cd1 N7 -130.6(4) . . . . ?
C10 N2 Cd1 N6 -136.9(6) . . . . ?
C9 N2 Cd1 N6 28.1(7) . . . . ?
C10 N2 Cd1 N5 -99.0(5) . . . . ?
C9 N2 Cd1 N5 65.9(4) . . . . ?
C36 N6 Cd1 N8 89.6(5) . . . . ?
C35 N6 Cd1 N8 -108.9(5) . . . . ?
C36 N6 Cd1 N1 -92.5(6) . . . . ?
C35 N6 Cd1 N1 69.0(5) . . . . ?
C36 N6 Cd1 N7 18.3(6) . . . . ?
C35 N6 Cd1 N7 179.8(5) . . . . ?
C36 N6 Cd1 N2 -136.2(6) . . . . ?
C35 N6 Cd1 N2 25.3(7) . . . . ?
C36 N6 Cd1 N5 -177.1(6) . . . . ?
C35 N6 Cd1 N5 -15.6(5) . . . . ?
C34 N5 Cd1 N8 106.3(10) . . . . ?
C31 N5 Cd1 N8 -92.9(10) . . . . ?
C34 N5 Cd1 N1 -77.0(10) . . . . ?
C31 N5 Cd1 N1 83.8(11) . . . . ?
C34 N5 Cd1 N7 145.6(12) . . . . ?
C31 N5 Cd1 N7 -53.6(17) . . . . ?
C34 N5 Cd1 N2 -147.5(10) . . . . ?
C31 N5 Cd1 N2 13.3(10) . . . . ?
C34 N5 Cd1 N6 12.2(9) . . . . ?
C31 N5 Cd1 N6 173.0(11) . . . . ?
C86 N13 Cd2 N4 60.9(19) . . . . ?
C83 N13 Cd2 N4 -113.6(17) . . . . ?
C86 N13 Cd2 N10 -102.0(12) . . . . ?
C83 N13 Cd2 N10 83.5(15) . . . . ?
C86 N13 Cd2 N9 -176.3(11) . . . . ?
C83 N13 Cd2 N9 9.2(16) . . . . ?
C86 N13 Cd2 N14 -2.1(11) . . . . ?
C83 N13 Cd2 N14 -176.6(16) . . . . ?
C86 N13 Cd2 N3 93.3(12) . . . . ?
C83 N13 Cd2 N3 -81.2(15) . . . . ?
C19 N4 Cd2 N13 49.7(17) . . . . ?
C20 N4 Cd2 N13 -149.0(12) . . . . ?
C19 N4 Cd2 N10 -147.2(9) . . . . ?
C20 N4 Cd2 N10 14.0(10) . . . . ?
C19 N4 Cd2 N9 -77.1(9) . . . . ?
C20 N4 Cd2 N9 84.1(10) . . . . ?
C19 N4 Cd2 N14 109.0(9) . . . . ?
C20 N4 Cd2 N14 -89.8(10) . . . . ?
C19 N4 Cd2 N3 15.4(9) . . . . ?
C20 N4 Cd2 N3 176.6(11) . . . . ?
C62 N10 Cd2 N13 71.4(6) . . . . ?
C61 N10 Cd2 N13 -120.8(5) . . . . ?
C62 N10 Cd2 N4 -103.0(5) . . . . ?
C61 N10 Cd2 N4 64.8(5) . . . . ?
C62 N10 Cd2 N9 178.5(6) . . . . ?
C61 N10 Cd2 N9 -13.7(5) . . . . ?
C62 N10 Cd2 N14 -3.3(6) . . . . ?
C61 N10 Cd2 N14 164.5(4) . . . . ?
C62 N10 Cd2 N3 -159.8(9) . . . . ?
C61 N10 Cd2 N3 8.1(11) . . . . ?
C60 N9 Cd2 N13 110.7(12) . . . . ?
C57 N9 Cd2 N13 -92.4(12) . . . . ?
C60 N9 Cd2 N4 -85.6(12) . . . . ?
C57 N9 Cd2 N4 71.3(12) . . . . ?
C60 N9 Cd2 N10 15.2(11) . . . . ?
C57 N9 Cd2 N10 172.1(12) . . . . ?
C60 N9 Cd2 N14 -2(5) . . . . ?
C57 N9 Cd2 N14 155(3) . . . . ?
C60 N9 Cd2 N3 -157.5(12) . . . . ?
C57 N9 Cd2 N3 -0.6(12) . . . . ?
C88 N14 Cd2 N13 173.2(11) . . . . ?
C87 N14 Cd2 N13 4.8(9) . . . . ?
C88 N14 Cd2 N4 10.4(10) . . . . ?
C87 N14 Cd2 N4 -158.0(9) . . . . ?
C88 N14 Cd2 N10 -89.1(10) . . . . ?
C87 N14 Cd2 N10 102.6(8) . . . . ?
C88 N14 Cd2 N9 -72(4) . . . . ?
C87 N14 Cd2 N9 119(4) . . . . ?
C88 N14 Cd2 N3 83.1(10) . . . . ?
C87 N14 Cd2 N3 -85.3(9) . . . . ?
C16 N3 Cd2 N13 175.9(10) . . . . ?
C15 N3 Cd2 N13 4.6(11) . . . . ?
C16 N3 Cd2 N4 -14.8(9) . . . . ?
C15 N3 Cd2 N4 173.8(12) . . . . ?
C16 N3 Cd2 N10 45.8(16) . . . . ?
C15 N3 Cd2 N10 -125.5(12) . . . . ?
C16 N3 Cd2 N9 66.4(10) . . . . ?
C15 N3 Cd2 N9 -104.9(11) . . . . ?
C16 N3 Cd2 N14 -111.1(10) . . . . ?
C15 N3 Cd2 N14 77.6(11) . . . . ?
C100 N16 Cd3 N17 156(7) . . . . ?
C101 N16 Cd3 N17 -34(7) . . . . ?
C100 N16 Cd3 N15 10.3(4) . . . . ?
C101 N16 Cd3 N15 179.9(5) . . . . ?
C100 N16 Cd3 N12 -162.6(4) . . . . ?
C101 N16 Cd3 N12 7.0(5) . . . . ?
C100 N16 Cd3 N11 -91.3(4) . . . . ?
C101 N16 Cd3 N11 78.3(5) . . . . ?
C100 N16 Cd3 N18 102.3(4) . . . . ?
C101 N16 Cd3 N18 -88.0(5) . . . . ?
C112 N17 Cd3 N16 -31(8) . . . . ?
C110 N17 Cd3 N16 125(7) . . . . ?
C112 N17 Cd3 N15 114.5(15) . . . . ?
C110 N17 Cd3 N15 -89.2(6) . . . . ?
C112 N17 Cd3 N12 -72.3(15) . . . . ?
C110 N17 Cd3 N12 84.0(5) . . . . ?
C112 N17 Cd3 N11 -143.4(15) . . . . ?
C110 N17 Cd3 N11 12.9(5) . . . . ?
C112 N17 Cd3 N18 23.7(14) . . . . ?
C110 N17 Cd3 N18 180.0(6) . . . . ?
C99 N15 Cd3 N16 -7.4(10) . . . . ?
C96 N15 Cd3 N16 165.8(13) . . . . ?
C99 N15 Cd3 N17 174.2(10) . . . . ?
C96 N15 Cd3 N17 -12.6(14) . . . . ?
C99 N15 Cd3 N12 22(2) . . . . ?
C96 N15 Cd3 N12 -164.5(14) . . . . ?
C99 N15 Cd3 N11 79.0(11) . . . . ?
C96 N15 Cd3 N11 -107.8(13) . . . . ?
C99 N15 Cd3 N18 -113.9(11) . . . . ?
C96 N15 Cd3 N18 59.3(13) . . . . ?
C71 N12 Cd3 N16 103.6(9) . . . . ?
C72 N12 Cd3 N16 -92.5(9) . . . . ?
C71 N12 Cd3 N17 -78.2(10) . . . . ?
C72 N12 Cd3 N17 85.8(9) . . . . ?
C71 N12 Cd3 N15 75.4(19) . . . . ?
C72 N12 Cd3 N15 -120.7(16) . . . . ?
C71 N12 Cd3 N11 15.5(9) . . . . ?
C72 N12 Cd3 N11 179.4(10) . . . . ?
C71 N12 Cd3 N18 -148.0(9) . . . . ?
C72 N12 Cd3 N18 16.0(9) . . . . ?
C67 N11 Cd3 N16 76.5(10) . . . . ?
C68 N11 Cd3 N16 -109.7(8) . . . . ?
C67 N11 Cd3 N17 -106.0(10) . . . . ?
C68 N11 Cd3 N17 67.8(9) . . . . ?
C67 N11 Cd3 N15 5.5(10) . . . . ?
C68 N11 Cd3 N15 179.3(8) . . . . ?
C67 N11 Cd3 N12 172.9(11) . . . . ?
C68 N11 Cd3 N12 -13.3(8) . . . . ?
C67 N11 Cd3 N18 -139.3(10) . . . . ?
C68 N11 Cd3 N18 34.5(14) . . . . ?
C114 N18 Cd3 N16 -1.7(7) . . . . ?
C113 N18 Cd3 N16 159.7(5) . . . . ?
C114 N18 Cd3 N17 -179.4(7) . . . . ?
C113 N18 Cd3 N17 -18.0(5) . . . . ?
C114 N18 Cd3 N15 71.0(7) . . . . ?
C113 N18 Cd3 N15 -127.6(5) . . . . ?
C114 N18 Cd3 N12 -99.1(6) . . . . ?
C113 N18 Cd3 N12 62.3(5) . . . . ?
C114 N18 Cd3 N11 -143.7(9) . . . . ?
C113 N18 Cd3 N11 17.7(11) . . . . ?

_diffrn_measured_fraction_theta_max 0.997
_diffrn_reflns_theta_full        20.77
_diffrn_measured_fraction_theta_full 0.997
_refine_diff_density_max         1.398
_refine_diff_density_min         -0.758
_refine_diff_density_rms         0.128
