####################################################################### 
# 
# This file contains crystal structure data downloaded from the 
# Cambridge Structural Database (CSD) hosted by the Cambridge 
# Crystallographic Data Centre (CCDC).
# 
# Full information about CCDC data access policies and citation 
# guidelines are available at http://www.ccdc.cam.ac.uk/access/V1 
# 
# Audit and citation data items may have been added by the CCDC. 
# Please retain this information to preserve the provenance of 
# this file and to allow appropriate attribution of the data. 
# 
#######################################################################

data__todai1
_audit_block_doi                 10.5517/cc9xzy3
_database_code_depnum_ccdc_archive 'CCDC 295986'
loop_
_citation_id
_citation_doi
_citation_year
1 10.1002/anie.200601431 2006
_audit_update_record             
;
2006-01-24 deposited with the CCDC.	2019-03-04 downloaded from the CCDC.
;

#==============================================================================

# CHEMICAL DATA

_chemical_formula_sum            'C972 H744 F36 Hg6 N48 O48 S12 '
_chemical_formula_moiety         
;
C492 H360 F36 Hg6 N24 O36 S12, 8(C60 H45 N3), 12(H2 O)
;
_chemical_formula_weight         16137.06
_chemical_melting_point          ?

#==============================================================================

# CRYSTAL DATA
_symmetry_cell_setting           cubic
_symmetry_space_group_name_H-M   'F 4 3 2'
_symmetry_space_group_name_Hall  'F 4 2 3'
_symmetry_Int_Tables_number      209
loop_
_symmetry_equiv_pos_site_id
_symmetry_equiv_pos_as_xyz
1 +X,+Y,+Z
2 +Y,+Z,+X
3 +Z,+X,+Y
4 -Y,+X,+Z
5 -Z,+Y,+X
6 -X,+Z,+Y
7 -X,-Y,+Z
8 -Z,+X,-Y
9 -X,+Y,-Z
10 -Y,-Z,+X
11 -Z,-X,+Y
12 +Y,-X,+Z
13 +Z,-Y,+X
14 +X,-Z,+Y
15 -Y,+Z,-X
16 -Z,-Y,-X
17 -X,-Z,-Y
18 -Y,-X,-Z
19 +Y,-Z,-X
20 +Y,+X,-Z
21 +Z,+Y,-X
22 +X,+Z,-Y
23 +X,-Y,-Z
24 +Z,-X,-Y
25 +X,1/2+Y,1/2+Z
26 +Y,1/2+Z,1/2+X
27 +Z,1/2+X,1/2+Y
28 -Y,1/2+X,1/2+Z
29 -Z,1/2+Y,1/2+X
30 -X,1/2+Z,1/2+Y
31 -X,1/2-Y,1/2+Z
32 -Z,1/2+X,1/2-Y
33 -X,1/2+Y,1/2-Z
34 -Y,1/2-Z,1/2+X
35 -Z,1/2-X,1/2+Y
36 +Y,1/2-X,1/2+Z
37 +Z,1/2-Y,1/2+X
38 +X,1/2-Z,1/2+Y
39 -Y,1/2+Z,1/2-X
40 -Z,1/2-Y,1/2-X
41 -X,1/2-Z,1/2-Y
42 -Y,1/2-X,1/2-Z
43 +Y,1/2-Z,1/2-X
44 +Y,1/2+X,1/2-Z
45 +Z,1/2+Y,1/2-X
46 +X,1/2+Z,1/2-Y
47 +X,1/2-Y,1/2-Z
48 +Z,1/2-X,1/2-Y
49 1/2+X,+Y,1/2+Z
50 1/2+Y,+Z,1/2+X
51 1/2+Z,+X,1/2+Y
52 1/2-Y,+X,1/2+Z
53 1/2-Z,+Y,1/2+X
54 1/2-X,+Z,1/2+Y
55 1/2-X,-Y,1/2+Z
56 1/2-Z,+X,1/2-Y
57 1/2-X,+Y,1/2-Z
58 1/2-Y,-Z,1/2+X
59 1/2-Z,-X,1/2+Y
60 1/2+Y,-X,1/2+Z
61 1/2+Z,-Y,1/2+X
62 1/2+X,-Z,1/2+Y
63 1/2-Y,+Z,1/2-X
64 1/2-Z,-Y,1/2-X
65 1/2-X,-Z,1/2-Y
66 1/2-Y,-X,1/2-Z
67 1/2+Y,-Z,1/2-X
68 1/2+Y,+X,1/2-Z
69 1/2+Z,+Y,1/2-X
70 1/2+X,+Z,1/2-Y
71 1/2+X,-Y,1/2-Z
72 1/2+Z,-X,1/2-Y
73 1/2+X,1/2+Y,+Z
74 1/2+Y,1/2+Z,+X
75 1/2+Z,1/2+X,+Y
76 1/2-Y,1/2+X,+Z
77 1/2-Z,1/2+Y,+X
78 1/2-X,1/2+Z,+Y
79 1/2-X,1/2-Y,+Z
80 1/2-Z,1/2+X,-Y
81 1/2-X,1/2+Y,-Z
82 1/2-Y,1/2-Z,+X
83 1/2-Z,1/2-X,+Y
84 1/2+Y,1/2-X,+Z
85 1/2+Z,1/2-Y,+X
86 1/2+X,1/2-Z,+Y
87 1/2-Y,1/2+Z,-X
88 1/2-Z,1/2-Y,-X
89 1/2-X,1/2-Z,-Y
90 1/2-Y,1/2-X,-Z
91 1/2+Y,1/2-Z,-X
92 1/2+Y,1/2+X,-Z
93 1/2+Z,1/2+Y,-X
94 1/2+X,1/2+Z,-Y
95 1/2+X,1/2-Y,-Z
96 1/2+Z,1/2-X,-Y

#------------------------------------------------------------------------------

_cell_length_a                   48.0818(13)
_cell_length_b                   48.0818(13)
_cell_length_c                   48.0818(13)
_cell_angle_alpha                90.0000
_cell_angle_beta                 90.0000
_cell_angle_gamma                90.0000
_cell_volume                     111158(5)
_cell_formula_units_Z            4
_cell_measurement_reflns_used    91718
_cell_measurement_theta_min      3.0
_cell_measurement_theta_max      68.1
_cell_measurement_temperature    213.1

#------------------------------------------------------------------------------

_exptl_crystal_description       block
_exptl_crystal_colour            colorless
_exptl_crystal_size_max          0.25
_exptl_crystal_size_mid          0.20
_exptl_crystal_size_min          0.10
_exptl_crystal_density_diffrn    0.964
_exptl_crystal_density_meas      ?
_exptl_crystal_density_method    'not measured'
_exptl_crystal_F_000             33168.00
_exptl_absorpt_coefficient_mu    2.030
_exptl_absorpt_correction_type   multi-scan
_exptl_absorpt_process_details   
;
Higashi, T. (1995). Program for Absorption Correction.
Rigaku Corporation, Tokyo, Japan.
;
_exptl_absorpt_correction_T_min  0.641
_exptl_absorpt_correction_T_max  0.816

#==============================================================================

# EXPERIMENTAL DATA

_diffrn_radiation_type           'Cu K\a'
_diffrn_radiation_wavelength     1.54178
_diffrn_measurement_device_type  'Rigaku RAXIS-RAPID'
_diffrn_measurement_method       \w
_diffrn_detector_area_resol_mean 10.00
_diffrn_reflns_number            146262
_diffrn_reflns_av_R_equivalents  0.070
_diffrn_reflns_theta_max         68.17
_diffrn_measured_fraction_theta_max 1.721
_diffrn_reflns_theta_full        68.17
_diffrn_measured_fraction_theta_full 1.721
_diffrn_reflns_limit_h_min       -48
_diffrn_reflns_limit_h_max       57
_diffrn_reflns_limit_k_min       -56
_diffrn_reflns_limit_k_max       57
_diffrn_reflns_limit_l_min       -57
_diffrn_reflns_limit_l_max       40

#==============================================================================

# REFINEMENT DATA

_refine_special_details          
;
Refinement using reflections with F^2^ > 3.0 sigma(F^2^).
The weighted R-factor(wR), goodness of fit (S) and R-factor (gt) are
based on F, with F set to zero for negative F. The threshold expression of
F^2^ > 2.0 sigma(F^2^) is used only for calculating R-factor (gt).
;
_reflns_number_total             8512
_reflns_number_gt                4595
_reflns_threshold_expression     F^2^>2.0\s(F^2^)
_refine_ls_structure_factor_coef Fsqd
_refine_ls_R_factor_gt           0.0901
_refine_ls_wR_factor_ref         0.2868
_refine_ls_hydrogen_treatment    refall
_refine_ls_number_reflns         8412
_refine_ls_number_parameters     409
_refine_ls_goodness_of_fit_ref   0.968
_refine_ls_weighting_scheme      calc
_refine_ls_weighting_details     
'w = 1/[\s^2^(Fo^2^)+(0.1943P)^2^+0.0000P] where P=(Fo^2^+2Fc^2^)/3'
_refine_ls_shift/su_max          0.001
_refine_diff_density_max         1.22
_refine_diff_density_min         -0.84
_refine_ls_extinction_method     none
_refine_ls_extinction_coef       ?
_refine_ls_abs_structure_details 'Flack (1983), 3621 Friedel pairs'
_refine_ls_abs_structure_Flack   -0.014(17)

loop_
_atom_type_symbol
_atom_type_description
_atom_type_scat_dispersion_real
_atom_type_scat_dispersion_imag
_atom_type_scat_source
C C 0.018 0.009
;
International Tables for Crystallography
(1992, Vol. C, Tables 4.2.6.8 and 6.1.1.4)
;
H H 0.000 0.000
;
International Tables for Crystallography
(1992, Vol. C, Table 6.1.1.4)
;
F F 0.073 0.053
;
International Tables for Crystallography
(1992, Vol. C, Tables 4.2.6.8 and 6.1.1.4)
;
Hg Hg -4.292 7.685
;
International Tables for Crystallography
(1992, Vol. C, Tables 4.2.6.8 and 6.1.1.4)
;
N N 0.031 0.018
;
International Tables for Crystallography
(1992, Vol. C, Tables 4.2.6.8 and 6.1.1.4)
;
O O 0.049 0.032
;
International Tables for Crystallography
(1992, Vol. C, Tables 4.2.6.8 and 6.1.1.4)
;
S S 0.333 0.557
;
International Tables for Crystallography
(1992, Vol. C, Tables 4.2.6.8 and 6.1.1.4)
;

#==============================================================================

# ATOMIC COORDINATES AND THERMAL PARAMETERS

loop_
_atom_site_label
_atom_site_type_symbol
_atom_site_fract_x
_atom_site_fract_y
_atom_site_fract_z
_atom_site_U_iso_or_equiv
_atom_site_adp_type
_atom_site_occupancy
_atom_site_symmetry_multiplicity
_atom_site_calc_flag
_atom_site_refinement_flags
_atom_site_disorder_assembly
_atom_site_disorder_group
Hg1 Hg 0.5000 0.5000 0.263800(10) 0.0992(2) Uani 1.00 4 d S . .
S1 S 0.50707(16) 0.4947(2) 0.18532(10) 0.098(2) Uiso 0.25 1 d PG A -1
S2 S 0.4913(2) 0.4931(2) 0.3440(2) 0.158(4) Uiso 0.25 1 d PG B -2
F1 F 0.4919(2) 0.4921(2) 0.13362(11) 0.0975 Uiso 0.25 1 d PG A -1
F2 F 0.4792(2) 0.52896(19) 0.1536(2) 0.0975 Uiso 0.25 1 d PG A -1
F3 F 0.45806(13) 0.4914(2) 0.1615(2) 0.0975 Uiso 0.25 1 d PG A -1
F4 F 0.4741(4) 0.5441(2) 0.3478(4) 0.1584 Uiso 0.25 1 d PG B -2
F5 F 0.5152(3) 0.5384(3) 0.3621(4) 0.1584 Uiso 0.25 1 d PG B -2
F6 F 0.4814(3) 0.5254(3) 0.3869(2) 0.1584 Uiso 0.25 1 d PG B -2
O1 O 0.4934(2) 0.5062(3) 0.20936(11) 0.0975 Uiso 0.25 1 d PG A -1
O2 O 0.5088(2) 0.4648(2) 0.1848(2) 0.0975 Uiso 0.25 1 d PG A -1
O3 O 0.53194(17) 0.5091(2) 0.17690(19) 0.0975 Uiso 0.25 1 d PG A -1
O4 O 0.5091(3) 0.4769(2) 0.3618(3) 0.1584 Uiso 0.25 1 d PG B -2
O5 O 0.4625(2) 0.4849(3) 0.3442(3) 0.1584 Uiso 0.25 1 d PG B -2
O6 O 0.5007(4) 0.4990(4) 0.3171(2) 0.1584 Uiso 1.00 4 d SG B -2
O7 O 0.5913(2) 0.2500 0.2500 0.105(3) Uiso 0.56 2 d SP . .
O8 O 0.5849(5) 0.2590(5) 0.2335(5) 0.101(7) Uiso 0.22 1 d P . .
N1 N 0.48434(19) 0.4535(2) 0.26375(17) 0.119(2) Uani 1.00 1 d .. . .
N2 N 0.5008(2) 0.2922(2) 0.2458(2) 0.129(3) Uani 0.50 1 d P C 3
N2a N 0.5303(2) 0.3246(3) 0.2685(3) 0.165(5) Uani 0.50 1 d P C 4
C1 C 0.39788(18) 0.38723(16) 0.14150(18) 0.097(2) Uani 1.00 1 d .. . .
C2 C 0.40517(18) 0.36482(16) 0.12441(16) 0.095(2) Uani 1.00 1 d . . .
C3 C 0.4157(2) 0.3940(2) 0.1664(2) 0.102(2) Uani 1.00 1 d . . .
C4 C 0.4388(2) 0.4111(2) 0.1652(2) 0.110(2) Uani 1.00 1 d . . .
C5 C 0.4542(2) 0.4179(2) 0.1885(2) 0.113(2) Uani 1.00 1 d . . .
C6 C 0.44590(19) 0.40846(19) 0.2141(2) 0.099(2) Uani 1.00 1 d . . .
C7 C 0.4234(2) 0.3900(2) 0.2154(2) 0.112(2) Uani 1.00 1 d . .. .
C8 C 0.4093(2) 0.3830(2) 0.1928(2) 0.105(2) Uani 1.00 1 d . . .
C9 C 0.4865(2) 0.4374(2) 0.2864(2) 0.118(3) Uani 1.00 1 d . . .
C10 C 0.4767(2) 0.4116(2) 0.2875(2) 0.119(3) Uani 1.00 1 d . . .
C11 C 0.4637(2) 0.4004(2) 0.2631(2) 0.121(3) Uani 1.00 1 d . . .
C12 C 0.46131(19) 0.4168(2) 0.2397(2) 0.104(2) Uani 1.00 1 d . . .
C13 C 0.4714(2) 0.4448(2) 0.2415(2) 0.111(2) Uani 1.00 1 d . . .
C14 C 0.4293(2) 0.34751(19) 0.1306(2) 0.099(2) Uani 1.00 1 d . . .
C15 C 0.4293(2) 0.3261(2) 0.1498(2) 0.110(2) Uani 1.00 1 d . . .
C16 C 0.4534(2) 0.3109(2) 0.1541(2) 0.124(3) Uani 1.00 1 d . . .
C17 C 0.47745(18) 0.3155(2) 0.14019(19) 0.096(2) Uani 1.00 1 d . . .
C18 C 0.4775(2) 0.3358(2) 0.1215(2) 0.121(3) Uani 1.00 1 d . . .
C19 C 0.4538(2) 0.3523(2) 0.1161(2) 0.115(2) Uani 1.00 1 d . . .
C20 C 0.5036(2) 0.2999(2) 0.1448(2) 0.136(3) Uani 1.00 1 d . . .
C21 C 0.38505(17) 0.35538(14) 0.34567(18) 0.099(2) Uani 1.00 1 d . . .
C22 C 0.36860(16) 0.37852(14) 0.33921(19) 0.094(2) Uani 1.00 1 d . . .
C23 C 0.4101(2) 0.3486(2) 0.3280(2) 0.106(2) Uani 1.00 1 d . . .
C24 C 0.4065(2) 0.3363(2) 0.3012(2) 0.117(3) Uani 1.00 1 d . . .
C25 C 0.4298(2) 0.3295(2) 0.2854(2) 0.107(2) Uani 1.00 1 d . . .
C26 C 0.4562(2) 0.3340(2) 0.2947(2) 0.110(2) Uani 1.00 1 d . . .
C27 C 0.4588(2) 0.3462(2) 0.3212(3) 0.139(4) Uani 1.00 1 d . . .
C28 C 0.4360(2) 0.3526(2) 0.3381(2) 0.111(2) Uani 1.00 1 d . . .
C29 C 0.5252(5) 0.3028(4) 0.2504(3) 0.182(8) Uani 1.00 1 d . . .
C30 C 0.5303(2) 0.3246(3) 0.2685(3) 0.165(5) Uani 0.50 1 d P C 3
C30a C 0.5008(2) 0.2922(2) 0.2458(2) 0.129(3) Uani 0.50 1 d P C 4
C31 C 0.5080(2) 0.3366(2) 0.2840(2) 0.138(4) Uani 1.00 1 d . . .
C32 C 0.4812(2) 0.3255(2) 0.2795(2) 0.114(3) Uani 1.00 1 d . . .
C33 C 0.4801(2) 0.3049(2) 0.2608(3) 0.140(4) Uani 1.00 1 d . . .
C34 C 0.3901(2) 0.4326(2) 0.2702(2) 0.112(2) Uani 1.00 1 d . . .
C35 C 0.4031(2) 0.4349(2) 0.2963(2) 0.115(2) Uani 1.00 1 d . . .
C36 C 0.3969(2) 0.4169(2) 0.3172(2) 0.118(3) Uani 1.00 1 d . . .
C37 C 0.3758(2) 0.39674(19) 0.3147(2) 0.100(2) Uani 1.00 1 d . . .
C38 C 0.3637(2) 0.3939(2) 0.2891(2) 0.114(2) Uani 1.00 1 d . . .
C39 C 0.3706(2) 0.4111(2) 0.2664(2) 0.118(3) Uani 1.00 1 d . . .
C40 C 0.3971(2) 0.4533(2) 0.2474(2) 0.128(3) Uani 1.00 1 d . . .
C41 C 0.48325(14) 0.50199(18) 0.15783(12) 0.0975 Uiso 0.25 1 d PG A -1
C42 C 0.4905(2) 0.5262(2) 0.3609(2) 0.1584 Uiso 0.25 1 d PG B -2
H4 H 0.4443 0.4184 0.1477 0.132 Uiso 1.00 1 c R . ..
H5 H 0.4704 0.4291 0.1868 0.136 Uiso 1.00 1 c R . .
H7 H 0.4181 0.3824 0.2328 0.135 Uiso 1.00 1 c R . .
H8 H 0.3944 0.3702 0.1945 0.125 Uiso 1.00 1 c R . .
H9 H 0.4956 0.4447 0.3024 0.141 Uiso 1.00 1 c R . .
H10 H 0.4782 0.4009 0.3040 0.142 Uiso 1.00 1 c R . .
H11 H 0.4568 0.3819 0.2631 0.145 Uiso 1.00 1 c R . .
H13 H 0.4687 0.4572 0.2263 0.134 Uiso 1.00 1 c R . .
H15 H 0.4128 0.3218 0.1599 0.132 Uiso 1.00 1 c R . .
H16 H 0.4530 0.2965 0.1676 0.148 Uiso 1.00 1 c R . ..
H18 H 0.4941 0.3393 0.1114 0.145 Uiso 1.00 1 c R . .
H19 H 0.4546 0.3667 0.1026 0.138 Uiso 1.00 1 c R . .
H20A H 0.5007 0.2863 0.1588 0.163 Uiso 1.00 1 c R . .
H20B H 0.5178 0.3123 0.1505 0.163 Uiso 1.00 1 c R . .
H20C H 0.5089 0.2910 0.1280 0.163 Uiso 1.00 1 c R . .
H24 H 0.3884 0.3328 0.2941 0.140 Uiso 1.00 1 c R . .
H25 H 0.4272 0.3214 0.2675 0.128 Uiso 1.00 1 c R . .
H27 H 0.4769 0.3502 0.3280 0.166 Uiso 1.00 1 c R . ..
H28 H 0.4387 0.3596 0.3564 0.134 Uiso 1.00 1 c R . .
H29 H 0.5404 0.2952 0.2408 0.218 Uiso 1.00 1 c R . .
H31 H 0.5110 0.3512 0.2966 0.165 Uiso 1.00 1 c R . .
H33 H 0.4621 0.2980 0.2573 0.168 Uiso 1.00 1 c R . .
H35 H 0.4163 0.4492 0.2994 0.138 Uiso 1.00 1 c R . .
H36 H 0.4072 0.4179 0.3340 0.141 Uiso 1.00 1 c R . .
H38 H 0.3501 0.3798 0.2865 0.137 Uiso 1.00 1 c R . .
H39 H 0.3622 0.4082 0.2487 0.142 Uiso 1.00 1 c R . .
H40A H 0.3866 0.4490 0.2312 0.154 Uiso 1.00 1 c R .. .
H40B H 0.4164 0.4522 0.2433 0.154 Uiso 1.00 1 c R . .
H40C H 0.3926 0.4715 0.2536 0.154 Uiso 1.00 1 c R . .


loop_
_atom_site_aniso_label
_atom_site_aniso_U_11
_atom_site_aniso_U_22
_atom_site_aniso_U_33
_atom_site_aniso_U_12
_atom_site_aniso_U_13
_atom_site_aniso_U_23
Hg1 0.1048(3) 0.1048(3) 0.0880(4) 0.0000 0.0000 0.0000
N1 0.114(5) 0.141(6) 0.103(5) 0.014(5) -0.022(4) -0.007(5)
N2 0.112(5) 0.133(7) 0.142(7) 0.029(7) 0.048(7) 0.043(6)
N2a 0.123(8) 0.186(12) 0.187(13) 0.020(8) 0.054(8) 0.091(11)
C1 0.099(5) 0.097(5) 0.094(5) -0.001(4) -0.003(4) -0.003(4)
C2 0.092(5) 0.093(5) 0.101(5) -0.002(4) -0.008(4) 0.005(4)
C3 0.098(5) 0.098(5) 0.111(6) 0.014(4) -0.008(4) 0.002(4)
C4 0.109(6) 0.116(6) 0.106(6) -0.021(5) -0.004(5) 0.014(5)
C5 0.105(6) 0.127(7) 0.107(6) -0.016(5) -0.013(5) 0.001(5)
C6 0.101(5) 0.100(5) 0.097(5) 0.001(4) -0.010(4) 0.001(4)
C7 0.120(7) 0.100(6) 0.117(7) -0.016(5) -0.011(5) 0.017(5)
C8 0.118(6) 0.103(6) 0.093(5) -0.011(5) 0.001(5) 0.002(4)
C9 0.126(7) 0.122(7) 0.106(6) -0.006(5) -0.028(5) 0.005(5)
C10 0.129(7) 0.120(7) 0.108(6) -0.006(6) -0.025(5) 0.027(5)
C11 0.115(7) 0.107(6) 0.141(9) 0.008(5) -0.008(6) -0.003(6)
C12 0.092(5) 0.125(7) 0.095(5) 0.014(5) 0.005(4) 0.018(5)
C13 0.103(6) 0.125(7) 0.106(6) -0.018(5) -0.025(5) 0.011(5)
C14 0.102(6) 0.092(5) 0.105(5) 0.010(4) -0.015(5) -0.009(4)
C15 0.104(6) 0.103(6) 0.124(7) -0.005(5) 0.004(5) 0.013(5)
C16 0.115(7) 0.102(6) 0.154(9) 0.004(5) -0.014(6) 0.013(6)
C17 0.084(5) 0.105(6) 0.099(5) 0.009(4) -0.001(4) 0.011(4)
C18 0.106(6) 0.129(7) 0.128(7) 0.004(6) 0.011(5) 0.019(6)
C19 0.099(6) 0.118(7) 0.129(7) 0.013(5) 0.012(5) 0.034(5)
C20 0.127(8) 0.119(6) 0.161(8) 0.041(7) -0.015(8) -0.007(5)
C21 0.094(5) 0.107(6) 0.096(5) 0.014(4) 0.002(4) 0.025(5)
C22 0.094(5) 0.089(5) 0.099(5) 0.006(4) 0.016(4) 0.009(4)
C23 0.115(7) 0.103(6) 0.100(6) 0.026(5) 0.013(5) 0.016(4)
C24 0.115(6) 0.108(6) 0.128(8) 0.010(5) 0.027(6) 0.011(5)
C25 0.105(6) 0.120(6) 0.097(5) 0.004(5) 0.011(5) 0.011(4)
C26 0.110(7) 0.119(7) 0.100(6) 0.027(5) 0.020(5) 0.015(5)
C27 0.119(8) 0.115(7) 0.182(12) 0.023(6) 0.011(8) 0.035(8)
C28 0.094(5) 0.114(6) 0.127(7) 0.010(5) 0.017(5) 0.013(5)
C29 0.26(2) 0.143(13) 0.140(12) 0.073(15) 0.079(14) 0.042(10)
C30 0.123(8) 0.186(12) 0.187(13) 0.020(8) 0.054(8) 0.091(11)
C30a 0.112(5) 0.133(7) 0.142(7) 0.029(7) 0.048(7) 0.043(6)
C31 0.095(7) 0.152(9) 0.166(10) 0.020(5) 0.031(6) 0.062(8)
C32 0.128(9) 0.118(7) 0.094(6) 0.018(6) 0.020(5) 0.022(5)
C33 0.127(8) 0.142(9) 0.150(10) 0.036(7) 0.036(8) 0.050(8)
C34 0.117(7) 0.109(6) 0.111(7) -0.001(5) 0.009(5) 0.021(5)
C35 0.119(7) 0.125(7) 0.102(6) 0.012(5) 0.005(5) 0.020(5)
C36 0.122(7) 0.119(6) 0.112(6) -0.006(5) 0.009(5) 0.035(5)
C37 0.097(5) 0.095(5) 0.108(6) 0.013(4) 0.009(4) 0.008(4)
C38 0.131(7) 0.094(6) 0.118(7) 0.009(5) -0.002(6) -0.001(5)
C39 0.144(8) 0.117(7) 0.094(5) 0.004(6) 0.021(5) 0.006(5)
C40 0.150(9) 0.136(8) 0.098(6) -0.009(6) 0.018(6) 0.027(6)

#==============================================================================

_computing_data_collection       'PROCESS-AUTO (Rigaku, 1998)'
_computing_cell_refinement       'PROCESS-AUTO (Rigaku, 1998)'
_computing_data_reduction        'CrystalStructure 2003 (R/MSC, Rigaku, 2003)'
_computing_structure_solution    'SHELXS97 (Sheldrick, 1997)'
_computing_structure_refinement  'SHELXL97 (Sheldrick, 1997)'
_computing_publication_material  'CrystalStructure 2003 (R/MSC, Rigaku, 2003)'
_computing_molecular_graphics    'ORTEP (Johnson, 1976)'

#==============================================================================

# MOLECULAR GEOMETRY

_geom_special_details            
;
ENTER SPECIAL DETAILS OF THE MOLECULAR GEOMETRY
;

loop_
_geom_bond_atom_site_label_1
_geom_bond_atom_site_label_2
_geom_bond_distance
_geom_bond_publ_flag
_geom_bond_site_symmetry_1
_geom_bond_site_symmetry_2
Hg1 O1 2.654(5) ? . .
Hg1 O6 2.565(10) ? . .
Hg1 N1 2.358(9) ? . .
S1 O1 1.441 ? . .
S1 O2 1.441 ? . .
S1 O3 1.439 ? .. .
S1 C41 1.784 ? . .
S2 O4 1.442 ? . .
S2 O5 1.441 ? . .
S2 O6 1.400 ? . .
S2 C42 1.783 ? . .
F1 C41 1.326 ? . .
F2 C41 1.327 ? . .
F3 C41 1.327 ? . .
F4 C42 1.330 ? . .
F5 C42 1.330 ? . .
F6 C42 1.326 ? . .
N1 C9 1.341(14) ? . .
N1 C13 1.307(13) ? . .
N2 C29 1.30(3) ? .. .
N2 C33 1.375(19) ? . .
N2a C29 1.38(2) ? . ..
N2a C31 1.427(19) ? . .
C1 C2 1.400(11) ? . .
C1 C2 1.409(11) ? . 55556
C1 C3 1.508(12) ? . .
C2 C14 1.459(12) ? . .
C3 C4 1.383(13) ? . .
C3 C8 1.408(13) ? . .
C4 C5 1.382(14) ? . .
C4 H4 0.950 ? . .
C5 C6 1.372(13) ? . .
C5 H5 0.950 ? . .
C6 C7 1.402(13) ? . .
C6 C12 1.492(13) ? .. .
C7 C8 1.321(14) ? . .
C7 H7 0.950 ? . .
C8 H8 0.950 ? . .
C9 C10 1.328(16) ? . .
C9 H9 0.950 ? . .
C10 C11 1.430(16) ? . .
C10 H10 0.950 ? . .
C11 C12 1.378(15) ? . .
C11 H11 0.950 ? . .
C12 C13 1.434(15) ? . .
C13 H13 0.950 ? . .
C14 C15 1.383(13) ? . .
C14 C19 1.386(13) ? . .
C15 C16 1.387(14) ? . .
C15 H15 0.950 ? . .
C16 C17 1.356(14) ? . .
C16 H16 0.950 ? . .
C17 C18 1.324(14) ? . .
C17 C20 1.480(15) ? . .
C18 C19 1.415(15) ? . .
C18 H18 0.950 ? . .
C19 H19 0.950 ? . .
C20 H20A 0.950 ? . .
C20 H20B 0.950 ? . .
C20 H20C 0.950 ? . ..
C21 C22 1.400(10) ? . .
C21 C22 1.385(11) ? . 55502
C21 C23 1.508(13) ? . .
C22 C37 1.508(12) ? .. .
C23 C24 1.428(14) ? . .
C23 C28 1.355(14) ? .. .
C24 C25 1.393(14) ? . .
C24 H24 0.950 ? . ..
C25 C26 1.365(14) ? . .
C25 H25 0.950 ? . .
C26 C27 1.410(19) ? . .
C26 C32 1.462(16) ? . .
C27 C28 1.398(17) ? . .
C27 H27 0.950 ? . .
C28 H28 0.950 ? . .
C29 C30 1.38(2) ? . .
C29 C30a 1.30(3) ? . .
C29 H29 0.940 ? . .
C30 C31 1.427(19) ? . .
C30a C33 1.375(19) ? . .
C31 C32 1.411(16) ? . .
C31 H31 0.940 ? . .
C32 C33 1.337(19) ? . .
C33 H33 0.940 ? . .
C34 C35 1.407(14) ? . .
C34 C39 1.405(15) ? . .
C34 C40 1.517(15) ? . .
C35 C36 1.358(14) ? . .
C35 H35 0.950 ? . .
C36 C37 1.408(14) ? . .
C36 H36 0.950 ? . .
C37 C38 1.370(15) ? . .
C38 C39 1.409(15) ? . .
C38 H38 0.950 ? . .
C39 H39 0.950 ? . .
C40 H40A 0.950 ? . .
C40 H40B 0.950 ? . .
C40 H40C 0.950 ? . .

loop_
_geom_angle_atom_site_label_1
_geom_angle_atom_site_label_2
_geom_angle_atom_site_label_3
_geom_angle
_geom_angle_publ_flag
_geom_angle_site_symmetry_1
_geom_angle_site_symmetry_2
_geom_angle_site_symmetry_3
O1 Hg1 O6 170.6(5) ? . . .
O1 Hg1 N1 93.8(3) ? . . .
O1 Hg1 N1 98.6(3) ? .. . 65504
O1 Hg1 N1 86.0(3) ? . . 66507
O1 Hg1 N1 81.3(3) ? . . 56512
O1 Hg1 O6 170.2(5) ? 65504 .. .
O1 Hg1 O6 169.2(5) ? 66507 . .
O1 Hg1 O6 170.7(5) ? 56512 . .
O6 Hg1 N1 90.1(5) ? . . .
O6 Hg1 N1 89.0(4) ? . . 65504
O6 Hg1 N1 90.8(4) ? . . 66507
O6 Hg1 N1 91.1(4) ? . . 56512
N1 Hg1 N1 90.0(3) ? . . 65504
N1 Hg1 N1 180.0(18) ? .. . 66507
O1 S1 O2 115.0 ? . . .
O1 S1 O3 114.9 ? . . .
O1 S1 C41 103.0 ? . . .
O2 S1 O3 115.3 ? . . .
O2 S1 C41 102.8 ? . . .
O3 S1 C41 103.3 ? . . .
O4 S2 O5 115.0 ? . . .
O4 S2 O6 120.0 ? . . .
O4 S2 C42 103.0 ? . . ..
O5 S2 O6 111.9 ? . . .
O5 S2 C42 102.8 ? . .. .
O6 S2 C42 102.5 ? . . .
Hg1 O1 S1 133.8(7) ? . . .
Hg1 O6 S2 157.4(12) ? . . .
Hg1 N1 C9 121.5(7) ? . . .
Hg1 N1 C13 117.1(7) ? . . ..
C9 N1 C13 121.1(9) ? . . .
C29 N2 C33 113.1(13) ? . . .
C29 N2a C31 120.2(15) ? . . .
C2 C1 C2 122.4(7) ? . . 55556
C2 C1 C3 119.3(7) ? . . .
C2 C1 C3 118.2(7) ? 55556 . .
C1 C2 C1 117.3(7) ? . . 55543
C1 C2 C14 121.3(7) ? . . ..
C1 C2 C14 121.3(7) ? 55543 . .
C1 C3 C4 123.4(8) ? . . .
C1 C3 C8 120.8(8) ? . . .
C4 C3 C8 115.8(8) ? . . .
C3 C4 C5 122.3(9) ? . . ..
C3 C4 H4 118.8 ? . . .
C5 C4 H4 118.8 ? . .. .
C4 C5 C6 119.7(9) ? . . .
C4 C5 H5 120.2 ? . . .
C6 C5 H5 120.2 ? . . .
C5 C6 C7 118.2(9) ? . . .
C5 C6 C12 120.6(8) ? . . .
C7 C6 C12 121.2(8) ? . . .
C6 C7 C8 121.3(10) ? . .. .
C6 C7 H7 119.4 ? . . .
C8 C7 H7 119.4 ? .. . .
C3 C8 C7 122.3(9) ? . . .
C3 C8 H8 118.8 ? . . .
C7 C8 H8 118.8 ? . . .
N1 C9 C10 123.0(10) ? . . .
N1 C9 H9 118.5 ? . . .
C10 C9 H9 118.5 ? . . .
C9 C10 C11 118.3(10) ? .. . .
C9 C10 H10 120.9 ? . . .
C11 C10 H10 120.9 ? . . .
C10 C11 C12 119.4(10) ? . . .
C10 C11 H11 120.3 ? . . .
C12 C11 H11 120.3 ? .. . .
C6 C12 C11 124.2(9) ? . . .
C6 C12 C13 118.0(8) ? . . .
C11 C12 C13 117.3(9) ? . . .
N1 C13 C12 120.7(9) ? . . .
N1 C13 H13 119.7 ? .. . .
C12 C13 H13 119.7 ? . . .
C2 C14 C15 124.0(8) ? . . .
C2 C14 C19 118.5(8) ? . . .
C15 C14 C19 117.5(9) ? . . .
C14 C15 C16 119.4(9) ? . . .
C14 C15 H15 120.3 ? . . .
C16 C15 H15 120.3 ? . . .
C15 C16 C17 123.6(10) ? . . ..
C15 C16 H16 118.2 ? . . .
C17 C16 H16 118.2 ? . . .
C16 C17 C18 117.2(9) ? . . .
C16 C17 C20 124.5(9) ? . . .
C18 C17 C20 118.3(9) ? . . ..
C17 C18 C19 122.5(9) ? . . .
C17 C18 H18 118.8 ? . . .
C19 C18 H18 118.8 ? . . .
C14 C19 C18 119.8(9) ? . . .
C14 C19 H19 120.1 ? . . .
C18 C19 H19 120.1 ? . . .
C17 C20 H20A 109.5 ? .. . .
C17 C20 H20B 109.5 ? . . .
C17 C20 H20C 109.5 ? . . .
H20A C20 H20B 109.5 ? . . .
H20A C20 H20C 109.5 ? . . .
H20B C20 H20C 109.5 ? . .. .
C22 C21 C22 119.6(7) ? . . 55502
C22 C21 C23 119.8(7) ? . . .
C22 C21 C23 120.6(7) ? 55502 . ..
C21 C22 C21 120.4(7) ? . . 55503
C21 C22 C37 120.3(7) ? . . .
C21 C22 C37 119.3(7) ? 55503 . ..
C21 C23 C24 120.2(8) ? . . .
C21 C23 C28 120.1(8) ? . . .
C24 C23 C28 119.6(9) ? . . .
C23 C24 C25 119.6(9) ? . . .
C23 C24 H24 120.2 ? .. . .
C25 C24 H24 120.2 ? . . .
C24 C25 C26 122.2(9) ? . . .
C24 C25 H25 118.9 ? . . .
C26 C25 H25 118.9 ? . . .
C25 C26 C27 116.4(9) ? . .. .
C25 C26 C32 123.7(9) ? . . .
C27 C26 C32 119.8(10) ? . . .
C26 C27 C28 123.3(11) ? . . .
C26 C27 H27 118.3 ? . . .
C28 C27 H27 118.3 ? .. . .
C23 C28 C27 118.8(10) ? . . .
C23 C28 H28 120.6 ? . . .
C27 C28 H28 120.6 ? . . .
N2 C29 C30 124(2) ? . . .
N2 C29 H29 117.8 ? . .. .
N2a C29 C30a 124(2) ? . . .
N2a C29 H29 117.8 ? . . .
C30 C29 H29 117.8 ? . . .
C30a C29 H29 117.8 ? . . .
C29 C30 C31 120.2(15) ? . .. .
C29 C30a C33 113.1(13) ? . . .
N2a C31 C32 116.9(12) ? . . .
N2a C31 H31 121.6 ? . . .
C30 C31 C32 116.9(12) ? . . .
C30 C31 H31 121.6 ? . . .
C32 C31 H31 121.6 ? . . .
C26 C32 C31 124.5(10) ? . . .
C26 C32 C33 120.6(11) ? . .. .
C31 C32 C33 114.8(11) ? . . .
N2 C33 C32 130.7(12) ? . . .
N2 C33 H33 114.6 ? . . .
C30a C33 C32 130.7(12) ? . . .
C30a C33 H33 114.6 ? . . .
C32 C33 H33 114.6 ? . . .
C35 C34 C39 118.1(9) ? . . .
C35 C34 C40 119.6(9) ? . . ..
C39 C34 C40 122.3(9) ? . . .
C34 C35 C36 120.9(10) ? . . .
C34 C35 H35 119.5 ? . . .
C36 C35 H35 119.5 ? . . .
C35 C36 C37 122.1(9) ? .. . .
C35 C36 H36 118.9 ? . . .
C37 C36 H36 118.9 ? . . .
C22 C37 C36 119.9(8) ? . . .
C22 C37 C38 123.2(8) ? . . .
C36 C37 C38 116.8(9) ? .. . .
C37 C38 C39 122.7(9) ? . . .
C37 C38 H38 118.7 ? . . .
C39 C38 H38 118.7 ? . . .
C34 C39 C38 119.0(9) ? . . .
C34 C39 H39 120.5 ? . .. .
C38 C39 H39 120.5 ? . . .
C34 C40 H40A 109.5 ? . . .
C34 C40 H40B 109.5 ? . . .
C34 C40 H40C 109.5 ? . . .
H40A C40 H40B 109.5 ? . .. .
H40A C40 H40C 109.5 ? . . .
H40B C40 H40C 109.5 ? . . .
S1 C41 F1 112.2 ? . . .
S1 C41 F2 113.5 ? . . .
S1 C41 F3 114.3 ? . . .
F1 C41 F2 105.3 ? . . .
F1 C41 F3 105.5 ? . . .
F2 C41 F3 105.3 ? . . .
S2 C42 F4 112.2 ? . .. .
S2 C42 F5 113.5 ? . . .
S2 C42 F6 114.3 ? . . .
F4 C42 F5 105.3 ? . . .
F4 C42 F6 105.5 ? . . .
F5 C42 F6 105.3 ? . . .

loop_
_geom_contact_atom_site_label_1
_geom_contact_atom_site_label_2
_geom_contact_distance
_geom_contact_publ_flag
_geom_contact_site_symmetry_1
_geom_contact_site_symmetry_2
F4 H35 3.238 ? . 56512
O5 H35 3.539 ? . .
O7 H29 3.303 ? . .
O7 H29 3.303 ? . 55547
O7 H33 3.471 ? . 65506
O7 H33 3.471 ? . 65541
O8 H25 2.99(2) ? . 65541
O8 H29 2.780 ? . .
O8 H29 3.591 ? . 55547
O8 H33 2.832 ? . 65541
N1 H40B 3.415 ? . .
N2 C29 3.35(2) ? . 65541
N2 C30a 3.153(15) ? . 65506
N2 C30a 2.587(15) ? . 65541
N2 C33 3.346(19) ? . 65506
N2 H16 3.576 ? . 65541
N2 H20A 2.817 ? . 65541
N2 H29 3.215 ? . 65541
N2 H33 3.505 ? . 65506
N2a C26 3.52(2) ? . 65506
N2a C32 3.54(2) ? . 65506
N2a C33 3.56(2) ? . 65506
N2a C39 3.587(18) ? . 65504
N2a H16 3.248 ? . 65541
N2a H20A 3.130 ? . 65541
N2a H33 3.549 ? . 65506
N2a H39 3.597 ? . 65504
N2a H40C 3.353 ? . 65504
C4 H18 3.411 ? . 65541
C5 H18 3.156 ? . 65541
C5 H20B 3.553 ? . 65541
C5 H20C 2.999 ? . 65541
C6 C20 3.593(15) ? . 65541
C6 C40 3.567(15) ? . .
C6 H20B 3.562 ? . 65541
C6 H20C 2.801 ? . 65541
C6 H40A 3.552 ? . .
C6 H40B 2.901 ? . .
C7 H20C 3.382 ? . 65541
C7 H39 3.461 ? . .
C7 H40A 3.430 ? . .
C7 H40B 3.296 ? . ..
C9 H35 3.482 ? . .
C9 H35 3.310 ? . 65504
C9 H40C 3.344 ? . 65504
C10 H27 3.537 ? . .
C10 H31 3.370 ? . .
C10 H35 3.468 ? . .
C10 H40C 3.114 ? . 65504
C11 C26 3.553(15) ? . .
C11 H20C 3.220 ? . 65541
C11 H40B 3.507 ? . .
C11 H40C 3.170 ? .. 65504
C12 C40 3.571(16) ? . .
C12 H20C 2.976 ? .. 65541
C12 H40B 2.758 ? . .
C12 H40C 3.496 ? . 65504
C13 H40B 2.673 ? . .
C15 H20B 3.327 ? . 65541
C15 H40A 3.400 ? . 55543
C16 H20B 2.823 ? . 65541
C16 H29 3.491 ? . 65541
C16 H40A 2.825 ? . 55543
C17 C20 3.576(15) ? . 65541
C17 H20B 2.818 ? .. 65541
C17 H40A 2.928 ? . 55543
C18 H18 3.447 ? .. 65541
C18 H20B 3.257 ? . 65541
C18 H40A 3.521 ? .. 55543
C20 H20B 3.319 ? . 65541
C20 H40A 3.373 ? .. 55543
C20 H40C 3.493 ? . 55543
C25 H11 3.031 ? .. .
C26 C30 3.52(2) ? . 65506
C26 C31 3.579(16) ? .. 65506
C26 H10 3.412 ? . .
C26 H11 2.758 ? . ..
C27 C31 3.469(17) ? . 65506
C27 H10 2.910 ? . ..
C27 H11 3.282 ? . .
C27 H27 3.500 ? . 65506
C27 H31 3.140 ? . 65506
C28 H10 3.491 ? . .
C29 C30a 3.35(2) ? . 65541
C29 C33 3.32(2) ? . 65506
C29 H16 2.86 ? . 65541
C29 H20A 2.840 ? . 65541
C29 H33 3.225 ? . 65506
C30 C32 3.54(2) ? . 65506
C30 C33 3.56(2) ? . 65506
C30 C39 3.587(18) ? . 65504
C30 H16 3.248 ? . 65541
C30 H20A 3.130 ? . 65541
C30 H33 3.549 ? . 65506
C30 H39 3.597 ? . 65504
C30 H40C 3.353 ? . 65504
C30a C30a 3.153(15) ? .. 65506
C30a C33 3.346(19) ? . 65506
C30a H16 3.576 ? . 65541
C30a H20A 2.817 ? . 65541
C30a H29 3.215 ? . 65541
C30a H33 3.505 ? . 65506
C31 C32 3.435(17) ? . 65506
C31 H10 3.539 ? . .
C31 H11 3.438 ? . .
C31 H20A 3.412 ? . 65541
C31 H27 3.291 ? . 65506
C31 H40C 3.221 ? . 65504
C32 H11 3.058 ? . .
C32 H20A 3.364 ? . 65541
C33 C33 3.56(2) ? . 65506
C33 H20A 3.002 ? . 65541
C34 H7 3.296 ? . .
C34 H31 3.531 ? . 56512
C39 H7 3.118 ? . .
C40 H13 3.597 ? . .
C40 H20C 3.467 ? . 55556


#==============================================================================




