####################################################################### 
# 
# This file contains crystal structure data downloaded from the 
# Cambridge Structural Database (CSD) hosted by the Cambridge 
# Crystallographic Data Centre (CCDC).
# 
# Full information about CCDC data access policies and citation 
# guidelines are available at http://www.ccdc.cam.ac.uk/access/V1 
# 
# Audit and citation data items may have been added by the CCDC. 
# Please retain this information to preserve the provenance of 
# this file and to allow appropriate attribution of the data. 
# 
#######################################################################

data_c3c1g
_audit_block_doi                 10.5517/cctjsz2
_database_code_depnum_ccdc_archive 'CCDC 760925'
loop_
_citation_id
_citation_doi
_citation_year
1 10.1002/anie.201000149 2010
_audit_update_record             
;
2010-01-08 deposited with the CCDC.	2019-03-04 downloaded from the CCDC.
;
#TrackingRef 'nfdcobigfinal3.cif'


_audit_creation_method           SHELXL-97
_chemical_name_systematic        
;
?
;
_chemical_name_common            ?
_chemical_melting_point          ?
_chemical_formula_moiety         ?
_chemical_formula_sum            'C84 H273 Co6 Na4 O138 Rb11'
_chemical_formula_weight         4877.73

loop_
_atom_type_symbol
_atom_type_description
_atom_type_scat_dispersion_real
_atom_type_scat_dispersion_imag
_atom_type_scat_source
C C 0.0181 0.0091 'International Tables Vol C Tables 4.2.6.8 and 6.1.1.4'
H H 0.0000 0.0000 'International Tables Vol C Tables 4.2.6.8 and 6.1.1.4'
O O 0.0492 0.0322 'International Tables Vol C Tables 4.2.6.8 and 6.1.1.4'
Co Co -2.3653 3.6143 'International Tables Vol C Tables 4.2.6.8 and 6.1.1.4'
Rb Rb -0.4688 1.6079 'International Tables Vol C Tables 4.2.6.8 and 6.1.1.4'
Na Na 0.1353 0.1239 'International Tables Vol C Tables 4.2.6.8 and 6.1.1.4'

_symmetry_cell_setting           cubic
_symmetry_space_group_name_H-M   Fm-3m

loop_
_symmetry_equiv_pos_as_xyz
'x, y, z'
'-x, -y, z'
'-x, y, -z'
'x, -y, -z'
'z, x, y'
'z, -x, -y'
'-z, -x, y'
'-z, x, -y'
'y, z, x'
'-y, z, -x'
'y, -z, -x'
'-y, -z, x'
'y, x, -z'
'-y, -x, -z'
'y, -x, z'
'-y, x, z'
'x, z, -y'
'-x, z, y'
'-x, -z, -y'
'x, -z, y'
'z, y, -x'
'z, -y, x'
'-z, y, x'
'-z, -y, -x'
'x, y+1/2, z+1/2'
'-x, -y+1/2, z+1/2'
'-x, y+1/2, -z+1/2'
'x, -y+1/2, -z+1/2'
'z, x+1/2, y+1/2'
'z, -x+1/2, -y+1/2'
'-z, -x+1/2, y+1/2'
'-z, x+1/2, -y+1/2'
'y, z+1/2, x+1/2'
'-y, z+1/2, -x+1/2'
'y, -z+1/2, -x+1/2'
'-y, -z+1/2, x+1/2'
'y, x+1/2, -z+1/2'
'-y, -x+1/2, -z+1/2'
'y, -x+1/2, z+1/2'
'-y, x+1/2, z+1/2'
'x, z+1/2, -y+1/2'
'-x, z+1/2, y+1/2'
'-x, -z+1/2, -y+1/2'
'x, -z+1/2, y+1/2'
'z, y+1/2, -x+1/2'
'z, -y+1/2, x+1/2'
'-z, y+1/2, x+1/2'
'-z, -y+1/2, -x+1/2'
'x+1/2, y, z+1/2'
'-x+1/2, -y, z+1/2'
'-x+1/2, y, -z+1/2'
'x+1/2, -y, -z+1/2'
'z+1/2, x, y+1/2'
'z+1/2, -x, -y+1/2'
'-z+1/2, -x, y+1/2'
'-z+1/2, x, -y+1/2'
'y+1/2, z, x+1/2'
'-y+1/2, z, -x+1/2'
'y+1/2, -z, -x+1/2'
'-y+1/2, -z, x+1/2'
'y+1/2, x, -z+1/2'
'-y+1/2, -x, -z+1/2'
'y+1/2, -x, z+1/2'
'-y+1/2, x, z+1/2'
'x+1/2, z, -y+1/2'
'-x+1/2, z, y+1/2'
'-x+1/2, -z, -y+1/2'
'x+1/2, -z, y+1/2'
'z+1/2, y, -x+1/2'
'z+1/2, -y, x+1/2'
'-z+1/2, y, x+1/2'
'-z+1/2, -y, -x+1/2'
'x+1/2, y+1/2, z'
'-x+1/2, -y+1/2, z'
'-x+1/2, y+1/2, -z'
'x+1/2, -y+1/2, -z'
'z+1/2, x+1/2, y'
'z+1/2, -x+1/2, -y'
'-z+1/2, -x+1/2, y'
'-z+1/2, x+1/2, -y'
'y+1/2, z+1/2, x'
'-y+1/2, z+1/2, -x'
'y+1/2, -z+1/2, -x'
'-y+1/2, -z+1/2, x'
'y+1/2, x+1/2, -z'
'-y+1/2, -x+1/2, -z'
'y+1/2, -x+1/2, z'
'-y+1/2, x+1/2, z'
'x+1/2, z+1/2, -y'
'-x+1/2, z+1/2, y'
'-x+1/2, -z+1/2, -y'
'x+1/2, -z+1/2, y'
'z+1/2, y+1/2, -x'
'z+1/2, -y+1/2, x'
'-z+1/2, y+1/2, x'
'-z+1/2, -y+1/2, -x'
'-x, -y, -z'
'x, y, -z'
'x, -y, z'
'-x, y, z'
'-z, -x, -y'
'-z, x, y'
'z, x, -y'
'z, -x, y'
'-y, -z, -x'
'y, -z, x'
'-y, z, x'
'y, z, -x'
'-y, -x, z'
'y, x, z'
'-y, x, -z'
'y, -x, -z'
'-x, -z, y'
'x, -z, -y'
'x, z, y'
'-x, z, -y'
'-z, -y, x'
'-z, y, -x'
'z, -y, -x'
'z, y, x'
'-x, -y+1/2, -z+1/2'
'x, y+1/2, -z+1/2'
'x, -y+1/2, z+1/2'
'-x, y+1/2, z+1/2'
'-z, -x+1/2, -y+1/2'
'-z, x+1/2, y+1/2'
'z, x+1/2, -y+1/2'
'z, -x+1/2, y+1/2'
'-y, -z+1/2, -x+1/2'
'y, -z+1/2, x+1/2'
'-y, z+1/2, x+1/2'
'y, z+1/2, -x+1/2'
'-y, -x+1/2, z+1/2'
'y, x+1/2, z+1/2'
'-y, x+1/2, -z+1/2'
'y, -x+1/2, -z+1/2'
'-x, -z+1/2, y+1/2'
'x, -z+1/2, -y+1/2'
'x, z+1/2, y+1/2'
'-x, z+1/2, -y+1/2'
'-z, -y+1/2, x+1/2'
'-z, y+1/2, -x+1/2'
'z, -y+1/2, -x+1/2'
'z, y+1/2, x+1/2'
'-x+1/2, -y, -z+1/2'
'x+1/2, y, -z+1/2'
'x+1/2, -y, z+1/2'
'-x+1/2, y, z+1/2'
'-z+1/2, -x, -y+1/2'
'-z+1/2, x, y+1/2'
'z+1/2, x, -y+1/2'
'z+1/2, -x, y+1/2'
'-y+1/2, -z, -x+1/2'
'y+1/2, -z, x+1/2'
'-y+1/2, z, x+1/2'
'y+1/2, z, -x+1/2'
'-y+1/2, -x, z+1/2'
'y+1/2, x, z+1/2'
'-y+1/2, x, -z+1/2'
'y+1/2, -x, -z+1/2'
'-x+1/2, -z, y+1/2'
'x+1/2, -z, -y+1/2'
'x+1/2, z, y+1/2'
'-x+1/2, z, -y+1/2'
'-z+1/2, -y, x+1/2'
'-z+1/2, y, -x+1/2'
'z+1/2, -y, -x+1/2'
'z+1/2, y, x+1/2'
'-x+1/2, -y+1/2, -z'
'x+1/2, y+1/2, -z'
'x+1/2, -y+1/2, z'
'-x+1/2, y+1/2, z'
'-z+1/2, -x+1/2, -y'
'-z+1/2, x+1/2, y'
'z+1/2, x+1/2, -y'
'z+1/2, -x+1/2, y'
'-y+1/2, -z+1/2, -x'
'y+1/2, -z+1/2, x'
'-y+1/2, z+1/2, x'
'y+1/2, z+1/2, -x'
'-y+1/2, -x+1/2, z'
'y+1/2, x+1/2, z'
'-y+1/2, x+1/2, -z'
'y+1/2, -x+1/2, -z'
'-x+1/2, -z+1/2, y'
'x+1/2, -z+1/2, -y'
'x+1/2, z+1/2, y'
'-x+1/2, z+1/2, -y'
'-z+1/2, -y+1/2, x'
'-z+1/2, y+1/2, -x'
'z+1/2, -y+1/2, -x'
'z+1/2, y+1/2, x'

_cell_length_a                   35.5734(10)
_cell_length_b                   35.5734(9)
_cell_length_c                   35.5734(9)
_cell_angle_alpha                90.00
_cell_angle_beta                 90.00
_cell_angle_gamma                90.00
_cell_volume                     45017(2)
_cell_formula_units_Z            8
_cell_measurement_temperature    130(2)
_cell_measurement_reflns_used    2978
_cell_measurement_theta_min      4.4751
_cell_measurement_theta_max      73.1568

_exptl_crystal_description       cube
_exptl_crystal_colour            pink
_exptl_crystal_size_max          0.3573
_exptl_crystal_size_mid          0.3329
_exptl_crystal_size_min          0.3190
_exptl_crystal_density_meas      ?
_exptl_crystal_density_diffrn    1.439
_exptl_crystal_density_method    'not measured'
_exptl_crystal_F_000             19952
_exptl_absorpt_coefficient_mu    7.205
_exptl_absorpt_correction_type   gaussian
_exptl_absorpt_correction_T_min  0.019
_exptl_absorpt_correction_T_max  0.111
_exptl_absorpt_process_details   ?

_exptl_special_details           
;
CrysAlisPro, Oxford Diffraction Ltd.,
Version 1.171.33.34d (release 27-02-2009 CrysAlis171 .NET)
(compiled Feb 27 2009,15:38:38)
;

_diffrn_ambient_temperature      130(2)
_diffrn_radiation_wavelength     1.54184
_diffrn_radiation_type           CuK\a
_diffrn_radiation_source         'fine-focus sealed tube'
_diffrn_radiation_monochromator  graphite
_diffrn_measurement_device_type  'Goniometer KM4/Xcalibur, detector: Sapphire3'
_diffrn_measurement_method       'phi and omega scans'
_diffrn_detector_area_resol_mean 16.0711
_diffrn_standards_number         ?
_diffrn_standards_interval_count ?
_diffrn_standards_interval_time  ?
_diffrn_standards_decay_%        ?
_diffrn_reflns_number            7684
_diffrn_reflns_av_R_equivalents  0.0386
_diffrn_reflns_av_sigmaI/netI    0.0434
_diffrn_reflns_limit_h_min       -26
_diffrn_reflns_limit_h_max       42
_diffrn_reflns_limit_k_min       -37
_diffrn_reflns_limit_k_max       34
_diffrn_reflns_limit_l_min       -32
_diffrn_reflns_limit_l_max       29
_diffrn_reflns_theta_min         4.97
_diffrn_reflns_theta_max         67.90
_reflns_number_total             2014
_reflns_number_gt                1357
_reflns_threshold_expression     >2sigma(I)

_computing_data_collection       
;
CrysAlisPro, Oxford Diffraction Ltd.,
Version 1.171.33.31 (release 08-01-2009 CrysAlis171 .NET)
(compiled Jan 8 2009,16:24:04)
;
_computing_cell_refinement       
;
CrysAlisPro, Oxford Diffraction Ltd.,
Version 1.171.33.31 (release 08-01-2009 CrysAlis171 .NET)
(compiled Jan 8 2009,16:24:04)
;
_computing_data_reduction        
;
CrysAlisPro, Oxford Diffraction Ltd.,
Version 1.171.33.31 (release 08-01-2009 CrysAlis171 .NET)
(compiled Jan 8 2009,16:24:04)
;
_computing_structure_solution    'SHELXL-97 (Sheldrick, 1997)'
_computing_structure_refinement  'SHELXL-97 (Sheldrick, 1997)'
_computing_molecular_graphics    ?
_computing_publication_material  ?

_refine_special_details          
;
Refinement of F^2^ against ALL reflections. The weighted R-factor wR and
goodness of fit S are based on F^2^, conventional R-factors R are based
on F, with F set to zero for negative F^2^. The threshold expression of
F^2^ > 2sigma(F^2^) is used only for calculating R-factors(gt) etc. and is
not relevant to the choice of reflections for refinement. R-factors based
on F^2^ are statistically about twice as large as those based on F, and R-
factors based on ALL data will be even larger.
;

_refine_ls_structure_factor_coef Fsqd
_refine_ls_matrix_type           full
_refine_ls_weighting_scheme      calc
_refine_ls_weighting_details     
'calc w=1/[\s^2^(Fo^2^)+(0.2000P)^2^+0.0000P] where P=(Fo^2^+2Fc^2^)/3'
_atom_sites_solution_primary     direct
_atom_sites_solution_secondary   difmap
_atom_sites_solution_hydrogens   geom
_refine_ls_hydrogen_treatment    constr
_refine_ls_extinction_method     none
_refine_ls_extinction_coef       ?
_refine_ls_number_reflns         2014
_refine_ls_number_parameters     113
_refine_ls_number_restraints     0
_refine_ls_R_factor_all          0.1276
_refine_ls_R_factor_gt           0.1050
_refine_ls_wR_factor_ref         0.3279
_refine_ls_wR_factor_gt          0.3163
_refine_ls_goodness_of_fit_ref   1.239
_refine_ls_restrained_S_all      1.239
_refine_ls_shift/su_max          0.000
_refine_ls_shift/su_mean         0.000

loop_
_atom_site_label
_atom_site_type_symbol
_atom_site_fract_x
_atom_site_fract_y
_atom_site_fract_z
_atom_site_U_iso_or_equiv
_atom_site_adp_type
_atom_site_occupancy
_atom_site_symmetry_multiplicity
_atom_site_calc_flag
_atom_site_refinement_flags
_atom_site_disorder_assembly
_atom_site_disorder_group
O1 O 0.06681(15) 0.19400(14) 0.24727(12) 0.0373(12) Uani 1 1 d . . .
O2 O 0.0000 0.2432(4) 0.2432(4) 0.067(9) Uani 0.50 4 d SP . .
O3C O 0.2020(11) 0.1527(10) 0.2554(10) 0.098(11) Uiso 0.25 1 d P . .
O3B O 0.1466(12) 0.1758(11) 0.2672(12) 0.112(12) Uiso 0.25 1 d P . .
O4 O 0.0000 0.1039(4) 0.0876(5) 0.059(6) Uani 0.50 2 d SP . .
O5 O 0.0000 0.0546(4) 0.1758(4) 0.113(5) Uani 1 2 d S . .
O6 O 0.0000 0.0896(4) 0.2444(5) 0.160(8) Uani 1 2 d S . .
O7 O 0.0000 0.045(2) 0.0000 0.08(2) Uiso 0.25 8 d SP . .
O8 O 0.1600(6) 0.1205(7) 0.2924(7) 0.132(8) Uiso 0.50 1 d P . .
O9 O 0.0873(6) 0.0873(6) 0.3176(9) 0.127(10) Uiso 0.50 2 d SP . .
O10 O 0.0641(8) 0.0641(8) 0.2810(11) 0.070(10) Uiso 0.25 2 d SP . .
Rb2 Rb 0.0000 0.14001(17) 0.16205(12) 0.147(3) Uani 0.50 2 d SP . .
Rb3 Rb 0.0589(3) 0.0589(3) 0.0589(3) 0.112(4) Uani 0.25 6 d SP . .
Na1 Na 0.0930(7) 0.1443(6) 0.2977(5) 0.059(6) Uani 0.17 1 d P . .
O3A O 0.1784(17) 0.1784(17) 0.256(2) 0.10(2) Uiso 0.17 2 d SP . .
C1 C 0.09461(16) 0.09461(16) 0.1557(2) 0.0243(18) Uani 1 2 d S . .
H1A H 0.0787 0.0787 0.1710 0.029 Uiso 1 2 calc SR . .
H1B H 0.0892 0.0892 0.1295 0.029 Uiso 1 2 calc SR . .
C2 C 0.08579(16) 0.13585(17) 0.16393(16) 0.0228(13) Uani 1 1 d . . .
C3 C 0.07884(17) 0.14615(18) 0.20048(18) 0.0279(14) Uani 1 1 d . . .
H3 H 0.0781 0.1275 0.2187 0.034 Uiso 1 1 calc R . .
C4 C 0.07289(17) 0.18322(17) 0.21150(17) 0.0262(13) Uani 1 1 d . . .
Co1 Co 0.05411(5) 0.2500 0.2500 0.0234(6) Uani 1 4 d S . .
Rb1 Rb 0.17359(3) 0.17359(3) 0.17359(3) 0.0580(7) Uani 1 6 d S . .

loop_
_atom_site_aniso_label
_atom_site_aniso_U_11
_atom_site_aniso_U_22
_atom_site_aniso_U_33
_atom_site_aniso_U_23
_atom_site_aniso_U_13
_atom_site_aniso_U_12
O1 0.054(3) 0.038(3) 0.020(2) -0.001(2) 0.003(2) 0.011(2)
O2 0.033(10) 0.085(14) 0.085(14) -0.054(15) 0.000 0.000
O4 0.046(8) 0.059(10) 0.071(12) -0.002(10) 0.000 0.000
O5 0.066(7) 0.123(11) 0.150(12) 0.049(9) 0.000 0.000
O6 0.115(12) 0.100(10) 0.26(2) -0.101(12) 0.000 0.000
Rb2 0.0425(16) 0.300(8) 0.099(3) -0.003(4) 0.000 0.000
Rb3 0.112(4) 0.112(4) 0.112(4) -0.001(5) -0.001(5) -0.001(5)
Na1 0.088(16) 0.065(13) 0.023(8) 0.011(8) -0.018(9) 0.038(12)
C1 0.025(3) 0.025(3) 0.023(4) 0.003(2) 0.003(2) -0.007(4)
C2 0.019(3) 0.027(3) 0.023(3) -0.002(2) -0.001(2) -0.003(2)
C3 0.027(3) 0.029(3) 0.028(3) 0.006(3) 0.006(2) 0.002(3)
C4 0.025(3) 0.026(3) 0.027(3) 0.004(3) 0.003(3) 0.006(3)
Co1 0.0179(10) 0.0261(8) 0.0261(8) -0.0007(9) 0.000 0.000
Rb1 0.0580(7) 0.0580(7) 0.0580(7) -0.0136(5) -0.0136(5) -0.0136(5)

_geom_special_details            
;
All esds (except the esd in the dihedral angle between two l.s. planes)
are estimated using the full covariance matrix. The cell esds are taken
into account individually in the estimation of esds in distances, angles
and torsion angles; correlations between esds in cell parameters are only
used when they are defined by crystal symmetry. An approximate (isotropic)
treatment of cell esds is used for estimating esds involving l.s. planes.
;

loop_
_geom_bond_atom_site_label_1
_geom_bond_atom_site_label_2
_geom_bond_distance
_geom_bond_site_symmetry_2
_geom_bond_publ_flag
O1 C4 1.347(7) . ?
O1 Co1 2.045(5) . ?
O1 C4 2.372(7) 115 ?
O1 C3 2.419(8) . ?
O1 Na1 2.685(17) . ?
O2 O2 0.68(4) 121 ?
O2 Co1 1.955(4) . ?
O2 Co1 1.955(4) 121 ?
O3C O3B 1.04(5) 110 ?
O3C O3A 1.24(4) . ?
O3B O3C 1.04(5) 110 ?
O3B O3A 1.21(7) . ?
O3B O8 1.41(4) 110 ?
O3B O3B 1.47(8) 110 ?
O3B Na1 2.46(5) . ?
O4 O4 0.82(3) 18 ?
O4 Rb2 2.787(17) 18 ?
O4 Rb3 2.826(11) 100 ?
O4 Rb3 2.826(11) . ?
O4 Rb2 2.945(17) . ?
O5 Rb2 3.078(14) . ?
O7 Rb3 3.00(2) . ?
O7 Rb3 3.00(2) 100 ?
O7 Rb3 3.00(2) 98 ?
O7 Rb3 3.00(2) 3 ?
O8 Na1 1.14(3) 110 ?
O8 O3B 1.41(4) 110 ?
O8 Na1 2.54(3) . ?
O8 Na1 2.88(3) 56 ?
O9 O10 1.75(5) . ?
O9 Na1 2.16(3) . ?
O9 Na1 2.16(3) 110 ?
Rb2 Rb2 1.109(10) 18 ?
Rb2 O4 2.787(17) 18 ?
Rb2 C2 3.056(6) 100 ?
Rb2 C3 3.127(6) 100 ?
Rb2 C2 3.302(6) 18 ?
Rb2 C2 3.302(6) 115 ?
Rb2 C4 3.490(7) 100 ?
Rb2 C3 3.579(7) 115 ?
Rb2 C3 3.579(7) 18 ?
Rb2 C4 3.709(7) 115 ?
Rb3 O4 2.826(11) 21 ?
Rb3 O4 2.826(11) 18 ?
Rb3 O4 2.826(11) 110 ?
Rb3 O4 2.826(11) 9 ?
Rb3 O4 2.826(11) 5 ?
Rb3 O7 3.00(2) 5 ?
Rb3 O7 3.00(2) 9 ?
Rb3 C1 3.883(16) 5 ?
Rb3 C1 3.883(16) . ?
Rb3 C1 3.883(16) 9 ?
Na1 O8 1.14(3) 110 ?
Na1 Na1 2.58(4) 110 ?
Na1 O8 2.88(3) 35 ?
Na1 Na1 2.92(4) 138 ?
Na1 C4 3.438(17) . ?
Na1 C3 3.494(18) . ?
O3A O3B 1.21(7) 110 ?
O3A O3C 1.24(4) 110 ?
O3A Rb1 2.93(8) . ?
C1 C2 1.529(7) 110 ?
C1 C2 1.529(7) . ?
C1 Rb2 3.740(4) 110 ?
C2 C3 1.373(8) . ?
C2 C2 1.413(12) 115 ?
C2 Rb2 3.302(6) 18 ?
C3 C4 1.392(8) . ?
C3 Rb2 3.579(7) 18 ?
C4 C4 1.423(12) 115 ?
C4 Rb2 3.709(7) 18 ?
C4 Rb1 3.843(6) . ?
Co1 O2 1.955(4) 121 ?
Co1 O1 2.045(5) 138 ?
Co1 O1 2.045(5) 28 ?
Co1 O1 2.045(5) 115 ?
Co1 C4 2.822(6) 138 ?
Co1 C4 2.822(6) 28 ?
Co1 C4 2.822(6) 115 ?
Rb1 O3A 2.93(8) 9 ?
Rb1 O3A 2.93(8) 5 ?
Rb1 C2 3.417(6) 120 ?
Rb1 C2 3.417(6) 115 ?
Rb1 C2 3.417(6) 110 ?
Rb1 C2 3.417(6) 9 ?
Rb1 C2 3.417(6) 5 ?
Rb1 C3 3.637(6) 120 ?
Rb1 C3 3.637(6) 115 ?
Rb1 C3 3.637(6) 110 ?
Rb1 C3 3.637(6) 9 ?

loop_
_geom_angle_atom_site_label_1
_geom_angle_atom_site_label_2
_geom_angle_atom_site_label_3
_geom_angle
_geom_angle_site_symmetry_1
_geom_angle_site_symmetry_3
_geom_angle_publ_flag
C4 O1 Co1 111.0(4) . . ?
C4 O1 C4 32.0(3) . 115 ?
Co1 O1 C4 79.1(2) . 115 ?
C4 O1 C3 28.5(3) . . ?
Co1 O1 C3 139.2(3) . . ?
C4 O1 C3 60.5(2) 115 . ?
C4 O1 Na1 112.8(5) . . ?
Co1 O1 Na1 133.4(5) . . ?
C4 O1 Na1 141.5(5) 115 . ?
C3 O1 Na1 86.3(5) . . ?
O2 O2 Co1 80.0(5) 121 . ?
O2 O2 Co1 80.0(6) 121 121 ?
Co1 O2 Co1 160.0(11) . 121 ?
O3B O3C O3A 63(4) 110 . ?
O3C O3B O3A 67(4) 110 . ?
O3C O3B O8 138(5) 110 110 ?
O3A O3B O8 150(5) . 110 ?
O3C O3B O3B 119(3) 110 110 ?
O3A O3B O3B 53(4) . 110 ?
O8 O3B O3B 100.6(19) 110 110 ?
O3C O3B Na1 138(4) 110 . ?
O3A O3B Na1 156(4) . . ?
O8 O3B Na1 13.3(14) 110 . ?
O3B O3B Na1 103.0(10) 110 . ?
O4 O4 Rb2 93.0(3) 18 18 ?
O4 O4 Rb3 81.7(3) 18 100 ?
Rb2 O4 Rb3 131.4(4) 18 100 ?
O4 O4 Rb3 81.7(3) 18 . ?
Rb2 O4 Rb3 131.4(4) 18 . ?
Rb3 O4 Rb3 95.7(8) 100 . ?
O4 O4 Rb2 70.9(3) 18 . ?
Rb2 O4 Rb2 22.1(3) 18 . ?
Rb3 O4 Rb2 124.9(4) 100 . ?
Rb3 O4 Rb2 124.9(4) . . ?
Rb3 O7 Rb3 88.5(5) . 100 ?
Rb3 O7 Rb3 88.5(5) . 98 ?
Rb3 O7 Rb3 161(3) 100 98 ?
Rb3 O7 Rb3 161(3) . 3 ?
Rb3 O7 Rb3 88.5(5) 100 3 ?
Rb3 O7 Rb3 88.5(5) 98 3 ?
Na1 O8 O3B 150(3) 110 110 ?
Na1 O8 Na1 79.3(18) 110 . ?
O3B O8 Na1 102(2) 110 . ?
Na1 O8 Na1 80.6(18) 110 56 ?
O3B O8 Na1 121(2) 110 56 ?
Na1 O8 Na1 123.1(12) . 56 ?
O10 O9 Na1 104.1(17) . . ?
O10 O9 Na1 104.1(17) . 110 ?
Na1 O9 Na1 73.5(16) . 110 ?
Rb2 Rb2 O4 87.0(3) 18 18 ?
Rb2 Rb2 O4 70.9(3) 18 . ?
O4 Rb2 O4 16.1(6) 18 . ?
Rb2 Rb2 C2 92.85(15) 18 100 ?
O4 Rb2 C2 89.07(15) 18 100 ?
O4 Rb2 C2 89.91(15) . 100 ?
Rb2 Rb2 O5 144.1(3) 18 . ?
O4 Rb2 O5 57.1(4) 18 . ?
O4 Rb2 O5 73.2(4) . . ?
C2 Rb2 O5 87.06(16) 100 . ?
Rb2 Rb2 C3 105.05(15) 18 100 ?
O4 Rb2 C3 111.81(18) 18 100 ?
O4 Rb2 C3 115.07(15) . 100 ?
C2 Rb2 C3 25.63(15) 100 100 ?
O5 Rb2 C3 90.0(2) . 100 ?
Rb2 Rb2 C2 67.56(13) 18 18 ?
O4 Rb2 C2 87.87(19) 18 18 ?
O4 Rb2 C2 81.86(16) . 18 ?
C2 Rb2 C2 25.3(2) 100 18 ?
O5 Rb2 C2 107.40(17) . 18 ?
C3 Rb2 C2 43.68(15) 100 18 ?
Rb2 Rb2 C2 67.56(13) 18 115 ?
O4 Rb2 C2 87.87(19) 18 115 ?
O4 Rb2 C2 81.86(16) . 115 ?
C2 Rb2 C2 160.29(18) 100 115 ?
O5 Rb2 C2 107.40(17) . 115 ?
C3 Rb2 C2 159.1(3) 100 115 ?
C2 Rb2 C2 135.1(3) 18 115 ?
Rb2 Rb2 C4 92.58(13) 18 100 ?
O4 Rb2 C4 132.01(12) 18 100 ?
O4 Rb2 C4 130.22(14) . 100 ?
C2 Rb2 C4 42.98(15) 100 100 ?
O5 Rb2 C4 110.8(2) . 100 ?
C3 Rb2 C4 23.47(15) 100 100 ?
C2 Rb2 C4 48.87(14) 18 100 ?
C2 Rb2 C4 135.7(2) 115 100 ?
Rb2 Rb2 C3 57.54(12) 18 115 ?
O4 Rb2 C3 106.6(2) 18 115 ?
O4 Rb2 C3 96.9(2) . 115 ?
C2 Rb2 C3 144.6(2) 100 115 ?
O5 Rb2 C3 128.20(13) . 115 ?
C3 Rb2 C3 136.9(3) 100 115 ?
C2 Rb2 C3 121.6(2) 18 115 ?
C2 Rb2 C3 22.56(14) 115 115 ?
C4 Rb2 C3 113.4(2) 100 115 ?
Rb2 Rb2 C3 57.54(12) 18 18 ?
O4 Rb2 C3 106.6(2) 18 18 ?
O4 Rb2 C3 96.9(2) . 18 ?
C2 Rb2 C3 41.42(15) 100 18 ?
O5 Rb2 C3 128.20(13) . 18 ?
C3 Rb2 C3 47.5(2) 100 18 ?
C2 Rb2 C3 22.56(14) 18 18 ?
C2 Rb2 C3 121.6(2) 115 18 ?
C4 Rb2 C3 39.90(14) 100 18 ?
C3 Rb2 C3 103.2(2) 115 18 ?
Rb2 Rb2 C4 70.04(12) 18 115 ?
O4 Rb2 C4 127.6(2) 18 115 ?
O4 Rb2 C4 118.8(2) . 115 ?
C2 Rb2 C4 136.6(2) 100 115 ?
O5 Rb2 C4 130.15(17) . 115 ?
C3 Rb2 C4 119.4(2) 100 115 ?
C2 Rb2 C4 121.8(2) 18 115 ?
C2 Rb2 C4 40.06(14) 115 115 ?
C4 Rb2 C4 96.6(2) 100 115 ?
C3 Rb2 C4 21.92(13) 115 115 ?
C3 Rb2 C4 99.7(2) 18 115 ?
O4 Rb3 O4 118.87(15) 21 18 ?
O4 Rb3 O4 118.87(15) 21 110 ?
O4 Rb3 O4 118.87(15) 18 110 ?
O4 Rb3 O4 16.7(6) 21 9 ?
O4 Rb3 O4 135.2(6) 18 9 ?
O4 Rb3 O4 102.4(6) 110 9 ?
O4 Rb3 O4 135.2(6) 21 5 ?
O4 Rb3 O4 102.4(6) 18 5 ?
O4 Rb3 O4 16.7(6) 110 5 ?
O4 Rb3 O4 118.87(15) 9 5 ?
O4 Rb3 O4 102.4(6) 21 . ?
O4 Rb3 O4 16.7(6) 18 . ?
O4 Rb3 O4 135.2(6) 110 . ?
O4 Rb3 O4 118.87(15) 9 . ?
O4 Rb3 O4 118.87(15) 5 . ?
O4 Rb3 O7 121.7(17) 21 5 ?
O4 Rb3 O7 80.0(11) 18 5 ?
O4 Rb3 O7 86.3(7) 110 5 ?
O4 Rb3 O7 121.7(17) 9 5 ?
O4 Rb3 O7 80.0(11) 5 5 ?
O4 Rb3 O7 86.3(7) . 5 ?
O4 Rb3 O7 86.3(7) 21 9 ?
O4 Rb3 O7 121.7(17) 18 9 ?
O4 Rb3 O7 80.0(11) 110 9 ?
O4 Rb3 O7 80.0(11) 9 9 ?
O4 Rb3 O7 86.3(7) 5 9 ?
O4 Rb3 O7 121.7(17) . 9 ?
O7 Rb3 O7 44(3) 5 9 ?
O4 Rb3 O7 80.0(11) 21 . ?
O4 Rb3 O7 86.3(7) 18 . ?
O4 Rb3 O7 121.7(17) 110 . ?
O4 Rb3 O7 86.3(7) 9 . ?
O4 Rb3 O7 121.7(17) 5 . ?
O4 Rb3 O7 80.0(11) . . ?
O7 Rb3 O7 44(3) 5 . ?
O7 Rb3 O7 44(3) 9 . ?
O4 Rb3 C1 74.8(4) 21 5 ?
O4 Rb3 C1 110.7(5) 18 5 ?
O4 Rb3 C1 67.8(4) 110 5 ?
O4 Rb3 C1 67.8(4) 9 5 ?
O4 Rb3 C1 74.8(4) 5 5 ?
O4 Rb3 C1 110.7(5) . 5 ?
O7 Rb3 C1 154.1(7) 5 5 ?
O7 Rb3 C1 126.9(17) 9 5 ?
O7 Rb3 C1 154.1(7) . 5 ?
O4 Rb3 C1 110.7(5) 21 . ?
O4 Rb3 C1 67.8(4) 18 . ?
O4 Rb3 C1 74.8(4) 110 . ?
O4 Rb3 C1 110.7(5) 9 . ?
O4 Rb3 C1 67.8(4) 5 . ?
O4 Rb3 C1 74.8(4) . . ?
O7 Rb3 C1 126.9(17) 5 . ?
O7 Rb3 C1 154.1(7) 9 . ?
O7 Rb3 C1 154.1(7) . . ?
C1 Rb3 C1 46.6(3) 5 . ?
O4 Rb3 C1 67.8(4) 21 9 ?
O4 Rb3 C1 74.8(4) 18 9 ?
O4 Rb3 C1 110.7(5) 110 9 ?
O4 Rb3 C1 74.8(4) 9 9 ?
O4 Rb3 C1 110.7(5) 5 9 ?
O4 Rb3 C1 67.8(4) . 9 ?
O7 Rb3 C1 154.1(7) 5 9 ?
O7 Rb3 C1 154.1(7) 9 9 ?
O7 Rb3 C1 126.9(17) . 9 ?
C1 Rb3 C1 46.6(3) 5 9 ?
C1 Rb3 C1 46.6(3) . 9 ?
O8 Na1 O9 126.5(18) 110 . ?
O8 Na1 O3B 16.6(17) 110 . ?
O9 Na1 O3B 130.2(14) . . ?
O8 Na1 O8 49.2(15) 110 . ?
O9 Na1 O8 78.4(10) . . ?
O3B Na1 O8 52.6(11) . . ?
O8 Na1 O1 82.2(15) 110 . ?
O9 Na1 O1 143.7(13) . . ?
O3B Na1 O1 71.1(11) . . ?
O8 Na1 O1 119.8(9) . . ?
Na1 Na1 O1 135.3(4) 110 . ?
O8 Na1 O8 54.1(16) 110 35 ?
O9 Na1 O8 126.5(12) . 35 ?
O3B Na1 O8 67.1(11) . 35 ?
O8 Na1 O8 89.0(11) . 35 ?
Na1 Na1 O8 108.3(6) 110 35 ?
O1 Na1 O8 87.2(8) . 35 ?
O3B O3A O3B 75(7) 110 . ?
O3B O3A O3C 125(8) 110 110 ?
O3B O3A O3C 50(2) . 110 ?
O3B O3A O3C 50(2) 110 . ?
O3B O3A O3C 125(8) . . ?
O3C O3A O3C 175(9) 110 . ?
O3B O3A Rb1 106(5) 110 . ?
O3B O3A Rb1 106(5) . . ?
O3C O3A Rb1 90(4) 110 . ?
O3C O3A Rb1 90(4) . . ?
C2 C1 C2 110.9(6) 110 . ?
C2 C1 C3 104.1(5) . 110 ?
C2 C1 C3 104.1(5) 110 . ?
C2 C1 C2 111.4(5) 110 115 ?
C3 C1 C2 118.6(4) 110 115 ?
C2 C1 C2 111.4(5) . 5 ?
C3 C1 C2 118.6(4) . 5 ?
C2 C1 C1 106.3(4) . 5 ?
C3 C1 C1 127.7(2) . 5 ?
C2 C1 C1 83.8(2) 115 5 ?
C2 C1 C1 106.3(4) 110 9 ?
C3 C1 C1 127.7(2) 110 9 ?
C3 C1 C1 86.1(2) . 9 ?
C2 C1 C1 29.8(2) 115 9 ?
C2 C1 Rb2 160.2(4) 110 . ?
C2 C1 Rb2 52.3(3) . . ?
C3 C1 Rb2 136.1(3) 110 . ?
C3 C1 Rb2 56.02(17) . . ?
C2 C1 Rb2 59.68(15) 115 . ?
C2 C1 Rb2 158.1(3) 5 . ?
C1 C1 Rb2 132.78(14) 5 . ?
C1 C1 Rb2 74.78(14) 9 . ?
C2 C1 Rb2 52.3(3) 110 110 ?
C2 C1 Rb2 160.2(4) . 110 ?
C3 C1 Rb2 56.02(17) 110 110 ?
C3 C1 Rb2 136.1(3) . 110 ?
C2 C1 Rb2 158.1(3) 115 110 ?
C2 C1 Rb2 59.68(15) 5 110 ?
C1 C1 Rb2 74.78(14) 5 110 ?
C1 C1 Rb2 132.78(14) 9 110 ?
Rb2 C1 Rb2 140.7(3) . 110 ?
C3 C1 C2 106.3(3) . 120 ?
Rb2 C1 C2 117.21(19) . 120 ?
Rb2 C1 C2 96.14(15) 110 120 ?
C3 C1 C2 106.3(3) 110 9 ?
Rb2 C1 C2 96.14(15) . 9 ?
Rb2 C1 C2 117.21(19) 110 9 ?
C2 C1 C2 21.44(18) 120 9 ?
C3 C2 C2 118.7(4) . 115 ?
C3 C2 C1 118.3(6) . . ?
C2 C2 C1 122.9(4) 115 . ?
C3 C2 C2 108.4(4) . 110 ?
C2 C2 C2 120.000(1) 115 110 ?
C4 C2 C2 128.56(19) . 110 ?
C3 C2 C1 148.5(5) . 9 ?
C4 C2 C1 119.9(3) . 9 ?
C2 C2 C1 96.2(2) 110 9 ?
C3 C2 C3 84.6(4) . 110 ?
C2 C2 C3 136.82(15) 115 110 ?
C4 C2 C3 106.3(3) . 110 ?
C1 C2 C3 118.4(3) 9 110 ?
C4 C2 C3 127.7(3) 115 110 ?
C1 C2 Rb2 114.3(4) . 18 ?
C2 C2 Rb2 148.54(13) 110 18 ?
C4 C2 C2 117.2(3) . 9 ?
C2 C2 C2 80.77(17) 110 9 ?
C3 C2 C2 99.39(19) 110 9 ?
Rb2 C2 C2 100.8(2) 18 9 ?
C3 C2 C2 123.9(4) . 5 ?
C2 C2 C2 99.23(17) 115 5 ?
C3 C2 C2 120.1(2) 115 5 ?
C4 C2 C2 135.3(2) . 5 ?
C2 C3 C4 123.2(6) . . ?
C2 C3 O1 119.5(3) 115 . ?
C4 C3 C1 124.4(3) 115 . ?
C4 C3 C2 126.4(3) 115 110 ?
C3 C3 C2 100.70(15) 115 110 ?
C4 C3 C3 141.0(4) . 110 ?
C2 C3 C3 96.52(19) 115 110 ?
C4 C3 C3 138.0(2) 115 110 ?
O1 C3 C3 128.51(19) . 110 ?
C3 C3 C3 120.000(1) 115 110 ?
C2 C3 Rb2 67.3(3) . 18 ?
C4 C3 Rb2 84.3(4) . 18 ?
C2 C3 Rb2 57.5(2) 115 18 ?
C4 C3 Rb2 68.1(2) 115 18 ?
O1 C3 Rb2 99.4(2) . 18 ?
C1 C3 Rb2 84.7(2) . 18 ?
C3 C3 Rb2 57.54(12) 115 18 ?
C2 C3 Rb2 110.8(2) 110 18 ?
C3 C3 Rb2 131.74(13) 110 18 ?
Na1 C3 Rb2 135.3(4) . 18 ?
C4 C3 C1 102.5(4) . 9 ?
O1 C3 C1 129.9(3) . 9 ?
Rb2 C3 C1 60.59(16) 18 9 ?
O1 C4 C3 124.1(6) . . ?
O1 C4 C4 117.8(3) . 115 ?
C3 C4 C4 118.1(4) . 115 ?
O1 C4 C2 120.0(3) 115 . ?
O1 C4 Rb2 126.4(4) . 18 ?
C3 C4 Rb2 73.8(4) . 18 ?
C4 C4 Rb2 70.04(12) 115 18 ?
O1 C4 Rb2 87.2(2) 115 18 ?
C3 C4 Rb2 56.8(2) 115 18 ?
C2 C4 Rb2 60.9(2) . 18 ?
C2 C4 Rb2 53.77(17) 115 18 ?
Co1 C4 Rb2 109.76(18) . 18 ?
C4 C4 C1 102.52(15) 115 . ?
O1 C4 C1 132.6(3) 115 . ?
O1 C4 Rb1 120.4(4) . . ?
Co1 C4 Rb1 117.77(19) . . ?
Na1 C4 Rb1 94.8(4) . . ?
Rb2 C4 Rb1 113.14(17) 18 . ?
O2 Co1 O1 110.1(4) . 138 ?
O2 Co1 O1 95.3(4) 121 138 ?
O2 Co1 O1 110.1(4) . 28 ?
O2 Co1 O1 95.3(4) 121 28 ?
O1 Co1 O1 81.9(2) 138 28 ?
O2 Co1 O1 95.3(4) . . ?
O2 Co1 O1 110.1(4) 121 . ?
O1 Co1 O1 92.5(2) 138 . ?
O1 Co1 O1 154.5(3) 28 . ?
O2 Co1 O1 95.3(4) . 115 ?
O2 Co1 O1 110.1(4) 121 115 ?
O1 Co1 O1 154.5(3) 138 115 ?
O1 Co1 O1 92.5(2) 28 115 ?
O1 Co1 O1 81.9(2) . 115 ?
O3A Rb1 O3A 83(3) . 9 ?
O3A Rb1 O3A 83(3) . 5 ?
O3A Rb1 O3A 83(3) 9 5 ?
O3A Rb1 C2 160.0(14) . 120 ?
O3A Rb1 C2 116.8(13) 9 120 ?
O3A Rb1 C2 100.2(16) 5 120 ?
O3A Rb1 C2 116.8(13) . 115 ?
O3A Rb1 C2 100.2(16) 9 115 ?
O3A Rb1 C2 160.0(14) 5 115 ?
C2 Rb1 C2 60.62(16) 120 115 ?
O3A Rb1 C2 100.2(16) . 110 ?
O3A Rb1 C2 160.0(14) 9 110 ?
O3A Rb1 C2 116.8(13) 5 110 ?
C2 Rb1 C2 60.62(16) 120 110 ?
C2 Rb1 C2 60.62(16) 115 110 ?
O3A Rb1 C2 160.0(14) . 9 ?
O3A Rb1 C2 100.2(16) 9 9 ?
O3A Rb1 C2 116.8(13) 5 9 ?
O3A Rb1 C2 116.8(13) . 5 ?
O3A Rb1 C2 160.0(14) 9 5 ?
O3A Rb1 C2 100.2(16) 5 5 ?
C2 Rb1 C2 43.2(2) 120 5 ?
C2 Rb1 C2 70.22(19) 115 5 ?
C2 Rb1 C2 23.86(19) 110 5 ?
C2 Rb1 C2 60.62(16) 9 5 ?
O3A Rb1 C3 157.5(3) . 120 ?
O3A Rb1 C3 107.8(8) 9 120 ?
O3A Rb1 C3 78.9(15) 5 120 ?
C2 Rb1 C3 22.17(14) 120 120 ?
C2 Rb1 C3 81.33(15) 115 120 ?
C2 Rb1 C3 76.39(15) 110 120 ?
C2 Rb1 C3 39.58(14) 9 120 ?
C2 Rb1 C3 54.34(14) 5 120 ?
O3A Rb1 C3 107.8(8) . 115 ?
O3A Rb1 C3 78.9(15) 9 115 ?
O3A Rb1 C3 157.5(3) 5 115 ?
C2 Rb1 C3 76.39(15) 120 115 ?
C2 Rb1 C3 22.17(14) 115 115 ?
C2 Rb1 C3 81.33(15) 110 115 ?
C2 Rb1 C3 54.34(14) 9 115 ?
C2 Rb1 C3 92.39(15) 5 115 ?
C3 Rb1 C3 93.76(14) 120 115 ?
O3A Rb1 C3 78.9(15) . 110 ?
O3A Rb1 C3 157.5(3) 9 110 ?
O3A Rb1 C3 107.8(8) 5 110 ?
C2 Rb1 C3 81.33(15) 120 110 ?
C2 Rb1 C3 76.39(15) 115 110 ?
C2 Rb1 C3 22.17(14) 110 110 ?
C2 Rb1 C3 92.39(15) 9 110 ?
C2 Rb1 C3 39.58(14) 5 110 ?
C3 Rb1 C3 93.76(14) 120 110 ?
C3 Rb1 C3 93.76(14) 115 110 ?
O3A Rb1 C3 157.5(3) . 9 ?
O3A Rb1 C3 78.9(15) 9 9 ?
O3A Rb1 C3 107.8(8) 5 9 ?
C2 Rb1 C3 39.58(14) 120 9 ?
C2 Rb1 C3 54.34(14) 115 9 ?
C2 Rb1 C3 92.39(15) 110 9 ?
C2 Rb1 C3 22.17(14) 9 9 ?
C2 Rb1 C3 81.33(15) 5 9 ?
C3 Rb1 C3 44.1(2) 120 9 ?
C3 Rb1 C3 55.5(2) 115 9 ?
C3 Rb1 C3 114.5(2) 110 9 ?

_diffrn_measured_fraction_theta_max 0.972
_diffrn_reflns_theta_full        67.90
_diffrn_measured_fraction_theta_full 0.972
_refine_diff_density_max         1.262
_refine_diff_density_min         -2.175
_refine_diff_density_rms         0.166


