####################################################################### 
# 
# This file contains crystal structure data downloaded from the 
# Cambridge Structural Database (CSD) hosted by the Cambridge 
# Crystallographic Data Centre (CCDC).
# 
# Full information about CCDC data access policies and citation 
# guidelines are available at http://www.ccdc.cam.ac.uk/access/V1 
# 
# Audit and citation data items may have been added by the CCDC. 
# Please retain this information to preserve the provenance of 
# this file and to allow appropriate attribution of the data. 
# 
#######################################################################

data_p321
_audit_block_doi                 10.5517/ccy31bd
_database_code_depnum_ccdc_archive 'CCDC 866863'
loop_
_citation_id
_citation_doi
_citation_year
1 10.1002/anie.201207619 2012
_audit_update_record             
;
2012-02-14 deposited with the CCDC.	2019-03-04 downloaded from the CCDC.
;
#TrackingRef 'p321.cif'


_audit_creation_method           SHELXL-97
_chemical_name_systematic        
;
?
;
_chemical_name_common            ?
_chemical_melting_point          ?
_chemical_formula_moiety         ?
_chemical_formula_sum            'C228 H300 Ag2 Au12 N104.64 O105.54 Pd12'
_chemical_formula_weight         10051.53

loop_
_atom_type_symbol
_atom_type_description
_atom_type_scat_dispersion_real
_atom_type_scat_dispersion_imag
_atom_type_scat_source
C C 0.0033 0.0016 'International Tables Vol C Tables 4.2.6.8 and 6.1.1.4'
H H 0.0000 0.0000 'International Tables Vol C Tables 4.2.6.8 and 6.1.1.4'
N N 0.0061 0.0033 'International Tables Vol C Tables 4.2.6.8 and 6.1.1.4'
O O 0.0106 0.0060 'International Tables Vol C Tables 4.2.6.8 and 6.1.1.4'
Pd Pd -0.9988 1.0072 'International Tables Vol C Tables 4.2.6.8 and 6.1.1.4'
Ag Ag -0.8971 1.1015 'International Tables Vol C Tables 4.2.6.8 and 6.1.1.4'
Au Au -2.0133 8.8022 'International Tables Vol C Tables 4.2.6.8 and 6.1.1.4'

_symmetry_cell_setting           Hexagonal
_symmetry_space_group_name_H-M   P321

loop_
_symmetry_equiv_pos_as_xyz
'x, y, z'
'-y, x-y, z'
'-x+y, -x, z'
'y, x, -z'
'x-y, -y, -z'
'-x, -x+y, -z'

_cell_length_a                   20.533(2)
_cell_length_b                   20.533(2)
_cell_length_c                   54.547(11)
_cell_angle_alpha                90.00
_cell_angle_beta                 90.00
_cell_angle_gamma                120.00
_cell_volume                     19915(5)
_cell_formula_units_Z            2
_cell_measurement_temperature    90(2)
_cell_measurement_reflns_used    9598
_cell_measurement_theta_min      2.278
_cell_measurement_theta_max      23.136

_exptl_crystal_description       block
_exptl_crystal_colour            purple
_exptl_crystal_size_max          0.28
_exptl_crystal_size_mid          0.10
_exptl_crystal_size_min          0.10
_exptl_crystal_density_meas      ?
_exptl_crystal_density_diffrn    1.676
_exptl_crystal_density_method    'not measured'
_exptl_crystal_F_000             9678
_exptl_absorpt_coefficient_mu    5.103
_exptl_absorpt_correction_type   multi-scan
_exptl_absorpt_correction_T_min  0.3291
_exptl_absorpt_correction_T_max  0.6294
_exptl_absorpt_process_details   SADABS

_exptl_special_details           
;
?
;

_diffrn_ambient_temperature      90(2)
_diffrn_radiation_wavelength     0.71073
_diffrn_radiation_type           MoK\a
_diffrn_radiation_source         'fine-focus rotating anode'
_diffrn_radiation_monochromator  'focusing mirror'
_diffrn_measurement_device_type  'CCD area detector'
_diffrn_measurement_method       'omega scan'
_diffrn_detector_area_resol_mean ?
_diffrn_standards_number         ?
_diffrn_standards_interval_count ?
_diffrn_standards_interval_time  ?
_diffrn_standards_decay_%        ?
_diffrn_reflns_number            169214
_diffrn_reflns_av_R_equivalents  0.0533
_diffrn_reflns_av_sigmaI/netI    0.0414
_diffrn_reflns_limit_h_min       -23
_diffrn_reflns_limit_h_max       23
_diffrn_reflns_limit_k_min       -23
_diffrn_reflns_limit_k_max       23
_diffrn_reflns_limit_l_min       -61
_diffrn_reflns_limit_l_max       62
_diffrn_reflns_theta_min         1.37
_diffrn_reflns_theta_max         24.12
_reflns_number_total             21042
_reflns_number_gt                16799
_reflns_threshold_expression     >2sigma(I)

_computing_data_collection       'Bruker APEX-II'
_computing_cell_refinement       'Bruker SAINT'
_computing_data_reduction        'Bruker SAINT'
_computing_structure_solution    'SHELXS-97 (Sheldrick, 1990)'
_computing_structure_refinement  'SHELXL-97 (Sheldrick, 1997)'
_computing_molecular_graphics    'Bruker XP'
_computing_publication_material  'Bruekr SHELXTL'

_refine_special_details          
;
Refinement of F^2^ against ALL reflections. The weighted R-factor wR and
goodness of fit S are based on F^2^, conventional R-factors R are based
on F, with F set to zero for negative F^2^. The threshold expression of
F^2^ > 2sigma(F^2^) is used only for calculating R-factors(gt) etc. and is
not relevant to the choice of reflections for refinement. R-factors based
on F^2^ are statistically about twice as large as those based on F, and R-
factors based on ALL data will be even larger.
;

_refine_ls_structure_factor_coef Fsqd
_refine_ls_matrix_type           full
_refine_ls_weighting_scheme      calc
_refine_ls_weighting_details     
'calc w=1/[\s^2^(Fo^2^)+(0.0972P)^2^+226.2070P] where P=(Fo^2^+2Fc^2^)/3'
_atom_sites_solution_primary     direct
_atom_sites_solution_secondary   difmap
_atom_sites_solution_hydrogens   geom
_refine_ls_hydrogen_treatment    constr
_refine_ls_extinction_method     none
_refine_ls_extinction_coef       ?
_refine_ls_abs_structure_details 'Flack H D (1983), Acta Cryst. A39, 876-881'
_refine_ls_abs_structure_Flack   0.079(12)
_refine_ls_number_reflns         21042
_refine_ls_number_parameters     1626
_refine_ls_number_restraints     827
_refine_ls_R_factor_all          0.1098
_refine_ls_R_factor_gt           0.0873
_refine_ls_wR_factor_ref         0.2414
_refine_ls_wR_factor_gt          0.2245
_refine_ls_goodness_of_fit_ref   1.126
_refine_ls_restrained_S_all      1.115
_refine_ls_shift/su_max          0.026
_refine_ls_shift/su_mean         0.000

loop_
_atom_site_label
_atom_site_type_symbol
_atom_site_fract_x
_atom_site_fract_y
_atom_site_fract_z
_atom_site_U_iso_or_equiv
_atom_site_adp_type
_atom_site_occupancy
_atom_site_symmetry_multiplicity
_atom_site_calc_flag
_atom_site_refinement_flags
_atom_site_disorder_assembly
_atom_site_disorder_group
Pd1 Pd -0.31561(10) 0.09043(12) 0.15728(4) 0.0888(6) Uani 1 1 d D . .
Pd2 Pd -0.09051(12) 0.31563(10) 0.34274(4) 0.0882(6) Uani 1 1 d . . .
Pd3 Pd 0.27883(10) -0.13871(10) 0.09157(4) 0.0877(6) Uani 1 1 d D . .
Pd4 Pd 0.13850(10) -0.27902(10) 0.40848(4) 0.0865(6) Uani 1 1 d . . .
Ag1 Ag 0.0000 0.0000 0.25001(4) 0.0573(5) Uani 1 3 d S . .
Ag2 Ag 0.0000 0.0000 0.0000 0.0570(8) Uani 1 6 d S . .
Ag3 Ag 0.0000 0.0000 0.5000 0.0550(7) Uani 1 6 d S . .
Au2A Au -0.03357(15) 0.07732(15) 0.21727(4) 0.0696(6) Uani 0.35 1 d PD . 1
N111 N -0.1396(13) -0.0064(14) 0.2181(3) 0.087(10) Uani 0.35 1 d PDU A 1
C112 C -0.205(2) -0.007(2) 0.2199(6) 0.091(11) Uani 0.35 1 d PDU A 1
H11B H -0.2110 0.0362 0.2210 0.109 Uiso 0.35 1 calc PR A 1
C113 C -0.2646(15) -0.083(3) 0.2200(9) 0.102(12) Uani 0.35 1 d PDU A 1
H11C H -0.3168 -0.1001 0.2211 0.122 Uiso 0.35 1 calc PR A 1
N114 N -0.234(2) -0.1269(16) 0.2182(8) 0.106(12) Uani 0.35 1 d PDU A 1
C115 C -0.1581(15) -0.0818(12) 0.2182(8) 0.089(11) Uani 0.35 1 d PDU A 1
C161 C -0.269(4) -0.193(4) 0.2162(8) 0.083(11) Uani 0.35 1 d PDU A 1
H16D H -0.3231 -0.2099 0.2171 0.124 Uiso 0.35 1 calc PR A 1
H16E H -0.2557 -0.2161 0.2295 0.124 Uiso 0.35 1 calc PR A 1
H16F H -0.2579 -0.2075 0.2004 0.124 Uiso 0.35 1 calc PR A 1
Au2B Au -0.10407(8) -0.01202(8) 0.21408(2) 0.0694(4) Uani 0.65 1 d PD . 2
C116 C -0.1464(14) -0.1257(8) 0.2136(4) 0.053(5) Uani 0.65 1 d PDU B 2
N117 N -0.2221(12) -0.1863(15) 0.2144(4) 0.078(6) Uani 0.65 1 d PDU B 2
C118 C -0.2195(16) -0.2490(12) 0.2155(6) 0.099(8) Uani 0.65 1 d PDU B 2
H11F H -0.2616 -0.2980 0.2174 0.118 Uiso 0.65 1 calc PR B 2
C119 C -0.1447(19) -0.2319(15) 0.2134(5) 0.090(7) Uani 0.65 1 d PDU B 2
H11G H -0.1279 -0.2673 0.2125 0.108 Uiso 0.65 1 calc PR B 2
N120 N -0.1004(11) -0.1560(10) 0.2128(4) 0.072(6) Uani 0.65 1 d PDU B 2
C162 C -0.286(2) -0.146(3) 0.2188(8) 0.21(3) Uani 0.65 1 d PDU B 2
H16G H -0.3383 -0.1874 0.2195 0.310 Uiso 0.65 1 calc PR B 2
H16H H -0.2798 -0.1129 0.2051 0.310 Uiso 0.65 1 calc PR B 2
H16I H -0.2732 -0.1179 0.2342 0.310 Uiso 0.65 1 calc PR B 2
Au1A Au 0.09187(8) -0.01231(8) 0.28582(2) 0.0694(4) Uani 0.65 1 d PD . 1
C101 C 0.0234(11) -0.1241(8) 0.28472(19) 0.058(5) Uani 0.65 1 d PDU . 1
N102 N 0.0427(13) -0.1766(16) 0.2829(3) 0.099(8) Uani 0.65 1 d PDU . 1
C103 C -0.0242(17) -0.2464(11) 0.2831(6) 0.116(9) Uani 0.65 1 d PDU . 1
H10A H -0.0283 -0.2945 0.2819 0.139 Uiso 0.65 1 calc PR . 1
C104 C -0.0814(14) -0.2328(16) 0.2853(5) 0.108(9) Uani 0.65 1 d PDU . 1
H10B H -0.1331 -0.2701 0.2863 0.129 Uiso 0.65 1 calc PR . 1
N105 N -0.0531(16) -0.1550(18) 0.2858(4) 0.077(6) Uani 0.65 1 d PDU . 1
C151 C 0.1173(16) -0.169(2) 0.2826(6) 0.113(11) Uani 0.65 1 d PDU . 1
H15D H 0.1559 -0.1160 0.2822 0.170 Uiso 0.65 1 calc PR . 1
H15E H 0.1222 -0.1947 0.2681 0.170 Uiso 0.65 1 calc PR . 1
H15F H 0.1238 -0.1927 0.2974 0.170 Uiso 0.65 1 calc PR . 1
Au1B Au -0.03328(16) -0.11037(17) 0.28250(4) 0.0702(7) Uani 0.35 1 d PD . 2
C106 C 0.0764(9) -0.0791(17) 0.2826(7) 0.072(8) Uani 0.35 1 d PDU C 2
N107 N 0.103(2) -0.1272(16) 0.2814(7) 0.100(11) Uani 0.35 1 d PDU C 2
C108 C 0.1793(19) -0.085(2) 0.2804(9) 0.102(11) Uani 0.35 1 d PDU C 2
H10D H 0.2132 -0.1040 0.2788 0.122 Uiso 0.35 1 calc PR C 2
C109 C 0.1991(11) -0.009(2) 0.2822(7) 0.069(9) Uani 0.35 1 d PDU C 2
H10E H 0.2489 0.0324 0.2827 0.083 Uiso 0.35 1 calc PR C 2
N110 N 0.1346(10) -0.0056(14) 0.2829(6) 0.062(8) Uani 0.35 1 d PDU C 2
C152 C 0.043(4) -0.205(4) 0.2825(8) 0.086(13) Uani 0.35 1 d PDU C 2
H15G H 0.0642 -0.2383 0.2818 0.128 Uiso 0.35 1 calc PR C 2
H15H H 0.0092 -0.2154 0.2685 0.128 Uiso 0.35 1 calc PR C 2
H15I H 0.0148 -0.2134 0.2978 0.128 Uiso 0.35 1 calc PR C 2
Au3A Au 0.04994(9) -0.06353(9) 0.03479(2) 0.0757(4) Uani 0.65 1 d PD . 1
N121 N 0.1494(10) 0.0322(9) 0.0354(3) 0.099(8) Uani 0.65 1 d PDU D 1
C122 C 0.2225(14) 0.0470(15) 0.0368(7) 0.143(11) Uani 0.65 1 d PDU D 1
H12A H 0.2380 0.0107 0.0383 0.172 Uiso 0.65 1 calc PR D 1
C123 C 0.2690(10) 0.1236(15) 0.0356(7) 0.145(11) Uani 0.65 1 d PDU D 1
H12B H 0.3223 0.1488 0.0350 0.174 Uiso 0.65 1 calc PR D 1
N124 N 0.2267(11) 0.1576(10) 0.0353(6) 0.115(8) Uani 0.65 1 d PDU D 1
C125 C 0.1539(9) 0.1014(9) 0.0344(5) 0.084(7) Uani 0.65 1 d PDU D 1
C171 C 0.2524(17) 0.2376(11) 0.0353(9) 0.137(14) Uani 0.65 1 d PDU D 1
H17C H 0.2089 0.2451 0.0361 0.205 Uiso 0.65 1 calc PR D 1
H17D H 0.2808 0.2604 0.0202 0.205 Uiso 0.65 1 calc PR D 1
H17E H 0.2848 0.2613 0.0495 0.205 Uiso 0.65 1 calc PR D 1
Au3B Au 0.11076(14) 0.03103(13) 0.03292(4) 0.0635(6) Uani 0.35 1 d PD . 2
C126 C 0.1310(12) 0.1373(9) 0.0294(3) 0.039(6) Uani 0.35 1 d PDU E 2
N127 N 0.2001(11) 0.2025(15) 0.0269(7) 0.068(8) Uani 0.35 1 d PDU E 2
C128 C 0.1858(15) 0.2601(11) 0.0253(7) 0.071(9) Uani 0.35 1 d PDU E 2
H12D H 0.2224 0.3115 0.0229 0.086 Uiso 0.35 1 calc PR E 2
C129 C 0.1095(16) 0.2320(12) 0.0278(6) 0.052(7) Uani 0.35 1 d PDU E 2
H12E H 0.0851 0.2608 0.0290 0.062 Uiso 0.35 1 calc PR E 2
N130 N 0.0750(11) 0.1550(11) 0.0282(5) 0.034(6) Uani 0.35 1 d PDU E 2
C172 C 0.2724(14) 0.208(2) 0.0300(9) 0.064(12) Uani 0.35 1 d PDU E 2
H17F H 0.3124 0.2595 0.0268 0.096 Uiso 0.35 1 calc PR E 2
H17G H 0.2769 0.1735 0.0186 0.096 Uiso 0.35 1 calc PR E 2
H17H H 0.2770 0.1940 0.0469 0.096 Uiso 0.35 1 calc PR E 2
Au4A Au -0.03101(13) -0.11045(14) 0.46703(4) 0.0605(6) Uani 0.35 1 d PD F 1
C131 C -0.1367(11) -0.130(2) 0.4686(3) 0.039(6) Uani 0.35 1 d PDU F 1
N132 N -0.206(2) -0.2033(15) 0.4689(5) 0.073(9) Uani 0.35 1 d PDU F 1
C133 C -0.2597(14) -0.1896(16) 0.4707(8) 0.078(10) Uani 0.35 1 d PDU F 1
H13B H -0.3109 -0.2275 0.4724 0.094 Uiso 0.35 1 calc PR F 1
C134 C -0.2350(17) -0.1132(18) 0.4699(6) 0.051(7) Uani 0.35 1 d PDU F 1
H13C H -0.2652 -0.0902 0.4692 0.061 Uiso 0.35 1 calc PR F 1
N135 N -0.1562(12) -0.0768(13) 0.4704(5) 0.038(6) Uani 0.35 1 d PDU . 1
C181 C -0.228(4) -0.297(3) 0.4685(9) 0.070(12) Uani 0.35 1 d PDU F 1
H18C H -0.2829 -0.3296 0.4686 0.106 Uiso 0.35 1 calc PR F 1
H18D H -0.2065 -0.3072 0.4830 0.106 Uiso 0.35 1 calc PR F 1
H18E H -0.2075 -0.3064 0.4536 0.106 Uiso 0.35 1 calc PR F 1
Au4B Au 0.06370(9) -0.04981(9) 0.46519(2) 0.0731(4) Uani 0.65 1 d PD F 2
N136 N -0.0300(11) -0.1487(11) 0.4653(2) 0.081(6) Uani 0.65 1 d PDU F 2
C137 C -0.043(2) -0.224(2) 0.4652(6) 0.121(9) Uani 0.65 1 d PDU F 2
H13F H -0.0049 -0.2373 0.4650 0.145 Uiso 0.65 1 calc PR F 2
C138 C -0.113(2) -0.2701(11) 0.4654(5) 0.113(8) Uani 0.65 1 d PDU F 2
H13G H -0.1355 -0.3232 0.4660 0.136 Uiso 0.65 1 calc PR F 2
N139 N -0.1546(11) -0.2317(12) 0.4646(4) 0.086(6) Uani 0.65 1 d PDU F 2
C140 C -0.1016(10) -0.1583(10) 0.4655(4) 0.069(6) Uani 0.65 1 d PDU . 2
C182 C -0.225(2) -0.2581(18) 0.4665(6) 0.095(9) Uani 0.65 1 d PDU F 2
H18F H -0.2360 -0.2169 0.4657 0.143 Uiso 0.65 1 calc PR F 2
H18G H -0.2425 -0.2844 0.4822 0.143 Uiso 0.65 1 calc PR F 2
H18H H -0.2508 -0.2934 0.4530 0.143 Uiso 0.65 1 calc PR F 2
N1 N 0.2048(8) -0.1039(9) 0.0921(3) 0.074(5) Uani 1 1 d . . .
C2 C 0.2251(13) -0.0308(15) 0.0934(4) 0.082(6) Uani 1 1 d . . .
H2A H 0.2774 0.0044 0.0944 0.098 Uiso 1 1 calc R . .
C3 C 0.1768(9) -0.0018(11) 0.0934(4) 0.071(6) Uani 1 1 d . . .
H3A H 0.1943 0.0507 0.0935 0.085 Uiso 1 1 calc R . .
C4 C 0.1011(10) -0.0553(10) 0.0934(3) 0.056(4) Uani 1 1 d . . .
C5 C 0.0755(9) -0.1292(9) 0.0936(3) 0.049(4) Uani 1 1 d . . .
H5A H 0.0232 -0.1640 0.0949 0.059 Uiso 1 1 calc R . .
C6 C 0.1257(12) -0.1538(9) 0.0918(3) 0.063(5) Uani 1 1 d . . .
H6A H 0.1072 -0.2063 0.0904 0.076 Uiso 1 1 calc R . .
C7 C 0.0476(8) -0.0222(9) 0.0945(3) 0.039(3) Uani 1 1 d . . .
N8 N 0.0740(8) 0.0450(8) 0.0942(2) 0.054(3) Uani 1 1 d . . .
N9 N 0.3142(8) -0.0902(10) 0.0589(4) 0.093(6) Uani 1 1 d . . .
C10 C 0.3743(13) -0.0178(14) 0.0556(5) 0.084(7) Uani 1 1 d . . .
C11 C 0.3923(11) 0.0188(14) 0.0331(5) 0.081(6) Uani 1 1 d . . .
H11A H 0.4304 0.0702 0.0318 0.097 Uiso 1 1 calc R . .
C12 C 0.3541(11) -0.0207(13) 0.0127(5) 0.094(8) Uani 1 1 d . . .
C13 C 0.2994(11) -0.0921(13) 0.0156(6) 0.100(9) Uani 1 1 d . . .
H13A H 0.2731 -0.1183 0.0013 0.120 Uiso 1 1 calc R . .
C14 C 0.2800(12) -0.1270(12) 0.0349(7) 0.102(9) Uani 1 1 d . . .
C16 C 0.4176(12) 0.0201(14) 0.0792(6) 0.121(11) Uani 1 1 d U . .
H16A H 0.3961 -0.0151 0.0929 0.182 Uiso 1 1 calc R . .
H16B H 0.4137 0.0649 0.0825 0.182 Uiso 1 1 calc R . .
H16C H 0.4706 0.0347 0.0772 0.182 Uiso 1 1 calc R . .
C15 C 0.2137(18) -0.2014(17) 0.0373(6) 0.141(12) Uani 1 1 d U . .
H15A H 0.1946 -0.2220 0.0210 0.211 Uiso 1 1 calc R . .
H15B H 0.1747 -0.1976 0.0465 0.211 Uiso 1 1 calc R . .
H15C H 0.2270 -0.2347 0.0461 0.211 Uiso 1 1 calc R . .
N17 N 0.2502(14) -0.1814(14) 0.1250(5) 0.136(9) Uani 1 1 d U . .
H17A H 0.2574 -0.1433 0.1356 0.163 Uiso 1 1 calc R . .
H17B H 0.1997 -0.2162 0.1250 0.163 Uiso 1 1 calc R . .
C19 C 0.290(2) -0.216(2) 0.1343(6) 0.168(12) Uani 1 1 d DU . .
H19A H 0.2554 -0.2712 0.1359 0.201 Uiso 1 1 calc R . .
H19B H 0.3107 -0.1957 0.1507 0.201 Uiso 1 1 calc R . .
C20 C 0.352(2) -0.200(2) 0.1165(6) 0.181(12) Uani 1 1 d DU . .
H20A H 0.3990 -0.1614 0.1243 0.217 Uiso 1 1 calc R . .
H20B H 0.3553 -0.2465 0.1157 0.217 Uiso 1 1 calc R . .
N18 N 0.3536(12) -0.1766(15) 0.0920(4) 0.128(8) Uani 1 1 d DU . .
H18A H 0.3392 -0.2161 0.0813 0.153 Uiso 1 1 calc R . .
H18B H 0.4010 -0.1388 0.0878 0.153 Uiso 1 1 calc R . .
N21 N -0.2314(9) 0.0656(10) 0.1552(3) 0.072(5) Uani 1 1 d . . .
C22 C -0.1616(15) 0.1173(14) 0.1548(4) 0.087(7) Uani 1 1 d . . .
H22A H -0.1506 0.1680 0.1554 0.105 Uiso 1 1 calc R . .
C23 C -0.1015(10) 0.1050(11) 0.1534(4) 0.066(5) Uani 1 1 d . . .
H23A H -0.0512 0.1453 0.1520 0.079 Uiso 1 1 calc R . .
C24 C -0.1184(10) 0.0313(8) 0.1542(3) 0.053(4) Uani 1 1 d . . .
C25 C -0.1917(12) -0.0232(12) 0.1552(4) 0.077(6) Uani 1 1 d . . .
H25A H -0.2024 -0.0739 0.1546 0.092 Uiso 1 1 calc R . .
C26 C -0.2516(10) -0.0117(14) 0.1568(4) 0.082(7) Uani 1 1 d . . .
H26A H -0.3019 -0.0514 0.1588 0.098 Uiso 1 1 calc R . .
C27 C -0.0561(9) 0.0119(10) 0.1541(4) 0.061(5) Uani 1 1 d . . .
N28 N 0.0120(8) 0.0711(9) 0.1543(3) 0.065(4) Uani 1 1 d . . .
N29 N -0.2785(11) 0.1364(11) 0.1910(4) 0.082(5) Uani 1 1 d . . .
C30 C -0.3039(13) 0.0921(15) 0.2101(6) 0.108(10) Uani 1 1 d . . .
C31 C -0.2786(10) 0.1180(12) 0.2342(4) 0.073(5) Uani 1 1 d . . .
H31A H -0.2975 0.0853 0.2479 0.087 Uiso 1 1 calc R . .
C32 C -0.2248(9) 0.1938(11) 0.2369(4) 0.071(6) Uani 1 1 d . . .
C33 C -0.2016(12) 0.2399(11) 0.2161(4) 0.081(6) Uani 1 1 d . . .
H33A H -0.1679 0.2924 0.2179 0.097 Uiso 1 1 calc R . .
C34 C -0.2268(12) 0.2103(13) 0.1934(4) 0.079(6) Uani 1 1 d . . .
C35 C -0.2118(17) 0.2562(17) 0.1708(5) 0.115(9) Uani 1 1 d . . .
H35A H -0.1738 0.3086 0.1743 0.173 Uiso 1 1 calc R . .
H35B H -0.2584 0.2539 0.1653 0.173 Uiso 1 1 calc R . .
H35C H -0.1933 0.2364 0.1579 0.173 Uiso 1 1 calc R . .
C36 C -0.3613(16) 0.0113(14) 0.2067(6) 0.118(10) Uani 1 1 d . . .
H36A H -0.3754 0.0017 0.1893 0.178 Uiso 1 1 calc R . .
H36B H -0.4059 -0.0008 0.2165 0.178 Uiso 1 1 calc R . .
H36C H -0.3403 -0.0201 0.2119 0.178 Uiso 1 1 calc R . .
N37 N -0.3544(12) 0.0482(18) 0.1242(4) 0.142(9) Uani 1 1 d U . .
H37A H -0.3152 0.0682 0.1132 0.171 Uiso 1 1 calc R . .
H37B H -0.3738 -0.0030 0.1246 0.171 Uiso 1 1 calc R . .
N38 N -0.4062(19) 0.105(2) 0.1586(5) 0.176(11) Uani 1 1 d DU . .
H38A H -0.4469 0.0634 0.1653 0.212 Uiso 1 1 calc R . .
H38B H -0.3959 0.1465 0.1678 0.212 Uiso 1 1 calc R . .
C39 C -0.4122(19) 0.064(2) 0.1157(6) 0.174(11) Uani 1 1 d DU . .
H39A H -0.4607 0.0163 0.1141 0.209 Uiso 1 1 calc R . .
H39B H -0.3984 0.0883 0.0994 0.209 Uiso 1 1 calc R . .
C40 C -0.420(2) 0.115(3) 0.1337(5) 0.198(11) Uani 1 1 d DU . .
H40A H -0.3852 0.1678 0.1290 0.238 Uiso 1 1 calc R . .
H40B H -0.4720 0.1067 0.1325 0.238 Uiso 1 1 calc R . .
N41 N -0.0677(12) 0.2291(12) 0.3454(3) 0.080(5) Uani 1 1 d . . .
C42 C 0.0099(14) 0.2471(10) 0.3438(3) 0.074(7) Uani 1 1 d . . .
H42A H 0.0486 0.2977 0.3414 0.088 Uiso 1 1 calc R . .
C43 C 0.0272(13) 0.1933(11) 0.3459(3) 0.073(6) Uani 1 1 d . . .
H43A H 0.0780 0.2052 0.3476 0.088 Uiso 1 1 calc R . .
C44 C -0.0300(8) 0.1198(9) 0.3454(3) 0.046(4) Uani 1 1 d . . .
C45 C -0.1051(10) 0.1022(11) 0.3464(3) 0.058(4) Uani 1 1 d . . .
H45A H -0.1442 0.0512 0.3476 0.070 Uiso 1 1 calc R . .
C46 C -0.1223(14) 0.1592(14) 0.3458(4) 0.083(7) Uani 1 1 d . . .
H46A H -0.1732 0.1478 0.3456 0.100 Uiso 1 1 calc R . .
C47 C -0.0139(9) 0.0570(8) 0.3448(2) 0.041(4) Uani 1 1 d . . .
N48 N -0.0716(9) -0.0129(9) 0.3456(2) 0.059(4) Uani 1 1 d . . .
N49 N -0.1358(11) 0.2811(10) 0.3085(4) 0.082(5) Uani 1 1 d . . .
C50 C -0.0921(12) 0.3076(12) 0.2889(5) 0.084(7) Uani 1 1 d . . .
C51 C -0.1189(12) 0.2777(10) 0.2671(5) 0.078(6) Uani 1 1 d . . .
H51A H -0.0860 0.2933 0.2534 0.093 Uiso 1 1 calc R . .
C52 C -0.1926(14) 0.2250(11) 0.2640(5) 0.088(7) Uani 1 1 d . . .
C53 C -0.2403(13) 0.2023(13) 0.2832(5) 0.087(7) Uani 1 1 d . . .
H53A H -0.2929 0.1708 0.2808 0.104 Uiso 1 1 calc R . .
C54 C -0.2103(16) 0.2265(15) 0.3071(5) 0.096(8) Uani 1 1 d . . .
C55 C -0.0128(14) 0.3594(14) 0.2907(6) 0.121(10) Uani 1 1 d U . .
H55A H 0.0004 0.3742 0.3079 0.182 Uiso 1 1 calc R . .
H55B H 0.0002 0.4041 0.2808 0.182 Uiso 1 1 calc R . .
H55C H 0.0150 0.3354 0.2847 0.182 Uiso 1 1 calc R . .
C56 C -0.2560(19) 0.2070(18) 0.3286(6) 0.136(11) Uani 1 1 d U . .
H56A H -0.3078 0.1689 0.3245 0.203 Uiso 1 1 calc R . .
H56B H -0.2553 0.2518 0.3351 0.203 Uiso 1 1 calc R . .
H56C H -0.2364 0.1867 0.3410 0.203 Uiso 1 1 calc R . .
N57 N -0.0405(17) 0.3585(12) 0.3768(4) 0.130(8) Uani 1 1 d U . .
H57A H -0.0574 0.3207 0.3883 0.156 Uiso 1 1 calc R . .
H57B H 0.0110 0.3810 0.3757 0.156 Uiso 1 1 calc R . .
N58 N -0.1109(19) 0.4049(17) 0.3436(4) 0.141(9) Uani 1 1 d U . .
H58A H -0.0851 0.4388 0.3313 0.169 Uiso 1 1 calc R . .
H58B H -0.1614 0.3883 0.3419 0.169 Uiso 1 1 calc R . .
C59 C -0.063(2) 0.4158(17) 0.3838(6) 0.154(11) Uani 1 1 d U . .
H59A H -0.1038 0.3938 0.3962 0.185 Uiso 1 1 calc R . .
H59B H -0.0198 0.4604 0.3911 0.185 Uiso 1 1 calc R . .
C60 C -0.086(3) 0.436(2) 0.3656(7) 0.190(13) Uani 1 1 d U . .
H60A H -0.0440 0.4868 0.3618 0.228 Uiso 1 1 calc R . .
H60B H -0.1268 0.4429 0.3721 0.228 Uiso 1 1 calc R . .
N61 N 0.1055(10) -0.2029(8) 0.4078(3) 0.073(5) Uani 1 1 d . . .
C62 C 0.1546(9) -0.1232(10) 0.4074(3) 0.053(4) Uani 1 1 d . . .
H62A H 0.2074 -0.1037 0.4079 0.064 Uiso 1 1 calc R . .
C63 C 0.1286(9) -0.0759(8) 0.4064(3) 0.046(4) Uani 1 1 d . . .
H63A H 0.1624 -0.0232 0.4058 0.055 Uiso 1 1 calc R . .
C64 C 0.0538(10) -0.1032(11) 0.4062(4) 0.064(5) Uani 1 1 d . . .
C65 C 0.0017(10) -0.1763(9) 0.4053(4) 0.061(5) Uani 1 1 d . . .
H65A H -0.0507 -0.1938 0.4043 0.073 Uiso 1 1 calc R . .
C66 C 0.0323(15) -0.2266(13) 0.4059(4) 0.085(7) Uani 1 1 d . . .
H66A H -0.0017 -0.2792 0.4049 0.102 Uiso 1 1 calc R . .
N68 N -0.0466(8) -0.0750(8) 0.4056(2) 0.052(3) Uani 1 1 d . . .
C67 C 0.0236(9) -0.0460(9) 0.4057(3) 0.044(4) Uani 1 1 d . . .
N69 N 0.0929(11) -0.3148(9) 0.4411(5) 0.107(7) Uani 1 1 d U . .
C70 C 0.0187(15) -0.3737(13) 0.4443(6) 0.098(8) Uani 1 1 d U . .
C71 C -0.0168(16) -0.3904(13) 0.4653(5) 0.092(7) Uani 1 1 d . . .
H71A H -0.0687 -0.4273 0.4657 0.111 Uiso 1 1 calc R . .
C72 C 0.0208(13) -0.3543(12) 0.4881(4) 0.081(6) Uani 1 1 d . . .
C73 C 0.0950(13) -0.2983(11) 0.4853(5) 0.083(6) Uani 1 1 d . . .
H73A H 0.1230 -0.2722 0.4994 0.100 Uiso 1 1 calc R . .
C74 C 0.1283(10) -0.2799(10) 0.4635(5) 0.080(7) Uani 1 1 d . . .
C75 C -0.0223(15) -0.4195(12) 0.4222(6) 0.114(10) Uani 1 1 d U . .
H75A H -0.0733 -0.4580 0.4270 0.171 Uiso 1 1 calc R . .
H75B H 0.0046 -0.4438 0.4156 0.171 Uiso 1 1 calc R . .
H75C H -0.0250 -0.3867 0.4097 0.171 Uiso 1 1 calc R . .
C76 C 0.2044(17) -0.2176(16) 0.4590(6) 0.139(12) Uani 1 1 d . . .
H76A H 0.2277 -0.1933 0.4745 0.209 Uiso 1 1 calc R . .
H76B H 0.2020 -0.1809 0.4481 0.209 Uiso 1 1 calc R . .
H76C H 0.2345 -0.2369 0.4512 0.209 Uiso 1 1 calc R . .
N77 N 0.1837(14) -0.2468(14) 0.3748(5) 0.133(8) Uani 1 1 d U . .
H77A H 0.1467 -0.2504 0.3645 0.159 Uiso 1 1 calc R . .
H77B H 0.2200 -0.1968 0.3756 0.159 Uiso 1 1 calc R . .
N78 N 0.1769(14) -0.3523(13) 0.4071(5) 0.130(8) Uani 1 1 d U . .
H78A H 0.2202 -0.3356 0.4161 0.156 Uiso 1 1 calc R . .
H78B H 0.1413 -0.3992 0.4126 0.156 Uiso 1 1 calc R . .
C79 C 0.219(2) -0.289(2) 0.3630(7) 0.161(11) Uani 1 1 d U . .
H79A H 0.2009 -0.3052 0.3461 0.193 Uiso 1 1 calc R . .
H79B H 0.2747 -0.2591 0.3630 0.193 Uiso 1 1 calc R . .
C80 C 0.192(2) -0.353(2) 0.3795(8) 0.179(12) Uani 1 1 d U . .
H80A H 0.2276 -0.3715 0.3780 0.215 Uiso 1 1 calc R . .
H80B H 0.1438 -0.3921 0.3724 0.215 Uiso 1 1 calc R . .
N901 N 0.3557(17) 0.4495(15) 0.0771(6) 0.216(17) Uiso 1 1 d D . .
O902 O 0.3373(18) 0.3822(13) 0.0725(6) 0.222(13) Uiso 1 1 d D . .
O903 O 0.3365(17) 0.4650(17) 0.0967(5) 0.214(13) Uiso 1 1 d D . .
O904 O 0.4187(14) 0.4978(14) 0.0683(5) 0.197(12) Uiso 1 1 d D . .
N917 N 0.349(2) 0.193(2) 0.0914(8) 0.27(2) Uiso 1 1 d D . .
O918 O 0.4075(19) 0.225(3) 0.1041(10) 0.39(3) Uiso 1 1 d D . .
O919 O 0.2964(15) 0.2034(16) 0.0956(5) 0.167(9) Uiso 1 1 d D . .
O920 O 0.336(4) 0.132(4) 0.0815(15) 0.62(7) Uiso 1 1 d D . .
N921 N 0.3494(11) 0.1616(18) 0.4048(7) 0.250(18) Uani 1 1 d DU . .
O922 O 0.2966(11) 0.0952(12) 0.4035(4) 0.154(10) Uani 1 1 d DU . .
O923 O 0.4136(11) 0.1771(19) 0.3991(8) 0.32(2) Uani 1 1 d DU . .
O924 O 0.3454(19) 0.2033(18) 0.4211(8) 0.39(3) Uani 1 1 d DU . .
N925 N 0.3031(16) 0.3232(15) 0.3465(7) 0.177(16) Uani 1 1 d D . .
O926 O 0.3220(17) 0.2841(17) 0.3345(7) 0.27(2) Uani 1 1 d D . .
O927 O 0.3466(15) 0.3905(16) 0.3477(10) 0.31(3) Uani 1 1 d D . .
O928 O 0.2345(14) 0.2968(14) 0.3498(3) 0.165(11) Uani 1 1 d D . .
N929 N 0.3347(17) 0.454(2) 0.1632(6) 0.229(18) Uiso 1 1 d D . .
O930 O 0.3937(17) 0.512(2) 0.1698(7) 0.28(2) Uiso 1 1 d D . .
O931 O 0.2771(18) 0.437(3) 0.1760(7) 0.32(2) Uiso 1 1 d D . .
O932 O 0.326(2) 0.439(2) 0.1408(6) 0.29(2) Uiso 1 1 d D . .
O1 O 0.3333 0.6667 0.0628(11) 0.111(18) Uiso 0.50 3 d SP . .
O2 O 0.532(2) 0.311(2) 0.4000(7) 0.119(12) Uiso 0.50 1 d P . .
O3 O 0.190(3) 0.448(4) 0.2762(11) 0.126(19) Uiso 0.33 1 d P . .
O4 O 0.611(3) 0.262(3) 0.3681(9) 0.103(15) Uiso 0.33 1 d P . .
O5 O 0.6667 0.3333 0.3347(17) 0.17(3) Uiso 0.50 3 d SP . .
O6 O 0.4025(19) 0.3990(19) 0.2770(6) 0.093(9) Uiso 0.50 1 d P . .
O7 O 0.456(2) 0.462(2) 0.3227(7) 0.118(12) Uiso 0.50 1 d P . .
O8 O 0.5809(17) 0.1647(16) 0.2882(5) 0.084(8) Uiso 0.50 1 d P . .
O9 O 0.433(4) 0.113(4) 0.4886(13) 0.15(2) Uiso 0.33 1 d P . .
O10 O 0.433(5) 0.491(5) 0.0140(16) 0.09(3) Uiso 0.17 1 d P . .
O11 O 0.161(4) 0.583(4) 0.0284(10) 0.20(2) Uiso 0.50 1 d P . .
O12 O 0.437(3) 0.314(3) 0.0102(9) 0.159(17) Uiso 0.50 1 d P . .
O13 O 0.463(5) 0.380(5) 0.0501(15) 0.18(3) Uiso 0.33 1 d P . .
O14 O 0.329(3) 0.698(3) 0.4369(7) 0.143(16) Uiso 0.50 1 d P . .
O15 O 0.6667 0.3333 0.2095(12) 0.115(19) Uiso 0.50 3 d SP . .
O16 O 0.136(5) 0.473(5) 0.2376(17) 0.09(3) Uiso 0.17 1 d P . .
O17 O 0.313(5) 0.448(5) 0.2522(16) 0.20(3) Uiso 0.33 1 d P . .
O18 O 0.464(4) 0.075(4) 0.4571(14) 0.16(3) Uiso 0.33 1 d P . .
O19 O 0.6667 0.3333 0.2910(12) 0.116(19) Uiso 0.50 3 d SP . .
O20 O 0.165(3) 0.425(3) 0.3202(9) 0.094(14) Uiso 0.32 1 d P G 1
O22 O 0.106(2) 0.436(2) 0.3562(8) 0.064(10) Uiso 0.32 1 d P H 1
O23 O 0.109(4) 0.517(4) 0.3368(12) 0.13(2) Uiso 0.32 1 d P I 1
O21 O 0.582(4) 0.178(4) 0.0577(12) 0.084(18) Uiso 0.21 1 d P J 1
O24 O 0.455(3) -0.008(3) 0.1817(10) 0.094(15) Uiso 0.32 1 d P K 1
O25 O 0.072(4) 0.502(4) 0.4900(13) 0.14(2) Uiso 0.32 1 d P L 1
N909 N 0.0927(16) 0.4540(12) 0.4228(5) 0.112(15) Uani 0.63 1 d PD M 1
O910 O 0.0840(16) 0.5037(11) 0.4325(4) 0.114(10) Uani 0.63 1 d PD M 1
O911 O 0.1500(19) 0.4734(17) 0.4101(8) 0.136(15) Uani 0.63 1 d PD M 1
O912 O 0.0518(17) 0.3878(10) 0.4279(6) 0.19(2) Uani 0.63 1 d PD M 1
O27 O 0.1133(19) 0.4458(19) 0.3412(7) 0.061(8) Uiso 0.37 1 d P N 2
O26 O 0.102(3) 0.456(3) 0.4081(11) 0.18(2) Uiso 0.68 1 d P O 2
N905 N 0.568(3) 0.419(3) 0.2345(6) 0.15(3) Uiso 0.37 1 d PD P 2
O906 O 0.602(4) 0.395(4) 0.2469(7) 0.18(3) Uiso 0.37 1 d PD P 2
O907 O 0.543(3) 0.455(3) 0.2461(6) 0.120(15) Uiso 0.37 1 d PD P 2
O908 O 0.580(2) 0.428(2) 0.2119(5) 0.067(8) Uiso 0.37 1 d PD P 2
O28 O 0.418(6) 0.574(6) 0.4769(16) 0.24(4) Uiso 0.37 1 d P Q 2
N913 N 0.0172(17) 0.3201(15) 0.1530(8) 0.21(2) Uani 0.88 1 d PD R 1
O914 O 0.0470(17) 0.3892(14) 0.1538(11) 0.34(4) Uani 0.88 1 d PD R 1
O915 O -0.0370(12) 0.2842(15) 0.1670(7) 0.206(16) Uani 0.88 1 d PD R 1
O916 O 0.0613(15) 0.2943(14) 0.1508(4) 0.167(13) Uani 0.88 1 d PD R 1
O29 O 0.448(2) 0.220(3) 0.0308(7) 0.110(12) Uiso 0.44 1 d P S 1
O30 O 0.442(2) 0.215(2) 0.4664(7) 0.101(11) Uiso 0.44 1 d P T 1
O31 O 0.589(4) 0.396(4) 0.4375(10) 0.17(2) Uiso 0.44 1 d P U 1
O32 O 0.461(4) 0.016(4) 0.1715(13) 0.026(15) Uiso 0.12 1 d P V 2
O33 O 0.509(7) 0.211(7) 0.025(2) 0.08(3) Uiso 0.12 1 d P W 2
O34 O 0.511(5) 0.292(5) 0.4761(15) 0.32(4) Uiso 0.56 1 d P X 2
O35 O 0.521(6) 0.260(6) 0.1119(18) 0.14(3) Uiso 0.22 1 d P Y 1
O36 O 0.6667 0.3333 0.166(2) 0.20(5) Uiso 0.43 3 d SP Z 1
O37 O 0.005(3) 0.410(3) 0.2288(10) 0.052(13) Uiso 0.22 1 d P A 1
O38 O 0.534(2) 0.221(2) 0.1003(7) 0.175(13) Uiso 0.78 1 d P B 2
O39 O 0.620(5) 0.359(5) 0.1422(12) 0.39(4) Uiso 0.78 1 d P C 2
O40 O -0.004(2) 0.397(2) 0.2144(7) 0.119(11) Uiso 0.57 1 d P D 2

loop_
_atom_site_aniso_label
_atom_site_aniso_U_11
_atom_site_aniso_U_22
_atom_site_aniso_U_33
_atom_site_aniso_U_23
_atom_site_aniso_U_13
_atom_site_aniso_U_12
Pd1 0.0666(10) 0.1177(15) 0.1001(13) -0.0297(11) -0.0307(9) 0.0595(11)
Pd2 0.1160(15) 0.0662(10) 0.0983(13) -0.0297(9) -0.0290(11) 0.0576(11)
Pd3 0.0637(10) 0.0722(11) 0.1454(17) 0.0028(10) -0.0096(10) 0.0476(9)
Pd4 0.0716(11) 0.0631(10) 0.1426(16) -0.0077(10) 0.0044(10) 0.0469(9)
Ag1 0.0647(8) 0.0647(8) 0.0427(11) 0.000 0.000 0.0323(4)
Ag2 0.0599(12) 0.0599(12) 0.0512(18) 0.000 0.000 0.0300(6)
Ag3 0.0598(11) 0.0598(11) 0.0454(16) 0.000 0.000 0.0299(6)
Au2A 0.0830(16) 0.0899(17) 0.0453(12) 0.0060(11) -0.0053(10) 0.0503(15)
N111 0.091(12) 0.083(12) 0.085(14) -0.002(9) 0.007(9) 0.043(8)
C112 0.10(2) 0.095(15) 0.09(3) 0.01(2) 0.01(2) 0.053(16)
C113 0.092(14) 0.096(18) 0.13(3) 0.00(3) 0.03(3) 0.052(14)
N114 0.065(15) 0.090(12) 0.16(3) 0.00(2) 0.05(2) 0.034(10)
C115 0.072(14) 0.078(14) 0.11(3) 0.03(2) 0.02(2) 0.031(11)
C161 0.081(14) 0.084(12) 0.078(15) -0.004(10) 0.009(10) 0.037(9)
Au2B 0.0752(8) 0.0991(10) 0.0429(6) -0.0007(6) -0.0041(5) 0.0503(8)
C116 0.048(8) 0.066(8) 0.034(8) 0.000(7) 0.003(7) 0.020(6)
N117 0.072(9) 0.077(12) 0.054(12) 0.008(12) 0.009(11) 0.013(9)
C118 0.097(12) 0.070(10) 0.086(18) -0.006(16) -0.005(17) 0.009(10)
C119 0.108(15) 0.074(10) 0.071(16) -0.004(14) 0.018(16) 0.033(11)
N120 0.086(8) 0.071(9) 0.055(9) -0.008(8) 0.004(8) 0.037(7)
C162 0.07(2) 0.19(4) 0.36(9) 0.20(6) 0.12(4) 0.07(3)
Au1A 0.0737(8) 0.0976(10) 0.0447(7) -0.0003(6) -0.0040(6) 0.0487(8)
C101 0.118(14) 0.088(12) 0.010(9) -0.009(10) 0.002(11) 0.084(11)
N102 0.155(16) 0.088(14) 0.092(17) -0.042(14) -0.032(16) 0.090(13)
C103 0.19(2) 0.088(12) 0.086(19) 0.000(17) 0.00(2) 0.076(14)
C104 0.163(17) 0.111(14) 0.045(15) -0.028(15) 0.021(17) 0.064(14)
N105 0.114(15) 0.109(16) 0.016(10) 0.022(13) -0.001(11) 0.062(15)
C151 0.19(2) 0.14(3) 0.09(2) -0.06(2) -0.04(2) 0.14(2)
Au1B 0.0874(17) 0.0779(17) 0.0388(13) 0.0128(12) 0.0064(10) 0.0364(15)
C106 0.076(10) 0.064(10) 0.072(13) -0.002(9) -0.003(9) 0.032(7)
N107 0.091(16) 0.073(11) 0.14(3) -0.02(2) 0.03(2) 0.042(9)
C108 0.089(14) 0.081(15) 0.14(3) -0.01(2) 0.01(3) 0.044(12)
C109 0.071(10) 0.074(11) 0.063(13) -0.001(9) 0.001(9) 0.036(8)
N110 0.061(11) 0.067(10) 0.047(12) -0.002(9) -0.001(9) 0.025(7)
C152 0.093(19) 0.070(11) 0.10(2) 0.015(17) -0.008(17) 0.047(11)
Au3A 0.0949(10) 0.0926(10) 0.0590(8) -0.0058(7) -0.0143(7) 0.0613(8)
N121 0.076(12) 0.131(14) 0.105(19) -0.015(17) -0.037(16) 0.064(12)
C122 0.078(16) 0.20(2) 0.16(3) -0.02(3) -0.04(2) 0.074(16)
C123 0.059(12) 0.21(2) 0.14(2) 0.00(3) -0.033(19) 0.049(13)
N124 0.038(11) 0.146(15) 0.111(19) -0.015(19) -0.015(14) 0.008(10)
C125 0.041(10) 0.084(14) 0.092(18) -0.051(15) -0.012(13) 0.005(9)
C171 0.043(19) 0.117(15) 0.14(4) 0.00(3) 0.01(2) -0.040(13)
Au3B 0.0563(13) 0.0702(15) 0.0683(15) -0.0014(10) -0.0016(11) 0.0349(12)
C126 0.030(9) 0.054(9) 0.026(10) -0.008(8) 0.006(8) 0.015(7)
N127 0.036(9) 0.077(15) 0.063(19) 0.028(18) 0.004(15) 0.007(9)
C128 0.055(12) 0.060(11) 0.06(2) 0.00(2) 0.005(19) 0.003(10)
C129 0.060(10) 0.046(9) 0.037(11) -0.004(9) 0.003(9) 0.017(8)
N130 0.039(8) 0.041(8) 0.017(9) 0.011(8) 0.006(8) 0.016(7)
C172 0.031(11) 0.10(3) 0.03(2) -0.01(2) 0.002(18) 0.009(17)
Au4A 0.0728(14) 0.0599(14) 0.0515(13) -0.0035(11) -0.0017(10) 0.0352(11)
C131 0.053(9) 0.036(9) 0.027(10) 0.008(8) 0.000(8) 0.021(7)
N132 0.071(15) 0.041(9) 0.09(2) -0.022(18) -0.01(2) 0.013(9)
C133 0.059(11) 0.050(10) 0.10(3) 0.00(2) 0.00(2) 0.009(9)
C134 0.048(8) 0.055(10) 0.042(11) 0.003(9) -0.005(9) 0.020(8)
N135 0.041(7) 0.038(7) 0.035(8) -0.001(5) 0.008(5) 0.019(5)
C181 0.09(2) 0.048(10) 0.06(2) 0.002(17) 0.002(17) 0.022(13)
Au4B 0.0943(10) 0.0942(10) 0.0503(7) -0.0129(6) -0.0042(6) 0.0617(8)
N136 0.102(10) 0.099(11) 0.047(13) -0.038(13) -0.004(12) 0.054(10)
C137 0.141(12) 0.112(11) 0.116(13) -0.007(9) 0.004(9) 0.067(9)
C138 0.158(15) 0.086(11) 0.081(18) -0.022(16) 0.039(18) 0.050(10)
N139 0.118(10) 0.077(11) 0.033(11) -0.002(11) 0.002(12) 0.025(9)
C140 0.071(9) 0.070(8) 0.042(9) 0.006(8) -0.010(8) 0.017(6)
C182 0.111(11) 0.030(14) 0.08(2) -0.007(16) 0.03(2) -0.012(11)
N1 0.032(8) 0.056(10) 0.124(14) 0.016(9) -0.013(8) 0.015(7)
C2 0.068(13) 0.108(18) 0.092(15) 0.005(13) -0.022(11) 0.061(14)
C3 0.032(9) 0.074(13) 0.128(17) 0.051(12) 0.024(9) 0.042(9)
C4 0.060(11) 0.049(10) 0.064(11) 0.001(8) -0.017(8) 0.032(9)
C5 0.045(9) 0.057(10) 0.050(9) -0.013(7) -0.002(7) 0.029(8)
C6 0.089(15) 0.032(9) 0.069(11) 0.000(8) 0.007(10) 0.031(10)
C7 0.043(9) 0.047(10) 0.044(8) -0.010(7) -0.007(6) 0.034(8)
N8 0.068(9) 0.051(9) 0.062(8) -0.002(7) 0.007(7) 0.043(8)
N9 0.034(8) 0.066(11) 0.19(2) -0.003(12) 0.002(10) 0.030(9)
C10 0.076(15) 0.101(18) 0.112(19) -0.018(14) -0.008(13) 0.072(15)
C11 0.041(11) 0.097(17) 0.115(19) 0.004(15) 0.000(11) 0.042(12)
C12 0.051(12) 0.073(16) 0.18(3) -0.009(14) -0.021(13) 0.047(12)
C13 0.040(11) 0.057(14) 0.18(3) 0.010(16) 0.036(14) 0.008(11)
C14 0.045(12) 0.047(13) 0.21(3) -0.017(17) -0.005(17) 0.018(11)
C16 0.048(12) 0.093(17) 0.24(3) -0.021(19) -0.058(17) 0.046(12)
C15 0.11(2) 0.10(2) 0.18(3) -0.02(2) 0.02(2) 0.023(17)
N17 0.145(19) 0.135(18) 0.17(2) -0.041(16) -0.075(16) 0.103(16)
C19 0.19(2) 0.16(2) 0.21(3) 0.05(2) -0.03(2) 0.12(2)
C20 0.14(2) 0.21(2) 0.23(3) 0.07(2) -0.01(2) 0.12(2)
N18 0.090(14) 0.16(2) 0.18(2) 0.042(17) 0.025(14) 0.102(15)
N21 0.054(10) 0.077(12) 0.090(12) -0.021(9) -0.028(8) 0.036(9)
C22 0.11(2) 0.082(16) 0.072(14) -0.008(11) -0.024(13) 0.055(16)
C23 0.036(9) 0.058(11) 0.113(15) -0.006(11) -0.020(10) 0.029(8)
C24 0.055(10) 0.022(8) 0.070(11) 0.002(7) -0.019(8) 0.010(7)
C25 0.088(16) 0.066(13) 0.080(14) -0.014(11) -0.015(11) 0.041(12)
C26 0.027(9) 0.12(2) 0.095(15) -0.041(14) -0.025(9) 0.038(11)
C27 0.034(9) 0.047(10) 0.096(14) 0.026(9) 0.011(8) 0.016(8)
N28 0.052(9) 0.056(9) 0.086(11) 0.022(8) 0.006(8) 0.026(8)
N29 0.070(11) 0.082(13) 0.101(14) 0.012(11) -0.009(10) 0.044(11)
C30 0.064(14) 0.081(17) 0.18(3) -0.084(19) -0.031(17) 0.039(13)
C31 0.054(11) 0.081(14) 0.082(14) -0.008(11) -0.017(10) 0.034(11)
C32 0.036(9) 0.071(13) 0.121(17) -0.015(12) -0.007(10) 0.036(10)
C33 0.072(14) 0.044(11) 0.112(18) -0.011(12) -0.015(12) 0.019(10)
C34 0.062(13) 0.078(15) 0.109(17) -0.013(13) -0.015(12) 0.044(12)
C35 0.14(2) 0.14(3) 0.102(19) 0.014(17) 0.020(17) 0.09(2)
C36 0.095(19) 0.084(17) 0.15(3) -0.014(17) 0.001(18) 0.025(15)
N37 0.088(13) 0.27(3) 0.090(14) -0.048(16) -0.047(11) 0.105(16)
N38 0.20(3) 0.24(3) 0.161(19) -0.07(2) -0.08(2) 0.17(2)
C39 0.129(18) 0.28(3) 0.143(18) -0.065(18) -0.101(16) 0.129(18)
C40 0.17(2) 0.32(3) 0.18(2) -0.06(2) -0.09(2) 0.18(2)
N41 0.114(16) 0.101(15) 0.061(10) -0.024(9) -0.026(10) 0.082(14)
C42 0.14(2) 0.042(10) 0.059(11) -0.029(8) -0.041(12) 0.059(12)
C43 0.081(14) 0.074(13) 0.054(11) -0.010(9) -0.026(10) 0.032(12)
C44 0.035(8) 0.059(10) 0.042(8) -0.001(7) 0.006(6) 0.022(8)
C45 0.051(11) 0.048(10) 0.067(11) -0.008(9) -0.004(9) 0.017(8)
C46 0.085(16) 0.091(17) 0.088(15) -0.029(13) -0.020(12) 0.055(15)
C47 0.072(12) 0.040(9) 0.029(7) -0.005(6) -0.003(7) 0.040(9)
N48 0.078(11) 0.072(11) 0.031(7) 0.004(6) 0.007(7) 0.041(9)
N49 0.076(12) 0.074(11) 0.103(14) -0.037(10) -0.012(11) 0.043(10)
C50 0.054(12) 0.070(13) 0.13(2) -0.025(14) -0.038(14) 0.035(11)
C51 0.067(13) 0.042(10) 0.120(18) -0.017(11) -0.027(12) 0.025(10)
C52 0.090(17) 0.049(12) 0.14(2) 0.001(13) 0.000(16) 0.049(13)
C53 0.060(13) 0.080(15) 0.112(19) 0.015(13) -0.002(13) 0.029(12)
C54 0.11(2) 0.100(18) 0.117(19) -0.047(16) -0.033(17) 0.080(17)
C55 0.080(17) 0.068(15) 0.20(3) 0.030(17) -0.011(18) 0.023(13)
C56 0.14(3) 0.14(3) 0.16(3) 0.04(2) 0.01(2) 0.10(2)
N57 0.25(3) 0.088(13) 0.088(14) -0.037(11) -0.031(15) 0.112(16)
N58 0.21(3) 0.16(2) 0.103(16) -0.010(15) -0.023(17) 0.13(2)
C59 0.27(3) 0.105(17) 0.114(19) -0.068(15) -0.05(2) 0.113(18)
C60 0.29(3) 0.15(2) 0.16(3) -0.05(2) -0.04(2) 0.14(2)
N61 0.087(13) 0.045(9) 0.093(12) -0.004(8) 0.028(9) 0.038(9)
C62 0.037(9) 0.068(12) 0.062(10) 0.003(8) 0.001(7) 0.031(9)
C63 0.052(10) 0.030(8) 0.054(9) -0.004(7) -0.003(7) 0.020(7)
C64 0.043(10) 0.062(12) 0.086(13) -0.025(10) -0.007(9) 0.027(9)
C65 0.049(10) 0.036(9) 0.103(15) 0.016(9) 0.035(10) 0.025(8)
C66 0.096(18) 0.067(14) 0.108(17) -0.006(12) 0.016(13) 0.052(13)
N68 0.062(10) 0.068(9) 0.042(7) 0.005(6) -0.004(6) 0.043(8)
C67 0.044(9) 0.038(9) 0.055(9) 0.003(7) -0.004(7) 0.024(8)
N69 0.094(11) 0.038(8) 0.20(2) -0.004(11) -0.043(15) 0.041(8)
C70 0.093(13) 0.057(12) 0.17(3) 0.014(16) 0.010(18) 0.053(10)
C71 0.105(19) 0.053(13) 0.13(2) -0.016(14) 0.003(17) 0.050(13)
C72 0.099(17) 0.071(13) 0.102(17) -0.001(11) 0.005(13) 0.065(14)
C73 0.074(15) 0.054(12) 0.112(18) 0.015(12) -0.002(13) 0.024(11)
C74 0.043(10) 0.041(10) 0.15(2) -0.013(12) -0.009(12) 0.013(9)
C75 0.101(17) 0.048(12) 0.20(3) -0.033(16) 0.010(19) 0.041(12)
C76 0.12(2) 0.076(18) 0.19(3) 0.03(2) -0.03(2) 0.022(17)
N77 0.136(18) 0.152(19) 0.18(2) -0.037(16) -0.005(15) 0.123(17)
N78 0.127(17) 0.102(15) 0.21(2) 0.035(16) 0.038(17) 0.098(14)
C79 0.14(2) 0.15(2) 0.23(3) -0.03(2) 0.05(2) 0.099(19)
C80 0.18(2) 0.14(2) 0.25(3) -0.01(2) 0.07(2) 0.10(2)
N921 0.057(15) 0.30(4) 0.34(4) -0.15(3) -0.04(2) 0.05(2)
O922 0.112(15) 0.145(18) 0.114(15) -0.013(13) 0.028(12) -0.004(14)
O923 0.110(19) 0.35(4) 0.54(5) -0.18(4) -0.04(3) 0.15(2)
O924 0.17(3) 0.32(5) 0.51(7) 0.12(5) -0.08(4) -0.01(4)
N925 0.17(3) 0.11(2) 0.28(5) 0.02(3) 0.06(3) 0.09(3)
O926 0.24(4) 0.21(3) 0.46(6) -0.07(4) -0.04(4) 0.20(3)
O927 0.16(3) 0.18(3) 0.59(8) -0.11(4) -0.01(4) 0.09(3)
O928 0.27(4) 0.17(2) 0.066(12) 0.003(12) 0.020(17) 0.12(3)
N909 0.13(3) 0.09(3) 0.14(4) 0.03(2) -0.05(3) 0.06(2)
O910 0.22(3) 0.074(15) 0.12(2) 0.015(14) 0.022(19) 0.13(2)
O911 0.13(3) 0.11(2) 0.21(4) 0.01(2) 0.08(3) 0.09(2)
O912 0.25(4) 0.042(15) 0.26(4) 0.02(2) -0.14(4) 0.05(2)
N913 0.15(4) 0.10(3) 0.37(7) -0.01(3) 0.08(4) 0.05(3)
O914 0.15(3) 0.13(3) 0.79(11) 0.15(4) 0.16(5) 0.11(2)
O915 0.075(16) 0.15(3) 0.31(4) 0.06(3) 0.02(2) -0.003(16)
O916 0.20(3) 0.14(2) 0.087(15) 0.037(15) 0.004(17) 0.03(2)

_geom_special_details            
;
All esds (except the esd in the dihedral angle between two l.s. planes)
are estimated using the full covariance matrix. The cell esds are taken
into account individually in the estimation of esds in distances, angles
and torsion angles; correlations between esds in cell parameters are only
used when they are defined by crystal symmetry. An approximate (isotropic)
treatment of cell esds is used for estimating esds involving l.s. planes.
;

loop_
_geom_bond_atom_site_label_1
_geom_bond_atom_site_label_2
_geom_bond_distance
_geom_bond_site_symmetry_2
_geom_bond_publ_flag
Pd1 N37 1.990(19) . ?
Pd1 N38 2.03(3) . ?
Pd1 N21 2.034(16) . ?
Pd1 N29 2.04(2) . ?
Pd2 N49 2.048(18) . ?
Pd2 N41 2.057(17) . ?
Pd2 N58 2.07(2) . ?
Pd2 N57 2.091(19) . ?
Pd3 N1 1.976(15) . ?
Pd3 N17 1.98(3) . ?
Pd3 N9 1.99(2) . ?
Pd3 N18 2.039(17) . ?
Pd4 N69 1.97(3) . ?
Pd4 N61 1.990(15) . ?
Pd4 N77 2.02(3) . ?
Pd4 N78 2.019(17) . ?
Ag1 Au1B 2.682(3) 3 ?
Ag1 Au1B 2.682(3) 2 ?
Ag1 Au1B 2.682(3) . ?
Ag1 Au2A 2.698(3) 3 ?
Ag1 Au2A 2.698(3) 2 ?
Ag1 Au2A 2.698(3) . ?
Ag1 Au1A 2.813(2) . ?
Ag1 Au1A 2.814(2) 2 ?
Ag1 Au1A 2.814(2) 3 ?
Ag1 Au2B 2.8178(19) 2 ?
Ag1 Au2B 2.8178(19) 3 ?
Ag1 Au2B 2.8180(19) . ?
Ag2 Au3B 2.711(2) 2 ?
Ag2 Au3B 2.711(2) 4 ?
Ag2 Au3B 2.712(2) 6 ?
Ag2 Au3B 2.712(2) 3 ?
Ag2 Au3B 2.712(2) 5 ?
Ag2 Au3B 2.712(2) . ?
Ag2 Au3A 2.7734(13) 4 ?
Ag2 Au3A 2.7735(13) 5 ?
Ag2 Au3A 2.7735(13) 6 ?
Ag2 Au3A 2.7735(13) 2 ?
Ag2 Au3A 2.7735(13) 3 ?
Ag2 Au3A 2.7736(13) . ?
Ag3 Au4A 2.709(2) 2 ?
Ag3 Au4A 2.709(2) 6_556 ?
Ag3 Au4A 2.709(2) 3 ?
Ag3 Au4A 2.709(2) 5_556 ?
Ag3 Au4A 2.709(2) . ?
Ag3 Au4A 2.709(2) 4_556 ?
Ag3 Au4B 2.7746(13) 6_556 ?
Ag3 Au4B 2.7746(13) 4_556 ?
Ag3 Au4B 2.7746(13) 2 ?
Ag3 Au4B 2.7746(13) 3 ?
Ag3 Au4B 2.7747(13) 5_556 ?
Ag3 Au4B 2.7748(13) . ?
Au2A N111 1.989(17) . ?
Au2A C115 2.02(4) 3 ?
N111 C112 1.347(19) . ?
N111 C115 1.397(18) . ?
C112 C113 1.43(5) . ?
C112 H11B 0.9500 . ?
C113 N114 1.32(6) . ?
C113 H11C 0.9500 . ?
N114 C161 1.18(7) . ?
N114 C115 1.36(4) . ?
C115 Au2A 2.02(4) 2 ?
C161 H16D 0.9800 . ?
C161 H16E 0.9800 . ?
C161 H16F 0.9800 . ?
Au2B N120 2.01(2) 3 ?
Au2B C116 2.043(14) . ?
C116 N120 1.37(3) . ?
C116 N117 1.43(3) . ?
N117 C118 1.32(4) . ?
N117 C162 1.88(6) . ?
C118 C119 1.40(4) . ?
C118 H11F 0.9500 . ?
C119 N120 1.36(3) . ?
C119 H11G 0.9500 . ?
N120 Au2B 2.01(2) 2 ?
C162 H16G 0.9800 . ?
C162 H16H 0.9800 . ?
C162 H16I 0.9800 . ?
Au1A C101 2.006(15) . ?
Au1A N105 2.03(2) 2 ?
C101 N102 1.32(3) . ?
C101 N105 1.37(3) . ?
N102 C103 1.41(3) . ?
N102 C151 1.463(17) . ?
C103 C104 1.34(4) . ?
C103 H10A 0.9500 . ?
C104 N105 1.40(4) . ?
C104 H10B 0.9500 . ?
N105 Au1A 2.03(2) 3 ?
C151 H15D 0.9800 . ?
C151 H15E 0.9800 . ?
C151 H15F 0.9800 . ?
Au1B N110 1.99(3) 3 ?
Au1B C106 2.010(17) . ?
C106 N107 1.35(3) . ?
C106 N110 1.379(18) . ?
N107 C108 1.35(2) . ?
N107 C152 1.45(7) . ?
C108 C109 1.41(3) . ?
C108 H10D 0.9500 . ?
C109 N110 1.364(18) . ?
C109 H10E 0.9500 . ?
N110 Au1B 1.99(3) 2 ?
C152 H15G 0.9800 . ?
C152 H15H 0.9800 . ?
C152 H15I 0.9800 . ?
Au3A C125 1.99(2) 3 ?
Au3A N121 2.005(15) . ?
N121 C125 1.376(16) . ?
N121 C122 1.377(17) . ?
C122 C123 1.374(17) . ?
C122 H12A 0.9500 . ?
C123 N124 1.360(16) . ?
C123 H12B 0.9500 . ?
N124 C125 1.358(15) . ?
N124 C171 1.452(15) . ?
C125 Au3A 1.99(2) 2 ?
C171 H17C 0.9800 . ?
C171 H17D 0.9800 . ?
C171 H17E 0.9800 . ?
Au3B N130 1.96(2) 3 ?
Au3B C126 2.015(15) . ?
C126 N130 1.370(16) . ?
C126 N127 1.388(16) . ?
N127 C128 1.357(16) . ?
N127 C172 1.443(15) . ?
C128 C129 1.380(17) . ?
C128 H12D 0.9500 . ?
C129 N130 1.371(17) . ?
C129 H12E 0.9500 . ?
N130 Au3B 1.96(2) 2 ?
C172 H17F 0.9800 . ?
C172 H17G 0.9800 . ?
C172 H17H 0.9800 . ?
Au4A N135 1.98(2) 2 ?
Au4A C131 2.001(16) . ?
C131 N135 1.34(4) . ?
C131 N132 1.47(5) . ?
N132 C133 1.27(4) . ?
N132 C181 1.74(6) . ?
C133 C134 1.389(19) . ?
C133 H13B 0.9500 . ?
C134 N135 1.40(3) . ?
C134 H13C 0.9500 . ?
N135 Au4A 1.98(2) 3 ?
C181 H18C 0.9800 . ?
C181 H18D 0.9800 . ?
C181 H18E 0.9800 . ?
Au4B N136 1.979(15) . ?
Au4B C140 2.08(2) 2 ?
N136 C140 1.38(3) . ?
N136 C137 1.43(4) . ?
C137 C138 1.27(4) . ?
C137 H13F 0.9500 . ?
C138 N139 1.41(4) . ?
C138 H13G 0.9500 . ?
N139 C182 1.27(4) . ?
N139 C140 1.349(17) . ?
C140 Au4B 2.08(2) 3 ?
C182 H18F 0.9800 . ?
C182 H18G 0.9800 . ?
C182 H18H 0.9800 . ?
N1 C2 1.35(3) . ?
N1 C6 1.42(2) . ?
C2 C3 1.39(2) . ?
C2 H2A 0.9500 . ?
C3 C4 1.38(2) . ?
C3 H3A 0.9500 . ?
C4 C5 1.33(2) . ?
C4 C7 1.56(2) . ?
C5 C6 1.36(2) . ?
C5 H5A 0.9500 . ?
C6 H6A 0.9500 . ?
C7 N8 1.21(2) . ?
C7 N8 1.39(2) 3 ?
N8 C7 1.39(2) 2 ?
N9 C10 1.39(3) . ?
N9 C14 1.50(4) . ?
C10 C11 1.39(3) . ?
C10 C16 1.54(3) . ?
C11 C12 1.37(3) . ?
C11 H11A 0.9500 . ?
C12 C13 1.34(3) . ?
C12 C12 1.57(5) 5 ?
C13 C14 1.22(4) . ?
C13 H13A 0.9500 . ?
C14 C15 1.46(4) . ?
C16 H16A 0.9800 . ?
C16 H16B 0.9800 . ?
C16 H16C 0.9800 . ?
C15 H15A 0.9800 . ?
C15 H15B 0.9800 . ?
C15 H15C 0.9800 . ?
N17 C19 1.42(3) . ?
N17 H17A 0.9200 . ?
N17 H17B 0.9200 . ?
C19 C20 1.505(19) . ?
C19 H19A 0.9900 . ?
C19 H19B 0.9900 . ?
C20 N18 1.417(18) . ?
C20 H20A 0.9900 . ?
C20 H20B 0.9900 . ?
N18 H18A 0.9200 . ?
N18 H18B 0.9200 . ?
N21 C22 1.29(3) . ?
N21 C26 1.43(3) . ?
C22 C23 1.38(3) . ?
C22 H22A 0.9500 . ?
C23 C24 1.37(2) . ?
C23 H23A 0.9500 . ?
C24 C25 1.36(3) . ?
C24 C27 1.52(3) . ?
C25 C26 1.36(3) . ?
C25 H25A 0.9500 . ?
C26 H26A 0.9500 . ?
C27 N28 1.32(2) . ?
C27 N28 1.33(2) 2 ?
N28 C27 1.33(2) 3 ?
N29 C30 1.30(4) . ?
N29 C34 1.35(3) . ?
C30 C31 1.42(3) . ?
C30 C36 1.49(3) . ?
C31 C32 1.39(3) . ?
C31 H31A 0.9500 . ?
C32 C33 1.40(3) . ?
C32 C52 1.62(3) . ?
C33 C34 1.36(3) . ?
C33 H33A 0.9500 . ?
C34 C35 1.49(3) . ?
C35 H35A 0.9800 . ?
C35 H35B 0.9800 . ?
C35 H35C 0.9800 . ?
C36 H36A 0.9800 . ?
C36 H36B 0.9800 . ?
C36 H36C 0.9800 . ?
N37 C39 1.45(3) . ?
N37 H37A 0.9200 . ?
N37 H37B 0.9200 . ?
N38 C40 1.424(18) . ?
N38 H38A 0.9200 . ?
N38 H38B 0.9200 . ?
C39 C40 1.506(19) . ?
C39 H39A 0.9900 . ?
C39 H39B 0.9900 . ?
C40 H40A 0.9900 . ?
C40 H40B 0.9900 . ?
N41 C46 1.31(3) . ?
N41 C42 1.45(3) . ?
C42 C43 1.32(3) . ?
C42 H42A 0.9500 . ?
C43 C44 1.37(3) . ?
C43 H43A 0.9500 . ?
C44 C45 1.40(2) . ?
C44 C47 1.48(2) . ?
C45 C46 1.38(3) . ?
C45 H45A 0.9500 . ?
C46 H46A 0.9500 . ?
C47 N48 1.33(2) . ?
C47 N48 1.37(2) 3 ?
N48 C47 1.37(2) 2 ?
N49 C50 1.33(3) . ?
N49 C54 1.37(3) . ?
C50 C51 1.32(3) . ?
C50 C55 1.44(3) . ?
C51 C52 1.36(3) . ?
C51 H51A 0.9500 . ?
C52 C53 1.35(3) . ?
C53 C54 1.42(3) . ?
C53 H53A 0.9500 . ?
C54 C56 1.43(4) . ?
C55 H55A 0.9800 . ?
C55 H55B 0.9800 . ?
C55 H55C 0.9800 . ?
C56 H56A 0.9800 . ?
C56 H56B 0.9800 . ?
C56 H56C 0.9800 . ?
N57 C59 1.52(3) . ?
N57 H57A 0.9200 . ?
N57 H57B 0.9200 . ?
N58 C60 1.33(4) . ?
N58 H58A 0.9200 . ?
N58 H58B 0.9200 . ?
C59 C60 1.25(4) . ?
C59 H59A 0.9900 . ?
C59 H59B 0.9900 . ?
C60 H60A 0.9900 . ?
C60 H60B 0.9900 . ?
N61 C66 1.33(3) . ?
N61 C62 1.43(2) . ?
C62 C63 1.32(2) . ?
C62 H62A 0.9500 . ?
C63 C64 1.35(2) . ?
C63 H63A 0.9500 . ?
C64 C65 1.34(2) . ?
C64 C67 1.58(2) . ?
C65 C66 1.45(3) . ?
C65 H65A 0.9500 . ?
C66 H66A 0.9500 . ?
N68 C67 1.26(2) . ?
N68 C67 1.35(2) 3 ?
C67 N68 1.35(2) 2 ?
N69 C70 1.40(3) . ?
N69 C74 1.42(3) . ?
C70 C71 1.31(3) . ?
C70 C75 1.50(4) . ?
C71 C72 1.46(3) . ?
C71 H71A 0.9500 . ?
C72 C73 1.39(3) . ?
C72 C72 1.49(4) 6_556 ?
C73 C74 1.33(3) . ?
C73 H73A 0.9500 . ?
C74 C76 1.46(3) . ?
C75 H75A 0.9800 . ?
C75 H75B 0.9800 . ?
C75 H75C 0.9800 . ?
C76 H76A 0.9800 . ?
C76 H76B 0.9800 . ?
C76 H76C 0.9800 . ?
N77 C79 1.53(3) . ?
N77 H77A 0.9200 . ?
N77 H77B 0.9200 . ?
N78 C80 1.54(4) . ?
N78 H78A 0.9200 . ?
N78 H78B 0.9200 . ?
C79 C80 1.44(5) . ?
C79 H79A 0.9900 . ?
C79 H79B 0.9900 . ?
C80 H80A 0.9900 . ?
C80 H80B 0.9900 . ?
N901 O903 1.236(18) . ?
N901 O902 1.262(18) . ?
N901 O904 1.266(18) . ?
N917 O919 1.235(18) . ?
N917 O918 1.244(19) . ?
N917 O920 1.253(19) . ?
N921 O923 1.232(17) . ?
N921 O922 1.250(19) . ?
N921 O924 1.266(18) . ?
N925 O927 1.216(17) . ?
N925 O926 1.238(17) . ?
N925 O928 1.245(17) . ?
N929 O932 1.250(18) . ?
N929 O930 1.258(19) . ?
N929 O931 1.265(19) . ?
O14 O14 1.20(6) 2_665 ?
O14 O14 1.20(6) 3_565 ?
N909 O912 1.220(16) . ?
N909 O910 1.238(17) . ?
N909 O911 1.249(17) . ?
N905 O907 1.248(19) . ?
N905 O906 1.252(19) . ?
N905 O908 1.253(19) . ?
N913 O914 1.234(18) . ?
N913 O915 1.241(19) . ?
N913 O916 1.263(18) . ?

loop_
_geom_angle_atom_site_label_1
_geom_angle_atom_site_label_2
_geom_angle_atom_site_label_3
_geom_angle
_geom_angle_site_symmetry_1
_geom_angle_site_symmetry_3
_geom_angle_publ_flag
N37 Pd1 N38 84.2(9) . . ?
N37 Pd1 N21 92.7(8) . . ?
N38 Pd1 N21 174.7(12) . . ?
N37 Pd1 N29 177.2(9) . . ?
N38 Pd1 N29 93.3(9) . . ?
N21 Pd1 N29 89.9(7) . . ?
N49 Pd2 N41 91.4(7) . . ?
N49 Pd2 N58 93.9(8) . . ?
N41 Pd2 N58 174.6(8) . . ?
N49 Pd2 N57 176.0(9) . . ?
N41 Pd2 N57 91.5(7) . . ?
N58 Pd2 N57 83.2(9) . . ?
N1 Pd3 N17 92.0(8) . . ?
N1 Pd3 N9 89.2(7) . . ?
N17 Pd3 N9 176.0(9) . . ?
N1 Pd3 N18 178.2(8) . . ?
N17 Pd3 N18 86.2(9) . . ?
N9 Pd3 N18 92.6(7) . . ?
N69 Pd4 N61 91.5(6) . . ?
N69 Pd4 N77 177.7(8) . . ?
N61 Pd4 N77 90.3(7) . . ?
N69 Pd4 N78 92.6(9) . . ?
N61 Pd4 N78 175.8(9) . . ?
N77 Pd4 N78 85.6(9) . . ?
Au1B Ag1 Au1B 81.10(10) 3 2 ?
Au1B Ag1 Au1B 81.09(10) 3 . ?
Au1B Ag1 Au1B 81.09(10) 2 . ?
Au1B Ag1 Au2A 154.47(8) 3 3 ?
Au1B Ag1 Au2A 86.02(8) 2 3 ?
Au1B Ag1 Au2A 118.63(8) . 3 ?
Au1B Ag1 Au2A 118.63(8) 3 2 ?
Au1B Ag1 Au2A 154.47(8) 2 2 ?
Au1B Ag1 Au2A 86.02(8) . 2 ?
Au2A Ag1 Au2A 80.95(10) 3 2 ?
Au1B Ag1 Au2A 86.02(8) 3 . ?
Au1B Ag1 Au2A 118.63(8) 2 . ?
Au1B Ag1 Au2A 154.47(8) . . ?
Au2A Ag1 Au2A 80.95(10) 3 . ?
Au2A Ag1 Au2A 80.95(10) 2 . ?
Au1B Ag1 Au1A 94.11(9) 3 . ?
Au1B Ag1 Au1A 35.67(7) 2 . ?
Au1B Ag1 Au1A 50.53(8) . . ?
Au2A Ag1 Au1A 87.97(6) 3 . ?
Au2A Ag1 Au1A 121.46(6) 2 . ?
Au2A Ag1 Au1A 153.19(7) . . ?
Au1B Ag1 Au1A 35.67(7) 3 2 ?
Au1B Ag1 Au1A 50.53(7) 2 2 ?
Au1B Ag1 Au1A 94.11(9) . 2 ?
Au2A Ag1 Au1A 121.46(7) 3 2 ?
Au2A Ag1 Au1A 153.19(6) 2 2 ?
Au2A Ag1 Au1A 87.97(6) . 2 ?
Au1A Ag1 Au1A 77.10(6) . 2 ?
Au1B Ag1 Au1A 50.53(7) 3 3 ?
Au1B Ag1 Au1A 94.11(9) 2 3 ?
Au1B Ag1 Au1A 35.67(7) . 3 ?
Au2A Ag1 Au1A 153.19(6) 3 3 ?
Au2A Ag1 Au1A 87.97(6) 2 3 ?
Au2A Ag1 Au1A 121.46(6) . 3 ?
Au1A Ag1 Au1A 77.10(6) . 3 ?
Au1A Ag1 Au1A 77.10(6) 2 3 ?
Au1B Ag1 Au2B 153.01(7) 3 2 ?
Au1B Ag1 Au2B 121.59(7) 2 2 ?
Au1B Ag1 Au2B 87.92(7) . 2 ?
Au2A Ag1 Au2B 50.60(7) 3 2 ?
Au2A Ag1 Au2B 35.46(7) 2 2 ?
Au2A Ag1 Au2B 93.90(9) . 2 ?
Au1A Ag1 Au2B 97.77(4) . 2 ?
Au1A Ag1 Au2B 171.19(4) 2 2 ?
Au1A Ag1 Au2B 108.99(4) 3 2 ?
Au1B Ag1 Au2B 121.59(7) 3 3 ?
Au1B Ag1 Au2B 87.91(7) 2 3 ?
Au1B Ag1 Au2B 153.01(7) . 3 ?
Au2A Ag1 Au2B 35.46(7) 3 3 ?
Au2A Ag1 Au2B 93.90(9) 2 3 ?
Au2A Ag1 Au2B 50.60(7) . 3 ?
Au1A Ag1 Au2B 108.99(4) . 3 ?
Au1A Ag1 Au2B 97.77(4) 2 3 ?
Au1A Ag1 Au2B 171.19(4) 3 3 ?
Au2B Ag1 Au2B 76.96(6) 2 3 ?
Au1B Ag1 Au2B 87.92(7) 3 . ?
Au1B Ag1 Au2B 153.02(7) 2 . ?
Au1B Ag1 Au2B 121.59(7) . . ?
Au2A Ag1 Au2B 93.90(9) 3 . ?
Au2A Ag1 Au2B 50.60(7) 2 . ?
Au2A Ag1 Au2B 35.46(7) . . ?
Au1A Ag1 Au2B 171.19(4) . . ?
Au1A Ag1 Au2B 109.00(4) 2 . ?
Au1A Ag1 Au2B 97.77(4) 3 . ?
Au2B Ag1 Au2B 76.96(6) 2 . ?
Au2B Ag1 Au2B 76.96(6) 3 . ?
Au3B Ag2 Au3B 87.68(10) 2 4 ?
Au3B Ag2 Au3B 115.06(10) 2 6 ?
Au3B Ag2 Au3B 80.93(8) 4 6 ?
Au3B Ag2 Au3B 80.93(8) 2 3 ?
Au3B Ag2 Au3B 158.75(10) 4 3 ?
Au3B Ag2 Au3B 87.68(10) 6 3 ?
Au3B Ag2 Au3B 158.75(10) 2 5 ?
Au3B Ag2 Au3B 80.93(8) 4 5 ?
Au3B Ag2 Au3B 80.93(8) 6 5 ?
Au3B Ag2 Au3B 115.06(10) 3 5 ?
Au3B Ag2 Au3B 80.93(8) 2 . ?
Au3B Ag2 Au3B 115.06(10) 4 . ?
Au3B Ag2 Au3B 158.75(10) 6 . ?
Au3B Ag2 Au3B 80.93(8) 3 . ?
Au3B Ag2 Au3B 87.69(10) 5 . ?
Au3B Ag2 Au3A 86.21(6) 2 4 ?
Au3B Ag2 Au3A 36.25(6) 4 4 ?
Au3B Ag2 Au3A 50.41(6) 6 4 ?
Au3B Ag2 Au3A 124.39(6) 3 4 ?
Au3B Ag2 Au3A 94.86(6) 5 4 ?
Au3B Ag2 Au3A 149.37(6) . 4 ?
Au3B Ag2 Au3A 124.39(6) 2 5 ?
Au3B Ag2 Au3A 50.40(6) 4 5 ?
Au3B Ag2 Au3A 94.86(6) 6 5 ?
Au3B Ag2 Au3A 149.37(6) 3 5 ?
Au3B Ag2 Au3A 36.25(6) 5 5 ?
Au3B Ag2 Au3A 86.21(6) . 5 ?
Au3A Ag2 Au3A 78.33(4) 4 5 ?
Au3B Ag2 Au3A 149.37(6) 2 6 ?
Au3B Ag2 Au3A 94.86(6) 4 6 ?
Au3B Ag2 Au3A 36.25(6) 6 6 ?
Au3B Ag2 Au3A 86.21(6) 3 6 ?
Au3B Ag2 Au3A 50.40(6) 5 6 ?
Au3B Ag2 Au3A 124.39(6) . 6 ?
Au3A Ag2 Au3A 78.33(4) 4 6 ?
Au3A Ag2 Au3A 78.33(4) 5 6 ?
Au3B Ag2 Au3A 36.25(6) 2 2 ?
Au3B Ag2 Au3A 86.21(6) 4 2 ?
Au3B Ag2 Au3A 149.37(6) 6 2 ?
Au3B Ag2 Au3A 94.86(6) 3 2 ?
Au3B Ag2 Au3A 124.39(6) 5 2 ?
Au3B Ag2 Au3A 50.40(6) . 2 ?
Au3A Ag2 Au3A 105.56(7) 4 2 ?
Au3A Ag2 Au3A 98.13(6) 5 2 ?
Au3A Ag2 Au3A 174.23(7) 6 2 ?
Au3B Ag2 Au3A 50.41(6) 2 3 ?
Au3B Ag2 Au3A 124.39(6) 4 3 ?
Au3B Ag2 Au3A 86.21(6) 6 3 ?
Au3B Ag2 Au3A 36.25(6) 3 3 ?
Au3B Ag2 Au3A 149.37(6) 5 3 ?
Au3B Ag2 Au3A 94.86(6) . 3 ?
Au3A Ag2 Au3A 98.13(6) 4 3 ?
Au3A Ag2 Au3A 174.23(7) 5 3 ?
Au3A Ag2 Au3A 105.56(7) 6 3 ?
Au3A Ag2 Au3A 78.33(4) 2 3 ?
Au3B Ag2 Au3A 94.86(6) 2 . ?
Au3B Ag2 Au3A 149.37(6) 4 . ?
Au3B Ag2 Au3A 124.39(6) 6 . ?
Au3B Ag2 Au3A 50.40(6) 3 . ?
Au3B Ag2 Au3A 86.21(6) 5 . ?
Au3B Ag2 Au3A 36.25(6) . . ?
Au3A Ag2 Au3A 174.23(7) 4 . ?
Au3A Ag2 Au3A 105.56(6) 5 . ?
Au3A Ag2 Au3A 98.13(6) 6 . ?
Au3A Ag2 Au3A 78.33(4) 2 . ?
Au3A Ag2 Au3A 78.33(4) 3 . ?
Au4A Ag3 Au4A 115.16(10) 2 6_556 ?
Au4A Ag3 Au4A 80.74(8) 2 3 ?
Au4A Ag3 Au4A 158.85(10) 6_556 3 ?
Au4A Ag3 Au4A 87.95(10) 2 5_556 ?
Au4A Ag3 Au4A 80.74(8) 6_556 5_556 ?
Au4A Ag3 Au4A 115.16(10) 3 5_556 ?
Au4A Ag3 Au4A 80.74(8) 2 . ?
Au4A Ag3 Au4A 87.95(10) 6_556 . ?
Au4A Ag3 Au4A 80.74(8) 3 . ?
Au4A Ag3 Au4A 158.85(10) 5_556 . ?
Au4A Ag3 Au4A 158.84(10) 2 4_556 ?
Au4A Ag3 Au4A 80.74(8) 6_556 4_556 ?
Au4A Ag3 Au4A 87.94(10) 3 4_556 ?
Au4A Ag3 Au4A 80.74(8) 5_556 4_556 ?
Au4A Ag3 Au4A 115.16(10) . 4_556 ?
Au4A Ag3 Au4B 149.44(6) 2 6_556 ?
Au4A Ag3 Au4B 36.29(6) 6_556 6_556 ?
Au4A Ag3 Au4B 124.42(6) 3 6_556 ?
Au4A Ag3 Au4B 94.74(6) 5_556 6_556 ?
Au4A Ag3 Au4B 86.35(6) . 6_556 ?
Au4A Ag3 Au4B 50.26(6) 4_556 6_556 ?
Au4A Ag3 Au4B 124.42(6) 2 4_556 ?
Au4A Ag3 Au4B 94.74(6) 6_556 4_556 ?
Au4A Ag3 Au4B 86.34(6) 3 4_556 ?
Au4A Ag3 Au4B 50.26(6) 5_556 4_556 ?
Au4A Ag3 Au4B 149.44(6) . 4_556 ?
Au4A Ag3 Au4B 36.29(6) 4_556 4_556 ?
Au4B Ag3 Au4B 78.33(4) 6_556 4_556 ?
Au4A Ag3 Au4B 36.29(6) 2 2 ?
Au4A Ag3 Au4B 149.44(6) 6_556 2 ?
Au4A Ag3 Au4B 50.26(6) 3 2 ?
Au4A Ag3 Au4B 86.34(6) 5_556 2 ?
Au4A Ag3 Au4B 94.74(6) . 2 ?
Au4A Ag3 Au4B 124.42(6) 4_556 2 ?
Au4B Ag3 Au4B 174.11(7) 6_556 2 ?
Au4B Ag3 Au4B 98.06(6) 4_556 2 ?
Au4A Ag3 Au4B 94.74(6) 2 3 ?
Au4A Ag3 Au4B 124.42(6) 6_556 3 ?
Au4A Ag3 Au4B 36.29(6) 3 3 ?
Au4A Ag3 Au4B 149.44(6) 5_556 3 ?
Au4A Ag3 Au4B 50.26(6) . 3 ?
Au4A Ag3 Au4B 86.34(6) 4_556 3 ?
Au4B Ag3 Au4B 98.06(6) 6_556 3 ?
Au4B Ag3 Au4B 105.65(6) 4_556 3 ?
Au4B Ag3 Au4B 78.33(4) 2 3 ?
Au4A Ag3 Au4B 86.34(6) 2 5_556 ?
Au4A Ag3 Au4B 50.26(6) 6_556 5_556 ?
Au4A Ag3 Au4B 149.44(6) 3 5_556 ?
Au4A Ag3 Au4B 36.29(6) 5_556 5_556 ?
Au4A Ag3 Au4B 124.42(6) . 5_556 ?
Au4A Ag3 Au4B 94.74(6) 4_556 5_556 ?
Au4B Ag3 Au4B 78.33(4) 6_556 5_556 ?
Au4B Ag3 Au4B 78.33(4) 4_556 5_556 ?
Au4B Ag3 Au4B 105.65(6) 2 5_556 ?
Au4B Ag3 Au4B 174.11(7) 3 5_556 ?
Au4A Ag3 Au4B 50.26(6) 2 . ?
Au4A Ag3 Au4B 86.35(6) 6_556 . ?
Au4A Ag3 Au4B 94.74(6) 3 . ?
Au4A Ag3 Au4B 124.42(6) 5_556 . ?
Au4A Ag3 Au4B 36.29(6) . . ?
Au4A Ag3 Au4B 149.44(6) 4_556 . ?
Au4B Ag3 Au4B 105.65(6) 6_556 . ?
Au4B Ag3 Au4B 174.11(7) 4_556 . ?
Au4B Ag3 Au4B 78.33(4) 2 . ?
Au4B Ag3 Au4B 78.33(4) 3 . ?
Au4B Ag3 Au4B 98.06(6) 5_556 . ?
N111 Au2A C115 175.7(11) . 3 ?
N111 Au2A Ag1 88.1(8) . . ?
C115 Au2A Ag1 87.5(9) 3 . ?
C112 N111 C115 106.0(15) . . ?
C112 N111 Au2A 132(2) . . ?
C115 N111 Au2A 122.1(18) . . ?
N111 C112 C113 107.9(19) . . ?
N111 C112 H11B 126.0 . . ?
C113 C112 H11B 126.0 . . ?
N114 C113 C112 108.3(17) . . ?
N114 C113 H11C 125.9 . . ?
C112 C113 H11C 125.9 . . ?
C161 N114 C113 124(5) . . ?
C161 N114 C115 128(6) . . ?
C113 N114 C115 108.0(18) . . ?
N114 C115 N111 109.6(19) . . ?
N114 C115 Au2A 129.2(19) . 2 ?
N111 C115 Au2A 121.2(16) . 2 ?
N114 C161 H16D 109.5 . . ?
N114 C161 H16E 109.5 . . ?
H16D C161 H16E 109.5 . . ?
N114 C161 H16F 109.5 . . ?
H16D C161 H16F 109.5 . . ?
H16E C161 H16F 109.5 . . ?
N120 Au2B C116 175.3(9) 3 . ?
N120 Au2B Ag1 90.3(6) 3 . ?
C116 Au2B Ag1 88.8(7) . . ?
N120 C116 N117 107.6(13) . . ?
N120 C116 Au2B 121.7(15) . . ?
N117 C116 Au2B 130.7(17) . . ?
C118 N117 C116 107.1(16) . . ?
C118 N117 C162 143(2) . . ?
C116 N117 C162 109(2) . . ?
N117 C118 C119 109.1(16) . . ?
N117 C118 H11F 125.4 . . ?
C119 C118 H11F 125.4 . . ?
N120 C119 C118 108.2(16) . . ?
N120 C119 H11G 125.9 . . ?
C118 C119 H11G 125.9 . . ?
C119 N120 C116 107.7(16) . . ?
C119 N120 Au2B 130.0(14) . 2 ?
C116 N120 Au2B 122.0(13) . 2 ?
N117 C162 H16G 109.5 . . ?
N117 C162 H16H 109.5 . . ?
H16G C162 H16H 109.5 . . ?
N117 C162 H16I 109.5 . . ?
H16G C162 H16I 109.5 . . ?
H16H C162 H16I 109.5 . . ?
C101 Au1A N105 175.7(10) . 2 ?
C101 Au1A Ag1 88.0(5) . . ?
N105 Au1A Ag1 88.0(7) 2 . ?
N102 C101 N105 111.6(16) . . ?
N102 C101 Au1A 127.6(15) . . ?
N105 C101 Au1A 120.8(15) . . ?
C101 N102 C103 106.9(13) . . ?
C101 N102 C151 130(2) . . ?
C103 N102 C151 123(2) . . ?
C104 C103 N102 107.4(16) . . ?
C104 C103 H10A 126.3 . . ?
N102 C103 H10A 126.3 . . ?
C103 C104 N105 109.4(17) . . ?
C103 C104 H10B 125.3 . . ?
N105 C104 H10B 125.3 . . ?
C101 N105 C104 104.6(15) . . ?
C101 N105 Au1A 123(2) . 3 ?
C104 N105 Au1A 132(2) . 3 ?
N102 C151 H15D 109.5 . . ?
N102 C151 H15E 109.5 . . ?
H15D C151 H15E 109.5 . . ?
N102 C151 H15F 109.5 . . ?
H15D C151 H15F 109.5 . . ?
H15E C151 H15F 109.5 . . ?
N110 Au1B C106 176.3(9) 3 . ?
N110 Au1B Ag1 90.1(7) 3 . ?
C106 Au1B Ag1 87.7(10) . . ?
N107 C106 N110 110.6(12) . . ?
N107 C106 Au1B 125(2) . . ?
N110 C106 Au1B 124.7(19) . . ?
C108 N107 C106 107.4(15) . . ?
C108 N107 C152 141(4) . . ?
C106 N107 C152 111(4) . . ?
N107 C108 C109 107.7(15) . . ?
N107 C108 H10D 126.1 . . ?
C109 C108 H10D 126.1 . . ?
N110 C109 C108 108.3(13) . . ?
N110 C109 H10E 125.9 . . ?
C108 C109 H10E 125.9 . . ?
C109 N110 C106 105.9(13) . . ?
C109 N110 Au1B 135.2(16) . 2 ?
C106 N110 Au1B 118.9(16) . 2 ?
N107 C152 H15G 109.5 . . ?
N107 C152 H15H 109.5 . . ?
H15G C152 H15H 109.5 . . ?
N107 C152 H15I 109.5 . . ?
H15G C152 H15I 109.5 . . ?
H15H C152 H15I 109.5 . . ?
C125 Au3A N121 175.6(6) 3 . ?
C125 Au3A Ag2 88.0(6) 3 . ?
N121 Au3A Ag2 89.1(6) . . ?
C125 N121 C122 105.7(10) . . ?
C125 N121 Au3A 121.5(13) . . ?
C122 N121 Au3A 132.8(15) . . ?
C123 C122 N121 107.8(11) . . ?
C123 C122 H12A 126.1 . . ?
N121 C122 H12A 126.1 . . ?
N124 C123 C122 109.4(11) . . ?
N124 C123 H12B 125.3 . . ?
C122 C123 H12B 125.3 . . ?
C125 N124 C123 106.1(10) . . ?
C125 N124 C171 125.8(15) . . ?
C123 N124 C171 128.1(15) . . ?
N124 C125 N121 110.8(11) . . ?
N124 C125 Au3A 126.3(12) . 2 ?
N121 C125 Au3A 122.7(11) . 2 ?
N124 C171 H17C 109.5 . . ?
N124 C171 H17D 109.5 . . ?
H17C C171 H17D 109.5 . . ?
N124 C171 H17E 109.5 . . ?
H17C C171 H17E 109.5 . . ?
H17D C171 H17E 109.5 . . ?
N130 Au3B C126 165.7(10) 3 . ?
N130 Au3B Ag2 83.5(7) 3 . ?
C126 Au3B Ag2 83.5(5) . . ?
N130 C126 N127 109.1(10) . . ?
N130 C126 Au3B 123.1(13) . . ?
N127 C126 Au3B 127.7(14) . . ?
C128 N127 C126 106.6(10) . . ?
C128 N127 C172 127.2(17) . . ?
C126 N127 C172 125.3(17) . . ?
N127 C128 C129 108.9(11) . . ?
N127 C128 H12D 125.6 . . ?
C129 C128 H12D 125.6 . . ?
N130 C129 C128 108.0(11) . . ?
N130 C129 H12E 126.0 . . ?
C128 C129 H12E 126.0 . . ?
C126 N130 C129 106.8(11) . . ?
C126 N130 Au3B 122.2(12) . 2 ?
C129 N130 Au3B 130.0(13) . 2 ?
N127 C172 H17F 109.5 . . ?
N127 C172 H17G 109.5 . . ?
H17F C172 H17G 109.5 . . ?
N127 C172 H17H 109.5 . . ?
H17F C172 H17H 109.5 . . ?
H17G C172 H17H 109.5 . . ?
N135 Au4A C131 170.1(12) 2 . ?
N135 Au4A Ag3 85.0(7) 2 . ?
C131 Au4A Ag3 85.3(9) . . ?
N135 C131 N132 107.5(15) . . ?
N135 C131 Au4A 125(2) . . ?
N132 C131 Au4A 127(2) . . ?
C133 N132 C131 106.3(16) . . ?
C133 N132 C181 118(4) . . ?
C131 N132 C181 136(3) . . ?
N132 C133 C134 112(2) . . ?
N132 C133 H13B 123.8 . . ?
C134 C133 H13B 123.8 . . ?
C133 C134 N135 105.8(17) . . ?
C133 C134 H13C 127.1 . . ?
N135 C134 H13C 127.1 . . ?
C131 N135 C134 107.5(16) . . ?
C131 N135 Au4A 120.6(16) . 3 ?
C134 N135 Au4A 130.8(15) . 3 ?
N132 C181 H18C 109.5 . . ?
N132 C181 H18D 109.5 . . ?
H18C C181 H18D 109.5 . . ?
N132 C181 H18E 109.5 . . ?
H18C C181 H18E 109.5 . . ?
H18D C181 H18E 109.5 . . ?
N136 Au4B C140 176.7(9) . 2 ?
N136 Au4B Ag3 88.9(7) . . ?
C140 Au4B Ag3 88.3(6) 2 . ?
C140 N136 C137 103.6(14) . . ?
C140 N136 Au4B 124.4(18) . . ?
C137 N136 Au4B 132(2) . . ?
C138 C137 N136 109.4(17) . . ?
C138 C137 H13F 125.3 . . ?
N136 C137 H13F 125.3 . . ?
C137 C138 N139 111.0(16) . . ?
C137 C138 H13G 124.5 . . ?
N139 C138 H13G 124.5 . . ?
C182 N139 C140 126(3) . . ?
C182 N139 C138 129(3) . . ?
C140 N139 C138 104.4(16) . . ?
N139 C140 N136 111.4(16) . . ?
N139 C140 Au4B 129.7(15) . 3 ?
N136 C140 Au4B 118.7(13) . 3 ?
N139 C182 H18F 109.5 . . ?
N139 C182 H18G 109.5 . . ?
H18F C182 H18G 109.5 . . ?
N139 C182 H18H 109.5 . . ?
H18F C182 H18H 109.5 . . ?
H18G C182 H18H 109.5 . . ?
C2 N1 C6 114.0(16) . . ?
C2 N1 Pd3 122.7(12) . . ?
C6 N1 Pd3 123.2(12) . . ?
N1 C2 C3 126(2) . . ?
N1 C2 H2A 116.9 . . ?
C3 C2 H2A 116.9 . . ?
C4 C3 C2 114.7(19) . . ?
C4 C3 H3A 122.6 . . ?
C2 C3 H3A 122.6 . . ?
C5 C4 C3 123.4(16) . . ?
C5 C4 C7 122.3(15) . . ?
C3 C4 C7 114.2(14) . . ?
C4 C5 C6 118.8(16) . . ?
C4 C5 H5A 120.6 . . ?
C6 C5 H5A 120.6 . . ?
C5 C6 N1 122.5(15) . . ?
C5 C6 H6A 118.7 . . ?
N1 C6 H6A 118.7 . . ?
N8 C7 N8 124.4(15) . 3 ?
N8 C7 C4 119.3(14) . . ?
N8 C7 C4 116.2(13) 3 . ?
C7 N8 C7 115.6(15) . 2 ?
C10 N9 C14 112(2) . . ?
C10 N9 Pd3 123.9(18) . . ?
C14 N9 Pd3 124.5(16) . . ?
N9 C10 C11 123(2) . . ?
N9 C10 C16 114(2) . . ?
C11 C10 C16 122(2) . . ?
C12 C11 C10 119(2) . . ?
C12 C11 H11A 120.7 . . ?
C10 C11 H11A 120.7 . . ?
C13 C12 C11 118(3) . . ?
C13 C12 C12 123(3) . 5 ?
C11 C12 C12 118(2) . 5 ?
C14 C13 C12 127(3) . . ?
C14 C13 H13A 116.7 . . ?
C12 C13 H13A 116.7 . . ?
C13 C14 C15 123(3) . . ?
C13 C14 N9 122(2) . . ?
C15 C14 N9 114(3) . . ?
C10 C16 H16A 109.5 . . ?
C10 C16 H16B 109.5 . . ?
H16A C16 H16B 109.5 . . ?
C10 C16 H16C 109.5 . . ?
H16A C16 H16C 109.5 . . ?
H16B C16 H16C 109.5 . . ?
C14 C15 H15A 109.5 . . ?
C14 C15 H15B 109.5 . . ?
H15A C15 H15B 109.5 . . ?
C14 C15 H15C 109.5 . . ?
H15A C15 H15C 109.5 . . ?
H15B C15 H15C 109.5 . . ?
C19 N17 Pd3 116(2) . . ?
C19 N17 H17A 108.3 . . ?
Pd3 N17 H17A 108.3 . . ?
C19 N17 H17B 108.3 . . ?
Pd3 N17 H17B 108.3 . . ?
H17A N17 H17B 107.4 . . ?
N17 C19 C20 107(2) . . ?
N17 C19 H19A 110.3 . . ?
C20 C19 H19A 110.3 . . ?
N17 C19 H19B 110.3 . . ?
C20 C19 H19B 110.3 . . ?
H19A C19 H19B 108.5 . . ?
N18 C20 C19 124(2) . . ?
N18 C20 H20A 106.4 . . ?
C19 C20 H20A 106.4 . . ?
N18 C20 H20B 106.4 . . ?
C19 C20 H20B 106.4 . . ?
H20A C20 H20B 106.4 . . ?
C20 N18 Pd3 104.2(13) . . ?
C20 N18 H18A 110.9 . . ?
Pd3 N18 H18A 110.9 . . ?
C20 N18 H18B 110.9 . . ?
Pd3 N18 H18B 110.9 . . ?
H18A N18 H18B 108.9 . . ?
C22 N21 C26 120.0(18) . . ?
C22 N21 Pd1 122.0(16) . . ?
C26 N21 Pd1 117.7(12) . . ?
N21 C22 C23 125(2) . . ?
N21 C22 H22A 117.3 . . ?
C23 C22 H22A 117.3 . . ?
C24 C23 C22 116(2) . . ?
C24 C23 H23A 121.8 . . ?
C22 C23 H23A 121.8 . . ?
C25 C24 C23 118.4(18) . . ?
C25 C24 C27 121.2(15) . . ?
C23 C24 C27 120.5(15) . . ?
C24 C25 C26 126(2) . . ?
C24 C25 H25A 117.1 . . ?
C26 C25 H25A 117.1 . . ?
C25 C26 N21 113.8(19) . . ?
C25 C26 H26A 123.1 . . ?
N21 C26 H26A 123.1 . . ?
N28 C27 N28 124.6(19) . 2 ?
N28 C27 C24 113.8(16) . . ?
N28 C27 C24 121.6(15) 2 . ?
C27 N28 C27 115.3(19) . 3 ?
C30 N29 C34 121(2) . . ?
C30 N29 Pd1 118.0(16) . . ?
C34 N29 Pd1 120.5(17) . . ?
N29 C30 C31 122(2) . . ?
N29 C30 C36 120(3) . . ?
C31 C30 C36 118(3) . . ?
C32 C31 C30 117(2) . . ?
C32 C31 H31A 121.6 . . ?
C30 C31 H31A 121.6 . . ?
C31 C32 C33 119(2) . . ?
C31 C32 C52 118(2) . . ?
C33 C32 C52 122.6(18) . . ?
C34 C33 C32 120.6(19) . . ?
C34 C33 H33A 119.7 . . ?
C32 C33 H33A 119.7 . . ?
N29 C34 C33 120(2) . . ?
N29 C34 C35 115(2) . . ?
C33 C34 C35 124(2) . . ?
C34 C35 H35A 109.5 . . ?
C34 C35 H35B 109.5 . . ?
H35A C35 H35B 109.5 . . ?
C34 C35 H35C 109.5 . . ?
H35A C35 H35C 109.5 . . ?
H35B C35 H35C 109.5 . . ?
C30 C36 H36A 109.5 . . ?
C30 C36 H36B 109.5 . . ?
H36A C36 H36B 109.5 . . ?
C30 C36 H36C 109.5 . . ?
H36A C36 H36C 109.5 . . ?
H36B C36 H36C 109.5 . . ?
C39 N37 Pd1 112.7(19) . . ?
C39 N37 H37A 109.1 . . ?
Pd1 N37 H37A 109.1 . . ?
C39 N37 H37B 109.1 . . ?
Pd1 N37 H37B 109.1 . . ?
H37A N37 H37B 107.8 . . ?
C40 N38 Pd1 104.9(17) . . ?
C40 N38 H38A 110.8 . . ?
Pd1 N38 H38A 110.8 . . ?
C40 N38 H38B 110.8 . . ?
Pd1 N38 H38B 110.8 . . ?
H38A N38 H38B 108.8 . . ?
N37 C39 C40 109.6(19) . . ?
N37 C39 H39A 109.8 . . ?
C40 C39 H39A 109.8 . . ?
N37 C39 H39B 109.8 . . ?
C40 C39 H39B 109.8 . . ?
H39A C39 H39B 108.2 . . ?
N38 C40 C39 115(3) . . ?
N38 C40 H40A 108.6 . . ?
C39 C40 H40A 108.6 . . ?
N38 C40 H40B 108.6 . . ?
C39 C40 H40B 108.6 . . ?
H40A C40 H40B 107.6 . . ?
C46 N41 C42 120.8(18) . . ?
C46 N41 Pd2 120.6(16) . . ?
C42 N41 Pd2 118.2(15) . . ?
C43 C42 N41 120(2) . . ?
C43 C42 H42A 119.9 . . ?
N41 C42 H42A 119.9 . . ?
C42 C43 C44 118(2) . . ?
C42 C43 H43A 120.8 . . ?
C44 C43 H43A 120.8 . . ?
C43 C44 C45 120.7(18) . . ?
C43 C44 C47 121.0(16) . . ?
C45 C44 C47 118.2(16) . . ?
C46 C45 C44 119.6(19) . . ?
C46 C45 H45A 120.2 . . ?
C44 C45 H45A 120.2 . . ?
N41 C46 C45 119(2) . . ?
N41 C46 H46A 120.4 . . ?
C45 C46 H46A 120.4 . . ?
N48 C47 N48 121.5(17) . 3 ?
N48 C47 C44 118.2(15) . . ?
N48 C47 C44 120.1(15) 3 . ?
C47 N48 C47 118.3(17) . 2 ?
C50 N49 C54 123(2) . . ?
C50 N49 Pd2 119.8(15) . . ?
C54 N49 Pd2 117.4(18) . . ?
C51 C50 N49 120(2) . . ?
C51 C50 C55 117(3) . . ?
N49 C50 C55 122(2) . . ?
C50 C51 C52 121(3) . . ?
C50 C51 H51A 119.3 . . ?
C52 C51 H51A 119.3 . . ?
C53 C52 C51 120(3) . . ?
C53 C52 C32 119(2) . . ?
C51 C52 C32 120(2) . . ?
C52 C53 C54 119(2) . . ?
C52 C53 H53A 120.7 . . ?
C54 C53 H53A 120.7 . . ?
N49 C54 C53 116(3) . . ?
N49 C54 C56 119(2) . . ?
C53 C54 C56 123(3) . . ?
C50 C55 H55A 109.5 . . ?
C50 C55 H55B 109.5 . . ?
H55A C55 H55B 109.5 . . ?
C50 C55 H55C 109.5 . . ?
H55A C55 H55C 109.5 . . ?
H55B C55 H55C 109.5 . . ?
C54 C56 H56A 109.5 . . ?
C54 C56 H56B 109.5 . . ?
H56A C56 H56B 109.5 . . ?
C54 C56 H56C 109.5 . . ?
H56A C56 H56C 109.5 . . ?
H56B C56 H56C 109.5 . . ?
C59 N57 Pd2 105.9(18) . . ?
C59 N57 H57A 110.6 . . ?
Pd2 N57 H57A 110.6 . . ?
C59 N57 H57B 110.6 . . ?
Pd2 N57 H57B 110.6 . . ?
H57A N57 H57B 108.7 . . ?
C60 N58 Pd2 104(2) . . ?
C60 N58 H58A 111.0 . . ?
Pd2 N58 H58A 111.0 . . ?
C60 N58 H58B 111.0 . . ?
Pd2 N58 H58B 111.0 . . ?
H58A N58 H58B 109.0 . . ?
C60 C59 N57 111(3) . . ?
C60 C59 H59A 109.4 . . ?
N57 C59 H59A 109.4 . . ?
C60 C59 H59B 109.4 . . ?
N57 C59 H59B 109.4 . . ?
H59A C59 H59B 108.0 . . ?
C59 C60 N58 133(4) . . ?
C59 C60 H60A 104.0 . . ?
N58 C60 H60A 104.0 . . ?
C59 C60 H60B 104.0 . . ?
N58 C60 H60B 104.0 . . ?
H60A C60 H60B 105.5 . . ?
C66 N61 C62 116.0(16) . . ?
C66 N61 Pd4 118.7(13) . . ?
C62 N61 Pd4 125.2(13) . . ?
C63 C62 N61 121.9(15) . . ?
C63 C62 H62A 119.1 . . ?
N61 C62 H62A 119.1 . . ?
C62 C63 C64 119.3(16) . . ?
C62 C63 H63A 120.3 . . ?
C64 C63 H63A 120.3 . . ?
C65 C64 C63 124.9(17) . . ?
C65 C64 C67 116.3(15) . . ?
C63 C64 C67 118.7(15) . . ?
C64 C65 C66 114.1(18) . . ?
C64 C65 H65A 122.9 . . ?
C66 C65 H65A 122.9 . . ?
N61 C66 C65 124(2) . . ?
N61 C66 H66A 118.2 . . ?
C65 C66 H66A 118.2 . . ?
C67 N68 C67 113.3(16) . 3 ?
N68 C67 N68 126.7(16) . 2 ?
N68 C67 C64 115.6(14) . . ?
N68 C67 C64 117.7(14) 2 . ?
C70 N69 C74 113(2) . . ?
C70 N69 Pd4 123(2) . . ?
C74 N69 Pd4 124.1(16) . . ?
C71 C70 N69 124(3) . . ?
C71 C70 C75 118(3) . . ?
N69 C70 C75 118(3) . . ?
C70 C71 C72 122(3) . . ?
C70 C71 H71A 119.0 . . ?
C72 C71 H71A 119.0 . . ?
C73 C72 C71 114(2) . . ?
C73 C72 C72 125(3) . 6_556 ?
C71 C72 C72 121(3) . 6_556 ?
C74 C73 C72 122(2) . . ?
C74 C73 H73A 118.9 . . ?
C72 C73 H73A 118.9 . . ?
C73 C74 N69 124(2) . . ?
C73 C74 C76 125(3) . . ?
N69 C74 C76 110(3) . . ?
C70 C75 H75A 109.5 . . ?
C70 C75 H75B 109.5 . . ?
H75A C75 H75B 109.5 . . ?
C70 C75 H75C 109.5 . . ?
H75A C75 H75C 109.5 . . ?
H75B C75 H75C 109.5 . . ?
C74 C76 H76A 109.5 . . ?
C74 C76 H76B 109.5 . . ?
H76A C76 H76B 109.5 . . ?
C74 C76 H76C 109.5 . . ?
H76A C76 H76C 109.5 . . ?
H76B C76 H76C 109.5 . . ?
C79 N77 Pd4 118(2) . . ?
C79 N77 H77A 107.8 . . ?
Pd4 N77 H77A 107.8 . . ?
C79 N77 H77B 107.8 . . ?
Pd4 N77 H77B 107.8 . . ?
H77A N77 H77B 107.2 . . ?
C80 N78 Pd4 101.1(18) . . ?
C80 N78 H78A 111.5 . . ?
Pd4 N78 H78A 111.5 . . ?
C80 N78 H78B 111.5 . . ?
Pd4 N78 H78B 111.5 . . ?
H78A N78 H78B 109.4 . . ?
C80 C79 N77 100(3) . . ?
C80 C79 H79A 111.8 . . ?
N77 C79 H79A 111.8 . . ?
C80 C79 H79B 111.8 . . ?
N77 C79 H79B 111.8 . . ?
H79A C79 H79B 109.5 . . ?
C79 C80 N78 126(3) . . ?
C79 C80 H80A 105.7 . . ?
N78 C80 H80A 105.7 . . ?
C79 C80 H80B 105.7 . . ?
N78 C80 H80B 105.7 . . ?
H80A C80 H80B 106.1 . . ?
O903 N901 O902 119(2) . . ?
O903 N901 O904 117(2) . . ?
O902 N901 O904 114(2) . . ?
O919 N917 O918 120(2) . . ?
O919 N917 O920 118(2) . . ?
O918 N917 O920 117(2) . . ?
O923 N921 O922 120(2) . . ?
O923 N921 O924 115(2) . . ?
O922 N921 O924 118(2) . . ?
O927 N925 O926 118(2) . . ?
O927 N925 O928 121(2) . . ?
O926 N925 O928 117(2) . . ?
O932 N929 O930 117(2) . . ?
O932 N929 O931 118(2) . . ?
O930 N929 O931 115(2) . . ?
O14 O14 O14 59.999(5) 2_665 3_565 ?
O912 N909 O910 121.3(19) . . ?
O912 N909 O911 119.7(18) . . ?
O910 N909 O911 118.3(18) . . ?
O907 N905 O906 116(2) . . ?
O907 N905 O908 122(2) . . ?
O906 N905 O908 118(2) . . ?
O914 N913 O915 116(2) . . ?
O914 N913 O916 116(2) . . ?
O915 N913 O916 115(2) . . ?

loop_
_geom_torsion_atom_site_label_1
_geom_torsion_atom_site_label_2
_geom_torsion_atom_site_label_3
_geom_torsion_atom_site_label_4
_geom_torsion
_geom_torsion_site_symmetry_1
_geom_torsion_site_symmetry_2
_geom_torsion_site_symmetry_3
_geom_torsion_site_symmetry_4
_geom_torsion_publ_flag
Au1B Ag1 Au2A N111 -70.8(8) 3 . . . ?
Au1B Ag1 Au2A N111 -148.4(8) 2 . . . ?
Au1B Ag1 Au2A N111 -11.2(9) . . . . ?
Au2A Ag1 Au2A N111 131.2(8) 3 . . . ?
Au2A Ag1 Au2A N111 49.0(8) 2 . . . ?
Au1A Ag1 Au2A N111 -162.1(8) . . . . ?
Au1A Ag1 Au2A N111 -106.5(8) 2 . . . ?
Au1A Ag1 Au2A N111 -33.0(8) 3 . . . ?
Au2B Ag1 Au2A N111 82.1(8) 2 . . . ?
Au2B Ag1 Au2A N111 151.7(8) 3 . . . ?
Au2B Ag1 Au2A N111 21.2(8) . . . . ?
Au1B Ag1 Au2A C115 109.3(9) 3 . . 3 ?
Au1B Ag1 Au2A C115 31.7(9) 2 . . 3 ?
Au1B Ag1 Au2A C115 168.9(9) . . . 3 ?
Au2A Ag1 Au2A C115 -48.7(9) 3 . . 3 ?
Au2A Ag1 Au2A C115 -130.9(9) 2 . . 3 ?
Au1A Ag1 Au2A C115 18.0(10) . . . 3 ?
Au1A Ag1 Au2A C115 73.6(9) 2 . . 3 ?
Au1A Ag1 Au2A C115 147.1(9) 3 . . 3 ?
Au2B Ag1 Au2A C115 -97.8(9) 2 . . 3 ?
Au2B Ag1 Au2A C115 -28.2(9) 3 . . 3 ?
Au2B Ag1 Au2A C115 -158.7(9) . . . 3 ?
C115 Au2A N111 C112 135(17) 3 . . . ?
Ag1 Au2A N111 C112 134.0(6) . . . . ?
C115 Au2A N111 C115 -41(16) 3 . . . ?
Ag1 Au2A N111 C115 -42(2) . . . . ?
C115 N111 C112 C113 -3(3) . . . . ?
Au2A N111 C112 C113 -179.2(19) . . . . ?
N111 C112 C113 N114 0(4) . . . . ?
C112 C113 N114 C161 -175(4) . . . . ?
C112 C113 N114 C115 3(5) . . . . ?
C161 N114 C115 N111 173(4) . . . . ?
C113 N114 C115 N111 -5(5) . . . . ?
C161 N114 C115 Au2A -5(7) . . . 2 ?
C113 N114 C115 Au2A 178(3) . . . 2 ?
C112 N111 C115 N114 5(3) . . . . ?
Au2A N111 C115 N114 -179(2) . . . . ?
C112 N111 C115 Au2A -177(2) . . . 2 ?
Au2A N111 C115 Au2A -1(4) . . . 2 ?
Au1B Ag1 Au2B N120 75.3(6) 3 . . 3 ?
Au1B Ag1 Au2B N120 9.7(6) 2 . . 3 ?
Au1B Ag1 Au2B N120 153.5(6) . . . 3 ?
Au2A Ag1 Au2B N120 -79.2(6) 3 . . 3 ?
Au2A Ag1 Au2B N120 -154.1(6) 2 . . 3 ?
Au2A Ag1 Au2B N120 -10.7(6) . . . 3 ?
Au1A Ag1 Au2B N120 179(65) . . . 3 ?
Au1A Ag1 Au2B N120 46.0(6) 2 . . 3 ?
Au1A Ag1 Au2B N120 125.0(6) 3 . . 3 ?
Au2B Ag1 Au2B N120 -127.2(6) 2 . . 3 ?
Au2B Ag1 Au2B N120 -47.8(6) 3 . . 3 ?
Au1B Ag1 Au2B C116 -109.3(7) 3 . . . ?
Au1B Ag1 Au2B C116 -174.9(7) 2 . . . ?
Au1B Ag1 Au2B C116 -31.1(7) . . . . ?
Au2A Ag1 Au2B C116 96.2(7) 3 . . . ?
Au2A Ag1 Au2B C116 21.3(7) 2 . . . ?
Au2A Ag1 Au2B C116 164.6(7) . . . . ?
Au1A Ag1 Au2B C116 -5.8(8) . . . . ?
Au1A Ag1 Au2B C116 -138.6(7) 2 . . . ?
Au1A Ag1 Au2B C116 -59.6(7) 3 . . . ?
Au2B Ag1 Au2B C116 48.2(7) 2 . . . ?
Au2B Ag1 Au2B C116 127.6(7) 3 . . . ?
N120 Au2B C116 N120 33(11) 3 . . . ?
Ag1 Au2B C116 N120 -46.0(18) . . . . ?
N120 Au2B C116 N117 -148(10) 3 . . . ?
Ag1 Au2B C116 N117 133(2) . . . . ?
N120 C116 N117 C118 4(3) . . . . ?
Au2B C116 N117 C118 -175.4(19) . . . . ?
N120 C116 N117 C162 174(2) . . . . ?
Au2B C116 N117 C162 -5(3) . . . . ?
C116 N117 C118 C119 -5(3) . . . . ?
C162 N117 C118 C119 -170(3) . . . . ?
N117 C118 C119 N120 5(3) . . . . ?
C118 C119 N120 C116 -2(3) . . . . ?
C118 C119 N120 Au2B 172(2) . . . 2 ?
N117 C116 N120 C119 -1(3) . . . . ?
Au2B C116 N120 C119 178.4(18) . . . . ?
N117 C116 N120 Au2B -175.3(16) . . . 2 ?
Au2B C116 N120 Au2B 4(3) . . . 2 ?
Au1B Ag1 Au1A C101 98.6(5) 3 . . . ?
Au1B Ag1 Au1A C101 167.1(5) 2 . . . ?
Au1B Ag1 Au1A C101 23.7(5) . . . . ?
Au2A Ag1 Au1A C101 -106.9(5) 3 . . . ?
Au2A Ag1 Au1A C101 -28.8(5) 2 . . . ?
Au2A Ag1 Au1A C101 -172.1(5) . . . . ?
Au1A Ag1 Au1A C101 130.2(5) 2 . . . ?
Au1A Ag1 Au1A C101 50.7(5) 3 . . . ?
Au2B Ag1 Au1A C101 -57.1(5) 2 . . . ?
Au2B Ag1 Au1A C101 -135.9(5) 3 . . . ?
Au2B Ag1 Au1A C101 -4.5(7) . . . . ?
Au1B Ag1 Au1A N105 -80.0(8) 3 . . 2 ?
Au1B Ag1 Au1A N105 -11.5(8) 2 . . 2 ?
Au1B Ag1 Au1A N105 -154.9(8) . . . 2 ?
Au2A Ag1 Au1A N105 74.5(8) 3 . . 2 ?
Au2A Ag1 Au1A N105 152.6(8) 2 . . 2 ?
Au2A Ag1 Au1A N105 9.3(8) . . . 2 ?
Au1A Ag1 Au1A N105 -48.4(8) 2 . . 2 ?
Au1A Ag1 Au1A N105 -127.9(8) 3 . . 2 ?
Au2B Ag1 Au1A N105 124.3(8) 2 . . 2 ?
Au2B Ag1 Au1A N105 45.5(8) 3 . . 2 ?
Au2B Ag1 Au1A N105 177.0(9) . . . 2 ?
N105 Au1A C101 N102 151(11) 2 . . . ?
Ag1 Au1A C101 N102 131.8(7) . . . . ?
N105 Au1A C101 N105 -29(11) 2 . . . ?
Ag1 Au1A C101 N105 -47.8(11) . . . . ?
N105 C101 N102 C103 -1.0(18) . . . . ?
Au1A C101 N102 C103 179.4(14) . . . . ?
N105 C101 N102 C151 -176(2) . . . . ?
Au1A C101 N102 C151 4.2(19) . . . . ?
C101 N102 C103 C104 -1(3) . . . . ?
C151 N102 C103 C104 175(2) . . . . ?
N102 C103 C104 N105 2(3) . . . . ?
N102 C101 N105 C104 2.0(19) . . . . ?
Au1A C101 N105 C104 -178.3(13) . . . . ?
N102 C101 N105 Au1A -174.7(11) . . . 3 ?
Au1A C101 N105 Au1A 5.0(19) . . . 3 ?
C103 C104 N105 C101 -2(3) . . . . ?
C103 C104 N105 Au1A 174(2) . . . 3 ?
Au1B Ag1 Au1B N110 48.2(8) 3 . . 3 ?
Au1B Ag1 Au1B N110 130.5(8) 2 . . 3 ?
Au2A Ag1 Au1B N110 -149.1(8) 3 . . 3 ?
Au2A Ag1 Au1B N110 -71.7(8) 2 . . 3 ?
Au2A Ag1 Au1B N110 -12.4(8) . . . 3 ?
Au1A Ag1 Au1B N110 151.0(8) . . . 3 ?
Au1A Ag1 Au1B N110 81.5(8) 2 . . 3 ?
Au1A Ag1 Au1B N110 20.4(8) 3 . . 3 ?
Au2B Ag1 Au1B N110 -107.1(8) 2 . . 3 ?
Au2B Ag1 Au1B N110 -162.4(8) 3 . . 3 ?
Au2B Ag1 Au1B N110 -33.8(8) . . . 3 ?
Au1B Ag1 Au1B C106 -128.9(10) 3 . . . ?
Au1B Ag1 Au1B C106 -46.6(10) 2 . . . ?
Au2A Ag1 Au1B C106 33.8(10) 3 . . . ?
Au2A Ag1 Au1B C106 111.3(10) 2 . . . ?
Au2A Ag1 Au1B C106 170.5(11) . . . . ?
Au1A Ag1 Au1B C106 -26.1(10) . . . . ?
Au1A Ag1 Au1B C106 -95.6(10) 2 . . . ?
Au1A Ag1 Au1B C106 -156.7(10) 3 . . . ?
Au2B Ag1 Au1B C106 75.8(10) 2 . . . ?
Au2B Ag1 Au1B C106 20.5(11) 3 . . . ?
Au2B Ag1 Au1B C106 149.1(10) . . . . ?
N110 Au1B C106 N107 172(67) 3 . . . ?
Ag1 Au1B C106 N107 -135(3) . . . . ?
N110 Au1B C106 N110 -11(24) 3 . . . ?
Ag1 Au1B C106 N110 42(3) . . . . ?
N110 C106 N107 C108 -1(5) . . . . ?
Au1B C106 N107 C108 176(3) . . . . ?
N110 C106 N107 C152 177(3) . . . . ?
Au1B C106 N107 C152 -6(5) . . . . ?
C106 N107 C108 C109 3(5) . . . . ?
C152 N107 C108 C109 -174(5) . . . . ?
N107 C108 C109 N110 -3(5) . . . . ?
C108 C109 N110 C106 2(4) . . . . ?
C108 C109 N110 Au1B -174(3) . . . 2 ?
N107 C106 N110 C109 -1(4) . . . . ?
Au1B C106 N110 C109 -178(3) . . . . ?
N107 C106 N110 Au1B 176(3) . . . 2 ?
Au1B C106 N110 Au1B -1(4) . . . 2 ?
Au3B Ag2 Au3A C125 96.6(7) 2 . . 3 ?
Au3B Ag2 Au3A C125 -169.7(7) 4 . . 3 ?
Au3B Ag2 Au3A C125 -28.4(7) 6 . . 3 ?
Au3B Ag2 Au3A C125 22.6(7) 3 . . 3 ?
Au3B Ag2 Au3A C125 -104.7(7) 5 . . 3 ?
Au3B Ag2 Au3A C125 164.0(7) . . . 3 ?
Au3A Ag2 Au3A C125 -3.8(7) 4 . . 3 ?
Au3A Ag2 Au3A C125 -135.7(7) 5 . . 3 ?
Au3A Ag2 Au3A C125 -55.6(7) 6 . . 3 ?
Au3A Ag2 Au3A C125 129.0(7) 2 . . 3 ?
Au3A Ag2 Au3A C125 48.7(7) 3 . . 3 ?
Au3B Ag2 Au3A N121 -80.1(6) 2 . . . ?
Au3B Ag2 Au3A N121 13.5(6) 4 . . . ?
Au3B Ag2 Au3A N121 154.9(6) 6 . . . ?
Au3B Ag2 Au3A N121 -154.1(6) 3 . . . ?
Au3B Ag2 Au3A N121 78.6(6) 5 . . . ?
Au3B Ag2 Au3A N121 -12.7(6) . . . . ?
Au3A Ag2 Au3A N121 179.5(6) 4 . . . ?
Au3A Ag2 Au3A N121 47.6(6) 5 . . . ?
Au3A Ag2 Au3A N121 127.7(6) 6 . . . ?
Au3A Ag2 Au3A N121 -47.7(6) 2 . . . ?
Au3A Ag2 Au3A N121 -128.0(6) 3 . . . ?
C125 Au3A N121 C125 -9(12) 3 . . . ?
Ag2 Au3A N121 C125 40.0(17) . . . . ?
C125 Au3A N121 C122 171(34) 3 . . . ?
Ag2 Au3A N121 C122 -140.2(18) . . . . ?
C125 N121 C122 C123 -3(2) . . . . ?
Au3A N121 C122 C123 177.6(18) . . . . ?
N121 C122 C123 N124 4(3) . . . . ?
C122 C123 N124 C125 -5(4) . . . . ?
C122 C123 N124 C171 177(4) . . . . ?
C123 N124 C125 N121 3(3) . . . . ?
C171 N124 C125 N121 -178(3) . . . . ?
C123 N124 C125 Au3A 178(3) . . . 2 ?
C171 N124 C125 Au3A -3(5) . . . 2 ?
C122 N121 C125 N124 0(3) . . . . ?
Au3A N121 C125 N124 179.6(17) . . . . ?
C122 N121 C125 Au3A -175(2) . . . 2 ?
Au3A N121 C125 Au3A 5(3) . . . 2 ?
Au3B Ag2 Au3B N130 135.3(6) 2 . . 3 ?
Au3B Ag2 Au3B N130 -141.6(7) 4 . . 3 ?
Au3B Ag2 Au3B N130 -5.3(7) 6 . . 3 ?
Au3B Ag2 Au3B N130 53.1(7) 3 . . 3 ?
Au3B Ag2 Au3B N130 -62.7(7) 5 . . 3 ?
Au3A Ag2 Au3B N130 -158.3(6) 4 . . 3 ?
Au3A Ag2 Au3B N130 -99.0(7) 5 . . 3 ?
Au3A Ag2 Au3B N130 -25.9(7) 6 . . 3 ?
Au3A Ag2 Au3B N130 157.2(7) 2 . . 3 ?
Au3A Ag2 Au3B N130 86.7(6) 3 . . 3 ?
Au3A Ag2 Au3B N130 24.1(6) . . . 3 ?
Au3B Ag2 Au3B C126 -50.4(5) 2 . . . ?
Au3B Ag2 Au3B C126 32.7(5) 4 . . . ?
Au3B Ag2 Au3B C126 169.0(5) 6 . . . ?
Au3B Ag2 Au3B C126 -132.6(5) 3 . . . ?
Au3B Ag2 Au3B C126 111.6(5) 5 . . . ?
Au3A Ag2 Au3B C126 16.0(5) 4 . . . ?
Au3A Ag2 Au3B C126 75.3(5) 5 . . . ?
Au3A Ag2 Au3B C126 148.4(5) 6 . . . ?
Au3A Ag2 Au3B C126 -28.5(5) 2 . . . ?
Au3A Ag2 Au3B C126 -99.0(5) 3 . . . ?
Au3A Ag2 Au3B C126 -161.7(5) . . . . ?
N130 Au3B C126 N130 65(3) 3 . . . ?
Ag2 Au3B C126 N130 41.6(15) . . . . ?
N130 Au3B C126 N127 -112(3) 3 . . . ?
Ag2 Au3B C126 N127 -135.9(16) . . . . ?
N130 C126 N127 C128 3(2) . . . . ?
Au3B C126 N127 C128 -179.7(17) . . . . ?
N130 C126 N127 C172 172(4) . . . . ?
Au3B C126 N127 C172 -10(4) . . . . ?
C126 N127 C128 C129 2(3) . . . . ?
C172 N127 C128 C129 -167(4) . . . . ?
N127 C128 C129 N130 -7(4) . . . . ?
N127 C126 N130 C129 -7(3) . . . . ?
Au3B C126 N130 C129 175.5(16) . . . . ?
N127 C126 N130 Au3B -176(2) . . . 2 ?
Au3B C126 N130 Au3B 6(2) . . . 2 ?
C128 C129 N130 C126 8(3) . . . . ?
C128 C129 N130 Au3B 177(3) . . . 2 ?
Au4A Ag3 Au4A N135 51.6(7) 2 . . 2 ?
Au4A Ag3 Au4A N135 -64.4(7) 6_556 . . 2 ?
Au4A Ag3 Au4A N135 133.6(7) 3 . . 2 ?
Au4A Ag3 Au4A N135 -7.0(7) 5_556 . . 2 ?
Au4A Ag3 Au4A N135 -143.1(7) 4_556 . . 2 ?
Au4B Ag3 Au4A N135 -100.7(7) 6_556 . . 2 ?
Au4B Ag3 Au4A N135 -160.2(7) 4_556 . . 2 ?
Au4B Ag3 Au4A N135 85.2(7) 2 . . 2 ?
Au4B Ag3 Au4A N135 155.7(7) 3 . . 2 ?
Au4B Ag3 Au4A N135 -27.5(7) 5_556 . . 2 ?
Au4B Ag3 Au4A N135 22.3(7) . . . 2 ?
Au4A Ag3 Au4A C131 -130.1(8) 2 . . . ?
Au4A Ag3 Au4A C131 114.0(8) 6_556 . . . ?
Au4A Ag3 Au4A C131 -48.0(8) 3 . . . ?
Au4A Ag3 Au4A C131 171.4(8) 5_556 . . . ?
Au4A Ag3 Au4A C131 35.3(8) 4_556 . . . ?
Au4B Ag3 Au4A C131 77.7(8) 6_556 . . . ?
Au4B Ag3 Au4A C131 18.2(8) 4_556 . . . ?
Au4B Ag3 Au4A C131 -96.5(8) 2 . . . ?
Au4B Ag3 Au4A C131 -25.9(8) 3 . . . ?
Au4B Ag3 Au4A C131 150.9(8) 5_556 . . . ?
Au4B Ag3 Au4A C131 -159.3(8) . . . . ?
N135 Au4A C131 N135 48(6) 2 . . . ?
Ag3 Au4A C131 N135 38.2(16) . . . . ?
N135 Au4A C131 N132 -130(6) 2 . . . ?
Ag3 Au4A C131 N132 -139.4(11) . . . . ?
N135 C131 N132 C133 0(2) . . . . ?
Au4A C131 N132 C133 178.1(18) . . . . ?
N135 C131 N132 C181 -177(2) . . . . ?
Au4A C131 N132 C181 0.6(19) . . . . ?
C131 N132 C133 C134 4(3) . . . . ?
C181 N132 C133 C134 -178(2) . . . . ?
N132 C133 C134 N135 -7(4) . . . . ?
N132 C131 N135 C134 -4(2) . . . . ?
Au4A C131 N135 C134 177.6(15) . . . . ?
N132 C131 N135 Au4A -173.5(18) . . . 3 ?
Au4A C131 N135 Au4A 9(3) . . . 3 ?
C133 C134 N135 C131 7(3) . . . . ?
C133 C134 N135 Au4A 174(3) . . . 3 ?
Au4A Ag3 Au4B N136 -155.4(7) 2 . . . ?
Au4A Ag3 Au4B N136 77.2(7) 6_556 . . . ?
Au4A Ag3 Au4B N136 -81.6(7) 3 . . . ?
Au4A Ag3 Au4B N136 153.4(7) 5_556 . . . ?
Au4A Ag3 Au4B N136 -14.3(7) . . . . ?
Au4A Ag3 Au4B N136 12.4(7) 4_556 . . . ?
Au4B Ag3 Au4B N136 46.2(7) 6_556 . . . ?
Au4B Ag3 Au4B N136 178(32) 4_556 . . . ?
Au4B Ag3 Au4B N136 -129.3(7) 2 . . . ?
Au4B Ag3 Au4B N136 -49.0(7) 3 . . . ?
Au4B Ag3 Au4B N136 126.2(7) 5_556 . . . ?
Au4A Ag3 Au4B C140 23.0(6) 2 . . 2 ?
Au4A Ag3 Au4B C140 -104.4(6) 6_556 . . 2 ?
Au4A Ag3 Au4B C140 96.8(6) 3 . . 2 ?
Au4A Ag3 Au4B C140 -28.3(6) 5_556 . . 2 ?
Au4A Ag3 Au4B C140 164.1(6) . . . 2 ?
Au4A Ag3 Au4B C140 -169.3(6) 4_556 . . 2 ?
Au4B Ag3 Au4B C140 -135.5(6) 6_556 . . 2 ?
Au4B Ag3 Au4B C140 -3.6(6) 4_556 . . 2 ?
Au4B Ag3 Au4B C140 49.0(6) 2 . . 2 ?
Au4B Ag3 Au4B C140 129.3(6) 3 . . 2 ?
Au4B Ag3 Au4B C140 -55.4(6) 5_556 . . 2 ?
C140 Au4B N136 C140 12(13) 2 . . . ?
Ag3 Au4B N136 C140 42.7(14) . . . . ?
C140 Au4B N136 C137 -168(33) 2 . . . ?
Ag3 Au4B N136 C137 -137.3(13) . . . . ?
C140 N136 C137 C138 0(2) . . . . ?
Au4B N136 C137 C138 179.8(17) . . . . ?
N136 C137 C138 N139 3(3) . . . . ?
C137 C138 N139 C182 -174(3) . . . . ?
C137 C138 N139 C140 -4(3) . . . . ?
C182 N139 C140 N136 174(3) . . . . ?
C138 N139 C140 N136 4(3) . . . . ?
C182 N139 C140 Au4B -10(4) . . . 3 ?
C138 N139 C140 Au4B 180(2) . . . 3 ?
C137 N136 C140 N139 -2(2) . . . . ?
Au4B N136 C140 N139 177.5(13) . . . . ?
C137 N136 C140 Au4B -179.0(17) . . . 3 ?
Au4B N136 C140 Au4B 1(2) . . . 3 ?
N17 Pd3 N1 C2 109.8(19) . . . . ?
N9 Pd3 N1 C2 -66.4(18) . . . . ?
N18 Pd3 N1 C2 122(32) . . . . ?
N17 Pd3 N1 C6 -68.4(18) . . . . ?
N9 Pd3 N1 C6 115.3(17) . . . . ?
N18 Pd3 N1 C6 -56(33) . . . . ?
C6 N1 C2 C3 -3(3) . . . . ?
Pd3 N1 C2 C3 178.9(17) . . . . ?
N1 C2 C3 C4 4(3) . . . . ?
C2 C3 C4 C5 1(3) . . . . ?
C2 C3 C4 C7 177.6(16) . . . . ?
C3 C4 C5 C6 -5(3) . . . . ?
C7 C4 C5 C6 178.1(15) . . . . ?
C4 C5 C6 N1 6(3) . . . . ?
C2 N1 C6 C5 -2(3) . . . . ?
Pd3 N1 C6 C5 176.3(14) . . . . ?
C5 C4 C7 N8 -179.5(17) . . . . ?
C3 C4 C7 N8 3(2) . . . . ?
C5 C4 C7 N8 -4(2) . . . 3 ?
C3 C4 C7 N8 179.0(16) . . . 3 ?
N8 C7 N8 C7 3(3) 3 . . 2 ?
C4 C7 N8 C7 178.3(9) . . . 2 ?
N1 Pd3 N9 C10 93.9(15) . . . . ?
N17 Pd3 N9 C10 -14(12) . . . . ?
N18 Pd3 N9 C10 -86.4(16) . . . . ?
N1 Pd3 N9 C14 -86.7(15) . . . . ?
N17 Pd3 N9 C14 166(11) . . . . ?
N18 Pd3 N9 C14 93.1(16) . . . . ?
C14 N9 C10 C11 9(2) . . . . ?
Pd3 N9 C10 C11 -171.5(14) . . . . ?
C14 N9 C10 C16 -173.6(16) . . . . ?
Pd3 N9 C10 C16 6(2) . . . . ?
N9 C10 C11 C12 -7(3) . . . . ?
C16 C10 C11 C12 175.9(18) . . . . ?
C10 C11 C12 C13 2(3) . . . . ?
C10 C11 C12 C12 -179.7(14) . . . 5 ?
C11 C12 C13 C14 -1(4) . . . . ?
C12 C12 C13 C14 -179(2) 5 . . . ?
C12 C13 C14 C15 172(2) . . . . ?
C12 C13 C14 N9 4(4) . . . . ?
C10 N9 C14 C13 -7(3) . . . . ?
Pd3 N9 C14 C13 173.0(19) . . . . ?
C10 N9 C14 C15 -176(2) . . . . ?
Pd3 N9 C14 C15 4(3) . . . . ?
N1 Pd3 N17 C19 180(2) . . . . ?
N9 Pd3 N17 C19 -73(12) . . . . ?
N18 Pd3 N17 C19 0(3) . . . . ?
Pd3 N17 C19 C20 8(4) . . . . ?
N17 C19 C20 N18 -18(6) . . . . ?
C19 C20 N18 Pd3 18(5) . . . . ?
N1 Pd3 N18 C20 -22(33) . . . . ?
N17 Pd3 N18 C20 -9(3) . . . . ?
N9 Pd3 N18 C20 167(2) . . . . ?
N37 Pd1 N21 C22 114.7(19) . . . . ?
N38 Pd1 N21 C22 168(9) . . . . ?
N29 Pd1 N21 C22 -64.4(18) . . . . ?
N37 Pd1 N21 C26 -71.4(17) . . . . ?
N38 Pd1 N21 C26 -18(11) . . . . ?
N29 Pd1 N21 C26 109.5(15) . . . . ?
C26 N21 C22 C23 6(3) . . . . ?
Pd1 N21 C22 C23 180.0(16) . . . . ?
N21 C22 C23 C24 -4(3) . . . . ?
C22 C23 C24 C25 3(3) . . . . ?
C22 C23 C24 C27 -176.8(18) . . . . ?
C23 C24 C25 C26 -4(3) . . . . ?
C27 C24 C25 C26 176(2) . . . . ?
C24 C25 C26 N21 5(3) . . . . ?
C22 N21 C26 C25 -6(3) . . . . ?
Pd1 N21 C26 C25 179.7(14) . . . . ?
C25 C24 C27 N28 -177.0(19) . . . . ?
C23 C24 C27 N28 3(3) . . . . ?
C25 C24 C27 N28 2(3) . . . 2 ?
C23 C24 C27 N28 -178(2) . . . 2 ?
N28 C27 N28 C27 1(4) 2 . . 3 ?
C24 C27 N28 C27 -179.6(11) . . . 3 ?
N37 Pd1 N29 C30 113(22) . . . . ?
N38 Pd1 N29 C30 88(2) . . . . ?
N21 Pd1 N29 C30 -87.6(18) . . . . ?
N37 Pd1 N29 C34 -70(22) . . . . ?
N38 Pd1 N29 C34 -94.4(18) . . . . ?
N21 Pd1 N29 C34 89.9(16) . . . . ?
C34 N29 C30 C31 -1(3) . . . . ?
Pd1 N29 C30 C31 176.8(15) . . . . ?
C34 N29 C30 C36 179(2) . . . . ?
Pd1 N29 C30 C36 -3(3) . . . . ?
N29 C30 C31 C32 0(3) . . . . ?
C36 C30 C31 C32 180(2) . . . . ?
C30 C31 C32 C33 3(3) . . . . ?
C30 C31 C32 C52 -178.2(17) . . . . ?
C31 C32 C33 C34 -5(3) . . . . ?
C52 C32 C33 C34 176.1(18) . . . . ?
C30 N29 C34 C33 -1(3) . . . . ?
Pd1 N29 C34 C33 -178.8(15) . . . . ?
C30 N29 C34 C35 -171(2) . . . . ?
Pd1 N29 C34 C35 12(2) . . . . ?
C32 C33 C34 N29 4(3) . . . . ?
C32 C33 C34 C35 173(2) . . . . ?
N38 Pd1 N37 C39 13(3) . . . . ?
N21 Pd1 N37 C39 -171(3) . . . . ?
N29 Pd1 N37 C39 -12(24) . . . . ?
N37 Pd1 N38 C40 -29(3) . . . . ?
N21 Pd1 N38 C40 -83(11) . . . . ?
N29 Pd1 N38 C40 150(3) . . . . ?
Pd1 N37 C39 C40 6(4) . . . . ?
Pd1 N38 C40 C39 41(4) . . . . ?
N37 C39 C40 N38 -32(5) . . . . ?
N49 Pd2 N41 C46 -64.6(18) . . . . ?
N58 Pd2 N41 C46 106(12) . . . . ?
N57 Pd2 N41 C46 118.1(19) . . . . ?
N49 Pd2 N41 C42 108.2(14) . . . . ?
N58 Pd2 N41 C42 -82(12) . . . . ?
N57 Pd2 N41 C42 -69.1(15) . . . . ?
C46 N41 C42 C43 -8(3) . . . . ?
Pd2 N41 C42 C43 178.9(13) . . . . ?
N41 C42 C43 C44 11(3) . . . . ?
C42 C43 C44 C45 -10(3) . . . . ?
C42 C43 C44 C47 173.3(16) . . . . ?
C43 C44 C45 C46 6(3) . . . . ?
C47 C44 C45 C46 -176.9(16) . . . . ?
C42 N41 C46 C45 4(3) . . . . ?
Pd2 N41 C46 C45 177.1(14) . . . . ?
C44 C45 C46 N41 -3(3) . . . . ?
C43 C44 C47 N48 176.6(15) . . . . ?
C45 C44 C47 N48 -1(2) . . . . ?
C43 C44 C47 N48 2(2) . . . 3 ?
C45 C44 C47 N48 -175.1(14) . . . 3 ?
N48 C47 N48 C47 -6(3) 3 . . 2 ?
C44 C47 N48 C47 179.2(9) . . . 2 ?
N41 Pd2 N49 C50 -89.9(17) . . . . ?
N58 Pd2 N49 C50 91.0(18) . . . . ?
N57 Pd2 N49 C50 47(14) . . . . ?
N41 Pd2 N49 C54 85.4(16) . . . . ?
N58 Pd2 N49 C54 -93.6(17) . . . . ?
N57 Pd2 N49 C54 -138(13) . . . . ?
C54 N49 C50 C51 -4(3) . . . . ?
Pd2 N49 C50 C51 170.7(15) . . . . ?
C54 N49 C50 C55 -174(2) . . . . ?
Pd2 N49 C50 C55 1(3) . . . . ?
N49 C50 C51 C52 6(3) . . . . ?
C55 C50 C51 C52 176(2) . . . . ?
C50 C51 C52 C53 0(3) . . . . ?
C50 C51 C52 C32 175.9(18) . . . . ?
C31 C32 C52 C53 -41(3) . . . . ?
C33 C32 C52 C53 138(2) . . . . ?
C31 C32 C52 C51 142.9(18) . . . . ?
C33 C32 C52 C51 -38(3) . . . . ?
C51 C52 C53 C54 -8(3) . . . . ?
C32 C52 C53 C54 175.9(18) . . . . ?
C50 N49 C54 C53 -4(3) . . . . ?
Pd2 N49 C54 C53 -178.9(15) . . . . ?
C50 N49 C54 C56 -173(2) . . . . ?
Pd2 N49 C54 C56 12(3) . . . . ?
C52 C53 C54 N49 10(3) . . . . ?
C52 C53 C54 C56 179(2) . . . . ?
N49 Pd2 N57 C59 56(14) . . . . ?
N41 Pd2 N57 C59 -167(2) . . . . ?
N58 Pd2 N57 C59 12(2) . . . . ?
N49 Pd2 N58 C60 179(3) . . . . ?
N41 Pd2 N58 C60 9(14) . . . . ?
N57 Pd2 N58 C60 -4(3) . . . . ?
Pd2 N57 C59 C60 -18(5) . . . . ?
N57 C59 C60 N58 19(9) . . . . ?
Pd2 N58 C60 C59 -8(8) . . . . ?
N69 Pd4 N61 C66 -68.7(17) . . . . ?
N77 Pd4 N61 C66 109.9(18) . . . . ?
N78 Pd4 N61 C66 124(14) . . . . ?
N69 Pd4 N61 C62 115.7(16) . . . . ?
N77 Pd4 N61 C62 -65.7(17) . . . . ?
N78 Pd4 N61 C62 -52(15) . . . . ?
C66 N61 C62 C63 3(3) . . . . ?
Pd4 N61 C62 C63 178.5(13) . . . . ?
N61 C62 C63 C64 1(3) . . . . ?
C62 C63 C64 C65 -5(3) . . . . ?
C62 C63 C64 C67 178.2(16) . . . . ?
C63 C64 C65 C66 3(3) . . . . ?
C67 C64 C65 C66 -179.5(16) . . . . ?
C62 N61 C66 C65 -4(3) . . . . ?
Pd4 N61 C66 C65 179.8(16) . . . . ?
C64 C65 C66 N61 1(3) . . . . ?
C67 N68 C67 N68 -1(3) 3 . . 2 ?
C67 N68 C67 C64 178.8(10) 3 . . . ?
C65 C64 C67 N68 3(2) . . . . ?
C63 C64 C67 N68 -179.7(17) . . . . ?
C65 C64 C67 N68 -177.4(17) . . . 2 ?
C63 C64 C67 N68 0(3) . . . 2 ?
N61 Pd4 N69 C70 91.1(16) . . . . ?
N77 Pd4 N69 C70 -51(22) . . . . ?
N78 Pd4 N69 C70 -89.9(17) . . . . ?
N61 Pd4 N69 C74 -82.8(16) . . . . ?
N77 Pd4 N69 C74 136(21) . . . . ?
N78 Pd4 N69 C74 96.3(17) . . . . ?
C74 N69 C70 C71 6(3) . . . . ?
Pd4 N69 C70 C71 -168.5(17) . . . . ?
C74 N69 C70 C75 -174.5(18) . . . . ?
Pd4 N69 C70 C75 11(2) . . . . ?
N69 C70 C71 C72 -7(3) . . . . ?
C75 C70 C71 C72 173.5(18) . . . . ?
C70 C71 C72 C73 4(3) . . . . ?
C70 C71 C72 C72 -179.3(17) . . . 6_556 ?
C71 C72 C73 C74 0(3) . . . . ?
C72 C72 C73 C74 -177.0(17) 6_556 . . . ?
C72 C73 C74 N69 0(3) . . . . ?
C72 C73 C74 C76 175(2) . . . . ?
C70 N69 C74 C73 -2(3) . . . . ?
Pd4 N69 C74 C73 172.1(17) . . . . ?
C70 N69 C74 C76 -178(2) . . . . ?
Pd4 N69 C74 C76 -4(3) . . . . ?
N69 Pd4 N77 C79 -36(22) . . . . ?
N61 Pd4 N77 C79 -178(2) . . . . ?
N78 Pd4 N77 C79 4(2) . . . . ?
N69 Pd4 N78 C80 162(2) . . . . ?
N61 Pd4 N78 C80 -31(15) . . . . ?
N77 Pd4 N78 C80 -17(2) . . . . ?
Pd4 N77 C79 C80 12(4) . . . . ?
N77 C79 C80 N78 -32(5) . . . . ?
Pd4 N78 C80 C79 36(5) . . . . ?

_diffrn_measured_fraction_theta_max 0.994
_diffrn_reflns_theta_full        24.12
_diffrn_measured_fraction_theta_full 0.994
_refine_diff_density_max         1.537
_refine_diff_density_min         -1.528
_refine_diff_density_rms         0.172


