####################################################################### 
# 
# This file contains crystal structure data downloaded from the 
# Cambridge Structural Database (CSD) hosted by the Cambridge 
# Crystallographic Data Centre (CCDC).
# 
# Full information about CCDC data access policies and citation 
# guidelines are available at http://www.ccdc.cam.ac.uk/access/V1 
# 
# Audit and citation data items may have been added by the CCDC. 
# Please retain this information to preserve the provenance of 
# this file and to allow appropriate attribution of the data. 
# 
#######################################################################

data_M24L48
_audit_block_doi                 10.5517/cctpskt
_database_code_depnum_ccdc_archive 'CCDC 765717'
loop_
_citation_id
_citation_doi
_citation_year
1 10.1126/science.1188605 2010
_audit_update_record             
;
2010-02-10 deposited with the CCDC.	2019-03-04 downloaded from the CCDC.
;
#TrackingRef 'CCDC-deposito-Science-M24L48-final.cif'


_audit_creation_method           SHELXL-97
_chemical_name_systematic        
;
?
;
_chemical_name_common            M24L48
_chemical_melting_point          ?
_chemical_formula_moiety         ?
_chemical_formula_sum            'C768 H576 F288 N96 O100 P48 Pd24 S48'
_chemical_formula_weight         23800.29

loop_
_atom_type_symbol
_atom_type_description
_atom_type_scat_dispersion_real
_atom_type_scat_dispersion_imag
_atom_type_scat_source
C C 0.0030 0.0020 'International Tables Vol C Tables 4.2.6.8 and 6.1.1.4'
H H 0.0000 0.0000 'International Tables Vol C Tables 4.2.6.8 and 6.1.1.4'
P P 0.1000 0.0920 'International Tables Vol C Tables 4.2.6.8 and 6.1.1.4'
N N 0.0060 0.0030 'International Tables Vol C Tables 4.2.6.8 and 6.1.1.4'
O O 0.0100 0.0060 'International Tables Vol C Tables 4.2.6.8 and 6.1.1.4'
S S 0.1220 0.1210 'International Tables Vol C Tables 4.2.6.8 and 6.1.1.4'
Pd Pd -1.0130 0.9840 'International Tables Vol C Tables 4.2.6.8 and 6.1.1.4'
F F 0.0170 0.0100 'International Tables Vol C Tables 4.2.6.8 and 6.1.1.4'

_symmetry_cell_setting           tetragonal
_symmetry_space_group_name_H-M   I-4

loop_
_symmetry_equiv_pos_as_xyz
'x, y, z'
'-x, -y, z'
'y, -x, -z'
'-y, x, -z'
'x+1/2, y+1/2, z+1/2'
'-x+1/2, -y+1/2, z+1/2'
'y+1/2, -x+1/2, -z+1/2'
'-y+1/2, x+1/2, -z+1/2'

_cell_length_a                   47.527(1)
_cell_length_b                   47.527(1)
_cell_length_c                   68.663(1)
_cell_angle_alpha                90.00
_cell_angle_beta                 90.00
_cell_angle_gamma                90.00
_cell_volume                     155097(5)
_cell_formula_units_Z            2
_cell_measurement_temperature    293(2)
_cell_measurement_reflns_used    ?
_cell_measurement_theta_min      ?
_cell_measurement_theta_max      ?

_exptl_crystal_description       ?
_exptl_crystal_colour            ?
_exptl_crystal_size_max          0.15
_exptl_crystal_size_mid          0.15
_exptl_crystal_size_min          0.15
_exptl_crystal_density_meas      ?
_exptl_crystal_density_diffrn    0.510
_exptl_crystal_density_method    'not measured'
_exptl_crystal_F_000             23680
_exptl_absorpt_coefficient_mu    0.219
_exptl_absorpt_correction_type   none
_exptl_absorpt_correction_T_min  0.9680
_exptl_absorpt_correction_T_max  0.9680
_exptl_absorpt_process_details   ?

_exptl_special_details           
;
?
;

_diffrn_ambient_temperature      293(2)
_diffrn_radiation_wavelength     0.70000
_diffrn_radiation_type           synchrotron
_diffrn_radiation_source         'SPring-8 BL38B1 beamline'
_diffrn_radiation_monochromator  'Si 111'
_diffrn_measurement_device_type  ?
_diffrn_measurement_method       ?
_diffrn_detector_area_resol_mean ?
_diffrn_standards_number         ?
_diffrn_standards_interval_count ?
_diffrn_standards_interval_time  ?
_diffrn_standards_decay_%        ?
_diffrn_reflns_number            95657
_diffrn_reflns_av_R_equivalents  0.0804
_diffrn_reflns_av_sigmaI/netI    0.0923
_diffrn_reflns_limit_h_min       -36
_diffrn_reflns_limit_h_max       37
_diffrn_reflns_limit_k_min       -38
_diffrn_reflns_limit_k_max       38
_diffrn_reflns_limit_l_min       -52
_diffrn_reflns_limit_l_max       54
_diffrn_reflns_theta_min         0.51
_diffrn_reflns_theta_max         16.26
_reflns_number_total             39679
_reflns_number_gt                16668
_reflns_threshold_expression     >2\s(I)

_computing_data_collection       ?
_computing_cell_refinement       ?
_computing_data_reduction        ?
_computing_structure_solution    'SHELXS-97 (Sheldrick, 1990)'
_computing_structure_refinement  'SHELXL-97 (Sheldrick, 1997)'
_computing_molecular_graphics    ?
_computing_publication_material  ?

_refine_special_details          
;
Refinement of F^2^ against ALL reflections. The weighted R-factor wR and
goodness of fit S are based on F^2^, conventional R-factors R are based
on F, with F set to zero for negative F^2^. The threshold expression of
F^2^ > 2sigma(F^2^) is used only for calculating R-factors(gt) etc. and is
not relevant to the choice of reflections for refinement. R-factors based
on F^2^ are statistically about twice as large as those based on F, and R-
factors based on ALL data will be even larger.
;

_refine_ls_structure_factor_coef Fsqd
_refine_ls_matrix_type           full
_refine_ls_weighting_scheme      calc
_refine_ls_weighting_details     
'calc w=1/[\s^2^(Fo^2^)+(0.2000P)^2^] where P=(Fo^2^+2Fc^2^)/3'
_atom_sites_solution_primary     direct
_atom_sites_solution_secondary   difmap
_atom_sites_solution_hydrogens   geom
_refine_ls_hydrogen_treatment    constr
_refine_ls_extinction_method     none
_refine_ls_extinction_coef       ?
_refine_ls_abs_structure_details 'Flack H D (1983), Acta Cryst. A39, 876-881'
_refine_ls_abs_structure_Flack   0.30(7)
_refine_ls_number_reflns         39679
_refine_ls_number_parameters     1464
_refine_ls_number_restraints     28577
_refine_ls_R_factor_all          0.3199
_refine_ls_R_factor_gt           0.2222
_refine_ls_wR_factor_ref         0.5427
_refine_ls_wR_factor_gt          0.4798
_refine_ls_goodness_of_fit_ref   1.701
_refine_ls_restrained_S_all      1.334
_refine_ls_shift/su_max          0.009
_refine_ls_shift/su_mean         0.001

loop_
_atom_site_label
_atom_site_type_symbol
_atom_site_fract_x
_atom_site_fract_y
_atom_site_fract_z
_atom_site_U_iso_or_equiv
_atom_site_adp_type
_atom_site_occupancy
_atom_site_symmetry_multiplicity
_atom_site_calc_flag
_atom_site_refinement_flags
_atom_site_disorder_assembly
_atom_site_disorder_group
Pd1 Pd -0.05635(7) 0.20675(7) 0.25178(3) 0.2192(14) Uani 1 1 d D . .
Pd2 Pd 0.20648(7) 0.05521(7) 0.25167(4) 0.2276(14) Uani 1 1 d D . .
Pd3 Pd 0.30815(7) 0.24344(7) 0.10466(4) 0.2089(14) Uani 1 1 d D . .
Pd4 Pd 0.04471(7) 0.39389(7) 0.10454(4) 0.2065(14) Uani 1 1 d D . .
Pd5 Pd -0.24359(6) 0.30809(7) 0.10469(4) 0.2061(14) Uani 1 1 d D . .
Pd6 Pd 0.39353(7) -0.04500(7) 0.10470(4) 0.2119(14) Uani 1 1 d D . .
S1_1 S -0.1652(2) 0.2586(2) 0.18852(12) 0.292(7) Uani 1 1 d D . .
C1_1 C -0.1881(2) 0.2843(3) 0.18484(17) 0.265(3) Uiso 1 1 d UD . .
C2_1 C -0.1888(2) 0.2997(3) 0.20090(16) 0.300(3) Uiso 1 1 d UD . .
C3_1 C -0.1700(3) 0.2896(3) 0.21599(18) 0.297(3) Uiso 1 1 d UD . .
C4_1 C -0.1561(3) 0.2666(3) 0.21109(17) 0.263(3) Uiso 1 1 d UD . .
C5_1 C -0.2041(3) 0.2899(3) 0.16816(17) 0.247(3) Uiso 1 1 d UD . .
C6_1 C -0.2230(3) 0.3108(3) 0.1636(2) 0.247(3) Uiso 1 1 d UD . .
H6_1 H -0.2266 0.3239 0.1734 0.296 Uiso 1 1 calc R . .
C7_1 C -0.2373(4) 0.3146(4) 0.1462(3) 0.240(3) Uiso 1 1 d UD . .
H7_1 H -0.2499 0.3293 0.1444 0.288 Uiso 1 1 calc R . .
N1_1 N -0.2318(4) 0.2958(5) 0.13207(17) 0.228(3) Uiso 1 1 d UD . .
C8_1 C -0.2132(5) 0.2741(5) 0.13437(19) 0.244(3) Uiso 1 1 d UD . .
H8_1 H -0.2090 0.2622 0.1241 0.293 Uiso 1 1 calc R . .
C9_1 C -0.2006(4) 0.2704(4) 0.1527(2) 0.239(3) Uiso 1 1 d UD . .
H9_1 H -0.1895 0.2545 0.1548 0.287 Uiso 1 1 calc R . .
C10_1 C -0.1360(3) 0.2539(3) 0.22314(18) 0.246(3) Uiso 1 1 d UD . .
C11_1 C -0.1263(3) 0.2608(3) 0.24145(19) 0.242(3) Uiso 1 1 d UD . .
H11_1 H -0.1349 0.2761 0.2475 0.290 Uiso 1 1 calc R . .
C12_1 C -0.1052(3) 0.2475(4) 0.2519(2) 0.237(3) Uiso 1 1 d UD . .
H12_1 H -0.1001 0.2531 0.2644 0.284 Uiso 1 1 calc R . .
N2_1 N -0.0925(3) 0.2260(4) 0.2427(3) 0.229(3) Uiso 1 1 d UD . .
C13_1 C -0.1006(4) 0.2159(4) 0.2250(3) 0.237(3) Uiso 1 1 d UD . .
H13_1 H -0.0923 0.1999 0.2197 0.285 Uiso 1 1 calc R . .
C14_1 C -0.1219(4) 0.2305(4) 0.2151(2) 0.242(3) Uiso 1 1 d UD . .
H14_1 H -0.1270 0.2244 0.2027 0.290 Uiso 1 1 calc R . .
O1_1 O -0.2061(3) 0.3250(3) 0.2045(2) 0.330(3) Uiso 1 1 d UD . .
O2_1 O -0.1684(4) 0.3049(3) 0.23481(17) 0.320(3) Uiso 1 1 d UD . .
C15_1 C -0.2067(5) 0.3374(5) 0.2254(3) 0.342(4) Uiso 1 1 d UD . .
H15A_1 H -0.2132 0.3568 0.2250 0.410 Uiso 1 1 calc R . .
H15B_1 H -0.2196 0.3267 0.2334 0.410 Uiso 1 1 calc R . .
C16_1 C -0.1781(5) 0.3363(4) 0.2340(3) 0.337(4) Uiso 1 1 d UD . .
H16A_1 H -0.1784 0.3442 0.2470 0.404 Uiso 1 1 calc R . .
H16B_1 H -0.1652 0.3472 0.2262 0.404 Uiso 1 1 calc R . .
S1_2 S -0.10542(18) 0.37029(19) 0.09885(13) 0.246(5) Uani 1 1 d D . .
C1_2 C -0.1362(2) 0.3815(3) 0.10700(16) 0.265(5) Uiso 1 1 d UD . .
C2_2 C -0.1316(2) 0.4055(3) 0.11622(17) 0.298(5) Uiso 1 1 d UD . .
C3_2 C -0.1024(2) 0.4143(3) 0.1159(2) 0.298(5) Uiso 1 1 d UD . .
C4_2 C -0.0856(2) 0.3965(3) 0.1068(2) 0.260(5) Uiso 1 1 d UD . .
C5_2 C -0.1626(2) 0.3687(3) 0.1055(2) 0.248(5) Uiso 1 1 d UD . .
C6_2 C -0.1884(3) 0.3754(3) 0.1133(2) 0.246(5) Uiso 1 1 d UD . .
H6_2 H -0.1894 0.3922 0.1202 0.295 Uiso 1 1 calc R . .
C7_2 C -0.2132(3) 0.3600(4) 0.1119(3) 0.244(5) Uiso 1 1 d UD . .
H7_2 H -0.2299 0.3659 0.1176 0.293 Uiso 1 1 calc R . .
N1_2 N -0.2115(3) 0.3361(4) 0.1016(3) 0.222(4) Uiso 1 1 d UD . .
C8_2 C -0.1871(4) 0.3259(3) 0.0937(3) 0.237(5) Uiso 1 1 d UD . .
H8_2 H -0.1865 0.3084 0.0878 0.285 Uiso 1 1 calc R . .
C9_2 C -0.1631(3) 0.3430(3) 0.0950(3) 0.240(5) Uiso 1 1 d UD . .
H9_2 H -0.1468 0.3373 0.0887 0.288 Uiso 1 1 calc R . .
C10_2 C -0.0565(2) 0.3994(3) 0.10518(19) 0.246(4) Uiso 1 1 d UD . .
C11_2 C -0.0388(3) 0.4220(3) 0.1082(2) 0.246(5) Uiso 1 1 d UD . .
H11_2 H -0.0472 0.4388 0.1120 0.295 Uiso 1 1 calc R . .
C12_2 C -0.0097(3) 0.4222(4) 0.1063(3) 0.240(5) Uiso 1 1 d UD . .
H12_2 H 0.0009 0.4383 0.1086 0.288 Uiso 1 1 calc R . .
N2_2 N 0.00228(16) 0.3980(5) 0.1007(3) 0.229(4) Uiso 1 1 d UD . .
C13_2 C -0.0125(3) 0.3739(4) 0.0971(3) 0.241(5) Uiso 1 1 d UD . .
H13_2 H -0.0035 0.3575 0.0932 0.289 Uiso 1 1 calc R . .
C14_2 C -0.0418(3) 0.3748(3) 0.0996(3) 0.242(5) Uiso 1 1 d UD . .
H14_2 H -0.0520 0.3584 0.0975 0.291 Uiso 1 1 calc R . .
O1_2 O -0.1529(3) 0.4230(3) 0.1263(2) 0.323(5) Uiso 1 1 d UD . .
O2_2 O -0.0936(3) 0.4400(3) 0.1266(2) 0.319(5) Uiso 1 1 d UD . .
C15_2 C -0.1410(4) 0.4425(5) 0.1426(3) 0.342(5) Uiso 1 1 d UD . .
H15A_2 H -0.1556 0.4549 0.1473 0.410 Uiso 1 1 calc R . .
H15B_2 H -0.1345 0.4312 0.1535 0.410 Uiso 1 1 calc R . .
C16_2 C -0.1174(4) 0.4592(4) 0.1347(4) 0.333(5) Uiso 1 1 d UD . .
H16A_2 H -0.1097 0.4710 0.1449 0.400 Uiso 1 1 calc R . .
H16B_2 H -0.1243 0.4713 0.1244 0.400 Uiso 1 1 calc R . .
S1_3 S 0.0075(2) 0.30893(18) 0.18716(12) 0.261(6) Uani 1 1 d D . .
C1_3 C 0.0025(2) 0.3080(3) 0.21103(16) 0.264(5) Uiso 1 1 d UD . .
C2_3 C 0.0105(3) 0.3326(2) 0.21787(16) 0.301(5) Uiso 1 1 d UD . .
C3_3 C 0.0212(4) 0.3517(3) 0.20311(17) 0.297(5) Uiso 1 1 d UD . .
C4_3 C 0.0206(4) 0.3410(3) 0.18537(17) 0.265(5) Uiso 1 1 d UD . .
C5_3 C -0.0082(3) 0.2859(3) 0.22222(19) 0.245(5) Uiso 1 1 d UD . .
C6_3 C -0.0163(4) 0.2841(3) 0.24139(19) 0.249(5) Uiso 1 1 d UD . .
H6_3 H -0.0133 0.3001 0.2489 0.299 Uiso 1 1 calc R . .
C7_3 C -0.0284(4) 0.2613(4) 0.2508(2) 0.240(5) Uiso 1 1 d UD . .
H7_3 H -0.0329 0.2618 0.2640 0.288 Uiso 1 1 calc R . .
N1_3 N -0.0334(4) 0.2386(3) 0.2397(3) 0.230(4) Uiso 1 1 d UD . .
C8_3 C -0.0259(5) 0.2369(3) 0.2206(3) 0.248(5) Uiso 1 1 d UD . .
H8_3 H -0.0292 0.2206 0.2134 0.297 Uiso 1 1 calc R . .
C9_3 C -0.0131(5) 0.2605(3) 0.2120(2) 0.240(5) Uiso 1 1 d UD . .
H9_3 H -0.0076 0.2593 0.1991 0.288 Uiso 1 1 calc R . .
C10_3 C 0.0286(3) 0.3550(3) 0.16837(17) 0.249(5) Uiso 1 1 d UD . .
C11_3 C 0.0381(3) 0.3819(3) 0.1651(2) 0.243(5) Uiso 1 1 d UD . .
H11_3 H 0.0403 0.3933 0.1760 0.291 Uiso 1 1 calc R . .
C12_3 C 0.0447(4) 0.3939(4) 0.1473(2) 0.235(5) Uiso 1 1 d UD . .
H12_3 H 0.0510 0.4123 0.1462 0.282 Uiso 1 1 calc R . .
N2_3 N 0.0415(4) 0.3771(4) 0.13171(16) 0.229(4) Uiso 1 1 d UD . .
C13_3 C 0.0320(5) 0.3501(5) 0.13253(17) 0.236(5) Uiso 1 1 d UD . .
H13_3 H 0.0294 0.3394 0.1213 0.283 Uiso 1 1 calc R . .
C14_3 C 0.0262(5) 0.3390(3) 0.15102(18) 0.245(5) Uiso 1 1 d UD . .
H14_3 H 0.0205 0.3203 0.1520 0.294 Uiso 1 1 calc R . .
O1_3 O 0.0101(4) 0.3419(3) 0.23853(16) 0.332(5) Uiso 1 1 d UD . .
O2_3 O 0.0303(4) 0.3804(3) 0.2085(2) 0.328(5) Uiso 1 1 d UD . .
C15_3 C 0.0324(5) 0.3654(5) 0.2432(2) 0.347(5) Uiso 1 1 d UD . .
H15A_3 H 0.0309 0.3712 0.2567 0.416 Uiso 1 1 calc R . .
H15B_3 H 0.0513 0.3584 0.2410 0.416 Uiso 1 1 calc R . .
C16_3 C 0.0265(7) 0.3896(3) 0.2301(3) 0.339(5) Uiso 1 1 d UD . .
H16A_3 H 0.0393 0.4049 0.2330 0.407 Uiso 1 1 calc R . .
H16B_3 H 0.0074 0.3961 0.2322 0.407 Uiso 1 1 calc R . .
S1_4 S 0.04961(15) 0.40857(13) 0.00015(13) 0.236(3) Uani 1 1 d D . .
C1_4 C 0.0562(2) 0.4303(2) 0.01824(16) 0.262(5) Uiso 1 1 d UD . .
C2_4 C 0.0654(2) 0.4540(2) 0.01063(15) 0.300(5) Uiso 1 1 d UD . .
C3_4 C 0.0668(4) 0.4536(3) -0.01041(16) 0.294(5) Uiso 1 1 d UD . .
C4_4 C 0.0584(4) 0.4295(3) -0.01808(16) 0.261(5) Uiso 1 1 d UD . .
C5_4 C 0.0531(3) 0.4253(3) 0.03816(16) 0.246(5) Uiso 1 1 d UD . .
C6_4 C 0.0538(4) 0.4433(3) 0.05390(17) 0.247(5) Uiso 1 1 d UD . .
H6_4 H 0.0558 0.4624 0.0512 0.296 Uiso 1 1 calc R . .
C7_4 C 0.0516(4) 0.4358(5) 0.07335(16) 0.236(5) Uiso 1 1 d UD . .
H7_4 H 0.0521 0.4490 0.0833 0.283 Uiso 1 1 calc R . .
N1_4 N 0.0489(4) 0.4083(5) 0.07682(15) 0.228(4) Uiso 1 1 d UD . .
C8_4 C 0.0473(5) 0.3880(4) 0.0628(2) 0.246(5) Uiso 1 1 d UD . .
H8_4 H 0.0446 0.3691 0.0660 0.295 Uiso 1 1 calc R . .
C9_4 C 0.0500(5) 0.3967(3) 0.0434(2) 0.239(5) Uiso 1 1 d UD . .
H9_4 H 0.0496 0.3832 0.0336 0.287 Uiso 1 1 calc R . .
C10_4 C 0.0568(3) 0.4241(3) -0.03804(16) 0.245(5) Uiso 1 1 d UD . .
C11_4 C 0.0604(4) 0.4409(3) -0.05411(17) 0.242(5) Uiso 1 1 d UD . .
H11_4 H 0.0655 0.4595 -0.0516 0.291 Uiso 1 1 calc R . .
C12_4 C 0.0572(5) 0.4337(5) -0.07352(16) 0.233(5) Uiso 1 1 d UD . .
H12_4 H 0.0604 0.4463 -0.0836 0.280 Uiso 1 1 calc R . .
N2_4 N 0.0490(4) 0.4071(5) -0.07669(15) 0.226(4) Uiso 1 1 d UD . .
C13_4 C 0.0455(5) 0.3876(4) -0.0624(2) 0.235(5) Uiso 1 1 d UD . .
H13_4 H 0.0406 0.3691 -0.0654 0.282 Uiso 1 1 calc R . .
C14_4 C 0.0494(5) 0.3961(3) -0.0431(2) 0.245(5) Uiso 1 1 d UD . .
H14_4 H 0.0470 0.3830 -0.0332 0.294 Uiso 1 1 calc R . .
O1_4 O 0.0737(4) 0.4796(3) 0.0216(2) 0.329(5) Uiso 1 1 d UD . .
O2_4 O 0.0776(4) 0.4784(3) -0.0210(2) 0.313(5) Uiso 1 1 d UD . .
C15_4 C 0.0773(6) 0.5069(3) 0.0092(3) 0.339(5) Uiso 1 1 d UD . .
H15A_4 H 0.0590 0.5140 0.0054 0.407 Uiso 1 1 calc R . .
H15B_4 H 0.0867 0.5212 0.0168 0.407 Uiso 1 1 calc R . .
C16_4 C 0.0942(5) 0.5001(4) -0.0084(3) 0.336(5) Uiso 1 1 d UD . .
H16A_4 H 0.1122 0.4922 -0.0045 0.403 Uiso 1 1 calc R . .
H16B_4 H 0.0976 0.5171 -0.0158 0.403 Uiso 1 1 calc R . .
S1_5 S 0.07552(17) 0.13218(19) 0.26281(11) 0.216(5) Uani 1 1 d D . .
C1_5 C 0.0581(2) 0.1544(2) 0.27684(17) 0.262(5) Uiso 1 1 d UD . .
C2_5 C 0.0734(2) 0.1583(2) 0.29272(18) 0.302(5) Uiso 1 1 d UD . .
C3_5 C 0.0995(3) 0.1427(3) 0.2927(2) 0.299(5) Uiso 1 1 d UD . .
C4_5 C 0.1033(3) 0.1273(3) 0.27686(19) 0.263(5) Uiso 1 1 d UD . .
C5_5 C 0.0327(2) 0.1681(3) 0.2733(2) 0.245(5) Uiso 1 1 d UD . .
C6_5 C 0.0167(3) 0.1862(3) 0.2843(2) 0.241(5) Uiso 1 1 d UD . .
H6_5 H 0.0237 0.1903 0.2967 0.289 Uiso 1 1 calc R . .
C7_5 C -0.0084(3) 0.1992(4) 0.2794(3) 0.240(5) Uiso 1 1 d UD . .
H7_5 H -0.0177 0.2114 0.2878 0.288 Uiso 1 1 calc R . .
N1_5 N -0.0183(2) 0.1931(4) 0.2616(3) 0.227(4) Uiso 1 1 d UD . .
C8_5 C -0.0045(4) 0.1759(5) 0.2489(3) 0.240(5) Uiso 1 1 d UD . .
H8_5 H -0.0119 0.1724 0.2366 0.288 Uiso 1 1 calc R . .
C9_5 C 0.0208(3) 0.1634(4) 0.2547(2) 0.229(5) Uiso 1 1 d UD . .
H9_5 H 0.0301 0.1517 0.2460 0.274 Uiso 1 1 calc R . .
C10_5 C 0.1271(2) 0.1104(3) 0.2739(2) 0.247(5) Uiso 1 1 d UD . .
C11_5 C 0.1505(3) 0.1054(3) 0.2851(2) 0.235(5) Uiso 1 1 d UD . .
H11_5 H 0.1512 0.1144 0.2971 0.283 Uiso 1 1 calc R . .
C12_5 C 0.1733(3) 0.0885(4) 0.2805(3) 0.239(5) Uiso 1 1 d UD . .
H12_5 H 0.1882 0.0857 0.2891 0.287 Uiso 1 1 calc R . .
N2_5 N 0.1728(3) 0.0764(4) 0.2628(3) 0.231(4) Uiso 1 1 d UD . .
C13_5 C 0.1506(4) 0.0789(4) 0.2504(3) 0.237(5) Uiso 1 1 d UD . .
H13_5 H 0.1507 0.0699 0.2384 0.284 Uiso 1 1 calc R . .
C14_5 C 0.1275(3) 0.0954(4) 0.2561(2) 0.243(5) Uiso 1 1 d UD . .
H14_5 H 0.1120 0.0966 0.2479 0.291 Uiso 1 1 calc R . .
O1_5 O 0.0657(3) 0.1760(3) 0.3097(2) 0.328(5) Uiso 1 1 d UD . .
O2_5 O 0.1193(3) 0.1450(4) 0.3094(2) 0.314(5) Uiso 1 1 d UD . .
C15_5 C 0.0903(5) 0.1824(5) 0.3242(3) 0.342(5) Uiso 1 1 d UD . .
H15A_5 H 0.1031 0.1959 0.3184 0.410 Uiso 1 1 calc R . .
H15B_5 H 0.0828 0.1905 0.3361 0.410 Uiso 1 1 calc R . .
C16_5 C 0.1054(5) 0.1559(5) 0.3286(2) 0.331(5) Uiso 1 1 d UD . .
H16A_5 H 0.0923 0.1420 0.3337 0.398 Uiso 1 1 calc R . .
H16B_5 H 0.1197 0.1593 0.3384 0.398 Uiso 1 1 calc R . .
S1_6 S 0.18460(17) 0.33306(19) 0.10408(13) 0.233(5) Uani 1 1 d D . .
C1_6 C 0.1710(2) 0.3621(2) 0.11351(16) 0.261(5) Uiso 1 1 d UD . .
C2_6 C 0.1907(2) 0.3741(2) 0.12412(17) 0.292(5) Uiso 1 1 d UD . .
C3_6 C 0.2171(2) 0.3591(3) 0.1240(2) 0.295(5) Uiso 1 1 d UD . .
C4_6 C 0.2164(2) 0.3355(3) 0.1137(2) 0.261(5) Uiso 1 1 d UD . .
C5_6 C 0.1436(2) 0.3725(3) 0.11168(19) 0.246(5) Uiso 1 1 d UD . .
C6_6 C 0.1318(3) 0.3979(3) 0.1167(2) 0.245(5) Uiso 1 1 d UD . .
H6_6 H 0.1438 0.4112 0.1221 0.294 Uiso 1 1 calc R . .
C7_6 C 0.1038(3) 0.4060(4) 0.1146(3) 0.240(5) Uiso 1 1 d UD . .
H7_6 H 0.0975 0.4237 0.1182 0.288 Uiso 1 1 calc R . .
N1_6 N 0.08670(18) 0.3863(5) 0.1070(3) 0.228(4) Uiso 1 1 d UD . .
C8_6 C 0.0955(3) 0.3604(5) 0.1012(3) 0.243(5) Uiso 1 1 d UD . .
H8_6 H 0.0830 0.3477 0.0956 0.292 Uiso 1 1 calc R . .
C9_6 C 0.1239(3) 0.3532(3) 0.1037(3) 0.234(5) Uiso 1 1 d UD . .
H9_6 H 0.1300 0.3354 0.1000 0.281 Uiso 1 1 calc R . .
C10_6 C 0.2395(3) 0.3176(3) 0.1118(2) 0.242(4) Uiso 1 1 d UD . .
C11_6 C 0.2668(3) 0.3198(3) 0.1183(2) 0.242(5) Uiso 1 1 d UD . .
H11_6 H 0.2713 0.3362 0.1251 0.291 Uiso 1 1 calc R . .
C12_6 C 0.2884(3) 0.3005(4) 0.1159(3) 0.235(5) Uiso 1 1 d UD . .
H12_6 H 0.3066 0.3037 0.1204 0.282 Uiso 1 1 calc R . .
N2_6 N 0.2812(4) 0.2768(3) 0.1066(3) 0.224(4) Uiso 1 1 d UD . .
C13_6 C 0.2553(4) 0.2719(3) 0.0988(3) 0.231(5) Uiso 1 1 d UD . .
H13_6 H 0.2517 0.2556 0.0918 0.277 Uiso 1 1 calc R . .
C14_6 C 0.2344(3) 0.2923(3) 0.1015(3) 0.236(5) Uiso 1 1 d UD . .
H14_6 H 0.2165 0.2890 0.0965 0.283 Uiso 1 1 calc R . .
O1_6 O 0.1880(3) 0.4007(3) 0.1351(2) 0.325(5) Uiso 1 1 d UD . .
O2_6 O 0.2414(3) 0.3695(3) 0.1355(2) 0.318(5) Uiso 1 1 d UD . .
C15_6 C 0.2118(4) 0.4065(5) 0.1504(3) 0.344(5) Uiso 1 1 d UD . .
H15A_6 H 0.2108 0.4259 0.1548 0.412 Uiso 1 1 calc R . .
H15B_6 H 0.2094 0.3943 0.1616 0.412 Uiso 1 1 calc R . .
C16_6 C 0.2396(4) 0.4012(4) 0.1414(4) 0.335(5) Uiso 1 1 d UD . .
H16A_6 H 0.2545 0.4057 0.1505 0.402 Uiso 1 1 calc R . .
H16B_6 H 0.2419 0.4130 0.1299 0.402 Uiso 1 1 calc R . .
S1_7 S 0.2564(2) 0.1653(2) 0.18683(12) 0.273(6) Uani 1 1 d D . .
C1_7 C 0.2594(3) 0.1592(2) 0.21040(16) 0.269(5) Uiso 1 1 d UD . .
C2_7 C 0.2767(3) 0.1785(2) 0.21743(17) 0.300(5) Uiso 1 1 d UD . .
C3_7 C 0.2864(4) 0.1984(3) 0.20298(17) 0.299(5) Uiso 1 1 d UD . .
C4_7 C 0.2763(3) 0.1937(3) 0.18537(18) 0.266(5) Uiso 1 1 d UD . .
C5_7 C 0.2474(3) 0.1375(3) 0.22135(19) 0.252(5) Uiso 1 1 d UD . .
C6_7 C 0.2516(3) 0.1291(3) 0.24036(19) 0.252(5) Uiso 1 1 d UD . .
H6_7 H 0.2637 0.1400 0.2478 0.303 Uiso 1 1 calc R . .
C7_7 C 0.2394(4) 0.1062(4) 0.2495(2) 0.241(5) Uiso 1 1 d UD . .
H7_7 H 0.2433 0.1017 0.2624 0.289 Uiso 1 1 calc R . .
N1_7 N 0.2217(4) 0.0908(3) 0.2387(3) 0.236(4) Uiso 1 1 d UD . .
C8_7 C 0.2162(4) 0.0959(4) 0.2195(3) 0.250(5) Uiso 1 1 d UD . .
H8_7 H 0.2049 0.0839 0.2122 0.300 Uiso 1 1 calc R . .
C9_7 C 0.2285(4) 0.1199(4) 0.2112(2) 0.241(5) Uiso 1 1 d UD . .
H9_7 H 0.2239 0.1244 0.1984 0.289 Uiso 1 1 calc R . .
C10_7 C 0.2850(3) 0.2078(3) 0.16856(17) 0.247(5) Uiso 1 1 d UD . .
C11_7 C 0.3051(3) 0.2281(3) 0.1654(2) 0.244(5) Uiso 1 1 d UD . .
H11_7 H 0.3143 0.2350 0.1764 0.293 Uiso 1 1 calc R . .
C12_7 C 0.3130(4) 0.2395(4) 0.1476(3) 0.244(5) Uiso 1 1 d UD . .
H12_7 H 0.3266 0.2535 0.1466 0.293 Uiso 1 1 calc R . .
N2_7 N 0.2999(4) 0.2289(4) 0.13197(17) 0.231(4) Uiso 1 1 d UD . .
C13_7 C 0.2791(4) 0.2092(4) 0.13278(15) 0.238(5) Uiso 1 1 d UD . .
H13_7 H 0.2701 0.2030 0.1216 0.285 Uiso 1 1 calc R . .
C14_7 C 0.2719(4) 0.1986(4) 0.15120(18) 0.242(5) Uiso 1 1 d UD . .
H14_7 H 0.2580 0.1849 0.1520 0.291 Uiso 1 1 calc R . .
O1_7 O 0.2858(4) 0.1815(4) 0.23798(16) 0.332(5) Uiso 1 1 d UD . .
O2_7 O 0.3068(3) 0.2206(3) 0.2085(2) 0.321(5) Uiso 1 1 d UD . .
C15_7 C 0.3127(5) 0.1996(5) 0.2413(3) 0.339(5) Uiso 1 1 d UD . .
H15A_7 H 0.3152 0.2031 0.2551 0.406 Uiso 1 1 calc R . .
H15B_7 H 0.3291 0.1896 0.2365 0.406 Uiso 1 1 calc R . .
C16_7 C 0.3096(6) 0.2266(4) 0.2308(3) 0.339(5) Uiso 1 1 d UD . .
H16A_7 H 0.3258 0.2384 0.2332 0.407 Uiso 1 1 calc R . .
H16B_7 H 0.2929 0.2364 0.2354 0.407 Uiso 1 1 calc R . .
S1_8 S 0.1332(2) -0.07694(19) 0.26275(12) 0.267(6) Uani 1 1 d D . .
C1_8 C 0.1252(2) -0.1026(2) 0.27808(18) 0.263(5) Uiso 1 1 d UD . .
C2_8 C 0.1361(3) -0.0959(2) 0.29515(18) 0.296(5) Uiso 1 1 d UD . .
C3_8 C 0.1511(4) -0.0695(3) 0.29504(18) 0.293(5) Uiso 1 1 d UD . .
C4_8 C 0.1513(3) -0.0569(3) 0.27787(18) 0.262(5) Uiso 1 1 d UD . .
C5_8 C 0.1105(3) -0.1273(3) 0.2740(2) 0.242(5) Uiso 1 1 d UD . .
C6_8 C 0.1064(4) -0.1516(3) 0.2843(2) 0.240(5) Uiso 1 1 d UD . .
H6_8 H 0.1143 -0.1522 0.2967 0.287 Uiso 1 1 calc R . .
C7_8 C 0.0918(4) -0.1753(3) 0.2784(3) 0.238(5) Uiso 1 1 d UD . .
H7_8 H 0.0905 -0.1914 0.2861 0.286 Uiso 1 1 calc R . .
N1_8 N 0.0797(4) -0.1735(3) 0.2609(3) 0.229(4) Uiso 1 1 d UD . .
C8_8 C 0.0834(4) -0.1516(4) 0.2482(3) 0.245(5) Uiso 1 1 d UD . .
H8_8 H 0.0762 -0.1522 0.2356 0.294 Uiso 1 1 calc R . .
C9_8 C 0.0983(4) -0.1282(3) 0.2551(2) 0.238(5) Uiso 1 1 d UD . .
H9_8 H 0.1003 -0.1126 0.2470 0.285 Uiso 1 1 calc R . .
C10_8 C 0.1641(3) -0.0311(2) 0.2739(2) 0.245(5) Uiso 1 1 d UD . .
C11_8 C 0.1811(3) -0.0139(3) 0.2848(2) 0.236(5) Uiso 1 1 d UD . .
H11_8 H 0.1855 -0.0202 0.2972 0.283 Uiso 1 1 calc R . .
C12_8 C 0.1924(4) 0.0118(3) 0.2794(3) 0.237(5) Uiso 1 1 d UD . .
H12_8 H 0.2040 0.0221 0.2877 0.285 Uiso 1 1 calc R . .
N2_8 N 0.1854(4) 0.0209(3) 0.2616(3) 0.227(4) Uiso 1 1 d UD . .
C13_8 C 0.1691(5) 0.0060(3) 0.2490(3) 0.237(5) Uiso 1 1 d UD . .
H13_8 H 0.1647 0.0131 0.2367 0.285 Uiso 1 1 calc R . .
C14_8 C 0.1590(4) -0.0204(3) 0.2549(2) 0.236(5) Uiso 1 1 d UD . .
H14_8 H 0.1487 -0.0312 0.2462 0.283 Uiso 1 1 calc R . .
O1_8 O 0.1341(4) -0.1127(3) 0.31326(19) 0.320(5) Uiso 1 1 d UD . .
O2_8 O 0.1641(4) -0.0584(3) 0.31315(18) 0.318(5) Uiso 1 1 d UD . .
C15_8 C 0.1398(6) -0.0958(5) 0.3325(2) 0.343(5) Uiso 1 1 d UD . .
H15A_8 H 0.1243 -0.0831 0.3350 0.411 Uiso 1 1 calc R . .
H15B_8 H 0.1414 -0.1087 0.3434 0.411 Uiso 1 1 calc R . .
C16_8 C 0.1662(5) -0.0795(4) 0.3304(3) 0.334(5) Uiso 1 1 d UD . .
H16A_8 H 0.1818 -0.0923 0.3283 0.401 Uiso 1 1 calc R . .
H16B_8 H 0.1698 -0.0692 0.3424 0.401 Uiso 1 1 calc R . .
S1_9 S 0.31730(14) 0.25657(13) 0.00017(12) 0.218(3) Uani 1 1 d D . .
C1_9 C 0.3339(2) 0.2723(2) 0.01819(16) 0.262(5) Uiso 1 1 d UD . .
C2_9 C 0.3522(2) 0.2899(2) 0.01039(16) 0.301(5) Uiso 1 1 d UD . .
C3_9 C 0.3523(3) 0.2894(3) -0.01071(16) 0.300(5) Uiso 1 1 d UD . .
C4_9 C 0.3334(3) 0.2721(3) -0.01820(16) 0.263(5) Uiso 1 1 d UD . .
C5_9 C 0.3309(3) 0.2673(3) 0.03813(16) 0.246(5) Uiso 1 1 d UD . .
C6_9 C 0.3464(4) 0.2759(4) 0.05397(17) 0.244(5) Uiso 1 1 d UD . .
H6_9 H 0.3619 0.2872 0.0514 0.292 Uiso 1 1 calc R . .
C7_9 C 0.3413(5) 0.2692(4) 0.07333(16) 0.234(5) Uiso 1 1 d UD . .
H7_9 H 0.3529 0.2754 0.0834 0.281 Uiso 1 1 calc R . .
N1_9 N 0.3184(5) 0.2535(4) 0.07668(15) 0.217(4) Uiso 1 1 d UD . .
C8_9 C 0.3017(5) 0.2425(5) 0.0624(2) 0.242(5) Uiso 1 1 d UD . .
H8_9 H 0.2865 0.2310 0.0655 0.291 Uiso 1 1 calc R . .
C9_9 C 0.3082(4) 0.2493(4) 0.0431(2) 0.237(5) Uiso 1 1 d UD . .
H9_9 H 0.2973 0.2417 0.0331 0.284 Uiso 1 1 calc R . .
C10_9 C 0.3291(3) 0.2684(3) -0.03818(16) 0.243(5) Uiso 1 1 d UD . .
C11_9 C 0.3416(4) 0.2807(4) -0.05414(17) 0.244(5) Uiso 1 1 d UD . .
H11_9 H 0.3554 0.2940 -0.0516 0.293 Uiso 1 1 calc R . .
C12_9 C 0.3357(5) 0.2753(4) -0.07363(16) 0.236(5) Uiso 1 1 d UD . .
H12_9 H 0.3448 0.2847 -0.0837 0.283 Uiso 1 1 calc R . .
N2_9 N 0.3161(5) 0.2557(5) -0.07678(15) 0.226(4) Uiso 1 1 d UD . .
C13_9 C 0.3011(5) 0.2424(5) -0.0625(2) 0.234(5) Uiso 1 1 d UD . .
H13_9 H 0.2866 0.2299 -0.0655 0.280 Uiso 1 1 calc R . .
C14_9 C 0.3084(4) 0.2484(4) -0.0432(2) 0.239(5) Uiso 1 1 d UD . .
H14_9 H 0.2992 0.2387 -0.0332 0.287 Uiso 1 1 calc R . .
O1_9 O 0.3714(3) 0.3094(3) 0.0209(2) 0.342(5) Uiso 1 1 d UD . .
O2_9 O 0.3715(3) 0.3081(3) -0.0218(2) 0.330(5) Uiso 1 1 d UD . .
C15_9 C 0.3819(5) 0.3350(3) 0.0082(3) 0.348(5) Uiso 1 1 d UD . .
H15A_9 H 0.3662 0.3471 0.0049 0.417 Uiso 1 1 calc R . .
H15B_9 H 0.3956 0.3459 0.0154 0.417 Uiso 1 1 calc R . .
C16_9 C 0.3949(4) 0.3232(5) -0.0098(3) 0.337(5) Uiso 1 1 d UD . .
H16A_9 H 0.4095 0.3099 -0.0064 0.404 Uiso 1 1 calc R . .
H16B_9 H 0.4032 0.3381 -0.0174 0.404 Uiso 1 1 calc R . .
S1_10 S 0.3078(2) -0.0094(2) 0.18789(11) 0.294(7) Uani 1 1 d D . .
C1_10 C 0.3092(3) 0.0028(2) 0.21036(16) 0.268(5) Uiso 1 1 d UD . .
C2_10 C 0.3358(3) 0.0024(2) 0.21584(16) 0.301(5) Uiso 1 1 d UD . .
C3_10 C 0.3548(3) -0.0077(4) 0.20086(18) 0.299(5) Uiso 1 1 d UD . .
C4_10 C 0.3417(3) -0.0160(4) 0.18487(18) 0.265(5) Uiso 1 1 d UD . .
C5_10 C 0.2874(3) 0.0130(3) 0.22202(19) 0.252(5) Uiso 1 1 d UD . .
C6_10 C 0.2878(3) 0.0254(3) 0.24012(19) 0.249(5) Uiso 1 1 d UD . .
H6_10 H 0.3053 0.0268 0.2462 0.299 Uiso 1 1 calc R . .
C7_10 C 0.2650(4) 0.0361(4) 0.2503(2) 0.243(5) Uiso 1 1 d UD . .
H7_10 H 0.2667 0.0440 0.2626 0.292 Uiso 1 1 calc R . .
N1_10 N 0.2404(3) 0.0342(4) 0.2409(3) 0.234(4) Uiso 1 1 d UD . .
C8_10 C 0.2362(3) 0.0216(5) 0.2234(3) 0.248(5) Uiso 1 1 d UD . .
H8_10 H 0.2183 0.0194 0.2181 0.298 Uiso 1 1 calc R . .
C9_10 C 0.2603(3) 0.0120(5) 0.2136(2) 0.239(5) Uiso 1 1 d UD . .
H9_10 H 0.2584 0.0047 0.2011 0.287 Uiso 1 1 calc R . .
C10_10 C 0.3557(3) -0.0251(3) 0.16811(17) 0.251(5) Uiso 1 1 d UD . .
C11_10 C 0.3839(3) -0.0266(4) 0.1637(2) 0.245(5) Uiso 1 1 d UD . .
H11_10 H 0.3962 -0.0222 0.1738 0.294 Uiso 1 1 calc R . .
C12_10 C 0.3961(4) -0.0337(4) 0.1461(3) 0.233(5) Uiso 1 1 d UD . .
H12_10 H 0.4155 -0.0345 0.1443 0.279 Uiso 1 1 calc R . .
N2_10 N 0.3777(5) -0.0395(4) 0.13192(16) 0.228(4) Uiso 1 1 d UD . .
C13_10 C 0.3492(4) -0.0385(5) 0.13372(18) 0.240(5) Uiso 1 1 d UD . .
H13_10 H 0.3375 -0.0413 0.1230 0.288 Uiso 1 1 calc R . .
C14_10 C 0.3382(3) -0.0331(5) 0.1524(2) 0.244(5) Uiso 1 1 d UD . .
H14_10 H 0.3189 -0.0348 0.1544 0.293 Uiso 1 1 calc R . .
O1_10 O 0.3468(3) 0.0111(4) 0.23512(18) 0.327(5) Uiso 1 1 d UD . .
O2_10 O 0.3852(2) -0.0106(4) 0.2051(2) 0.315(5) Uiso 1 1 d UD . .
C15_10 C 0.3767(4) -0.0006(6) 0.2401(2) 0.346(5) Uiso 1 1 d UD . .
H15A_10 H 0.3837 0.0083 0.2519 0.415 Uiso 1 1 calc R . .
H15B_10 H 0.3756 -0.0207 0.2424 0.415 Uiso 1 1 calc R . .
C16_10 C 0.3959(3) 0.0054(6) 0.2236(3) 0.337(5) Uiso 1 1 d UD . .
H16A_10 H 0.4148 -0.0008 0.2268 0.405 Uiso 1 1 calc R . .
H16B_10 H 0.3964 0.0254 0.2211 0.405 Uiso 1 1 calc R . .
S1_11 S 0.3699(2) 0.10473(16) 0.09867(16) 0.272(6) Uani 1 1 d D . .
C1_11 C 0.3826(3) 0.1361(2) 0.10429(16) 0.271(5) Uiso 1 1 d UD . .
C2_11 C 0.4086(3) 0.1324(2) 0.11057(16) 0.305(5) Uiso 1 1 d UD . .
C3_11 C 0.4177(3) 0.1033(2) 0.1100(2) 0.297(5) Uiso 1 1 d UD . .
C4_11 C 0.3982(3) 0.0858(2) 0.1037(2) 0.265(5) Uiso 1 1 d UD . .
C5_11 C 0.3690(3) 0.1623(2) 0.10407(19) 0.252(5) Uiso 1 1 d UD . .
C6_11 C 0.3782(3) 0.1888(2) 0.1092(2) 0.250(5) Uiso 1 1 d UD . .
H6_11 H 0.3970 0.1904 0.1127 0.300 Uiso 1 1 calc R . .
C7_11 C 0.3624(4) 0.2133(3) 0.1098(3) 0.242(5) Uiso 1 1 d UD . .
H7_11 H 0.3701 0.2305 0.1132 0.291 Uiso 1 1 calc R . .
N1_11 N 0.3352(4) 0.2104(3) 0.1050(3) 0.227(4) Uiso 1 1 d UD . .
C8_11 C 0.3230(3) 0.1857(4) 0.0994(3) 0.244(5) Uiso 1 1 d UD . .
H8_11 H 0.3041 0.1849 0.0958 0.293 Uiso 1 1 calc R . .
C9_11 C 0.3401(3) 0.1616(3) 0.0992(3) 0.244(5) Uiso 1 1 d UD . .
H9_11 H 0.3321 0.1445 0.0958 0.293 Uiso 1 1 calc R . .
C10_11 C 0.4008(3) 0.0565(2) 0.1038(2) 0.247(5) Uiso 1 1 d UD . .
C11_11 C 0.4208(3) 0.0391(3) 0.1119(2) 0.239(5) Uiso 1 1 d UD . .
H11_11 H 0.4362 0.0478 0.1176 0.287 Uiso 1 1 calc R . .
C12_11 C 0.4205(4) 0.0099(3) 0.1125(3) 0.230(5) Uiso 1 1 d UD . .
H12_11 H 0.4347 -0.0005 0.1184 0.276 Uiso 1 1 calc R . .
N2_11 N 0.3982(5) -0.00233(16) 0.1041(3) 0.226(4) Uiso 1 1 d UD . .
C13_11 C 0.3764(4) 0.0121(3) 0.0958(3) 0.240(5) Uiso 1 1 d UD . .
H13_11 H 0.3608 0.0027 0.0908 0.288 Uiso 1 1 calc R . .
C14_11 C 0.3782(4) 0.0416(3) 0.0953(3) 0.240(5) Uiso 1 1 d UD . .
H14_11 H 0.3640 0.0517 0.0891 0.288 Uiso 1 1 calc R . .
O1_11 O 0.4278(3) 0.1548(3) 0.1177(2) 0.337(5) Uiso 1 1 d UD . .
O2_11 O 0.4460(3) 0.0960(3) 0.1176(2) 0.324(5) Uiso 1 1 d UD . .
C15_11 C 0.4554(4) 0.1449(4) 0.1279(4) 0.342(5) Uiso 1 1 d UD . .
H15A_11 H 0.4688 0.1603 0.1284 0.410 Uiso 1 1 calc R . .
H15B_11 H 0.4513 0.1393 0.1412 0.410 Uiso 1 1 calc R . .
C16_11 C 0.4676(3) 0.1210(4) 0.1170(4) 0.341(5) Uiso 1 1 d UD . .
H16A_11 H 0.4852 0.1153 0.1229 0.409 Uiso 1 1 calc R . .
H16B_11 H 0.4713 0.1265 0.1037 0.409 Uiso 1 1 calc R . .
S1_12 S 0.33306(18) -0.18442(18) 0.10518(15) 0.238(5) Uani 1 1 d D . .
C1_12 C 0.3645(2) -0.1724(2) 0.11140(16) 0.262(5) Uiso 1 1 d UD . .
C2_12 C 0.3788(3) -0.1937(2) 0.11877(17) 0.299(5) Uiso 1 1 d UD . .
C3_12 C 0.3631(3) -0.2197(2) 0.1192(3) 0.297(5) Uiso 1 1 d UD . .
C4_12 C 0.3373(3) -0.2174(2) 0.1122(2) 0.263(5) Uiso 1 1 d UD . .
C5_12 C 0.3745(3) -0.1448(2) 0.1100(2) 0.245(4) Uiso 1 1 d UD . .
C6_12 C 0.3980(3) -0.1316(3) 0.1173(2) 0.245(5) Uiso 1 1 d UD . .
H6_12 H 0.4105 -0.1430 0.1241 0.294 Uiso 1 1 calc R . .
C7_12 C 0.4052(4) -0.1034(3) 0.1158(3) 0.239(5) Uiso 1 1 d UD . .
H7_12 H 0.4217 -0.0962 0.1211 0.287 Uiso 1 1 calc R . .
N1_12 N 0.3867(5) -0.08728(17) 0.1061(3) 0.225(4) Uiso 1 1 d UD . .
C8_12 C 0.3624(5) -0.0973(3) 0.0982(3) 0.241(5) Uiso 1 1 d UD . .
H8_12 H 0.3499 -0.0852 0.0920 0.289 Uiso 1 1 calc R . .
C9_12 C 0.3568(4) -0.1261(3) 0.0996(3) 0.241(5) Uiso 1 1 d UD . .
H9_12 H 0.3408 -0.1333 0.0935 0.289 Uiso 1 1 calc R . .
C10_12 C 0.3184(3) -0.2398(3) 0.1110(2) 0.241(4) Uiso 1 1 d UD . .
C11_12 C 0.3205(3) -0.2675(3) 0.1165(2) 0.239(5) Uiso 1 1 d UD . .
H11_12 H 0.3377 -0.2731 0.1217 0.287 Uiso 1 1 calc R . .
C12_12 C 0.3000(4) -0.2881(3) 0.1151(3) 0.238(5) Uiso 1 1 d UD . .
H12_12 H 0.3031 -0.3066 0.1189 0.285 Uiso 1 1 calc R . .
N2_12 N 0.2752(4) -0.2794(4) 0.1079(3) 0.234(4) Uiso 1 1 d UD . .
C13_12 C 0.2699(3) -0.2528(4) 0.1015(3) 0.237(5) Uiso 1 1 d UD . .
H13_12 H 0.2525 -0.2479 0.0964 0.285 Uiso 1 1 calc R . .
C14_12 C 0.2918(3) -0.2331(3) 0.1027(3) 0.243(5) Uiso 1 1 d UD . .
H14_12 H 0.2889 -0.2150 0.0980 0.291 Uiso 1 1 calc R . .
O1_12 O 0.4084(3) -0.1928(3) 0.1256(3) 0.327(5) Uiso 1 1 d UD . .
O2_12 O 0.3763(3) -0.2459(3) 0.1269(2) 0.319(5) Uiso 1 1 d UD . .
C15_12 C 0.4191(4) -0.2193(4) 0.1368(4) 0.339(5) Uiso 1 1 d UD . .
H15A_12 H 0.4395 -0.2192 0.1372 0.407 Uiso 1 1 calc R . .
H15B_12 H 0.4122 -0.2187 0.1501 0.407 Uiso 1 1 calc R . .
C16_12 C 0.4092(4) -0.2453(4) 0.1273(4) 0.341(5) Uiso 1 1 d UD . .
H16A_12 H 0.4162 -0.2616 0.1343 0.409 Uiso 1 1 calc R . .
H16B_12 H 0.4164 -0.2462 0.1141 0.409 Uiso 1 1 calc R . .
P1_21 P -0.0635(4) 0.2458(4) 0.3091(2) 0.490(4) Uiso 1 1 d UD . .
F1_21 F -0.0720(6) 0.2743(4) 0.3061(4) 0.400(4) Uiso 1 1 d UD . .
F2_21 F -0.0349(3) 0.2536(9) 0.3055(8) 0.793(13) Uiso 1 1 d UD . .
F3_21 F -0.0598(11) 0.2514(9) 0.3294(2) 0.888(16) Uiso 1 1 d UD . .
F4_21 F -0.0921(5) 0.2379(8) 0.3127(8) 0.765(12) Uiso 1 1 d UD . .
F5_21 F -0.0673(11) 0.2401(7) 0.2888(3) 0.660(10) Uiso 1 1 d UD . .
F6_21 F -0.0549(10) 0.2172(5) 0.3122(6) 0.919(17) Uiso 1 1 d UD . .
P1_22 P -0.0383(4) 0.1595(4) 0.1961(2) 0.502(6) Uiso 1 1 d UD . .
F1_22 F -0.0486(6) 0.1772(6) 0.2114(3) 0.401(6) Uiso 1 1 d UD . .
F2_22 F -0.0198(9) 0.1459(9) 0.2096(5) 0.793(14) Uiso 1 1 d UD . .
F3_22 F -0.0597(9) 0.1393(7) 0.2003(7) 0.889(16) Uiso 1 1 d UD . .
F4_22 F -0.0567(8) 0.1732(10) 0.1826(4) 0.766(13) Uiso 1 1 d UD . .
F5_22 F -0.0168(7) 0.1798(8) 0.1920(6) 0.662(10) Uiso 1 1 d UD . .
F6_22 F -0.0279(9) 0.1419(8) 0.1808(5) 0.920(17) Uiso 1 1 d UD . .
P1_23 P 0.2507(3) 0.0715(3) 0.3060(2) 0.473(5) Uiso 1 1 d UD . .
F1_23 F 0.2351(6) 0.0596(6) 0.2903(3) 0.398(6) Uiso 1 1 d UD . .
F2_23 F 0.2562(11) 0.0439(5) 0.3134(6) 0.791(14) Uiso 1 1 d UD . .
F3_23 F 0.2758(5) 0.0702(12) 0.2946(6) 0.890(16) Uiso 1 1 d UD . .
F4_23 F 0.2452(11) 0.0992(4) 0.2987(6) 0.761(13) Uiso 1 1 d UD . .
F5_23 F 0.2256(6) 0.0729(11) 0.3175(4) 0.659(10) Uiso 1 1 d UD . .
F6_23 F 0.2663(8) 0.0834(9) 0.3219(5) 0.920(17) Uiso 1 1 d UD . .
P1_24 P 0.1600(4) 0.0489(4) 0.1933(2) 0.506(6) Uiso 1 1 d UD . .
F1_24 F 0.1721(6) 0.0462(7) 0.2123(3) 0.398(5) Uiso 1 1 d UD . .
F2_24 F 0.1684(11) 0.0778(5) 0.1927(6) 0.794(14) Uiso 1 1 d UD . .
F3_24 F 0.1863(7) 0.0409(12) 0.1847(5) 0.889(16) Uiso 1 1 d UD . .
F4_24 F 0.1517(11) 0.0200(5) 0.1939(6) 0.765(13) Uiso 1 1 d UD . .
F5_24 F 0.1337(5) 0.0569(11) 0.2018(5) 0.663(10) Uiso 1 1 d UD . .
F6_24 F 0.1480(9) 0.0515(10) 0.1743(3) 0.919(17) Uiso 1 1 d UD . .
P1_25 P 0.3688(3) 0.2951(3) 0.1303(2) 0.470(5) Uiso 1 1 d UD . .
F1_25 F 0.3656(5) 0.2742(5) 0.1154(3) 0.410(6) Uiso 1 1 d UD . .
F2_25 F 0.3638(6) 0.3167(5) 0.1163(4) 0.793(14) Uiso 1 1 d UD . .
F3_25 F 0.3392(3) 0.2935(4) 0.1342(4) 0.891(16) Uiso 1 1 d UD . .
F4_25 F 0.3737(7) 0.2733(6) 0.1443(4) 0.763(13) Uiso 1 1 d UD . .
F5_25 F 0.3982(3) 0.2966(7) 0.1265(5) 0.656(10) Uiso 1 1 d UD . .
F6_25 F 0.3716(5) 0.3158(7) 0.1452(4) 0.920(17) Uiso 1 1 d UD . .
P1_26 P 0.2417(4) 0.1910(4) 0.0837(2) 0.498(6) Uiso 1 1 d UD . .
F1_26 F 0.2666(5) 0.2069(6) 0.0877(4) 0.396(6) Uiso 1 1 d UD . .
F2_26 F 0.2331(8) 0.2116(9) 0.0698(6) 0.793(14) Uiso 1 1 d UD . .
F3_26 F 0.2564(9) 0.1759(9) 0.0688(6) 0.888(16) Uiso 1 1 d UD . .
F4_26 F 0.2504(9) 0.1703(7) 0.0977(6) 0.767(13) Uiso 1 1 d UD . .
F5_26 F 0.2271(6) 0.2059(9) 0.0987(6) 0.662(10) Uiso 1 1 d UD . .
F6_26 F 0.2169(7) 0.1749(8) 0.0798(6) 0.918(17) Uiso 1 1 d UD . .
P1_27 P 0.0579(4) 0.4801(4) 0.1285(2) 0.484(5) Uiso 1 1 d UD . .
F1_27 F 0.0528(7) 0.4522(4) 0.1216(4) 0.399(6) Uiso 1 1 d UD . .
F2_27 F 0.0789(8) 0.4840(9) 0.1139(5) 0.791(14) Uiso 1 1 d UD . .
F3_27 F 0.0369(9) 0.4907(8) 0.1156(6) 0.885(16) Uiso 1 1 d UD . .
F4_27 F 0.0370(8) 0.4761(9) 0.1433(5) 0.767(13) Uiso 1 1 d UD . .
F5_27 F 0.0789(8) 0.4694(8) 0.1416(5) 0.661(10) Uiso 1 1 d UD . .
F6_27 F 0.0629(10) 0.5079(5) 0.1357(6) 0.921(17) Uiso 1 1 d UD . .
P1_28 P 0.0396(4) 0.3067(4) 0.0798(2) 0.503(6) Uiso 1 1 d UD . .
F1_28 F 0.0342(6) 0.3338(4) 0.0880(4) 0.396(6) Uiso 1 1 d UD . .
F2_28 F 0.0653(6) 0.3171(9) 0.0716(7) 0.795(14) Uiso 1 1 d UD . .
F3_28 F 0.0543(10) 0.2986(8) 0.0970(5) 0.888(16) Uiso 1 1 d UD . .
F4_28 F 0.0139(7) 0.2965(8) 0.0879(7) 0.766(13) Uiso 1 1 d UD . .
F5_28 F 0.0250(9) 0.3149(8) 0.0624(4) 0.659(10) Uiso 1 1 d UD . .
F6_28 F 0.0450(9) 0.2797(5) 0.0714(6) 0.918(17) Uiso 1 1 d UD . .
P1_29 P -0.2945(3) 0.3745(3) 0.12734(19) 0.463(5) Uiso 1 1 d UD . .
F1_29 F -0.2806(6) 0.3506(4) 0.1189(3) 0.399(6) Uiso 1 1 d UD . .
F2_29 F -0.2680(6) 0.3887(7) 0.1287(7) 0.792(14) Uiso 1 1 d UD . .
F3_29 F -0.2986(10) 0.3860(8) 0.1082(3) 0.890(16) Uiso 1 1 d UD . .
F4_29 F -0.3209(4) 0.3602(8) 0.1259(7) 0.763(13) Uiso 1 1 d UD . .
F5_29 F -0.2903(10) 0.3630(7) 0.1463(2) 0.660(10) Uiso 1 1 d UD . .
F6_29 F -0.3082(8) 0.3984(5) 0.1356(4) 0.918(17) Uiso 1 1 d UD . .
P1_30 P -0.1833(4) 0.2406(4) 0.0790(2) 0.501(5) Uiso 1 1 d UD . .
F1_30 F -0.2041(5) 0.2569(6) 0.0889(4) 0.396(6) Uiso 1 1 d UD . .
F2_30 F -0.1913(10) 0.2532(10) 0.0609(3) 0.796(14) Uiso 1 1 d UD . .
F3_30 F -0.1631(6) 0.2626(8) 0.0820(8) 0.888(16) Uiso 1 1 d UD . .
F4_30 F -0.1752(10) 0.2280(9) 0.0971(4) 0.767(13) Uiso 1 1 d UD . .
F5_30 F -0.2034(8) 0.2186(6) 0.0760(7) 0.657(10) Uiso 1 1 d UD . .
F6_30 F -0.1624(7) 0.2243(9) 0.0691(6) 0.919(17) Uiso 1 1 d UD . .
P1_31 P 0.3056(4) -0.0279(4) 0.0806(2) 0.501(6) Uiso 1 1 d UD . .
F1_31 F 0.3293(5) -0.0425(6) 0.0885(4) 0.395(6) Uiso 1 1 d UD . .
F2_31 F 0.2870(6) -0.0457(9) 0.0913(6) 0.791(14) Uiso 1 1 d UD . .
F3_31 F 0.3064(10) -0.0085(8) 0.0965(5) 0.890(16) Uiso 1 1 d UD . .
F4_31 F 0.3242(8) -0.0100(8) 0.0698(6) 0.766(13) Uiso 1 1 d UD . .
F5_31 F 0.3049(9) -0.0472(8) 0.0646(4) 0.662(10) Uiso 1 1 d UD . .
F6_31 F 0.2820(7) -0.0132(8) 0.0726(6) 0.919(17) Uiso 1 1 d UD . .
P1_32 P 0.4788(4) -0.0586(3) 0.1246(2) 0.485(5) Uiso 1 1 d UD . .
F1_32 F 0.4509(4) -0.0504(6) 0.1190(4) 0.396(5) Uiso 1 1 d UD . .
F2_32 F 0.4694(8) -0.0623(11) 0.1443(3) 0.795(14) Uiso 1 1 d UD . .
F3_32 F 0.4719(8) -0.0874(4) 0.1205(8) 0.887(16) Uiso 1 1 d UD . .
F4_32 F 0.4881(7) -0.0551(12) 0.1050(3) 0.766(13) Uiso 1 1 d UD . .
F5_32 F 0.4856(6) -0.0299(4) 0.1287(7) 0.656(10) Uiso 1 1 d UD . .
F6_32 F 0.5065(5) -0.0669(6) 0.1303(6) 0.920(17) Uiso 1 1 d UD . .
O1 O 0.1007(3) 0.1886(3) 0.2516(2) 0.183(6) Uiso 1 1 d . . .

loop_
_atom_site_aniso_label
_atom_site_aniso_U_11
_atom_site_aniso_U_22
_atom_site_aniso_U_33
_atom_site_aniso_U_23
_atom_site_aniso_U_13
_atom_site_aniso_U_12
Pd1 0.242(4) 0.245(4) 0.171(2) 0.003(3) -0.010(3) 0.000(3)
Pd2 0.243(4) 0.249(4) 0.191(2) -0.008(3) 0.030(3) 0.002(3)
Pd3 0.241(4) 0.201(3) 0.184(2) 0.011(3) 0.008(3) -0.001(3)
Pd4 0.202(3) 0.205(3) 0.212(3) 0.015(3) 0.003(3) -0.027(3)
Pd5 0.202(3) 0.246(4) 0.171(2) 0.003(3) -0.003(2) -0.005(3)
Pd6 0.209(4) 0.225(4) 0.202(2) -0.010(3) 0.010(3) 0.023(3)
S1_1 0.390(19) 0.309(16) 0.178(9) -0.044(9) -0.048(10) 0.049(14)
S1_2 0.247(13) 0.230(12) 0.262(10) -0.033(9) 0.033(10) -0.069(10)
S1_3 0.351(16) 0.191(11) 0.241(10) -0.016(9) 0.071(11) -0.062(11)
S1_4 0.304(9) 0.197(6) 0.205(5) 0.004(11) -0.034(12) -0.063(6)
S1_5 0.207(11) 0.274(13) 0.167(8) 0.002(7) -0.031(7) 0.002(10)
S1_6 0.209(11) 0.252(12) 0.238(9) -0.081(9) -0.033(9) -0.008(10)
S1_7 0.347(17) 0.255(13) 0.216(10) 0.022(9) 0.029(10) -0.067(12)
S1_8 0.320(16) 0.314(16) 0.166(8) -0.009(8) -0.077(9) -0.111(13)
S1_9 0.249(7) 0.215(6) 0.189(5) -0.016(10) -0.052(11) -0.061(6)
S1_10 0.291(16) 0.41(2) 0.183(9) -0.023(11) 0.016(9) -0.017(15)
S1_11 0.253(13) 0.170(11) 0.395(16) 0.021(10) -0.082(12) -0.009(10)
S1_12 0.159(9) 0.230(12) 0.325(12) 0.022(11) -0.031(10) -0.023(9)

_geom_special_details            
;
All esds (except the esd in the dihedral angle between two l.s. planes)
are estimated using the full covariance matrix. The cell esds are taken
into account individually in the estimation of esds in distances, angles
and torsion angles; correlations between esds in cell parameters are only
used when they are defined by crystal symmetry. An approximate (isotropic)
treatment of cell esds is used for estimating esds involving l.s. planes.
;

loop_
_geom_bond_atom_site_label_1
_geom_bond_atom_site_label_2
_geom_bond_distance
_geom_bond_site_symmetry_2
_geom_bond_publ_flag
Pd1 N1_8 2.030(7) 2 ?
Pd1 N1_5 2.037(7) . ?
Pd1 N2_1 2.042(7) . ?
Pd1 N1_3 2.042(7) . ?
Pd2 N2_8 2.032(7) . ?
Pd2 N1_10 2.034(7) . ?
Pd2 N2_5 2.042(7) . ?
Pd2 N1_7 2.044(7) . ?
Pd3 N1_11 2.031(7) . ?
Pd3 N2_7 2.037(7) . ?
Pd3 N1_9 2.039(7) . ?
Pd3 N2_6 2.041(7) . ?
Pd4 N1_4 2.032(7) . ?
Pd4 N1_6 2.035(7) . ?
Pd4 N2_3 2.035(7) . ?
Pd4 N2_2 2.043(7) . ?
Pd5 N2_9 2.036(7) 4 ?
Pd5 N1_2 2.037(7) . ?
Pd5 N2_12 2.038(7) 2 ?
Pd5 N1_1 2.047(7) . ?
Pd6 N2_10 2.031(7) . ?
Pd6 N1_12 2.037(7) . ?
Pd6 N2_4 2.039(7) 3 ?
Pd6 N2_11 2.041(7) . ?
S1_1 C4_1 1.654(8) . ?
S1_1 C1_1 1.658(8) . ?
C1_1 C2_1 1.323(8) . ?
C1_1 C5_1 1.399(8) . ?
C2_1 C3_1 1.447(12) . ?
C2_1 O1_1 1.481(8) . ?
C3_1 C4_1 1.321(8) . ?
C3_1 O2_1 1.485(8) . ?
C4_1 C10_1 1.398(8) . ?
C5_1 C6_1 1.377(8) . ?
C5_1 C9_1 1.418(8) . ?
C6_1 C7_1 1.389(8) . ?
C7_1 N1_1 1.344(7) . ?
N1_1 C8_1 1.366(7) . ?
C8_1 C9_1 1.407(8) . ?
C10_1 C11_1 1.379(8) . ?
C10_1 C14_1 1.413(8) . ?
C11_1 C12_1 1.386(8) . ?
C12_1 N2_1 1.342(7) . ?
N2_1 C13_1 1.365(7) . ?
C13_1 C14_1 1.404(8) . ?
O1_1 C15_1 1.552(9) . ?
O2_1 C16_1 1.564(9) . ?
C15_1 C16_1 1.481(13) . ?
S1_2 C4_2 1.653(8) . ?
S1_2 C1_2 1.655(8) . ?
C1_2 C2_2 1.321(8) . ?
C1_2 C5_2 1.399(8) . ?
C2_2 C3_2 1.450(12) . ?
C2_2 O1_2 1.483(8) . ?
C3_2 C4_2 1.321(8) . ?
C3_2 O2_2 1.481(8) . ?
C4_2 C10_2 1.397(8) . ?
C5_2 C6_2 1.378(8) . ?
C5_2 C9_2 1.415(8) . ?
C6_2 C7_2 1.390(8) . ?
C7_2 N1_2 1.342(7) . ?
N1_2 C8_2 1.363(7) . ?
C8_2 C9_2 1.406(8) . ?
C10_2 C11_2 1.378(8) . ?
C10_2 C14_2 1.416(8) . ?
C11_2 C12_2 1.391(8) . ?
C12_2 N2_2 1.339(7) . ?
N2_2 C13_2 1.366(7) . ?
C13_2 C14_2 1.402(8) . ?
O1_2 C15_2 1.559(9) . ?
O2_2 C16_2 1.555(8) . ?
C15_2 C16_2 1.478(13) . ?
S1_3 C4_3 1.650(8) . ?
S1_3 C1_3 1.657(8) . ?
C1_3 C2_3 1.318(8) . ?
C1_3 C5_3 1.396(8) . ?
C2_3 C3_3 1.452(12) . ?
C2_3 O1_3 1.486(8) . ?
C3_3 C4_3 1.319(8) . ?
C3_3 O2_3 1.479(8) . ?
C4_3 C10_3 1.397(8) . ?
C5_3 C6_3 1.374(8) . ?
C5_3 C9_3 1.416(8) . ?
C6_3 C7_3 1.387(8) . ?
C7_3 N1_3 1.340(7) . ?
N1_3 C8_3 1.367(7) . ?
C8_3 C9_3 1.403(8) . ?
C10_3 C11_3 1.373(8) . ?
C10_3 C14_3 1.420(8) . ?
C11_3 C12_3 1.385(8) . ?
C12_3 N2_3 1.342(7) . ?
N2_3 C13_3 1.362(7) . ?
C13_3 C14_3 1.402(8) . ?
O1_3 C15_3 1.573(9) . ?
O2_3 C16_3 1.556(8) . ?
C15_3 C16_3 1.484(13) . ?
S1_4 C1_4 1.645(8) . ?
S1_4 C4_4 1.653(8) . ?
C1_4 C2_4 1.319(8) . ?
C1_4 C5_4 1.395(8) . ?
C2_4 C3_4 1.447(12) . ?
C2_4 O1_4 1.481(8) . ?
C3_4 C4_4 1.320(8) . ?
C3_4 O2_4 1.482(8) . ?
C4_4 C10_4 1.397(8) . ?
C5_4 C6_4 1.378(8) . ?
C5_4 C9_4 1.415(8) . ?
C6_4 C7_4 1.387(8) . ?
C7_4 N1_4 1.336(7) . ?
N1_4 C8_4 1.363(7) . ?
C8_4 C9_4 1.406(8) . ?
C10_4 C11_4 1.375(8) . ?
C10_4 C14_4 1.416(8) . ?
C11_4 C12_4 1.385(8) . ?
C12_4 N2_4 1.337(7) . ?
N2_4 C13_4 1.360(7) . ?
N2_4 Pd6 2.039(7) 4 ?
C13_4 C14_4 1.402(8) . ?
O1_4 C15_4 1.561(9) . ?
O2_4 C16_4 1.561(9) . ?
C15_4 C16_4 1.485(13) . ?
S1_5 C1_5 1.650(8) . ?
S1_5 C4_5 1.653(8) . ?
C1_5 C2_5 1.324(8) . ?
C1_5 C5_5 1.397(8) . ?
C2_5 C3_5 1.445(12) . ?
C2_5 O1_5 1.488(8) . ?
C3_5 C4_5 1.322(8) . ?
C3_5 O2_5 1.485(8) . ?
C4_5 C10_5 1.398(8) . ?
C5_5 C6_5 1.375(8) . ?
C5_5 C9_5 1.412(8) . ?
C6_5 C7_5 1.387(8) . ?
C7_5 N1_5 1.340(7) . ?
N1_5 C8_5 1.364(7) . ?
C8_5 C9_5 1.397(8) . ?
C10_5 C11_5 1.376(8) . ?
C10_5 C14_5 1.416(8) . ?
C11_5 C12_5 1.386(8) . ?
C12_5 N2_5 1.343(7) . ?
N2_5 C13_5 1.363(7) . ?
C13_5 C14_5 1.402(8) . ?
O1_5 C15_5 1.562(9) . ?
O2_5 C16_5 1.565(9) . ?
C15_5 C16_5 1.482(13) . ?
S1_6 C4_6 1.653(8) . ?
S1_6 C1_6 1.655(8) . ?
C1_6 C2_6 1.320(8) . ?
C1_6 C5_6 1.397(8) . ?
C2_6 C3_6 1.444(12) . ?
C2_6 O1_6 1.479(8) . ?
C3_6 C4_6 1.324(8) . ?
C3_6 O2_6 1.484(8) . ?
C4_6 C10_6 1.396(8) . ?
C5_6 C6_6 1.377(8) . ?
C5_6 C9_6 1.418(8) . ?
C6_6 C7_6 1.389(8) . ?
C7_6 N1_6 1.344(7) . ?
N1_6 C8_6 1.364(7) . ?
C8_6 C9_6 1.403(8) . ?
C10_6 C11_6 1.378(8) . ?
C10_6 C14_6 1.415(8) . ?
C11_6 C12_6 1.388(8) . ?
C12_6 N2_6 1.338(7) . ?
N2_6 C13_6 1.361(7) . ?
C13_6 C14_6 1.401(8) . ?
O1_6 C15_6 1.566(9) . ?
O2_6 C16_6 1.564(9) . ?
C15_6 C16_6 1.481(13) . ?
S1_7 C4_7 1.650(8) . ?
S1_7 C1_7 1.651(8) . ?
C1_7 C2_7 1.320(8) . ?
C1_7 C5_7 1.399(8) . ?
C2_7 C3_7 1.448(12) . ?
C2_7 O1_7 1.482(8) . ?
C3_7 C4_7 1.321(8) . ?
C3_7 O2_7 1.480(8) . ?
C4_7 C10_7 1.399(8) . ?
C5_7 C6_7 1.378(8) . ?
C5_7 C9_7 1.414(8) . ?
C6_7 C7_7 1.387(8) . ?
C7_7 N1_7 1.340(7) . ?
N1_7 C8_7 1.367(7) . ?
C8_7 C9_7 1.401(8) . ?
C10_7 C11_7 1.373(8) . ?
C10_7 C14_7 1.415(8) . ?
C11_7 C12_7 1.391(8) . ?
C12_7 N2_7 1.341(7) . ?
N2_7 C13_7 1.361(7) . ?
C13_7 C14_7 1.404(8) . ?
O1_7 C15_7 1.561(9) . ?
O2_7 C16_7 1.563(9) . ?
C15_7 C16_7 1.480(13) . ?
S1_8 C4_8 1.651(8) . ?
S1_8 C1_8 1.654(8) . ?
C1_8 C2_8 1.320(8) . ?
C1_8 C5_8 1.395(8) . ?
C2_8 C3_8 1.446(12) . ?
C2_8 O1_8 1.481(8) . ?
C3_8 C4_8 1.321(8) . ?
C3_8 O2_8 1.484(8) . ?
C4_8 C10_8 1.394(8) . ?
C5_8 C6_8 1.371(8) . ?
C5_8 C9_8 1.419(8) . ?
C6_8 C7_8 1.385(8) . ?
C7_8 N1_8 1.338(7) . ?
N1_8 C8_8 1.366(7) . ?
N1_8 Pd1 2.029(7) 2 ?
C8_8 C9_8 1.402(8) . ?
C10_8 C11_8 1.374(8) . ?
C10_8 C14_8 1.416(8) . ?
C11_8 C12_8 1.383(8) . ?
C12_8 N2_8 1.339(7) . ?
N2_8 C13_8 1.361(7) . ?
C13_8 C14_8 1.403(8) . ?
O1_8 C15_8 1.569(9) . ?
O2_8 C16_8 1.557(8) . ?
C15_8 C16_8 1.477(13) . ?
S1_9 C1_9 1.648(8) . ?
S1_9 C4_9 1.650(8) . ?
C1_9 C2_9 1.318(8) . ?
C1_9 C5_9 1.398(8) . ?
C2_9 C3_9 1.449(12) . ?
C2_9 O1_9 1.488(8) . ?
C3_9 C4_9 1.321(8) . ?
C3_9 O2_9 1.483(8) . ?
C4_9 C10_9 1.398(8) . ?
C5_9 C6_9 1.378(8) . ?
C5_9 C9_9 1.416(8) . ?
C6_9 C7_9 1.388(8) . ?
C7_9 N1_9 1.339(7) . ?
N1_9 C8_9 1.363(7) . ?
C8_9 C9_9 1.404(8) . ?
C10_9 C11_9 1.376(8) . ?
C10_9 C14_9 1.413(8) . ?
C11_9 C12_9 1.391(8) . ?
C12_9 N2_9 1.339(7) . ?
N2_9 C13_9 1.365(7) . ?
N2_9 Pd5 2.037(7) 3 ?
C13_9 C14_9 1.401(8) . ?
O1_9 C15_9 1.572(9) . ?
O2_9 C16_9 1.560(9) . ?
C15_9 C16_9 1.491(13) . ?
S1_10 C1_10 1.650(8) . ?
S1_10 C4_10 1.655(8) . ?
C1_10 C2_10 1.320(8) . ?
C1_10 C5_10 1.397(8) . ?
C2_10 C3_10 1.449(12) . ?
C2_10 O1_10 1.484(8) . ?
C3_10 C4_10 1.321(8) . ?
C3_10 O2_10 1.483(8) . ?
C4_10 C10_10 1.398(8) . ?
C5_10 C6_10 1.377(8) . ?
C5_10 C9_10 1.410(8) . ?
C6_10 C7_10 1.385(8) . ?
C7_10 N1_10 1.340(7) . ?
N1_10 C8_10 1.359(7) . ?
C8_10 C9_10 1.406(8) . ?
C10_10 C11_10 1.376(8) . ?
C10_10 C14_10 1.416(8) . ?
C11_10 C12_10 1.384(8) . ?
C12_10 N2_10 1.337(7) . ?
N2_10 C13_10 1.360(7) . ?
C13_10 C14_10 1.407(8) . ?
O1_10 C15_10 1.562(9) . ?
O2_10 C16_10 1.563(9) . ?
C15_10 C16_10 1.482(13) . ?
S1_11 C4_11 1.654(8) . ?
S1_11 C1_11 1.654(8) . ?
C1_11 C2_11 1.323(8) . ?
C1_11 C5_11 1.401(8) . ?
C2_11 C3_11 1.448(12) . ?
C2_11 O1_11 1.484(8) . ?
C3_11 C4_11 1.320(8) . ?
C3_11 O2_11 1.483(8) . ?
C4_11 C10_11 1.399(8) . ?
C5_11 C6_11 1.380(8) . ?
C5_11 C9_11 1.413(8) . ?
C6_11 C7_11 1.384(8) . ?
C7_11 N1_11 1.341(7) . ?
N1_11 C8_11 1.364(7) . ?
C8_11 C9_11 1.404(8) . ?
C10_11 C11_11 1.378(8) . ?
C10_11 C14_11 1.414(8) . ?
C11_11 C12_11 1.388(8) . ?
C12_11 N2_11 1.339(7) . ?
N2_11 C13_11 1.367(7) . ?
C13_11 C14_11 1.403(8) . ?
O1_11 C15_11 1.560(9) . ?
O2_11 C16_11 1.571(9) . ?
C15_11 C16_11 1.480(13) . ?
S1_12 C4_12 1.654(8) . ?
S1_12 C1_12 1.657(8) . ?
C1_12 C2_12 1.319(8) . ?
C1_12 C5_12 1.396(8) . ?
C2_12 C3_12 1.447(12) . ?
C2_12 O1_12 1.482(8) . ?
C3_12 C4_12 1.322(8) . ?
C3_12 O2_12 1.487(8) . ?
C4_12 C10_12 1.396(8) . ?
C5_12 C6_12 1.374(8) . ?
C5_12 C9_12 1.420(8) . ?
C6_12 C7_12 1.387(8) . ?
C7_12 N1_12 1.343(7) . ?
N1_12 C8_12 1.362(7) . ?
C8_12 C9_12 1.402(8) . ?
C10_12 C11_12 1.375(8) . ?
C10_12 C14_12 1.419(8) . ?
C11_12 C12_12 1.386(8) . ?
C12_12 N2_12 1.342(7) . ?
N2_12 C13_12 1.364(7) . ?
N2_12 Pd5 2.038(7) 2 ?
C13_12 C14_12 1.404(8) . ?
O1_12 C15_12 1.559(9) . ?
O2_12 C16_12 1.566(9) . ?
C15_12 C16_12 1.477(13) . ?
P1_21 F1_21 1.427(7) . ?
P1_21 F5_21 1.431(7) . ?
P1_21 F2_21 1.431(7) . ?
P1_21 F4_21 1.431(7) . ?
P1_21 F3_21 1.431(7) . ?
P1_21 F6_21 1.434(7) . ?
P1_22 F3_22 1.430(7) . ?
P1_22 F2_22 1.430(7) . ?
P1_22 F6_22 1.431(7) . ?
P1_22 F1_22 1.431(7) . ?
P1_22 F4_22 1.433(7) . ?
P1_22 F5_22 1.433(7) . ?
P1_23 F4_23 1.429(7) . ?
P1_23 F1_23 1.430(7) . ?
P1_23 F3_23 1.430(7) . ?
P1_23 F5_23 1.431(7) . ?
P1_23 F6_23 1.432(7) . ?
P1_23 F2_23 1.432(7) . ?
P1_24 F6_24 1.429(7) . ?
P1_24 F4_24 1.430(7) . ?
P1_24 F5_24 1.430(7) . ?
P1_24 F3_24 1.432(7) . ?
P1_24 F2_24 1.433(7) . ?
P1_24 F1_24 1.433(7) . ?
P1_25 F5_25 1.424(7) . ?
P1_25 F6_25 1.429(7) . ?
P1_25 F2_25 1.430(7) . ?
P1_25 F1_25 1.431(7) . ?
P1_25 F4_25 1.432(7) . ?
P1_25 F3_25 1.437(7) . ?
P1_26 F2_26 1.428(7) . ?
P1_26 F1_26 1.430(7) . ?
P1_26 F5_26 1.431(7) . ?
P1_26 F3_26 1.431(7) . ?
P1_26 F6_26 1.432(7) . ?
P1_26 F4_26 1.434(7) . ?
P1_27 F3_27 1.426(7) . ?
P1_27 F2_27 1.430(7) . ?
P1_27 F6_27 1.431(7) . ?
P1_27 F1_27 1.431(7) . ?
P1_27 F4_27 1.433(7) . ?
P1_27 F5_27 1.436(7) . ?
P1_28 F3_28 1.429(7) . ?
P1_28 F6_28 1.430(7) . ?
P1_28 F4_28 1.430(7) . ?
P1_28 F1_28 1.432(7) . ?
P1_28 F2_28 1.432(7) . ?
P1_28 F5_28 1.434(7) . ?
P1_29 F6_29 1.427(7) . ?
P1_29 F4_29 1.428(7) . ?
P1_29 F5_29 1.429(7) . ?
P1_29 F3_29 1.433(7) . ?
P1_29 F2_29 1.433(7) . ?
P1_29 F1_29 1.434(7) . ?
P1_30 F5_30 1.429(7) . ?
P1_30 F1_30 1.430(7) . ?
P1_30 F2_30 1.431(7) . ?
P1_30 F4_30 1.431(7) . ?
P1_30 F6_30 1.431(7) . ?
P1_30 F3_30 1.433(7) . ?
P1_31 F2_31 1.429(7) . ?
P1_31 F1_31 1.430(7) . ?
P1_31 F3_31 1.430(7) . ?
P1_31 F5_31 1.431(7) . ?
P1_31 F6_31 1.432(7) . ?
P1_31 F4_31 1.434(7) . ?
P1_32 F5_32 1.429(7) . ?
P1_32 F6_32 1.430(7) . ?
P1_32 F4_32 1.431(7) . ?
P1_32 F2_32 1.431(7) . ?
P1_32 F1_32 1.432(7) . ?
P1_32 F3_32 1.433(7) . ?

loop_
_geom_angle_atom_site_label_1
_geom_angle_atom_site_label_2
_geom_angle_atom_site_label_3
_geom_angle
_geom_angle_site_symmetry_1
_geom_angle_site_symmetry_3
_geom_angle_publ_flag
N1_8 Pd1 N1_5 97.8(8) 2 . ?
N1_8 Pd1 N2_1 89.0(8) 2 . ?
N1_5 Pd1 N2_1 171.9(9) . . ?
N1_8 Pd1 N1_3 174.0(9) 2 . ?
N1_5 Pd1 N1_3 84.1(8) . . ?
N2_1 Pd1 N1_3 89.6(8) . . ?
N2_8 Pd2 N1_10 96.7(8) . . ?
N2_8 Pd2 N2_5 83.4(8) . . ?
N1_10 Pd2 N2_5 179.2(10) . . ?
N2_8 Pd2 N1_7 170.1(9) . . ?
N1_10 Pd2 N1_7 88.2(8) . . ?
N2_5 Pd2 N1_7 91.8(9) . . ?
N1_11 Pd3 N2_7 81.4(8) . . ?
N1_11 Pd3 N1_9 92.3(8) . . ?
N2_7 Pd3 N1_9 173.3(8) . . ?
N1_11 Pd3 N2_6 175.7(8) . . ?
N2_7 Pd3 N2_6 94.8(8) . . ?
N1_9 Pd3 N2_6 91.7(8) . . ?
N1_4 Pd4 N1_6 92.3(8) . . ?
N1_4 Pd4 N2_3 176.3(10) . . ?
N1_6 Pd4 N2_3 85.8(8) . . ?
N1_4 Pd4 N2_2 86.9(8) . . ?
N1_6 Pd4 N2_2 174.7(10) . . ?
N2_3 Pd4 N2_2 94.6(8) . . ?
N2_9 Pd5 N1_2 89.5(8) 4 . ?
N2_9 Pd5 N2_12 91.1(8) 4 2 ?
N1_2 Pd5 N2_12 178.9(9) . 2 ?
N2_9 Pd5 N1_1 174.1(9) 4 . ?
N1_2 Pd5 N1_1 94.5(8) . . ?
N2_12 Pd5 N1_1 84.8(8) 2 . ?
N2_10 Pd6 N1_12 91.5(8) . . ?
N2_10 Pd6 N2_4 176.1(10) . 3 ?
N1_12 Pd6 N2_4 90.1(8) . 3 ?
N2_10 Pd6 N2_11 86.1(8) . . ?
N1_12 Pd6 N2_11 176.8(9) . . ?
N2_4 Pd6 N2_11 92.2(8) 3 . ?
C4_1 S1_1 C1_1 98.3(7) . . ?
C2_1 C1_1 C5_1 124.4(9) . . ?
C2_1 C1_1 S1_1 107.2(8) . . ?
C5_1 C1_1 S1_1 128.4(8) . . ?
C1_1 C2_1 C3_1 113.5(7) . . ?
C1_1 C2_1 O1_1 126.9(8) . . ?
C3_1 C2_1 O1_1 119.5(6) . . ?
C4_1 C3_1 C2_1 113.6(7) . . ?
C4_1 C3_1 O2_1 126.8(8) . . ?
C2_1 C3_1 O2_1 119.6(6) . . ?
C3_1 C4_1 C10_1 123.3(9) . . ?
C3_1 C4_1 S1_1 107.3(8) . . ?
C10_1 C4_1 S1_1 129.2(8) . . ?
C6_1 C5_1 C1_1 132.6(10) . . ?
C6_1 C5_1 C9_1 112.3(9) . . ?
C1_1 C5_1 C9_1 115.1(9) . . ?
C5_1 C6_1 C7_1 127.5(9) . . ?
N1_1 C7_1 C6_1 116.1(8) . . ?
C7_1 N1_1 C8_1 123.0(8) . . ?
C7_1 N1_1 Pd5 114.7(12) . . ?
C8_1 N1_1 Pd5 119.9(12) . . ?
N1_1 C8_1 C9_1 118.3(8) . . ?
C8_1 C9_1 C5_1 122.5(9) . . ?
C11_1 C10_1 C4_1 131.6(10) . . ?
C11_1 C10_1 C14_1 112.7(9) . . ?
C4_1 C10_1 C14_1 115.6(9) . . ?
C10_1 C11_1 C12_1 127.2(9) . . ?
N2_1 C12_1 C11_1 115.6(8) . . ?
C12_1 N2_1 C13_1 123.8(8) . . ?
C12_1 N2_1 Pd1 125.3(12) . . ?
C13_1 N2_1 Pd1 110.6(11) . . ?
N2_1 C13_1 C14_1 117.8(8) . . ?
C13_1 C14_1 C10_1 122.7(9) . . ?
C2_1 O1_1 C15_1 118.2(8) . . ?
C3_1 O2_1 C16_1 114.9(8) . . ?
C16_1 C15_1 O1_1 109.9(9) . . ?
C15_1 C16_1 O2_1 108.7(9) . . ?
C4_2 S1_2 C1_2 98.5(7) . . ?
C2_2 C1_2 C5_2 124.1(9) . . ?
C2_2 C1_2 S1_2 107.1(8) . . ?
C5_2 C1_2 S1_2 128.8(8) . . ?
C1_2 C2_2 C3_2 113.7(7) . . ?
C1_2 C2_2 O1_2 126.4(8) . . ?
C3_2 C2_2 O1_2 119.9(6) . . ?
C4_2 C3_2 C2_2 113.4(7) . . ?
C4_2 C3_2 O2_2 126.3(8) . . ?
C2_2 C3_2 O2_2 120.0(6) . . ?
C3_2 C4_2 C10_2 124.8(9) . . ?
C3_2 C4_2 S1_2 107.3(8) . . ?
C10_2 C4_2 S1_2 127.9(8) . . ?
C6_2 C5_2 C1_2 132.1(10) . . ?
C6_2 C5_2 C9_2 112.5(9) . . ?
C1_2 C5_2 C9_2 115.4(9) . . ?
C5_2 C6_2 C7_2 127.3(9) . . ?
N1_2 C7_2 C6_2 115.6(8) . . ?
C7_2 N1_2 C8_2 124.0(8) . . ?
C7_2 N1_2 Pd5 116.9(12) . . ?
C8_2 N1_2 Pd5 116.5(12) . . ?
N1_2 C8_2 C9_2 117.4(8) . . ?
C8_2 C9_2 C5_2 122.9(9) . . ?
C11_2 C10_2 C4_2 132.1(10) . . ?
C11_2 C10_2 C14_2 112.6(9) . . ?
C4_2 C10_2 C14_2 115.3(9) . . ?
C10_2 C11_2 C12_2 126.6(9) . . ?
N2_2 C12_2 C11_2 116.5(8) . . ?
C12_2 N2_2 C13_2 123.6(8) . . ?
C12_2 N2_2 Pd4 117.8(12) . . ?
C13_2 N2_2 Pd4 116.8(12) . . ?
N2_2 C13_2 C14_2 117.5(8) . . ?
C13_2 C14_2 C10_2 123.3(9) . . ?
C2_2 O1_2 C15_2 114.9(8) . . ?
C3_2 O2_2 C16_2 117.2(8) . . ?
C16_2 C15_2 O1_2 109.3(9) . . ?
C15_2 C16_2 O2_2 111.6(9) . . ?
C4_3 S1_3 C1_3 98.8(7) . . ?
C2_3 C1_3 C5_3 125.2(9) . . ?
C2_3 C1_3 S1_3 106.6(8) . . ?
C5_3 C1_3 S1_3 128.2(8) . . ?
C1_3 C2_3 C3_3 114.0(7) . . ?
C1_3 C2_3 O1_3 127.0(8) . . ?
C3_3 C2_3 O1_3 119.0(6) . . ?
C4_3 C3_3 C2_3 113.4(7) . . ?
C4_3 C3_3 O2_3 126.3(8) . . ?
C2_3 C3_3 O2_3 120.2(6) . . ?
C3_3 C4_3 C10_3 125.6(9) . . ?
C3_3 C4_3 S1_3 107.1(8) . . ?
C10_3 C4_3 S1_3 127.2(8) . . ?
C6_3 C5_3 C1_3 132.5(10) . . ?
C6_3 C5_3 C9_3 112.0(8) . . ?
C1_3 C5_3 C9_3 115.5(9) . . ?
C5_3 C6_3 C7_3 127.7(9) . . ?
N1_3 C7_3 C6_3 115.9(8) . . ?
C7_3 N1_3 C8_3 123.3(8) . . ?
C7_3 N1_3 Pd1 117.5(11) . . ?
C8_3 N1_3 Pd1 119.0(11) . . ?
N1_3 C8_3 C9_3 117.8(8) . . ?
C8_3 C9_3 C5_3 123.2(9) . . ?
C11_3 C10_3 C4_3 132.1(10) . . ?
C11_3 C10_3 C14_3 112.9(9) . . ?
C4_3 C10_3 C14_3 115.0(9) . . ?
C10_3 C11_3 C12_3 127.1(9) . . ?
N2_3 C12_3 C11_3 115.5(8) . . ?
C12_3 N2_3 C13_3 124.5(8) . . ?
C12_3 N2_3 Pd4 119.1(12) . . ?
C13_3 N2_3 Pd4 115.7(11) . . ?
N2_3 C13_3 C14_3 117.2(8) . . ?
C13_3 C14_3 C10_3 122.8(9) . . ?
C2_3 O1_3 C15_3 113.5(8) . . ?
C3_3 O2_3 C16_3 117.6(8) . . ?
C16_3 C15_3 O1_3 107.3(9) . . ?
C15_3 C16_3 O2_3 109.9(9) . . ?
C1_4 S1_4 C4_4 98.4(7) . . ?
C2_4 C1_4 C5_4 124.5(9) . . ?
C2_4 C1_4 S1_4 107.5(8) . . ?
C5_4 C1_4 S1_4 127.9(8) . . ?
C1_4 C2_4 C3_4 113.4(7) . . ?
C1_4 C2_4 O1_4 126.0(8) . . ?
C3_4 C2_4 O1_4 120.5(6) . . ?
C4_4 C3_4 C2_4 113.4(7) . . ?
C4_4 C3_4 O2_4 126.8(8) . . ?
C2_4 C3_4 O2_4 119.7(6) . . ?
C3_4 C4_4 C10_4 124.7(9) . . ?
C3_4 C4_4 S1_4 107.2(8) . . ?
C10_4 C4_4 S1_4 128.1(8) . . ?
C6_4 C5_4 C1_4 131.5(10) . . ?
C6_4 C5_4 C9_4 113.6(9) . . ?
C1_4 C5_4 C9_4 114.8(9) . . ?
C5_4 C6_4 C7_4 126.5(9) . . ?
N1_4 C7_4 C6_4 115.5(8) . . ?
C7_4 N1_4 C8_4 125.0(8) . . ?
C7_4 N1_4 Pd4 120.3(12) . . ?
C8_4 N1_4 Pd4 114.6(12) . . ?
N1_4 C8_4 C9_4 117.1(8) . . ?
C8_4 C9_4 C5_4 122.3(9) . . ?
C11_4 C10_4 C4_4 132.2(10) . . ?
C11_4 C10_4 C14_4 112.4(9) . . ?
C4_4 C10_4 C14_4 115.4(9) . . ?
C10_4 C11_4 C12_4 127.8(9) . . ?
N2_4 C12_4 C11_4 115.1(8) . . ?
C12_4 N2_4 C13_4 124.3(8) . . ?
C12_4 N2_4 Pd6 118.7(12) . 4 ?
C13_4 N2_4 Pd6 116.7(12) . 4 ?
N2_4 C13_4 C14_4 117.8(8) . . ?
C13_4 C14_4 C10_4 122.5(9) . . ?
C2_4 O1_4 C15_4 115.7(8) . . ?
C3_4 O2_4 C16_4 115.3(8) . . ?
C16_4 C15_4 O1_4 108.7(9) . . ?
C15_4 C16_4 O2_4 108.9(9) . . ?
C1_5 S1_5 C4_5 98.6(7) . . ?
C2_5 C1_5 C5_5 123.7(9) . . ?
C2_5 C1_5 S1_5 107.1(8) . . ?
C5_5 C1_5 S1_5 129.1(8) . . ?
C1_5 C2_5 C3_5 113.5(7) . . ?
C1_5 C2_5 O1_5 126.2(8) . . ?
C3_5 C2_5 O1_5 120.3(6) . . ?
C4_5 C3_5 C2_5 113.7(7) . . ?
C4_5 C3_5 O2_5 126.1(8) . . ?
C2_5 C3_5 O2_5 120.2(6) . . ?
C3_5 C4_5 C10_5 123.1(9) . . ?
C3_5 C4_5 S1_5 107.0(8) . . ?
C10_5 C4_5 S1_5 129.8(8) . . ?
C6_5 C5_5 C1_5 132.4(10) . . ?
C6_5 C5_5 C9_5 112.1(9) . . ?
C1_5 C5_5 C9_5 115.5(9) . . ?
C5_5 C6_5 C7_5 128.3(9) . . ?
N1_5 C7_5 C6_5 115.3(8) . . ?
C7_5 N1_5 C8_5 123.0(8) . . ?
C7_5 N1_5 Pd1 123.0(12) . . ?
C8_5 N1_5 Pd1 113.9(11) . . ?
N1_5 C8_5 C9_5 119.1(8) . . ?
C8_5 C9_5 C5_5 122.3(9) . . ?
C11_5 C10_5 C4_5 132.2(10) . . ?
C11_5 C10_5 C14_5 112.5(9) . . ?
C4_5 C10_5 C14_5 115.3(9) . . ?
C10_5 C11_5 C12_5 127.4(9) . . ?
N2_5 C12_5 C11_5 116.0(8) . . ?
C12_5 N2_5 C13_5 122.9(8) . . ?
C12_5 N2_5 Pd2 122.3(12) . . ?
C13_5 N2_5 Pd2 114.6(11) . . ?
N2_5 C13_5 C14_5 118.7(8) . . ?
C13_5 C14_5 C10_5 122.3(9) . . ?
C2_5 O1_5 C15_5 115.2(8) . . ?
C3_5 O2_5 C16_5 114.2(8) . . ?
C16_5 C15_5 O1_5 109.1(9) . . ?
C15_5 C16_5 O2_5 108.3(9) . . ?
C4_6 S1_6 C1_6 98.2(7) . . ?
C2_6 C1_6 C5_6 123.9(9) . . ?
C2_6 C1_6 S1_6 107.5(8) . . ?
C5_6 C1_6 S1_6 128.6(8) . . ?
C1_6 C2_6 C3_6 113.5(7) . . ?
C1_6 C2_6 O1_6 126.4(8) . . ?
C3_6 C2_6 O1_6 120.2(6) . . ?
C4_6 C3_6 C2_6 113.6(7) . . ?
C4_6 C3_6 O2_6 125.9(8) . . ?
C2_6 C3_6 O2_6 120.4(6) . . ?
C3_6 C4_6 C10_6 123.1(9) . . ?
C3_6 C4_6 S1_6 107.3(8) . . ?
C10_6 C4_6 S1_6 129.7(8) . . ?
C6_6 C5_6 C1_6 132.0(10) . . ?
C6_6 C5_6 C9_6 113.0(9) . . ?
C1_6 C5_6 C9_6 114.9(9) . . ?
C5_6 C6_6 C7_6 127.5(9) . . ?
N1_6 C7_6 C6_6 115.3(8) . . ?
C7_6 N1_6 C8_6 123.8(8) . . ?
C7_6 N1_6 Pd4 120.3(12) . . ?
C8_6 N1_6 Pd4 115.9(12) . . ?
N1_6 C8_6 C9_6 118.5(8) . . ?
C8_6 C9_6 C5_6 121.9(9) . . ?
C11_6 C10_6 C4_6 131.5(10) . . ?
C11_6 C10_6 C14_6 112.9(9) . . ?
C4_6 C10_6 C14_6 115.5(10) . . ?
C10_6 C11_6 C12_6 127.3(9) . . ?
N2_6 C12_6 C11_6 115.3(8) . . ?
C12_6 N2_6 C13_6 124.0(8) . . ?
C12_6 N2_6 Pd3 121.6(12) . . ?
C13_6 N2_6 Pd3 114.2(11) . . ?
N2_6 C13_6 C14_6 118.3(8) . . ?
C13_6 C14_6 C10_6 122.1(9) . . ?
C2_6 O1_6 C15_6 115.4(8) . . ?
C3_6 O2_6 C16_6 114.6(8) . . ?
C16_6 C15_6 O1_6 109.5(9) . . ?
C15_6 C16_6 O2_6 108.6(9) . . ?
C4_7 S1_7 C1_7 98.8(7) . . ?
C2_7 C1_7 C5_7 124.7(9) . . ?
C2_7 C1_7 S1_7 106.9(8) . . ?
C5_7 C1_7 S1_7 128.4(8) . . ?
C1_7 C2_7 C3_7 113.7(7) . . ?
C1_7 C2_7 O1_7 126.5(8) . . ?
C3_7 C2_7 O1_7 119.8(6) . . ?
C4_7 C3_7 C2_7 113.5(7) . . ?
C4_7 C3_7 O2_7 126.3(8) . . ?
C2_7 C3_7 O2_7 120.1(6) . . ?
C3_7 C4_7 C10_7 124.5(9) . . ?
C3_7 C4_7 S1_7 107.0(8) . . ?
C10_7 C4_7 S1_7 127.8(8) . . ?
C6_7 C5_7 C1_7 131.5(10) . . ?
C6_7 C5_7 C9_7 112.8(9) . . ?
C1_7 C5_7 C9_7 115.6(9) . . ?
C5_7 C6_7 C7_7 126.7(9) . . ?
N1_7 C7_7 C6_7 116.0(8) . . ?
C7_7 N1_7 C8_7 124.0(8) . . ?
C7_7 N1_7 Pd2 115.5(11) . . ?
C8_7 N1_7 Pd2 120.0(11) . . ?
N1_7 C8_7 C9_7 117.3(8) . . ?
C8_7 C9_7 C5_7 123.0(9) . . ?
C11_7 C10_7 C4_7 132.2(10) . . ?
C11_7 C10_7 C14_7 113.1(9) . . ?
C4_7 C10_7 C14_7 114.5(9) . . ?
C10_7 C11_7 C12_7 126.8(9) . . ?
N2_7 C12_7 C11_7 115.6(8) . . ?
C12_7 N2_7 C13_7 124.4(8) . . ?
C12_7 N2_7 Pd3 121.3(12) . . ?
C13_7 N2_7 Pd3 114.3(11) . . ?
N2_7 C13_7 C14_7 117.4(8) . . ?
C13_7 C14_7 C10_7 122.6(9) . . ?
C2_7 O1_7 C15_7 115.5(8) . . ?
C3_7 O2_7 C16_7 115.6(8) . . ?
C16_7 C15_7 O1_7 108.9(9) . . ?
C15_7 C16_7 O2_7 109.3(9) . . ?
C4_8 S1_8 C1_8 98.3(7) . . ?
C2_8 C1_8 C5_8 125.3(9) . . ?
C2_8 C1_8 S1_8 107.3(8) . . ?
C5_8 C1_8 S1_8 127.3(8) . . ?
C1_8 C2_8 C3_8 113.4(7) . . ?
C1_8 C2_8 O1_8 126.2(8) . . ?
C3_8 C2_8 O1_8 120.3(6) . . ?
C4_8 C3_8 C2_8 113.6(7) . . ?
C4_8 C3_8 O2_8 125.8(8) . . ?
C2_8 C3_8 O2_8 120.6(6) . . ?
C3_8 C4_8 C10_8 125.2(9) . . ?
C3_8 C4_8 S1_8 107.3(8) . . ?
C10_8 C4_8 S1_8 127.5(8) . . ?
C6_8 C5_8 C1_8 132.4(10) . . ?
C6_8 C5_8 C9_8 112.9(9) . . ?
C1_8 C5_8 C9_8 114.5(9) . . ?
C5_8 C6_8 C7_8 127.3(9) . . ?
N1_8 C7_8 C6_8 115.2(8) . . ?
C7_8 N1_8 C8_8 124.5(8) . . ?
C7_8 N1_8 Pd1 117.5(12) . 2 ?
C8_8 N1_8 Pd1 117.8(12) . 2 ?
N1_8 C8_8 C9_8 117.1(8) . . ?
C8_8 C9_8 C5_8 122.5(9) . . ?
C11_8 C10_8 C4_8 132.3(10) . . ?
C11_8 C10_8 C14_8 112.7(9) . . ?
C4_8 C10_8 C14_8 115.1(9) . . ?
C10_8 C11_8 C12_8 127.7(9) . . ?
N2_8 C12_8 C11_8 115.5(8) . . ?
C12_8 N2_8 C13_8 123.7(8) . . ?
C12_8 N2_8 Pd2 116.3(11) . . ?
C13_8 N2_8 Pd2 119.0(12) . . ?
N2_8 C13_8 C14_8 118.3(8) . . ?
C13_8 C14_8 C10_8 122.0(9) . . ?
C2_8 O1_8 C15_8 114.6(8) . . ?
C3_8 O2_8 C16_8 115.9(8) . . ?
C16_8 C15_8 O1_8 109.8(9) . . ?
C15_8 C16_8 O2_8 110.8(9) . . ?
C1_9 S1_9 C4_9 98.5(7) . . ?
C2_9 C1_9 C5_9 125.2(9) . . ?
C2_9 C1_9 S1_9 107.4(8) . . ?
C5_9 C1_9 S1_9 127.4(8) . . ?
C1_9 C2_9 C3_9 113.4(7) . . ?
C1_9 C2_9 O1_9 127.1(8) . . ?
C3_9 C2_9 O1_9 119.4(6) . . ?
C4_9 C3_9 C2_9 113.4(7) . . ?
C4_9 C3_9 O2_9 126.1(8) . . ?
C2_9 C3_9 O2_9 120.4(6) . . ?
C3_9 C4_9 C10_9 124.0(9) . . ?
C3_9 C4_9 S1_9 107.2(8) . . ?
C10_9 C4_9 S1_9 128.8(8) . . ?
C6_9 C5_9 C1_9 131.8(10) . . ?
C6_9 C5_9 C9_9 113.5(9) . . ?
C1_9 C5_9 C9_9 114.7(9) . . ?
C5_9 C6_9 C7_9 126.4(9) . . ?
N1_9 C7_9 C6_9 115.8(8) . . ?
C7_9 N1_9 C8_9 124.3(8) . . ?
C7_9 N1_9 Pd3 119.1(12) . . ?
C8_9 N1_9 Pd3 116.5(12) . . ?
N1_9 C8_9 C9_9 117.6(8) . . ?
C8_9 C9_9 C5_9 122.2(9) . . ?
C11_9 C10_9 C4_9 131.7(10) . . ?
C11_9 C10_9 C14_9 113.2(9) . . ?
C4_9 C10_9 C14_9 115.1(9) . . ?
C10_9 C11_9 C12_9 127.0(9) . . ?
N2_9 C12_9 C11_9 115.0(8) . . ?
C12_9 N2_9 C13_9 124.7(8) . . ?
C12_9 N2_9 Pd5 118.6(12) . 3 ?
C13_9 N2_9 Pd5 116.6(12) . 3 ?
N2_9 C13_9 C14_9 117.3(8) . . ?
C13_9 C14_9 C10_9 122.6(9) . . ?
C2_9 O1_9 C15_9 114.2(8) . . ?
C3_9 O2_9 C16_9 116.2(8) . . ?
C16_9 C15_9 O1_9 107.3(9) . . ?
C15_9 C16_9 O2_9 108.5(9) . . ?
C1_10 S1_10 C4_10 98.3(7) . . ?
C2_10 C1_10 C5_10 123.6(9) . . ?
C2_10 C1_10 S1_10 107.4(8) . . ?
C5_10 C1_10 S1_10 129.0(8) . . ?
C1_10 C2_10 C3_10 113.6(7) . . ?
C1_10 C2_10 O1_10 126.1(8) . . ?
C3_10 C2_10 O1_10 120.4(6) . . ?
C4_10 C3_10 C2_10 113.3(7) . . ?
C4_10 C3_10 O2_10 126.4(8) . . ?
C2_10 C3_10 O2_10 120.0(6) . . ?
C3_10 C4_10 C10_10 123.7(9) . . ?
C3_10 C4_10 S1_10 107.3(8) . . ?
C10_10 C4_10 S1_10 128.6(8) . . ?
C6_10 C5_10 C1_10 130.9(10) . . ?
C6_10 C5_10 C9_10 113.6(9) . . ?
C1_10 C5_10 C9_10 115.5(9) . . ?
C5_10 C6_10 C7_10 126.8(9) . . ?
N1_10 C7_10 C6_10 114.8(8) . . ?
C7_10 N1_10 C8_10 125.6(8) . . ?
C7_10 N1_10 Pd2 119.0(12) . . ?
C8_10 N1_10 Pd2 115.0(11) . . ?
N1_10 C8_10 C9_10 116.6(8) . . ?
C8_10 C9_10 C5_10 122.4(9) . . ?
C11_10 C10_10 C4_10 131.2(10) . . ?
C11_10 C10_10 C14_10 113.1(9) . . ?
C4_10 C10_10 C14_10 115.7(9) . . ?
C10_10 C11_10 C12_10 127.8(9) . . ?
N2_10 C12_10 C11_10 114.3(8) . . ?
C12_10 N2_10 C13_10 125.3(8) . . ?
C12_10 N2_10 Pd6 117.0(12) . . ?
C13_10 N2_10 Pd6 117.1(12) . . ?
N2_10 C13_10 C14_10 117.4(8) . . ?
C13_10 C14_10 C10_10 121.6(9) . . ?
C2_10 O1_10 C15_10 114.6(8) . . ?
C3_10 O2_10 C16_10 115.5(8) . . ?
C16_10 C15_10 O1_10 108.9(9) . . ?
C15_10 C16_10 O2_10 109.3(9) . . ?
C4_11 S1_11 C1_11 98.3(7) . . ?
C2_11 C1_11 C5_11 123.5(9) . . ?
C2_11 C1_11 S1_11 107.3(8) . . ?
C5_11 C1_11 S1_11 129.0(8) . . ?
C1_11 C2_11 C3_11 113.3(7) . . ?
C1_11 C2_11 O1_11 126.0(8) . . ?
C3_11 C2_11 O1_11 120.7(6) . . ?
C4_11 C3_11 C2_11 113.7(7) . . ?
C4_11 C3_11 O2_11 127.2(8) . . ?
C2_11 C3_11 O2_11 118.9(6) . . ?
C3_11 C4_11 C10_11 124.3(9) . . ?
C3_11 C4_11 S1_11 107.2(8) . . ?
C10_11 C4_11 S1_11 128.1(8) . . ?
C6_11 C5_11 C1_11 131.5(10) . . ?
C6_11 C5_11 C9_11 112.9(9) . . ?
C1_11 C5_11 C9_11 115.5(9) . . ?
C5_11 C6_11 C7_11 127.1(9) . . ?
N1_11 C7_11 C6_11 115.4(8) . . ?
C7_11 N1_11 C8_11 124.7(8) . . ?
C7_11 N1_11 Pd3 122.2(12) . . ?
C8_11 N1_11 Pd3 113.1(11) . . ?
N1_11 C8_11 C9_11 117.1(8) . . ?
C8_11 C9_11 C5_11 122.9(9) . . ?
C11_11 C10_11 C4_11 131.6(10) . . ?
C11_11 C10_11 C14_11 112.9(9) . . ?
C4_11 C10_11 C14_11 115.3(9) . . ?
C10_11 C11_11 C12_11 127.2(9) . . ?
N2_11 C12_11 C11_11 115.4(8) . . ?
C12_11 N2_11 C13_11 124.2(8) . . ?
C12_11 N2_11 Pd6 120.5(12) . . ?
C13_11 N2_11 Pd6 115.2(11) . . ?
N2_11 C13_11 C14_11 117.7(8) . . ?
C13_11 C14_11 C10_11 122.5(9) . . ?
C2_11 O1_11 C15_11 116.7(8) . . ?
C3_11 O2_11 C16_11 114.0(8) . . ?
C16_11 C15_11 O1_11 109.4(9) . . ?
C15_11 C16_11 O2_11 108.2(9) . . ?
C4_12 S1_12 C1_12 98.1(7) . . ?
C2_12 C1_12 C5_12 124.7(9) . . ?
C2_12 C1_12 S1_12 107.5(8) . . ?
C5_12 C1_12 S1_12 127.8(8) . . ?
C1_12 C2_12 C3_12 113.5(7) . . ?
C1_12 C2_12 O1_12 126.2(8) . . ?
C3_12 C2_12 O1_12 120.3(6) . . ?
C4_12 C3_12 C2_12 113.5(7) . . ?
C4_12 C3_12 O2_12 126.1(8) . . ?
C2_12 C3_12 O2_12 120.4(6) . . ?
C3_12 C4_12 C10_12 123.8(9) . . ?
C3_12 C4_12 S1_12 107.4(8) . . ?
C10_12 C4_12 S1_12 128.7(8) . . ?
C6_12 C5_12 C1_12 132.8(10) . . ?
C6_12 C5_12 C9_12 112.3(9) . . ?
C1_12 C5_12 C9_12 114.8(9) . . ?
C5_12 C6_12 C7_12 127.9(9) . . ?
N1_12 C7_12 C6_12 115.4(8) . . ?
C7_12 N1_12 C8_12 123.5(8) . . ?
C7_12 N1_12 Pd6 118.9(12) . . ?
C8_12 N1_12 Pd6 117.4(12) . . ?
N1_12 C8_12 C9_12 118.5(8) . . ?
C8_12 C9_12 C5_12 122.2(9) . . ?
C11_12 C10_12 C4_12 131.7(10) . . ?
C11_12 C10_12 C14_12 113.1(9) . . ?
C4_12 C10_12 C14_12 115.2(9) . . ?
C10_12 C11_12 C12_12 127.2(9) . . ?
N2_12 C12_12 C11_12 115.4(8) . . ?
C12_12 N2_12 C13_12 124.3(8) . . ?
C12_12 N2_12 Pd5 118.8(12) . 2 ?
C13_12 N2_12 Pd5 116.8(12) . 2 ?
N2_12 C13_12 C14_12 117.7(8) . . ?
C13_12 C14_12 C10_12 122.2(9) . . ?
C2_12 O1_12 C15_12 116.3(8) . . ?
C3_12 O2_12 C16_12 114.3(8) . . ?
C16_12 C15_12 O1_12 110.7(9) . . ?
C15_12 C16_12 O2_12 109.7(9) . . ?
F1_21 P1_21 F5_21 90.2(3) . . ?
F1_21 P1_21 F2_21 90.0(3) . . ?
F5_21 P1_21 F2_21 90.0(3) . . ?
F1_21 P1_21 F4_21 90.2(3) . . ?
F5_21 P1_21 F4_21 90.0(3) . . ?
F2_21 P1_21 F4_21 179.8(6) . . ?
F1_21 P1_21 F3_21 90.0(3) . . ?
F5_21 P1_21 F3_21 179.8(6) . . ?
F2_21 P1_21 F3_21 90.0(3) . . ?
F4_21 P1_21 F3_21 90.0(3) . . ?
F1_21 P1_21 F6_21 179.8(6) . . ?
F5_21 P1_21 F6_21 90.0(3) . . ?
F2_21 P1_21 F6_21 89.9(3) . . ?
F4_21 P1_21 F6_21 89.9(3) . . ?
F3_21 P1_21 F6_21 89.8(3) . . ?
F3_22 P1_22 F2_22 90.1(3) . . ?
F3_22 P1_22 F6_22 90.1(3) . . ?
F2_22 P1_22 F6_22 90.0(3) . . ?
F3_22 P1_22 F1_22 90.0(3) . . ?
F2_22 P1_22 F1_22 90.1(3) . . ?
F6_22 P1_22 F1_22 179.8(6) . . ?
F3_22 P1_22 F4_22 90.1(3) . . ?
F2_22 P1_22 F4_22 179.8(6) . . ?
F6_22 P1_22 F4_22 89.9(3) . . ?
F1_22 P1_22 F4_22 90.0(3) . . ?
F3_22 P1_22 F5_22 179.9(6) . . ?
F2_22 P1_22 F5_22 89.9(3) . . ?
F6_22 P1_22 F5_22 90.0(3) . . ?
F1_22 P1_22 F5_22 89.8(3) . . ?
F4_22 P1_22 F5_22 89.9(3) . . ?
F4_23 P1_23 F1_23 90.3(3) . . ?
F4_23 P1_23 F3_23 90.1(3) . . ?
F1_23 P1_23 F3_23 90.0(3) . . ?
F4_23 P1_23 F5_23 90.0(3) . . ?
F1_23 P1_23 F5_23 90.1(3) . . ?
F3_23 P1_23 F5_23 179.8(6) . . ?
F4_23 P1_23 F6_23 89.9(3) . . ?
F1_23 P1_23 F6_23 179.8(5) . . ?
F3_23 P1_23 F6_23 90.0(3) . . ?
F5_23 P1_23 F6_23 89.9(3) . . ?
F4_23 P1_23 F2_23 179.8(6) . . ?
F1_23 P1_23 F2_23 89.9(3) . . ?
F3_23 P1_23 F2_23 89.9(3) . . ?
F5_23 P1_23 F2_23 89.9(3) . . ?
F6_23 P1_23 F2_23 89.9(3) . . ?
F6_24 P1_24 F4_24 90.2(3) . . ?
F6_24 P1_24 F5_24 90.1(3) . . ?
F4_24 P1_24 F5_24 90.1(3) . . ?
F6_24 P1_24 F3_24 90.0(3) . . ?
F4_24 P1_24 F3_24 90.0(3) . . ?
F5_24 P1_24 F3_24 179.8(6) . . ?
F6_24 P1_24 F2_24 90.0(3) . . ?
F4_24 P1_24 F2_24 179.8(6) . . ?
F5_24 P1_24 F2_24 89.9(3) . . ?
F3_24 P1_24 F2_24 89.9(3) . . ?
F6_24 P1_24 F1_24 179.7(5) . . ?
F4_24 P1_24 F1_24 90.0(3) . . ?
F5_24 P1_24 F1_24 90.1(3) . . ?
F3_24 P1_24 F1_24 89.8(3) . . ?
F2_24 P1_24 F1_24 89.8(3) . . ?
F5_25 P1_25 F6_25 90.4(3) . . ?
F5_25 P1_25 F2_25 90.3(3) . . ?
F6_25 P1_25 F2_25 90.1(3) . . ?
F5_25 P1_25 F1_25 90.4(3) . . ?
F6_25 P1_25 F1_25 179.2(5) . . ?
F2_25 P1_25 F1_25 90.0(3) . . ?
F5_25 P1_25 F4_25 90.1(3) . . ?
F6_25 P1_25 F4_25 90.0(3) . . ?
F2_25 P1_25 F4_25 179.5(5) . . ?
F1_25 P1_25 F4_25 90.0(3) . . ?
F5_25 P1_25 F3_25 179.9(6) . . ?
F6_25 P1_25 F3_25 89.6(3) . . ?
F2_25 P1_25 F3_25 89.8(3) . . ?
F1_25 P1_25 F3_25 89.6(3) . . ?
F4_25 P1_25 F3_25 89.7(3) . . ?
F2_26 P1_26 F1_26 90.2(3) . . ?
F2_26 P1_26 F5_26 90.1(3) . . ?
F1_26 P1_26 F5_26 90.1(3) . . ?
F2_26 P1_26 F3_26 90.2(3) . . ?
F1_26 P1_26 F3_26 90.0(3) . . ?
F5_26 P1_26 F3_26 179.7(6) . . ?
F2_26 P1_26 F6_26 90.1(3) . . ?
F1_26 P1_26 F6_26 179.7(6) . . ?
F5_26 P1_26 F6_26 90.0(3) . . ?
F3_26 P1_26 F6_26 89.9(3) . . ?
F2_26 P1_26 F4_26 179.9(5) . . ?
F1_26 P1_26 F4_26 89.9(3) . . ?
F5_26 P1_26 F4_26 89.9(3) . . ?
F3_26 P1_26 F4_26 89.9(3) . . ?
F6_26 P1_26 F4_26 89.8(3) . . ?
F3_27 P1_27 F2_27 90.3(3) . . ?
F3_27 P1_27 F6_27 90.2(3) . . ?
F2_27 P1_27 F6_27 90.1(3) . . ?
F3_27 P1_27 F1_27 90.3(3) . . ?
F2_27 P1_27 F1_27 90.1(3) . . ?
F6_27 P1_27 F1_27 179.5(5) . . ?
F3_27 P1_27 F4_27 90.1(3) . . ?
F2_27 P1_27 F4_27 179.5(5) . . ?
F6_27 P1_27 F4_27 89.9(3) . . ?
F1_27 P1_27 F4_27 89.9(3) . . ?
F3_27 P1_27 F5_27 179.8(6) . . ?
F2_27 P1_27 F5_27 89.8(3) . . ?
F6_27 P1_27 F5_27 89.8(3) . . ?
F1_27 P1_27 F5_27 89.8(3) . . ?
F4_27 P1_27 F5_27 89.7(3) . . ?
F3_28 P1_28 F6_28 90.1(3) . . ?
F3_28 P1_28 F4_28 90.1(3) . . ?
F6_28 P1_28 F4_28 90.1(3) . . ?
F3_28 P1_28 F1_28 90.0(3) . . ?
F6_28 P1_28 F1_28 179.8(6) . . ?
F4_28 P1_28 F1_28 89.9(3) . . ?
F3_28 P1_28 F2_28 90.1(3) . . ?
F6_28 P1_28 F2_28 90.0(3) . . ?
F4_28 P1_28 F2_28 179.8(6) . . ?
F1_28 P1_28 F2_28 90.0(3) . . ?
F3_28 P1_28 F5_28 179.9(6) . . ?
F6_28 P1_28 F5_28 89.8(3) . . ?
F4_28 P1_28 F5_28 90.1(3) . . ?
F1_28 P1_28 F5_28 90.0(3) . . ?
F2_28 P1_28 F5_28 89.8(3) . . ?
F6_29 P1_29 F4_29 90.2(3) . . ?
F6_29 P1_29 F5_29 90.4(3) . . ?
F4_29 P1_29 F5_29 90.1(3) . . ?
F6_29 P1_29 F3_29 90.1(3) . . ?
F4_29 P1_29 F3_29 90.1(3) . . ?
F5_29 P1_29 F3_29 179.5(5) . . ?
F6_29 P1_29 F2_29 90.1(3) . . ?
F4_29 P1_29 F2_29 179.7(6) . . ?
F5_29 P1_29 F2_29 89.9(3) . . ?
F3_29 P1_29 F2_29 89.8(3) . . ?
F6_29 P1_29 F1_29 179.6(5) . . ?
F4_29 P1_29 F1_29 90.0(3) . . ?
F5_29 P1_29 F1_29 90.0(3) . . ?
F3_29 P1_29 F1_29 89.6(3) . . ?
F2_29 P1_29 F1_29 89.7(3) . . ?
F5_30 P1_30 F1_30 90.2(3) . . ?
F5_30 P1_30 F2_30 90.1(3) . . ?
F1_30 P1_30 F2_30 90.0(3) . . ?
F5_30 P1_30 F4_30 90.0(3) . . ?
F1_30 P1_30 F4_30 90.0(3) . . ?
F2_30 P1_30 F4_30 179.9(6) . . ?
F5_30 P1_30 F6_30 90.0(3) . . ?
F1_30 P1_30 F6_30 179.8(6) . . ?
F2_30 P1_30 F6_30 90.0(3) . . ?
F4_30 P1_30 F6_30 90.0(3) . . ?
F5_30 P1_30 F3_30 179.9(6) . . ?
F1_30 P1_30 F3_30 89.9(3) . . ?
F2_30 P1_30 F3_30 89.9(3) . . ?
F4_30 P1_30 F3_30 90.0(3) . . ?
F6_30 P1_30 F3_30 89.9(3) . . ?
F2_31 P1_31 F1_31 90.1(3) . . ?
F2_31 P1_31 F3_31 90.1(3) . . ?
F1_31 P1_31 F3_31 90.1(3) . . ?
F2_31 P1_31 F5_31 90.0(3) . . ?
F1_31 P1_31 F5_31 90.0(3) . . ?
F3_31 P1_31 F5_31 179.8(6) . . ?
F2_31 P1_31 F6_31 90.1(3) . . ?
F1_31 P1_31 F6_31 179.7(6) . . ?
F3_31 P1_31 F6_31 89.9(3) . . ?
F5_31 P1_31 F6_31 90.0(3) . . ?
F2_31 P1_31 F4_31 179.9(6) . . ?
F1_31 P1_31 F4_31 89.9(3) . . ?
F3_31 P1_31 F4_31 89.9(3) . . ?
F5_31 P1_31 F4_31 89.9(3) . . ?
F6_31 P1_31 F4_31 89.8(3) . . ?
F5_32 P1_32 F6_32 90.0(3) . . ?
F5_32 P1_32 F4_32 90.1(3) . . ?
F6_32 P1_32 F4_32 90.1(3) . . ?
F5_32 P1_32 F2_32 90.2(3) . . ?
F6_32 P1_32 F2_32 89.9(3) . . ?
F4_32 P1_32 F2_32 179.6(6) . . ?
F5_32 P1_32 F1_32 90.1(3) . . ?
F6_32 P1_32 F1_32 179.8(6) . . ?
F4_32 P1_32 F1_32 90.1(3) . . ?
F2_32 P1_32 F1_32 90.0(3) . . ?
F5_32 P1_32 F3_32 179.9(6) . . ?
F6_32 P1_32 F3_32 90.0(3) . . ?
F4_32 P1_32 F3_32 89.8(3) . . ?
F2_32 P1_32 F3_32 89.9(3) . . ?
F1_32 P1_32 F3_32 89.9(3) . . ?

_diffrn_measured_fraction_theta_max 0.978
_diffrn_reflns_theta_full        16.26
_diffrn_measured_fraction_theta_full 0.978
_refine_diff_density_max         1.305
_refine_diff_density_min         -0.713
_refine_diff_density_rms         0.141



