####################################################################### 
# 
# This file contains crystal structure data downloaded from the 
# Cambridge Structural Database (CSD) hosted by the Cambridge 
# Crystallographic Data Centre (CCDC).
# 
# Full information about CCDC data access policies and citation 
# guidelines are available at http://www.ccdc.cam.ac.uk/access/V1 
# 
# Audit and citation data items may have been added by the CCDC. 
# Please retain this information to preserve the provenance of 
# this file and to allow appropriate attribution of the data. 
# 
#######################################################################

data_ta121
_audit_block_doi                 10.5517/cctjj50
_database_code_depnum_ccdc_archive 'CCDC 760652'
loop_
_citation_id
_citation_doi
_citation_year
1 10.1246/cl.2010.1016 2010
_audit_update_record             
;
2010-01-06 deposited with the CCDC.
2015-08-22 downloaded from the CCDC.
;
#TrackingRef '760652.cif'


_audit_creation_method           SHELXL-97
_chemical_name_systematic        
;
?
;
_chemical_name_common            ?
_chemical_melting_point          ?
_chemical_formula_moiety         ?
_chemical_formula_sum            'C32 H46.50 F6 N20 O23.25 S2'
_chemical_formula_weight         1261.50

loop_
_atom_type_symbol
_atom_type_description
_atom_type_scat_dispersion_real
_atom_type_scat_dispersion_imag
_atom_type_scat_source
C C 0.0033 0.0016 'International Tables Vol C Tables 4.2.6.8 and 6.1.1.4'
H H 0.0000 0.0000 'International Tables Vol C Tables 4.2.6.8 and 6.1.1.4'
N N 0.0061 0.0033 'International Tables Vol C Tables 4.2.6.8 and 6.1.1.4'
O O 0.0106 0.0060 'International Tables Vol C Tables 4.2.6.8 and 6.1.1.4'
F F 0.0171 0.0103 'International Tables Vol C Tables 4.2.6.8 and 6.1.1.4'
S S 0.1246 0.1234 'International Tables Vol C Tables 4.2.6.8 and 6.1.1.4'

_symmetry_cell_setting           Orthorhombic
_symmetry_space_group_name_H-M   'P 21 21 21'

loop_
_symmetry_equiv_pos_as_xyz
'x, y, z'
'-x+1/2, -y, z+1/2'
'x+1/2, -y+1/2, -z'
'-x, y+1/2, -z+1/2'

_cell_length_a                   12.322(2)
_cell_length_b                   15.457(3)
_cell_length_c                   27.114(5)
_cell_angle_alpha                90.00
_cell_angle_beta                 90.00
_cell_angle_gamma                90.00
_cell_volume                     5164.2(16)
_cell_formula_units_Z            4
_cell_measurement_temperature    293(2)
_cell_measurement_reflns_used    6670
_cell_measurement_theta_min      2.24
_cell_measurement_theta_max      20.83

_exptl_crystal_description       block
_exptl_crystal_colour            colorless
_exptl_crystal_size_max          0.28
_exptl_crystal_size_mid          0.21
_exptl_crystal_size_min          0.15
_exptl_crystal_density_meas      ?
_exptl_crystal_density_diffrn    1.620
_exptl_crystal_density_method    'not measured'
_exptl_crystal_F_000             2594
_exptl_absorpt_coefficient_mu    0.226
_exptl_absorpt_correction_type   multi-scan
_exptl_absorpt_correction_T_min  0.9395
_exptl_absorpt_correction_T_max  0.9669
_exptl_absorpt_process_details   '(SADABS, Sheldrick, 1996)'

_exptl_special_details           
;
?
;

_diffrn_ambient_temperature      293(2)
_diffrn_radiation_wavelength     0.71073
_diffrn_radiation_type           MoK\a
_diffrn_radiation_source         'fine-focus sealed tube'
_diffrn_radiation_monochromator  graphite
_diffrn_measurement_device_type  'Bruker APEX CCD'
_diffrn_measurement_method       '\f and \w scans'
_diffrn_detector_area_resol_mean ?
_diffrn_standards_number         ?
_diffrn_standards_interval_count ?
_diffrn_standards_interval_time  ?
_diffrn_standards_decay_%        ?
_diffrn_reflns_number            27022
_diffrn_reflns_av_R_equivalents  0.0277
_diffrn_reflns_av_sigmaI/netI    0.0334
_diffrn_reflns_limit_h_min       -14
_diffrn_reflns_limit_h_max       12
_diffrn_reflns_limit_k_min       -18
_diffrn_reflns_limit_k_max       18
_diffrn_reflns_limit_l_min       -32
_diffrn_reflns_limit_l_max       29
_diffrn_reflns_theta_min         1.50
_diffrn_reflns_theta_max         25.02
_reflns_number_total             9117
_reflns_number_gt                6954
_reflns_threshold_expression     >2sigma(I)

_computing_data_collection       'Bruker SMART'
_computing_cell_refinement       'Bruker SMART'
_computing_data_reduction        'Bruker SAINT'
_computing_structure_solution    'SHELXS-97 (Sheldrick, 1990)'
_computing_structure_refinement  'SHELXL-97 (Sheldrick, 1997)'
_computing_molecular_graphics    'Bruker SHELXTL'
_computing_publication_material  'Bruker SHELXTL'

_refine_special_details          
;
Refinement of F^2^ against ALL reflections. The weighted R-factor wR and
goodness of fit S are based on F^2^, conventional R-factors R are based
on F, with F set to zero for negative F^2^. The threshold expression of
F^2^ > 2sigma(F^2^) is used only for calculating R-factors(gt) etc. and is
not relevant to the choice of reflections for refinement. R-factors based
on F^2^ are statistically about twice as large as those based on F, and R-
factors based on ALL data will be even larger.
;

_refine_ls_structure_factor_coef Fsqd
_refine_ls_matrix_type           full
_refine_ls_weighting_scheme      calc
_refine_ls_weighting_details     
'calc w=1/[\s^2^(Fo^2^)+(0.1911P)^2^] where P=(Fo^2^+2Fc^2^)/3'
_atom_sites_solution_primary     direct
_atom_sites_solution_secondary   difmap
_atom_sites_solution_hydrogens   geom
_refine_ls_hydrogen_treatment    constr
_refine_ls_extinction_method     none
_refine_ls_extinction_coef       ?
_refine_ls_abs_structure_details 'Flack H D (1983), 4040 Friedel pairs'
_refine_ls_abs_structure_Flack   0.09(19)
_refine_ls_number_reflns         9117
_refine_ls_number_parameters     764
_refine_ls_number_restraints     1
_refine_ls_R_factor_all          0.1042
_refine_ls_R_factor_gt           0.0847
_refine_ls_wR_factor_ref         0.2543
_refine_ls_wR_factor_gt          0.2285
_refine_ls_goodness_of_fit_ref   1.052
_refine_ls_restrained_S_all      1.053
_refine_ls_shift/su_max          0.027
_refine_ls_shift/su_mean         0.001

loop_
_atom_site_label
_atom_site_type_symbol
_atom_site_fract_x
_atom_site_fract_y
_atom_site_fract_z
_atom_site_U_iso_or_equiv
_atom_site_adp_type
_atom_site_occupancy
_atom_site_symmetry_multiplicity
_atom_site_calc_flag
_atom_site_refinement_flags
_atom_site_disorder_assembly
_atom_site_disorder_group
C1 C 0.6727(5) 0.9066(3) 0.8314(2) 0.0625(15) Uani 1 1 d . . .
H1 H 0.6596 0.9689 0.8344 0.075 Uiso 1 1 calc R . .
C2 C 0.6971(5) 0.8804(3) 0.7778(2) 0.0632(15) Uani 1 1 d . . .
H2 H 0.6894 0.9300 0.7556 0.076 Uiso 1 1 calc R . .
C3 C 0.5436(4) 0.8064(3) 0.8053(2) 0.0515(12) Uani 1 1 d . . .
C4 C 0.8509(5) 0.8523(3) 0.8255(2) 0.0590(15) Uani 1 1 d . . .
C5 C 0.7668(4) 0.6972(4) 0.69267(19) 0.0519(12) Uani 1 1 d . . .
H5 H 0.7701 0.7250 0.6602 0.062 Uiso 1 1 calc R . .
C6 C 0.7907(4) 0.5994(4) 0.68974(19) 0.0494(11) Uani 1 1 d . . .
H6 H 0.8036 0.5813 0.6556 0.059 Uiso 1 1 calc R . .
C7 C 0.6168(4) 0.6188(4) 0.72030(17) 0.0511(12) Uani 1 1 d . . .
C8 C 0.9234(4) 0.6659(3) 0.73830(19) 0.0493(12) Uani 1 1 d . . .
C9 C 0.8179(4) 0.3932(3) 0.7639(2) 0.0539(12) Uani 1 1 d . . .
H9 H 0.8375 0.3476 0.7403 0.065 Uiso 1 1 calc R . .
C10 C 0.8101(5) 0.3577(3) 0.8171(2) 0.0599(14) Uani 1 1 d . . .
H10 H 0.8236 0.2952 0.8181 0.072 Uiso 1 1 calc R . .
C11 C 0.6439(5) 0.4138(3) 0.7942(2) 0.0531(13) Uani 1 1 d . . .
C12 C 0.9451(4) 0.4642(3) 0.8141(2) 0.0490(12) Uani 1 1 d . . .
C13 C 0.7515(5) 0.4182(4) 0.9500(2) 0.0582(13) Uani 1 1 d . . .
H13 H 0.7625 0.3641 0.9682 0.070 Uiso 1 1 calc R . .
C14 C 0.7202(5) 0.4929(4) 0.9853(2) 0.0585(13) Uani 1 1 d . . .
H14 H 0.7162 0.4737 1.0197 0.070 Uiso 1 1 calc R . .
C15 C 0.5809(4) 0.4713(3) 0.92762(19) 0.0503(12) Uani 1 1 d . . .
C16 C 0.8854(5) 0.5241(4) 0.9465(2) 0.0566(13) Uani 1 1 d . . .
C17 C 0.6622(4) 0.7316(4) 0.99207(19) 0.0524(12) Uani 1 1 d . . .
H17 H 0.6422 0.7409 1.0267 0.063 Uiso 1 1 calc R . .
C18 C 0.6515(4) 0.8169(4) 0.9613(2) 0.0555(13) Uani 1 1 d . . .
H18 H 0.6334 0.8665 0.9822 0.067 Uiso 1 1 calc R . .
C19 C 0.5257(4) 0.7170(3) 0.93278(18) 0.0451(11) Uani 1 1 d . . .
C20 C 0.8302(4) 0.7619(4) 0.9572(2) 0.0591(14) Uani 1 1 d . . .
C21 C 0.5950(5) 0.7757(4) 0.7209(2) 0.0605(14) Uani 1 1 d . . .
H21A H 0.6104 0.8170 0.6949 0.073 Uiso 1 1 calc R . .
H21B H 0.5188 0.7605 0.7187 0.073 Uiso 1 1 calc R . .
C22 C 0.8688(5) 0.8186(4) 0.7376(2) 0.0634(15) Uani 1 1 d . . .
H22A H 0.9453 0.8265 0.7447 0.076 Uiso 1 1 calc R . .
H22B H 0.8516 0.8534 0.7089 0.076 Uiso 1 1 calc R . .
C23 C 0.6749(4) 0.4670(4) 0.70990(19) 0.0537(12) Uani 1 1 d . . .
H23A H 0.7119 0.4405 0.6822 0.064 Uiso 1 1 calc R . .
H23B H 0.5977 0.4571 0.7057 0.064 Uiso 1 1 calc R . .
C24 C 0.9457(4) 0.5095(4) 0.7262(2) 0.0529(12) Uani 1 1 d . . .
H24A H 1.0220 0.5213 0.7320 0.063 Uiso 1 1 calc R . .
H24B H 0.9401 0.4756 0.6962 0.063 Uiso 1 1 calc R . .
C25 C 0.6496(6) 0.3507(3) 0.8771(2) 0.0632(15) Uani 1 1 d . . .
H25A H 0.6821 0.2964 0.8873 0.076 Uiso 1 1 calc R . .
H25B H 0.5733 0.3399 0.8708 0.076 Uiso 1 1 calc R . .
C26 C 0.9179(5) 0.3953(4) 0.8958(2) 0.0628(14) Uani 1 1 d . . .
H26A H 0.9088 0.3350 0.9049 0.075 Uiso 1 1 calc R . .
H26B H 0.9933 0.4105 0.9013 0.075 Uiso 1 1 calc R . .
C27 C 0.5542(4) 0.5898(4) 0.98656(19) 0.0516(12) Uani 1 1 d . . .
H27A H 0.5624 0.5898 1.0221 0.062 Uiso 1 1 calc R . .
H27B H 0.4781 0.5805 0.9792 0.062 Uiso 1 1 calc R . .
C28 C 0.8237(5) 0.6303(4) 1.0075(2) 0.0608(14) Uani 1 1 d . . .
H28A H 0.9012 0.6397 1.0109 0.073 Uiso 1 1 calc R . .
H28B H 0.7942 0.6201 1.0401 0.073 Uiso 1 1 calc R . .
C29 C 0.5236(5) 0.8587(3) 0.8915(2) 0.0557(13) Uani 1 1 d . . .
H29A H 0.5284 0.9165 0.9053 0.067 Uiso 1 1 calc R . .
H29B H 0.4475 0.8460 0.8860 0.067 Uiso 1 1 calc R . .
C30 C 0.7956(5) 0.8949(4) 0.9088(3) 0.0659(16) Uani 1 1 d . . .
H30A H 0.7603 0.9480 0.9191 0.079 Uiso 1 1 calc R . .
H30B H 0.8732 0.9028 0.9128 0.079 Uiso 1 1 calc R . .
N1 N 0.5798(4) 0.8574(3) 0.84448(18) 0.0561(11) Uani 1 1 d . . .
N2 N 0.6147(4) 0.8161(3) 0.76777(17) 0.0572(11) Uani 1 1 d . . .
N3 N 0.7722(4) 0.8800(3) 0.8574(2) 0.0631(13) Uani 1 1 d . . .
N4 N 0.8076(4) 0.8500(3) 0.77842(19) 0.0579(11) Uani 1 1 d . . .
N5 N 0.6598(4) 0.6985(3) 0.71288(17) 0.0550(11) Uani 1 1 d . . .
N6 N 0.6954(3) 0.5596(3) 0.70916(16) 0.0489(10) Uani 1 1 d . . .
N7 N 0.8503(4) 0.7291(3) 0.72575(17) 0.0543(11) Uani 1 1 d . . .
N8 N 0.8890(3) 0.5904(3) 0.71939(17) 0.0515(10) Uani 1 1 d . . .
N9 N 0.7104(4) 0.4253(3) 0.75505(16) 0.0521(10) Uani 1 1 d . . .
N10 N 0.7003(4) 0.3780(3) 0.83149(17) 0.0544(11) Uani 1 1 d . . .
N11 N 0.9028(3) 0.4585(3) 0.76772(17) 0.0498(10) Uani 1 1 d . . .
N12 N 0.8932(4) 0.4053(3) 0.84354(16) 0.0551(11) Uani 1 1 d . . .
N13 N 0.6585(4) 0.4121(3) 0.91748(17) 0.0556(11) Uani 1 1 d . . .
N14 N 0.6151(4) 0.5209(3) 0.96676(17) 0.0527(10) Uani 1 1 d . . .
N15 N 0.8516(4) 0.4469(3) 0.92705(18) 0.0572(11) Uani 1 1 d . . .
N16 N 0.8063(3) 0.5546(3) 0.97768(16) 0.0544(11) Uani 1 1 d . . .
N17 N 0.5865(3) 0.6738(3) 0.96751(15) 0.0492(10) Uani 1 1 d . . .
N18 N 0.5660(3) 0.7978(3) 0.92707(16) 0.0506(10) Uani 1 1 d . . .
N19 N 0.7748(4) 0.7076(3) 0.98727(18) 0.0567(11) Uani 1 1 d . . .
N20 N 0.7599(4) 0.8246(3) 0.94058(19) 0.0589(12) Uani 1 1 d . . .
O1 O 0.4636(3) 0.7613(3) 0.80576(15) 0.0618(10) Uani 1 1 d . . .
O2 O 0.9452(3) 0.8333(3) 0.83577(18) 0.0694(11) Uani 1 1 d . . .
O3 O 0.5238(3) 0.6028(3) 0.73420(14) 0.0594(9) Uani 1 1 d . . .
O4 O 1.0073(3) 0.6785(3) 0.76185(16) 0.0657(11) Uani 1 1 d . . .
O5 O 0.5456(3) 0.4323(2) 0.79531(15) 0.0576(9) Uani 1 1 d . . .
O6 O 1.0210(3) 0.5100(3) 0.82624(14) 0.0597(9) Uani 1 1 d . . .
O7 O 0.4933(3) 0.4780(3) 0.90704(15) 0.0612(10) Uani 1 1 d . . .
O8 O 0.9711(3) 0.5587(3) 0.93847(16) 0.0677(11) Uani 1 1 d . . .
O9 O 0.4473(3) 0.6874(3) 0.91062(14) 0.0568(9) Uani 1 1 d . . .
O10 O 0.9271(3) 0.7602(3) 0.94819(17) 0.0705(12) Uani 1 1 d . . .

loop_
_atom_site_aniso_label
_atom_site_aniso_U_11
_atom_site_aniso_U_22
_atom_site_aniso_U_33
_atom_site_aniso_U_23
_atom_site_aniso_U_13
_atom_site_aniso_U_12
C1 0.071(4) 0.030(2) 0.086(4) 0.004(2) 0.028(3) 0.008(2)
C2 0.074(4) 0.038(3) 0.078(4) 0.017(3) 0.016(3) 0.004(3)
C3 0.051(3) 0.041(3) 0.063(3) 0.010(2) 0.004(2) 0.019(2)
C4 0.055(3) 0.033(2) 0.090(4) -0.003(3) 0.024(3) -0.015(2)
C5 0.046(3) 0.060(3) 0.050(3) 0.016(2) 0.004(2) 0.003(2)
C6 0.041(3) 0.060(3) 0.047(2) 0.003(2) 0.003(2) 0.005(2)
C7 0.048(3) 0.070(3) 0.036(2) 0.011(2) -0.005(2) 0.005(2)
C8 0.040(3) 0.050(3) 0.057(3) -0.005(2) 0.010(2) 0.000(2)
C9 0.056(3) 0.043(3) 0.063(3) -0.014(2) -0.001(2) -0.001(2)
C10 0.064(3) 0.036(3) 0.079(4) -0.002(2) -0.001(3) 0.013(2)
C11 0.059(3) 0.035(2) 0.064(3) -0.011(2) -0.001(3) -0.013(2)
C12 0.041(3) 0.045(3) 0.060(3) -0.010(2) -0.001(2) 0.016(2)
C13 0.068(3) 0.055(3) 0.052(3) 0.014(2) -0.004(3) 0.006(3)
C14 0.066(3) 0.063(3) 0.047(3) 0.009(2) -0.006(2) -0.002(3)
C15 0.050(3) 0.048(3) 0.054(3) 0.012(2) 0.002(2) -0.013(2)
C16 0.046(3) 0.065(3) 0.059(3) 0.007(3) -0.015(2) 0.008(3)
C17 0.047(3) 0.066(3) 0.044(2) -0.015(2) -0.003(2) 0.001(2)
C18 0.043(3) 0.060(3) 0.064(3) -0.025(3) 0.007(2) 0.003(2)
C19 0.034(2) 0.054(3) 0.048(3) -0.011(2) 0.008(2) 0.001(2)
C20 0.038(3) 0.064(3) 0.075(4) -0.026(3) -0.004(3) -0.009(3)
C21 0.067(3) 0.062(3) 0.052(3) 0.017(3) 0.003(3) 0.023(3)
C22 0.057(3) 0.053(3) 0.080(4) 0.010(3) 0.024(3) -0.013(3)
C23 0.048(3) 0.061(3) 0.053(3) -0.011(2) -0.006(2) -0.005(2)
C24 0.043(3) 0.055(3) 0.060(3) -0.009(2) 0.007(2) 0.006(2)
C25 0.086(4) 0.035(2) 0.068(3) 0.007(2) 0.004(3) -0.007(3)
C26 0.065(3) 0.058(3) 0.065(3) 0.009(3) -0.008(3) 0.021(3)
C27 0.047(3) 0.059(3) 0.049(3) 0.000(2) 0.000(2) 0.000(2)
C28 0.044(3) 0.083(4) 0.056(3) -0.014(3) -0.012(2) -0.001(3)
C29 0.054(3) 0.041(3) 0.072(3) -0.008(2) 0.009(3) 0.014(2)
C30 0.058(3) 0.045(3) 0.094(4) -0.021(3) 0.009(3) -0.014(3)
N1 0.051(2) 0.046(2) 0.071(3) -0.001(2) 0.009(2) 0.010(2)
N2 0.059(3) 0.053(2) 0.060(3) 0.013(2) 0.004(2) 0.007(2)
N3 0.053(3) 0.049(3) 0.088(3) -0.017(2) 0.007(2) 0.002(2)
N4 0.055(3) 0.043(2) 0.075(3) 0.000(2) 0.010(2) -0.0006(19)
N5 0.049(2) 0.055(3) 0.061(3) 0.015(2) 0.005(2) 0.013(2)
N6 0.042(2) 0.050(2) 0.054(2) -0.0004(19) -0.0001(17) 0.0026(19)
N7 0.046(2) 0.049(2) 0.068(3) -0.001(2) 0.008(2) -0.0010(19)
N8 0.040(2) 0.053(2) 0.061(2) 0.000(2) -0.0008(19) 0.0031(18)
N9 0.048(2) 0.050(2) 0.058(2) -0.002(2) -0.0020(19) -0.003(2)
N10 0.058(3) 0.043(2) 0.062(3) 0.002(2) 0.002(2) -0.005(2)
N11 0.042(2) 0.047(2) 0.061(2) -0.0035(19) 0.0026(19) 0.0053(18)
N12 0.063(3) 0.047(2) 0.055(2) 0.0055(19) -0.010(2) 0.005(2)
N13 0.053(2) 0.051(2) 0.063(3) -0.003(2) -0.005(2) 0.000(2)
N14 0.043(2) 0.060(3) 0.055(2) 0.004(2) -0.0074(19) 0.000(2)
N15 0.055(3) 0.054(3) 0.063(3) 0.000(2) -0.008(2) 0.004(2)
N16 0.047(2) 0.064(3) 0.053(2) -0.006(2) -0.0077(19) 0.005(2)
N17 0.039(2) 0.062(3) 0.046(2) -0.0067(19) 0.0001(17) -0.0108(19)
N18 0.041(2) 0.051(2) 0.060(2) -0.008(2) 0.0004(18) 0.0005(19)
N19 0.039(2) 0.064(3) 0.067(3) -0.010(2) -0.004(2) -0.002(2)
N20 0.046(2) 0.054(3) 0.077(3) -0.010(2) 0.005(2) 0.001(2)
O1 0.041(2) 0.067(2) 0.077(2) 0.002(2) 0.0031(18) 0.0002(19)
O2 0.044(2) 0.058(2) 0.107(3) -0.016(2) 0.007(2) -0.0085(17)
O3 0.0390(19) 0.076(3) 0.063(2) 0.0092(19) 0.0048(16) 0.0048(17)
O4 0.043(2) 0.070(2) 0.084(3) -0.010(2) -0.0003(19) 0.0016(18)
O5 0.043(2) 0.056(2) 0.074(2) -0.0062(18) 0.0008(17) -0.0128(17)
O6 0.043(2) 0.071(2) 0.065(2) -0.0040(19) -0.0049(17) 0.0026(18)
O7 0.051(2) 0.067(2) 0.066(2) 0.0049(19) -0.0062(18) -0.0094(18)
O8 0.051(2) 0.076(3) 0.076(3) -0.004(2) -0.0062(19) 0.004(2)
O9 0.0461(19) 0.065(2) 0.060(2) 0.0001(18) -0.0054(17) -0.0084(18)
O10 0.043(2) 0.076(3) 0.094(3) -0.029(2) 0.0036(19) -0.0074(19)
O1W 0.072(3) 0.088(3) 0.080(3) -0.004(2) -0.006(2) -0.003(2)
O2W 0.072(3) 0.100(4) 0.124(4) -0.019(3) -0.001(3) -0.005(3)
O3W 0.097(4) 0.180(8) 0.146(6) -0.051(6) 0.006(4) 0.008(5)
O4W 0.149(7) 0.151(8) 0.258(12) -0.035(8) 0.004(8) 0.039(6)
O5W 0.125(5) 0.155(6) 0.105(4) -0.005(4) -0.005(4) 0.028(5)
O6W 0.032(3) 0.101(6) 0.324(16) -0.023(8) 0.054(6) 0.005(4)
O7W 0.032(3) 0.101(6) 0.324(16) -0.023(8) 0.054(6) 0.005(4)
O8W 0.012(4) 0.69(6) 0.111(9) 0.01(2) -0.017(5) -0.019(11)
O9W 0.094(9) 0.34(3) 0.171(15) 0.162(19) 0.054(10) 0.063(14)
C31 0.102(6) 0.088(5) 0.102(6) 0.034(5) 0.020(4) 0.002(5)
F1 0.288(11) 0.223(9) 0.089(4) -0.020(5) 0.067(5) -0.053(8)
F2 0.155(6) 0.198(7) 0.128(5) 0.022(5) -0.014(4) -0.095(6)
F3 0.364(16) 0.170(7) 0.170(8) 0.044(6) -0.061(9) 0.087(10)
S1 0.1177(18) 0.1028(17) 0.1111(17) -0.0052(14) -0.0216(14) -0.0076(15)
O11 0.270(13) 0.143(8) 0.233(11) -0.014(8) -0.114(11) 0.089(9)
O12 0.171(8) 0.135(7) 0.265(13) -0.011(8) 0.029(9) -0.027(7)
O13 0.203(9) 0.167(7) 0.096(4) -0.026(5) 0.030(5) 0.041(7)
C32 0.089(5) 0.058(4) 0.107(5) 0.000(4) -0.008(4) -0.007(4)
F4 0.181(6) 0.087(3) 0.153(5) -0.001(3) 0.064(5) -0.037(4)
F5 0.171(5) 0.081(3) 0.107(4) -0.014(3) 0.026(3) 0.012(3)
F6 0.217(8) 0.137(6) 0.146(5) 0.014(4) -0.054(6) 0.026(5)
S2 0.1154(17) 0.0801(13) 0.0920(13) 0.0103(10) 0.0402(12) 0.0153(12)
O14 0.277(14) 0.320(16) 0.078(5) -0.034(7) -0.052(7) 0.109(13)
O15 0.164(6) 0.076(3) 0.161(6) -0.019(4) 0.093(5) -0.007(4)
O16 0.201(9) 0.081(4) 0.242(10) -0.017(5) 0.135(8) -0.056(5)

_geom_special_details            
;
All esds (except the esd in the dihedral angle between two l.s. planes)
are estimated using the full covariance matrix. The cell esds are taken
into account individually in the estimation of esds in distances, angles
and torsion angles; correlations between esds in cell parameters are only
used when they are defined by crystal symmetry. An approximate (isotropic)
treatment of cell esds is used for estimating esds involving l.s. planes.
;

loop_
_geom_bond_atom_site_label_1
_geom_bond_atom_site_label_2
_geom_bond_distance
_geom_bond_site_symmetry_2
_geom_bond_publ_flag
C1 N1 1.420(7) . ?
C1 N3 1.473(9) . ?
C1 C2 1.538(9) . ?
C1 H1 0.9800 . ?
C2 N4 1.440(8) . ?
C2 N2 1.445(8) . ?
C2 H2 0.9800 . ?
C3 O1 1.207(6) . ?
C3 N2 1.352(7) . ?
C3 N1 1.396(8) . ?
C4 O2 1.230(8) . ?
C4 N3 1.367(7) . ?
C4 N4 1.384(8) . ?
C5 N5 1.428(7) . ?
C5 N7 1.451(7) . ?
C5 C6 1.542(8) . ?
C5 H5 0.9800 . ?
C6 N6 1.427(7) . ?
C6 N8 1.460(7) . ?
C6 H6 0.9800 . ?
C7 O3 1.230(6) . ?
C7 N5 1.357(8) . ?
C7 N6 1.366(7) . ?
C8 O4 1.230(7) . ?
C8 N8 1.344(7) . ?
C8 N7 1.372(7) . ?
C9 N9 1.435(7) . ?
C9 N11 1.457(7) . ?
C9 C10 1.547(9) . ?
C9 H9 0.9800 . ?
C10 N10 1.443(8) . ?
C10 N12 1.451(8) . ?
C10 H10 0.9800 . ?
C11 O5 1.244(7) . ?
C11 N9 1.353(7) . ?
C11 N10 1.346(7) . ?
C12 O6 1.219(6) . ?
C12 N12 1.369(7) . ?
C12 N11 1.364(7) . ?
C13 N13 1.450(7) . ?
C13 N15 1.451(8) . ?
C13 C14 1.548(9) . ?
C13 H13 0.9800 . ?
C14 N16 1.442(7) . ?
C14 N14 1.455(7) . ?
C14 H14 0.9800 . ?
C15 O7 1.220(7) . ?
C15 N13 1.352(7) . ?
C15 N14 1.376(7) . ?
C16 O8 1.204(7) . ?
C16 N15 1.369(8) . ?
C16 N16 1.373(8) . ?
C17 N19 1.442(7) . ?
C17 N17 1.454(7) . ?
C17 C18 1.566(9) . ?
C17 H17 0.9800 . ?
C18 N18 1.435(7) . ?
C18 N20 1.453(7) . ?
C18 H18 0.9800 . ?
C19 O9 1.226(6) . ?
C19 N18 1.353(7) . ?
C19 N17 1.377(7) . ?
C20 O10 1.219(7) . ?
C20 N19 1.356(8) . ?
C20 N20 1.375(8) . ?
C21 N2 1.437(8) . ?
C21 N5 1.452(7) . ?
C21 H21A 0.9700 . ?
C21 H21B 0.9700 . ?
C22 N4 1.424(8) . ?
C22 N7 1.438(8) . ?
C22 H22A 0.9700 . ?
C22 H22B 0.9700 . ?
C23 N6 1.453(7) . ?
C23 N9 1.451(7) . ?
C23 H23A 0.9700 . ?
C23 H23B 0.9700 . ?
C24 N8 1.444(7) . ?
C24 N11 1.472(7) . ?
C24 H24A 0.9700 . ?
C24 H24B 0.9700 . ?
C25 N10 1.449(7) . ?
C25 N13 1.453(8) . ?
C25 H25A 0.9700 . ?
C25 H25B 0.9700 . ?
C26 N15 1.421(8) . ?
C26 N12 1.459(8) . ?
C26 H26A 0.9700 . ?
C26 H26B 0.9700 . ?
C27 N14 1.409(7) . ?
C27 N17 1.453(7) . ?
C27 H27A 0.9700 . ?
C27 H27B 0.9700 . ?
C28 N16 1.438(8) . ?
C28 N19 1.445(8) . ?
C28 H28A 0.9700 . ?
C28 H28B 0.9700 . ?
C29 N18 1.445(7) . ?
C29 N1 1.451(7) . ?
C29 H29A 0.9700 . ?
C29 H29B 0.9700 . ?
C30 N3 1.443(9) . ?
C30 N20 1.455(8) . ?
C30 H30A 0.9700 . ?
C30 H30B 0.9700 . ?
C31 F2 1.267(11) . ?
C31 F3 1.286(12) . ?
C31 F1 1.400(12) . ?
C31 S1 1.738(11) . ?
S1 O12 1.287(11) . ?
S1 O11 1.465(11) . ?
S1 O13 1.489(8) . ?
C32 F5 1.282(9) . ?
C32 F4 1.310(9) . ?
C32 F6 1.340(11) . ?
C32 S2 1.768(9) . ?
S2 O14 1.316(12) . ?
S2 O15 1.397(7) . ?
S2 O16 1.434(8) . ?

loop_
_geom_angle_atom_site_label_1
_geom_angle_atom_site_label_2
_geom_angle_atom_site_label_3
_geom_angle
_geom_angle_site_symmetry_1
_geom_angle_site_symmetry_3
_geom_angle_publ_flag
N1 C1 N3 113.7(5) . . ?
N1 C1 C2 104.7(5) . . ?
N3 C1 C2 102.5(4) . . ?
N1 C1 H1 111.8 . . ?
N3 C1 H1 111.8 . . ?
C2 C1 H1 111.8 . . ?
N4 C2 N2 116.3(5) . . ?
N4 C2 C1 105.0(5) . . ?
N2 C2 C1 102.8(4) . . ?
N4 C2 H2 110.8 . . ?
N2 C2 H2 110.8 . . ?
C1 C2 H2 110.8 . . ?
O1 C3 N2 127.0(5) . . ?
O1 C3 N1 125.4(5) . . ?
N2 C3 N1 107.6(5) . . ?
O2 C4 N3 127.0(6) . . ?
O2 C4 N4 124.5(5) . . ?
N3 C4 N4 108.5(5) . . ?
N5 C5 N7 114.4(5) . . ?
N5 C5 C6 102.1(4) . . ?
N7 C5 C6 103.3(4) . . ?
N5 C5 H5 112.1 . . ?
N7 C5 H5 112.1 . . ?
C6 C5 H5 112.1 . . ?
N6 C6 N8 116.0(4) . . ?
N6 C6 C5 104.2(4) . . ?
N8 C6 C5 102.9(4) . . ?
N6 C6 H6 111.0 . . ?
N8 C6 H6 111.0 . . ?
C5 C6 H6 111.0 . . ?
O3 C7 N5 126.2(5) . . ?
O3 C7 N6 126.4(5) . . ?
N5 C7 N6 107.4(4) . . ?
O4 C8 N8 126.9(5) . . ?
O4 C8 N7 124.6(5) . . ?
N8 C8 N7 108.4(4) . . ?
N9 C9 N11 115.8(4) . . ?
N9 C9 C10 102.8(4) . . ?
N11 C9 C10 102.9(4) . . ?
N9 C9 H9 111.6 . . ?
N11 C9 H9 111.6 . . ?
C10 C9 H9 111.6 . . ?
N10 C10 N12 114.6(4) . . ?
N10 C10 C9 103.5(4) . . ?
N12 C10 C9 103.7(4) . . ?
N10 C10 H10 111.5 . . ?
N12 C10 H10 111.5 . . ?
C9 C10 H10 111.5 . . ?
O5 C11 N9 125.3(5) . . ?
O5 C11 N10 125.4(5) . . ?
N9 C11 N10 109.3(5) . . ?
O6 C12 N12 125.9(5) . . ?
O6 C12 N11 125.5(5) . . ?
N12 C12 N11 108.4(4) . . ?
N13 C13 N15 115.5(4) . . ?
N13 C13 C14 103.2(4) . . ?
N15 C13 C14 104.5(5) . . ?
N13 C13 H13 111.1 . . ?
N15 C13 H13 111.1 . . ?
C14 C13 H13 111.1 . . ?
N16 C14 N14 114.1(4) . . ?
N16 C14 C13 102.7(4) . . ?
N14 C14 C13 103.3(5) . . ?
N16 C14 H14 112.0 . . ?
N14 C14 H14 112.0 . . ?
C13 C14 H14 112.0 . . ?
O7 C15 N13 126.2(5) . . ?
O7 C15 N14 125.2(5) . . ?
N13 C15 N14 108.5(5) . . ?
O8 C16 N15 125.7(6) . . ?
O8 C16 N16 125.6(6) . . ?
N15 C16 N16 108.7(5) . . ?
N19 C17 N17 114.7(4) . . ?
N19 C17 C18 104.5(5) . . ?
N17 C17 C18 102.7(4) . . ?
N19 C17 H17 111.5 . . ?
N17 C17 H17 111.5 . . ?
C18 C17 H17 111.5 . . ?
N18 C18 N20 116.3(4) . . ?
N18 C18 C17 103.5(4) . . ?
N20 C18 C17 101.4(4) . . ?
N18 C18 H18 111.6 . . ?
N20 C18 H18 111.6 . . ?
C17 C18 H18 111.6 . . ?
O9 C19 N18 125.3(5) . . ?
O9 C19 N17 125.7(5) . . ?
N18 C19 N17 109.1(4) . . ?
O10 C20 N19 126.9(6) . . ?
O10 C20 N20 124.5(6) . . ?
N19 C20 N20 108.5(5) . . ?
N2 C21 N5 113.4(4) . . ?
N2 C21 H21A 108.9 . . ?
N5 C21 H21A 108.9 . . ?
N2 C21 H21B 108.9 . . ?
N5 C21 H21B 108.9 . . ?
H21A C21 H21B 107.7 . . ?
N4 C22 N7 114.7(4) . . ?
N4 C22 H22A 108.6 . . ?
N7 C22 H22A 108.6 . . ?
N4 C22 H22B 108.6 . . ?
N7 C22 H22B 108.6 . . ?
H22A C22 H22B 107.6 . . ?
N6 C23 N9 113.4(4) . . ?
N6 C23 H23A 108.9 . . ?
N9 C23 H23A 108.9 . . ?
N6 C23 H23B 108.9 . . ?
N9 C23 H23B 108.9 . . ?
H23A C23 H23B 107.7 . . ?
N8 C24 N11 112.8(4) . . ?
N8 C24 H24A 109.0 . . ?
N11 C24 H24A 109.0 . . ?
N8 C24 H24B 109.0 . . ?
N11 C24 H24B 109.0 . . ?
H24A C24 H24B 107.8 . . ?
N10 C25 N13 114.9(4) . . ?
N10 C25 H25A 108.6 . . ?
N13 C25 H25A 108.6 . . ?
N10 C25 H25B 108.6 . . ?
N13 C25 H25B 108.6 . . ?
H25A C25 H25B 107.5 . . ?
N15 C26 N12 113.5(4) . . ?
N15 C26 H26A 108.9 . . ?
N12 C26 H26A 108.9 . . ?
N15 C26 H26B 108.9 . . ?
N12 C26 H26B 108.9 . . ?
H26A C26 H26B 107.7 . . ?
N14 C27 N17 113.2(4) . . ?
N14 C27 H27A 108.9 . . ?
N17 C27 H27A 108.9 . . ?
N14 C27 H27B 108.9 . . ?
N17 C27 H27B 108.9 . . ?
H27A C27 H27B 107.8 . . ?
N16 C28 N19 113.4(4) . . ?
N16 C28 H28A 108.9 . . ?
N19 C28 H28A 108.9 . . ?
N16 C28 H28B 108.9 . . ?
N19 C28 H28B 108.9 . . ?
H28A C28 H28B 107.7 . . ?
N18 C29 N1 113.9(4) . . ?
N18 C29 H29A 108.8 . . ?
N1 C29 H29A 108.8 . . ?
N18 C29 H29B 108.8 . . ?
N1 C29 H29B 108.8 . . ?
H29A C29 H29B 107.7 . . ?
N3 C30 N20 113.1(5) . . ?
N3 C30 H30A 109.0 . . ?
N20 C30 H30A 109.0 . . ?
N3 C30 H30B 109.0 . . ?
N20 C30 H30B 109.0 . . ?
H30A C30 H30B 107.8 . . ?
C3 N1 C1 111.7(5) . . ?
C3 N1 C29 121.6(5) . . ?
C1 N1 C29 126.7(5) . . ?
C3 N2 C21 120.5(5) . . ?
C3 N2 C2 113.0(5) . . ?
C21 N2 C2 125.7(5) . . ?
C4 N3 C30 121.2(5) . . ?
C4 N3 C1 112.1(5) . . ?
C30 N3 C1 125.7(5) . . ?
C4 N4 C22 121.4(5) . . ?
C4 N4 C2 111.5(5) . . ?
C22 N4 C2 127.0(5) . . ?
C7 N5 C5 113.9(5) . . ?
C7 N5 C21 120.6(4) . . ?
C5 N5 C21 125.2(5) . . ?
C7 N6 C6 112.2(4) . . ?
C7 N6 C23 122.2(4) . . ?
C6 N6 C23 124.9(4) . . ?
C8 N7 C22 121.7(5) . . ?
C8 N7 C5 112.1(4) . . ?
C22 N7 C5 125.3(5) . . ?
C8 N8 C24 123.4(4) . . ?
C8 N8 C6 112.9(4) . . ?
C24 N8 C6 123.7(4) . . ?
C11 N9 C9 112.5(5) . . ?
C11 N9 C23 122.5(5) . . ?
C9 N9 C23 124.9(4) . . ?
C11 N10 C10 111.8(5) . . ?
C11 N10 C25 122.5(5) . . ?
C10 N10 C25 124.9(5) . . ?
C12 N11 C9 112.6(4) . . ?
C12 N11 C24 122.2(4) . . ?
C9 N11 C24 125.0(4) . . ?
C12 N12 C10 112.3(4) . . ?
C12 N12 C26 122.7(5) . . ?
C10 N12 C26 125.0(5) . . ?
C15 N13 C13 113.0(4) . . ?
C15 N13 C25 122.8(5) . . ?
C13 N13 C25 124.1(5) . . ?
C15 N14 C27 123.5(4) . . ?
C15 N14 C14 111.9(5) . . ?
C27 N14 C14 124.5(5) . . ?
C16 N15 C26 123.0(5) . . ?
C16 N15 C13 111.0(5) . . ?
C26 N15 C13 124.9(5) . . ?
C16 N16 C28 121.3(5) . . ?
C16 N16 C14 112.6(5) . . ?
C28 N16 C14 124.6(5) . . ?
C19 N17 C27 121.9(4) . . ?
C19 N17 C17 111.3(4) . . ?
C27 N17 C17 124.2(4) . . ?
C19 N18 C18 112.7(5) . . ?
C19 N18 C29 123.0(4) . . ?
C18 N18 C29 124.2(5) . . ?
C20 N19 C17 112.3(5) . . ?
C20 N19 C28 122.0(5) . . ?
C17 N19 C28 125.5(5) . . ?
C20 N20 C30 122.0(5) . . ?
C20 N20 C18 113.2(5) . . ?
C30 N20 C18 124.6(5) . . ?
F2 C31 F3 115.7(11) . . ?
F2 C31 F1 99.3(9) . . ?
F3 C31 F1 101.1(9) . . ?
F2 C31 S1 116.6(6) . . ?
F3 C31 S1 113.7(9) . . ?
F1 C31 S1 107.7(7) . . ?
O12 S1 O11 127.5(8) . . ?
O12 S1 O13 104.9(7) . . ?
O11 S1 O13 105.9(8) . . ?
O12 S1 C31 110.7(7) . . ?
O11 S1 C31 106.1(6) . . ?
O13 S1 C31 97.6(5) . . ?
F5 C32 F4 110.5(7) . . ?
F5 C32 F6 105.5(8) . . ?
F4 C32 F6 102.8(8) . . ?
F5 C32 S2 114.1(6) . . ?
F4 C32 S2 111.6(6) . . ?
F6 C32 S2 111.6(7) . . ?
O14 S2 O15 115.8(7) . . ?
O14 S2 O16 109.8(9) . . ?
O15 S2 O16 115.9(5) . . ?
O14 S2 C32 104.5(6) . . ?
O15 S2 C32 107.7(4) . . ?
O16 S2 C32 101.2(5) . . ?

_diffrn_measured_fraction_theta_max 0.998
_diffrn_reflns_theta_full        25.02
_diffrn_measured_fraction_theta_full 0.998
_refine_diff_density_max         1.035
_refine_diff_density_min         -0.486
_refine_diff_density_rms         0.117

_vrf_PLAT306_ta121               
;
PROBLEM: Isolated Oxygen Atom (H-atoms Missing ?) ....... O1W
RESPONSE: Due to the poor data quality resulted probably from
disorder of water molecules, H atoms of water molecules can not be
determined from difference Fourier maps.
;
_vrf_PLAT430_ta121               
;
PROBLEM: Short Inter D...A Contact O7W .. O10W .. 2.00 Ang.
RESPONSE: O7W and O10W are disordered with occupancy factors of 0.50
and 0.25, respectively. Thus this short contact is not true.
;
