
#######################################################################
#
#                 Cambridge Crystallographic Data Centre
#                                CCDC 
#
#######################################################################
#
# If this CIF has been generated directly or indirectly from an entry in the 
# Cambridge Structural Database, then it will include bibliographic, chemical, 
# crystal, experimental, refinement or atomic coordinate data resulting from 
# the CCDC's data processing and validation procedures. Files generated from 
# CSD entries are Copyright 2015 Cambridge Crystallographic Data Centre. They 
# may be used in bona fide research applications only, and may not be copied or 
# further disseminated in any form, whether machine-readable or not, except for 
# the purposes of generating routine backup copies on your local computer 
# system.
# 
# Files arising from any other source may also contain material that is the 
# copyright of third parties, including the originator, and you should check 
# with the originator concerning the permitted uses of the information 
# contained in this CIF.
#
# For further information on the CCDC and the free tools enCIFer and Mercury
# for validating and visualising CIF files, please visit www.ccdc.cam.ac.uk
#
#######################################################################

data_MOVBAC
_audit_creation_date             2015-01-26
_database_code_depnum_ccdc_archive 'CCDC 979940'
_chemical_formula_moiety         'C72 H84 N12,11(C1 H4 O1),4(H2 O1)'
_chemical_name_systematic        
'5,12,20,27,35,42,50,57,62,69,74,81-Dodecaazatridecacyclo[29.29.10.10^16,46^.1^3,59^.1^14,18^.1^29,33^.1^44,48^.0^6,11^.0^21,26^.0^36,41^.0^51,56^.0^63,68^.0^75,80^]tetraoctaconta-1,3(71),4,12,14(84),15,17,19,27,29(83),30,32,34,42,44(72),45,47,49,57,59,61,69,73,81-tetracosaene methanol solvate tetrahydrate'
_journal_coden_Cambridge         1441
_journal_volume                  7
_journal_year                    2015
_journal_page_first              153
_journal_name_full               'Nature Chemistry'
loop_
_publ_author_name
M.A.Little
M.E.Briggs
J.T.A.Jones
M.Schmidtmann
T.Hasell
'Samantha Y.Chong'
K.E.Jelfs
'Linjiang Chen'
A.I.Cooper
_chemical_absolute_configuration unk
_diffrn_ambient_temperature      100
_exptl_crystal_density_meas      1.069
_exptl_crystal_density_diffrn    1.068
#These two values have been output from a single CSD field.
_refine_ls_R_factor_gt           0.1152
_refine_ls_wR_factor_gt          0.1152
_diffrn_radiation_probe          x-ray
_symmetry_cell_setting           monoclinic
_symmetry_space_group_name_H-M   'I 2'
_symmetry_Int_Tables_number      5
loop_
_symmetry_equiv_pos_site_id
_symmetry_equiv_pos_as_xyz
1 x,y,z
2 -x,y,-z
3 1/2+x,1/2+y,1/2+z
4 1/2-x,1/2+y,1/2-z
_cell_length_a                   21.6440(9)
_cell_length_b                   19.7822(8)
_cell_length_c                   23.2696(15)
_cell_angle_alpha                90
_cell_angle_beta                 105.7040(10)
_cell_angle_gamma                90
_cell_volume                     9591.35
_exptl_crystal_description       needle
_cell_formula_units_Z            4
loop_
_atom_site_label
_atom_site_type_symbol
_atom_site_fract_x
_atom_site_fract_y
_atom_site_fract_z
N1 N 0.5987(2) 0.8251(2) 0.64478(19)
N2 N 0.5723(2) 0.6972(2) 0.69242(19)
N3 N 0.2895(2) 0.5749(3) 0.5822(2)
N4 N 0.1823(2) 0.6490(2) 0.5086(2)
N5 N 0.35476(18) 0.7764(2) 0.91213(18)
N6 N 0.3823(2) 0.6529(2) 0.8597(2)
N7 N 0.1264(2) 0.9424(2) 0.73526(19)
N8 N 0.0814(2) 0.9171(2) 0.60884(19)
N9 N 0.2607(2) 0.9446(2) 0.43188(19)
N10 N 0.3811(2) 1.0145(3) 0.4818(2)
N11 N 0.4102(2) 1.0751(2) 0.8313(2)
N12 N 0.5035(2) 1.0824(2) 0.7644(2)
C11 C 0.5227(3) 0.9695(3) 0.6924(3)
H41 H 0.5459 0.9682 0.7333
C12 C 0.4797(3) 1.0227(3) 0.6721(3)
C13 C 0.4437(3) 1.0208(3) 0.6117(3)
H42 H 0.4131 1.0553 0.5967
C14 C 0.4520(3) 0.9698(3) 0.5739(3)
C15 C 0.4953(3) 0.9179(3) 0.5965(3)
H43 H 0.4994 0.8813 0.5714
C16 C 0.5324(2) 0.9191(3) 0.6553(2)
C17 C 0.5819(3) 0.8669(3) 0.6782(2)
H44 H 0.6017 0.8649 0.7199
C18 C 0.4708(2) 1.0784(3) 0.7095(3)
H45 H 0.4402 1.1126 0.6931
C19 C 0.4172(3) 0.9684(3) 0.5102(3)
H46 H 0.4224 0.9292 0.4883
C20 C 0.6494(3) 0.7770(3) 0.6721(2)
H47 H 0.6646 0.7858 0.7159
C21 C 0.7057(3) 0.7859(3) 0.6443(3)
H48 H 0.6897 0.7816 0.6004
H49 H 0.7239 0.8318 0.6535
C22 C 0.7574(3) 0.7343(4) 0.6674(3)
H50 H 0.7769 0.7419 0.7106
H51 H 0.7915 0.7398 0.6467
C23 C 0.7309(3) 0.6626(4) 0.6578(3)
H52 H 0.7156 0.6532 0.6145
H53 H 0.7655 0.6300 0.6756
C24 C 0.6760(3) 0.6537(4) 0.6862(3)
H54 H 0.6923 0.6593 0.7299
H55 H 0.6584 0.6075 0.6781
C25 C 0.6228(3) 0.7054(3) 0.6616(2)
H56 H 0.6042 0.6977 0.6178
C26 C 0.4910(3) 1.1394(3) 0.7990(3)
H57 H 0.4561 1.1680 0.7736
C27 C 0.5526(3) 1.1816(3) 0.8204(3)
H58 H 0.5884 1.1520 0.8417
H59 H 0.5639 1.2012 0.7854
C28 C 0.5442(3) 1.2382(3) 0.8618(4)
H60 H 0.5118 1.2705 0.8392
H61 H 0.5853 1.2628 0.8764
C29 C 0.5229(3) 1.2116(3) 0.9156(3)
H62 H 0.5148 1.2501 0.9397
H63 H 0.5575 1.1835 0.9411
C30 C 0.4608(3) 1.1686(3) 0.8939(3)
H64 H 0.4497 1.1486 0.9288
H65 H 0.4249 1.1980 0.8727
C31 C 0.4702(2) 1.1129(3) 0.8525(3)
H66 H 0.5041 1.0814 0.8756
C32 C 0.3527(3) 1.0060(3) 0.4186(3)
H67 H 0.3674 0.9623 0.4051
C33 C 0.3739(3) 1.0650(4) 0.3856(3)
H68 H 0.4211 1.0631 0.3922
H69 H 0.3634 1.1082 0.4022
C34 C 0.3409(4) 1.0628(5) 0.3178(4)
H70 H 0.3536 1.1028 0.2982
H71 H 0.3545 1.0218 0.3002
C35 C 0.2685(4) 1.0622(5) 0.3076(4)
H72 H 0.2547 1.1051 0.3221
H73 H 0.2473 1.0585 0.2643
C36 C 0.2480(3) 1.0036(4) 0.3399(3)
H74 H 0.2594 0.9607 0.3233
H75 H 0.2008 1.0047 0.3326
C37 C 0.2795(3) 1.0051(3) 0.4073(2)
H76 H 0.2649 1.0458 0.4256
C38 C 0.4167(3) 0.6620(3) 0.7702(3)
C39 C 0.4693(3) 0.6752(3) 0.7468(3)
H77 H 0.5080 0.6929 0.7720
C40 C 0.4646(3) 0.6623(3) 0.6867(3)
C41 C 0.4069(3) 0.6392(3) 0.6499(3)
H78 H 0.4033 0.6314 0.6088
C42 C 0.3544(3) 0.6271(3) 0.6720(3)
C43 C 0.3596(3) 0.6389(2) 0.7317(2)
H79 H 0.3236 0.6310 0.7467
C44 C 0.4252(3) 0.6704(3) 0.8344(3)
H80 H 0.4640 0.6896 0.8580
C45 C 0.5196(3) 0.6750(3) 0.6616(3)
H81 H 0.5146 0.6659 0.6205
C46 C 0.2945(3) 0.5967(3) 0.6335(2)
H82 H 0.2582 0.5939 0.6489
C47 C 0.3970(2) 0.6619(3) 0.9245(2)
H83 H 0.4414 0.6806 0.9396
C48 C 0.3940(3) 0.5927(3) 0.9539(3)
H84 H 0.4266 0.5622 0.9454
C49 C 0.4058(3) 0.6002(3) 1.0207(3)
H85 H 0.4006 0.5556 1.0382
H86 H 0.4506 0.6153 1.0382
C50 C 0.3616(3) 0.6490(3) 1.0363(3)
H87 H 0.3730 0.6544 1.0802
H88 H 0.3173 0.6312 1.0231
C51 C 0.3642(3) 0.7188(3) 1.0071(2)
H89 H 0.3324 0.7495 1.0168
H90 H 0.4074 0.7389 1.0231
C52 C 0.3498(2) 0.7110(3) 0.9391(2)
H91 H 0.3052 0.6930 0.9230
C53 C 0.2281(3) 0.5424(3) 0.5510(3)
H92 H 0.1981 0.5446 0.5769
C54 C 0.2389(4) 0.4686(3) 0.5373(3)
H93 H 0.2729 0.4662 0.5162
H94 H 0.2541 0.4435 0.5753
C55 C 0.1793(4) 0.4351(4) 0.4997(4)
H95 H 0.1898 0.3887 0.4896
H96 H 0.1472 0.4319 0.5228
C56 C 0.1513(4) 0.4736(3) 0.4436(3)
H97 H 0.1105 0.4521 0.4215
H98 H 0.1812 0.4718 0.4181
C57 C 0.1389(3) 0.5464(3) 0.4562(3)
H99 H 0.1221 0.5705 0.4178
H100 H 0.1057 0.5482 0.4781
C58 C 0.1984(3) 0.5820(3) 0.4922(3)
H101 H 0.2304 0.5854 0.4683
C59 C 0.1633(3) 0.9020(3) 0.5310(2)
H102 H 0.1536 0.9469 0.5400
C60 C 0.1378(3) 0.8472(3) 0.5567(2)
C61 C 0.1522(3) 0.7820(3) 0.5425(2)
H103 H 0.1351 0.7445 0.5587
C62 C 0.1916(3) 0.7711(3) 0.5046(2)
C63 C 0.2169(3) 0.8247(3) 0.4805(3)
H104 H 0.2442 0.8168 0.4554
C64 C 0.2017(3) 0.8917(3) 0.4937(2)
C65 C 0.2270(2) 0.9493(3) 0.4691(2)
H105 H 0.2179 0.9932 0.4813
C66 C 0.0978(3) 0.8583(3) 0.5961(2)
H106 H 0.0831 0.8202 0.6134
C67 C 0.2075(3) 0.7002(3) 0.4915(2)
H107 H 0.2380 0.6933 0.4694
C68 C 0.0385(2) 0.9219(3) 0.6481(2)
H108 H 0.0341 0.8766 0.6658
C69 C -0.0265(3) 0.9459(3) 0.6098(3)
H109 H -0.0453 0.9110 0.5797
H110 H -0.0208 0.9877 0.5884
C70 C -0.0722(3) 0.9597(4) 0.6482(3)
H111 H -0.1137 0.9763 0.6227
H112 H -0.0802 0.9173 0.6675
C71 C -0.0440(3) 1.0117(3) 0.6955(3)
H113 H -0.0735 1.0193 0.7208
H114 H -0.0385 1.0552 0.6763
C72 C 0.0215(3) 0.9870(3) 0.7343(2)
H115 H 0.0400 1.0218 0.7646
H116 H 0.0151 0.9453 0.7556
C73 C 0.0678(2) 0.9726(3) 0.6977(2)
H117 H 0.0784 1.0156 0.6798
C74 C 0.1788(2) 0.9729(3) 0.7396(2)
H118 H 0.1784 1.0127 0.7167
C75 C 0.2403(2) 0.9493(3) 0.7788(2)
C76 C 0.2946(2) 0.9902(3) 0.7894(2)
H119 H 0.2919 1.0326 0.7697
C77 C 0.3531(2) 0.9699(3) 0.8286(2)
C78 C 0.3567(3) 0.9054(3) 0.8551(2)
H120 H 0.3963 0.8899 0.8804
C79 C 0.3033(3) 0.8649(3) 0.8446(3)
C80 C 0.2459(2) 0.8859(3) 0.8070(2)
H121 H 0.2095 0.8571 0.8000
C81 C 0.4100(2) 1.0132(3) 0.8444(2)
H122 H 0.4494 0.9934 0.8660
C82 C 0.3052(3) 0.7988(3) 0.8751(2)
H123 H 0.2673 0.7721 0.8663
H160? H 0.3512 0.5722 0.9368

#END

