
#######################################################################
#
#                 Cambridge Crystallographic Data Centre
#                                CCDC 
#
#######################################################################
#
# If this CIF has been generated directly or indirectly from an entry in the 
# Cambridge Structural Database, then it will include bibliographic, chemical, 
# crystal, experimental, refinement or atomic coordinate data resulting from 
# the CCDC's data processing and validation procedures. Files generated from 
# CSD entries are Copyright 2015 Cambridge Crystallographic Data Centre. They 
# may be used in bona fide research applications only, and may not be copied or 
# further disseminated in any form, whether machine-readable or not, except for 
# the purposes of generating routine backup copies on your local computer 
# system.
# 
# Files arising from any other source may also contain material that is the 
# copyright of third parties, including the originator, and you should check 
# with the originator concerning the permitted uses of the information 
# contained in this CIF.
#
# For further information on the CCDC and the free tools enCIFer and Mercury
# for validating and visualising CIF files, please visit www.ccdc.cam.ac.uk
#
#######################################################################

data_PUDXES04
_audit_creation_date             2015-01-26
_database_code_depnum_ccdc_archive 'CCDC 979941'
_chemical_formula_moiety         'C72 H84 N12'
_chemical_name_systematic        
5,12,20,27,35,42,50,57,62,69,74,81-Dodecaazatridecacyclo[29.29.10.10^16,46^.1^3,59^.1^14,18^.1^29,33^.1^44,48^.0^6,11^.0^21,26^.0^36,41^.0^51,56^.0^63,68^.0^75,80^]tetraoctaconta-1,3(71),4,12,14(84),15,17,19,27,29(83),30,32,34,42,44(72),45,47,49,57,59,61,69,73,81-tetracosaene
_journal_coden_Cambridge         1441
_journal_volume                  7
_journal_year                    2015
_journal_page_first              153
_journal_name_full               'Nature Chemistry'
loop_
_publ_author_name
M.A.Little
M.E.Briggs
J.T.A.Jones
M.Schmidtmann
T.Hasell
'Samantha Y.Chong'
K.E.Jelfs
'Linjiang Chen'
A.I.Cooper
_chemical_absolute_configuration unk
_diffrn_ambient_temperature      300
_exptl_crystal_density_meas      0.836
_exptl_crystal_density_diffrn    0.836
#These two values have been output from a single CSD field.
_refine_ls_R_factor_gt           0.0907
_refine_ls_wR_factor_gt          0.0907
_diffrn_radiation_probe          x-ray
_symmetry_cell_setting           monoclinic
_symmetry_space_group_name_H-M   'C 2'
_symmetry_Int_Tables_number      5
loop_
_symmetry_equiv_pos_site_id
_symmetry_equiv_pos_as_xyz
1 x,y,z
2 -x,y,-z
3 1/2+x,1/2+y,z
4 1/2-x,1/2+y,-z
_cell_length_a                   33.883(8)
_cell_length_b                   20.467(5)
_cell_length_c                   25.712(6)
_cell_angle_alpha                90
_cell_angle_beta                 95.249(8)
_cell_angle_gamma                90
_cell_volume                     17756.1
_exptl_crystal_colour            colorless
_cell_formula_units_Z            8
_exptl_crystal_preparation       
'The structure undergoes desolvation on heating to 300 K'
loop_
_atom_site_label
_atom_site_type_symbol
_atom_site_fract_x
_atom_site_fract_y
_atom_site_fract_z
N1 N 0.8474(2) 0.7232(3) 1.1163(3)
N2 N 0.8301(2) 0.6417(3) 1.1999(2)
N3 N 0.6869(2) 0.3499(3) 1.0692(3)
N4 N 0.7351(2) 0.3760(4) 1.1621(3)
N5 N 0.9236(3) 0.3739(3) 1.1917(3)
N6 N 0.96206(19) 0.3252(4) 1.1046(3)
N7 N 0.8696(2) 0.2575(3) 0.8851(3)
N8 N 0.78493(19) 0.2502(4) 0.8848(3)
N9 N 0.9739(2) 0.5215(4) 0.9171(3)
N10 N 0.93156(18) 0.6408(3) 0.9151(3)
N11 N 0.7033(2) 0.5340(4) 0.8730(4)
N12 N 0.7450(2) 0.6526(3) 0.9032(2)
C1 C 0.9442(2) 0.3764(4) 1.0227(4)
C2 C 0.9503(2) 0.4272(4) 0.9898(4)
H1 H 0.9651 0.4627 1.0030
C3 C 0.9356(2) 0.4284(4) 0.9380(4)
C4 C 0.9128(2) 0.3755(5) 0.9182(3)
H2 H 0.9025 0.3749 0.8834
C5 C 0.9056(2) 0.3236(4) 0.9514(4)
C6 C 0.9212(3) 0.3236(4) 1.0021(4)
H3 H 0.9165 0.2882 1.0234
C7 C 0.9622(2) 0.3743(5) 1.0754(4)
H4 H 0.9748 0.4118 1.0888
C8 C 0.9456(3) 0.4809(5) 0.9033(3)
H5 H 0.9315 0.4853 0.8708
C9 C 0.8819(3) 0.2655(4) 0.9323(5)
H6 H 0.8759 0.2339 0.9564
C10 C 0.7223(2) 0.3556(5) 0.9931(3)
C11 C 0.7455(2) 0.3212(4) 0.9596(4)
H7 H 0.7551 0.2800 0.9694
C12 C 0.7542(2) 0.3475(4) 0.9128(3)
C13 C 0.7388(2) 0.4079(4) 0.8972(4)
H8 H 0.7431 0.4247 0.8645
C14 C 0.7167(2) 0.4433(4) 0.9309(3)
C15 C 0.7083(2) 0.4159(5) 0.9765(4)
H9 H 0.6923 0.4390 0.9977
C16 C 0.7120(3) 0.3271(4) 1.0421(4)
H10 H 0.7252 0.2893 1.0538
C17 C 0.7753(2) 0.3081(5) 0.8760(3)
H11 H 0.7817 0.3273 0.8451
C18 C 0.6994(3) 0.5071(5) 0.9148(4)
H12 H 0.6845 0.5286 0.9382
C19 C 0.8323(2) 0.6762(4) 1.0322(3)
C20 C 0.8023(2) 0.6646(4) 0.9936(3)
H13 H 0.7760 0.6710 1.0004
C21 C 0.8110(2) 0.6432(4) 0.9442(3)
C22 C 0.8500(3) 0.6375(4) 0.9338(3)
H14 H 0.8561 0.6251 0.9007
C23 C 0.8802(2) 0.6501(4) 0.9725(3)
C24 C 0.8709(2) 0.6709(4) 1.0207(3)
H15 H 0.8912 0.6816 1.0461
C25 C 0.8222(3) 0.7027(4) 1.0824(3)
H16 H 0.7957 0.7040 1.0890
C26 C 0.7808(3) 0.6374(4) 0.9011(3)
H17 H 0.7883 0.6213 0.8696
C27 C 0.9223(2) 0.6470(4) 0.9612(4)
H18 H 0.9422 0.6496 0.9886
C28 C 0.8421(3) 0.5290(4) 1.1813(3)
C29 C 0.8695(3) 0.4809(5) 1.1812(3)
H19 H 0.8960 0.4911 1.1896
C30 C 0.8590(3) 0.4167(4) 1.1688(3)
C31 C 0.8200(3) 0.4020(4) 1.1585(3)
H20 H 0.8130 0.3590 1.1507
C32 C 0.7891(3) 0.4496(4) 1.1591(3)
C33 C 0.8015(3) 0.5137(4) 1.1711(3)
H21 H 0.7827 0.5466 1.1723
C34 C 0.8540(3) 0.5960(5) 1.1959(3)
H22 H 0.8809 0.6049 1.2027
C35 C 0.8891(3) 0.3654(4) 1.1721(4)
H23 H 0.8820 0.3243 1.1590
C36 C 0.7470(3) 0.4329(5) 1.1548(3)
H24 H 0.7284 0.4656 1.1465
C37 C 0.9508(3) 0.3190(5) 1.1955(3)
H25 H 0.9365 0.2780 1.1880
C38 C 0.9720(4) 0.3177(7) 1.2512(4)
H26 H 0.9850 0.3594 1.2587
H27 H 0.9526 0.3113 1.2763
C39 C 1.0024(5) 0.2639(8) 1.2572(6)
H28 H 0.9895 0.2217 1.2523
H29 H 1.0162 0.2651 1.2920
C40 C 1.0322(5) 0.2737(9) 1.2160(7)
H30 H 1.0465 0.3143 1.2233
H31 H 1.0513 0.2383 1.2187
C41 C 1.0126(3) 0.2759(6) 1.1620(5)
H32 H 0.9998 0.2343 1.1537
H33 H 1.0324 0.2830 1.1376
C42 C 0.9822(2) 0.3296(5) 1.1562(4)
H34 H 0.9949 0.3723 1.1616
C43 C 0.9828(2) 0.5739(4) 0.8811(3)
H35 H 0.9666 0.5695 0.8476
C44 C 1.0258(2) 0.5707(5) 0.8736(5)
H36 H 1.0319 0.5297 0.8572
H37 H 1.0414 0.5734 0.9071
C45 C 1.0361(3) 0.6291(8) 0.8381(6)
H38 H 1.0640 0.6276 0.8326
H39 H 1.0209 0.6254 0.8044
C46 C 1.0268(3) 0.6935(6) 0.8631(5)
H40 H 1.0432 0.6987 0.8958
H41 H 1.0324 0.7292 0.8402
C47 C 0.9838(3) 0.6948(5) 0.8732(4)
H42 H 0.9675 0.6922 0.8402
H43 H 0.9779 0.7358 0.8898
C48 C 0.9739(2) 0.6384(4) 0.9080(3)
H44 H 0.9896 0.6415 0.9419
C49 C 0.7186(3) 0.6476(4) 0.8570(3)
H45 H 0.7335 0.6329 0.8283
C50 C 0.7011(3) 0.7153(4) 0.8436(3)
H46 H 0.6884 0.7322 0.8732
H47 H 0.7221 0.7452 0.8364
C51 C 0.6709(5) 0.7109(7) 0.7962(4)
H48 H 0.6597 0.7539 0.7886
H49 H 0.6841 0.6969 0.7662
C52 C 0.6383(4) 0.6641(8) 0.8047(6)
H50 H 0.6201 0.6615 0.7734
H51 H 0.6236 0.6796 0.8330
C53 C 0.6552(3) 0.5972(5) 0.8180(5)
H52 H 0.6340 0.5680 0.8257
H53 H 0.6671 0.5798 0.7880
C54 C 0.6857(3) 0.5995(5) 0.8639(4)
H54 H 0.6726 0.6122 0.8948
C55 C 0.6794(2) 0.3195(4) 1.1173(3)
H55 H 0.6946 0.2788 1.1215
C56 C 0.6362(3) 0.3048(6) 1.1189(4)
H56 H 0.6211 0.3447 1.1126
H57 H 0.6279 0.2742 1.0912
C57 C 0.6272(3) 0.2766(6) 1.1698(4)
H58 H 0.6416 0.2360 1.1761
H59 H 0.5991 0.2673 1.1690
C58 C 0.6390(3) 0.3239(7) 1.2125(4)
H60 H 0.6326 0.3061 1.2457
H61 H 0.6244 0.3644 1.2064
C59 C 0.6846(3) 0.3377(6) 1.2144(4)
H62 H 0.6926 0.3681 1.2423
H63 H 0.6994 0.2974 1.2208
C60 C 0.6933(2) 0.3668(4) 1.1615(3)
H64 H 0.6797 0.4088 1.1562
C61 C 0.8471(2) 0.1963(4) 0.8739(3)
H65 H 0.8438 0.1734 0.9067
C62 C 0.8688(3) 0.1533(4) 0.8391(4)
H66 H 0.8943 0.1414 0.8567
H67 H 0.8734 0.1770 0.8075
C63 C 0.8445(3) 0.0906(5) 0.8244(4)
H68 H 0.8590 0.0627 0.8023
H69 H 0.8399 0.0664 0.8558
C64 C 0.8067(3) 0.1101(5) 0.7968(4)
H70 H 0.7912 0.0714 0.7870
H71 H 0.8116 0.1331 0.7650
C65 C 0.7834(2) 0.1542(4) 0.8310(3)
H72 H 0.7584 0.1662 0.8119
H73 H 0.7775 0.1303 0.8619
C66 C 0.8060(3) 0.2147(4) 0.8470(3)
H74 H 0.8090 0.2422 0.8165
C67 C 0.8331(2) 0.7507(4) 1.1637(3)
H75 H 0.8041 0.7522 1.1592
C68 C 0.8484(3) 0.8188(4) 1.1733(3)
H76 H 0.8394 0.8462 1.1438
H77 H 0.8772 0.8182 1.1762
C69 C 0.8343(3) 0.8474(5) 1.2227(4)
H78 H 0.8464 0.8899 1.2291
H79 H 0.8058 0.8534 1.2179
C70 C 0.8443(3) 0.8049(5) 1.2688(4)
H80 H 0.8318 0.8220 1.2984
H81 H 0.8728 0.8053 1.2777
C71 C 0.8307(3) 0.7351(4) 1.2584(3)
H82 H 0.8394 0.7083 1.2883
H83 H 0.8020 0.7341 1.2542
C72 C 0.8459(2) 0.7071(4) 1.2115(3)
H84 H 0.8749 0.7051 1.2164
N13 N 0.5635(3) 0.4034(4) 0.6569(4)
N14 N 0.5297(2) 0.2775(4) 0.6309(3)
N15 N 0.7266(2) 0.0379(5) 0.6514(3)
N16 N 0.6424(2) 0.0281(4) 0.6400(4)
N17 N 0.5474(2) 0.0942(4) 0.4274(4)
N18 N 0.5872(3) 0.1412(4) 0.3415(3)
N19 N 0.8196(2) 0.1818(4) 0.4871(3)
N20 N 0.7745(3) 0.1903(5) 0.3864(3)
N21 N 0.6335(3) 0.5084(4) 0.4517(4)
N22 N 0.6511(2) 0.4299(5) 0.3630(3)
N23 N 0.7905(2) 0.3387(4) 0.6939(4)
N24 N 0.7482(3) 0.4568(4) 0.6651(3)
C73 C 0.6117(3) 0.4383(4) 0.5997(5)
C74 C 0.6183(3) 0.4549(4) 0.5494(4)
H85 H 0.5973 0.4561 0.5235
C75 C 0.6556(4) 0.4696(4) 0.5374(4)
C76 C 0.6865(3) 0.4679(4) 0.5755(4)
H86 H 0.7120 0.4779 0.5675
C77 C 0.6792(4) 0.4508(4) 0.6271(4)
C78 C 0.6413(4) 0.4375(4) 0.6375(4)
H87 H 0.6360 0.4279 0.6715
C79 C 0.5713(4) 0.4212(5) 0.6123(5)
H88 H 0.5507 0.4237 0.5859
C80 C 0.6623(4) 0.4933(4) 0.4852(4)
H89 H 0.6881 0.4974 0.4762
C81 C 0.7114(4) 0.4489(5) 0.6693(4)
H90 H 0.7040 0.4412 0.7027
C82 C 0.7524(2) 0.1466(5) 0.6395(3)
C83 C 0.7631(3) 0.2067(5) 0.6602(4)
H91 H 0.7571 0.2178 0.6937
C84 C 0.7833(3) 0.2512(5) 0.6302(4)
C85 C 0.7935(3) 0.2334(6) 0.5835(5)
H92 H 0.8088 0.2618 0.5654
C86 C 0.7822(3) 0.1733(6) 0.5608(4)
C87 C 0.7620(3) 0.1304(5) 0.5905(4)
H93 H 0.7548 0.0895 0.5768
C88 C 0.7319(2) 0.0947(6) 0.6701(4)
H94 H 0.7233 0.1048 0.7025
C89 C 0.7970(3) 0.3145(6) 0.6519(5)
H95 H 0.8124 0.3392 0.6312
C90 C 0.7952(3) 0.1514(5) 0.5098(4)
H96 H 0.7844 0.1134 0.4947
C91 C 0.5539(3) 0.1941(4) 0.5458(5)
H97 H 0.5373 0.2288 0.5352
C92 C 0.5687(3) 0.1911(4) 0.5966(4)
C93 C 0.5946(3) 0.1408(5) 0.6131(4)
H98 H 0.6054 0.1382 0.6476
C94 C 0.6038(3) 0.0935(4) 0.5757(5)
C95 C 0.5877(3) 0.0979(5) 0.5257(4)
H99 H 0.5939 0.0662 0.5019
C96 C 0.5625(3) 0.1476(5) 0.5088(4)
C97 C 0.5570(3) 0.2357(5) 0.6377(4)
H100 H 0.5707 0.2328 0.6706
C98 C 0.6313(3) 0.0395(5) 0.5932(5)
H101 H 0.6407 0.0127 0.5679
C99 C 0.5447(2) 0.1449(5) 0.4554(4)
H102 H 0.5309 0.1811 0.4414
C100 C 0.6298(3) 0.2580(5) 0.3620(3)
H103 H 0.6024 0.2618 0.3559
C101 C 0.6484(4) 0.1945(5) 0.3638(4)
C102 C 0.6895(3) 0.1904(5) 0.3710(4)
H104 H 0.7017 0.1497 0.3714
C103 C 0.7123(3) 0.2455(6) 0.3777(3)
C104 C 0.6939(3) 0.3067(5) 0.3760(3)
H105 H 0.7093 0.3442 0.3793
C105 C 0.6529(3) 0.3125(5) 0.3695(3)
C106 C 0.6228(4) 0.1364(5) 0.3559(4)
H106 H 0.6337 0.0951 0.3620
C107 C 0.7557(3) 0.2422(6) 0.3864(4)
H107 H 0.7698 0.2809 0.3922
C108 C 0.6331(3) 0.3774(5) 0.3655(4)
H108 H 0.6056 0.3788 0.3649
C109 C 0.8329(3) 0.1537(5) 0.4405(3)
H109 H 0.8226 0.1092 0.4358
C110 C 0.8769(3) 0.1525(6) 0.4459(4)
H110 H 0.8861 0.1249 0.4752
H111 H 0.8869 0.1963 0.4531
C111 C 0.8930(3) 0.1266(7) 0.3963(5)
H112 H 0.9218 0.1254 0.4010
H113 H 0.8836 0.0825 0.3895
C112 C 0.8801(4) 0.1688(8) 0.3516(5)
H114 H 0.8907 0.1526 0.3203
H115 H 0.8898 0.2130 0.3580
C113 C 0.8349(4) 0.1687(7) 0.3445(4)
H116 H 0.8258 0.1956 0.3147
H117 H 0.8253 0.1246 0.3378
C114 C 0.8185(3) 0.1953(5) 0.3936(3)
H118 H 0.8266 0.2409 0.3994
C115 C 0.6418(3) 0.5352(4) 0.4028(4)
H119 H 0.6703 0.5423 0.4020
C116 C 0.6194(3) 0.6001(5) 0.3961(4)
H120 H 0.5918 0.5931 0.4016
H121 H 0.6304 0.6306 0.4225
C117 C 0.6220(4) 0.6297(5) 0.3427(4)
H122 H 0.6067 0.6697 0.3397
H123 H 0.6494 0.6405 0.3382
C118 C 0.6067(3) 0.5828(6) 0.3009(4)
H124 H 0.6093 0.6018 0.2668
H125 H 0.5788 0.5743 0.3038
C119 C 0.6299(3) 0.5187(5) 0.3062(4)
H126 H 0.6198 0.4887 0.2790
H127 H 0.6576 0.5270 0.3020
C120 C 0.6260(3) 0.4891(4) 0.3582(4)
H128 H 0.5983 0.4777 0.3617
C121 C 0.7748(3) 0.4523(5) 0.7125(4)
H129 H 0.7599 0.4375 0.7413
C122 C 0.8079(3) 0.4040(6) 0.7048(4)
H130 H 0.8217 0.4179 0.6748
C123 C 0.8372(4) 0.4017(6) 0.7524(5)
H131 H 0.8585 0.3720 0.7461
H132 H 0.8241 0.3849 0.7817
C124 C 0.8546(5) 0.4690(9) 0.7667(7)
H133 H 0.8715 0.4662 0.7991
H134 H 0.8706 0.4838 0.7396
C125 C 0.8219(6) 0.5164(9) 0.7725(6)
H135 H 0.8333 0.5595 0.7791
H136 H 0.8084 0.5042 0.8027
C126 C 0.7919(4) 0.5198(6) 0.7251(5)
H137 H 0.8045 0.5363 0.6954
H138 H 0.7707 0.5496 0.7319
C127 C 0.5212(2) 0.3143(5) 0.6780(4)
H139 H 0.5410 0.3036 0.7069
C128 C 0.4807(3) 0.2960(6) 0.6923(5)
H140 H 0.4614 0.3046 0.6628
H141 H 0.4801 0.2495 0.6995
C129 C 0.4689(4) 0.3326(9) 0.7390(6)
H142 H 0.4869 0.3222 0.7694
H143 H 0.4423 0.3204 0.7462
C130 C 0.4707(4) 0.4056(8) 0.7273(5)
H144 H 0.4509 0.4163 0.6989
H145 H 0.4646 0.4302 0.7579
C131 C 0.5115(3) 0.4250(5) 0.7125(4)
H146 H 0.5117 0.4713 0.7044
H147 H 0.5310 0.4172 0.7419
C132 C 0.5225(3) 0.3869(5) 0.6664(4)
H148 H 0.5044 0.3974 0.6356
C133 C 0.7059(3) -0.0094(4) 0.6811(3)
H149 H 0.7004 0.0090 0.7148
C134 C 0.7323(3) -0.0688(5) 0.6890(4)
H150 H 0.7557 -0.0573 0.7118
H151 H 0.7410 -0.0819 0.6556
C135 C 0.7114(4) -0.1273(5) 0.7130(4)
H152 H 0.7279 -0.1659 0.7117
H153 H 0.7082 -0.1181 0.7494
C136 C 0.6726(4) -0.1407(5) 0.6856(5)
H154 H 0.6592 -0.1733 0.7049
H155 H 0.6763 -0.1588 0.6515
C137 C 0.6468(3) -0.0810(5) 0.6787(4)
H156 H 0.6408 -0.0647 0.7125
H157 H 0.6220 -0.0920 0.6587
C138 C 0.6683(3) -0.0289(4) 0.6503(4)
H158 H 0.6747 -0.0468 0.6168
C139 C 0.5617(3) 0.0836(5) 0.3365(4)
H159 H 0.5774 0.0448 0.3471
C140 C 0.5439(4) 0.0748(6) 0.2820(4)
H160 H 0.5647 0.0662 0.2594
H161 H 0.5305 0.1147 0.2702
C141 C 0.5148(5) 0.0192(6) 0.2785(6)
H162 H 0.5034 0.0151 0.2427
H163 H 0.5288 -0.0210 0.2879
C142 C 0.4827(4) 0.0279(7) 0.3128(6)
H164 H 0.4654 -0.0099 0.3099
H165 H 0.4672 0.0661 0.3017
C143 C 0.4990(3) 0.0363(6) 0.3683(5)
H166 H 0.5117 -0.0040 0.3808
H167 H 0.4775 0.0454 0.3897
C144 C 0.5296(3) 0.0930(5) 0.3739(4)
H168 H 0.5159 0.1345 0.3660

#END

