
#######################################################################
#
#                 Cambridge Crystallographic Data Centre
#                                CCDC 
#
#######################################################################
#
# If this CIF has been generated directly or indirectly from an entry in the 
# Cambridge Structural Database, then it will include bibliographic, chemical, 
# crystal, experimental, refinement or atomic coordinate data resulting from 
# the CCDC's data processing and validation procedures. Files generated from 
# CSD entries are Copyright 2014 Cambridge Crystallographic Data Centre. They 
# may be used in bona fide research applications only, and may not be copied or 
# further disseminated in any form, whether machine-readable or not, except for 
# the purposes of generating routine backup copies on your local computer 
# system.
# 
# Files arising from any other source may also contain material that is the 
# copyright of third parties, including the originator, and you should check 
# with the originator concerning the permitted uses of the information 
# contained in this CIF.
#
# For further information on the CCDC and the free tools enCIFer and Mercury
# for validating and visualising CIF files, please visit www.ccdc.cam.ac.uk
#
#######################################################################

data_PUDXES
_audit_creation_date             2009-12-22
_database_code_depnum_ccdc_archive 'CCDC 720850'
_chemical_formula_moiety         'C72 H84 N12'
_chemical_name_systematic        
3,5,9,11,15,17,21,23,26,28,31,33-Dodecaaza-4,10,16,22,27,32(1,2)-hexacyclohexana-1,7,13,19(1,3,5)-tetrabenzenatricyclo[11.11.5.5^7,19^]tetratriacontaphane-2,5,8,11,14,17,20,23,25,28,30,33-dodecaene
_journal_coden_Cambridge         771
_journal_volume                  8
_journal_year                    2009
_journal_page_first              973
_journal_name_full               Nat.Mater
loop_
_publ_author_name
T.Tozawa
J.T.A.Jones
S.I.Swamy
'Shan Jiang'
D.J.Adams
S.Shakespeare
R.Clowes
D.Bradshaw
T.Hasell
S.Y.Chong
'Chiu Tang'
S.Thompson
J.Parker
A.Trewin
J.Bacsa
A.M.Z.Slawin
A.Steiner
A.I.Cooper
_chemical_absolute_configuration unk
_diffrn_ambient_temperature      400
_exptl_crystal_density_meas      0.973
_exptl_crystal_density_diffrn    0.973
#These two values have been output from a single CSD field.
_refine_ls_R_factor_gt           0.0577
_refine_ls_wR_factor_gt          0.0577
_diffrn_radiation_probe          x-ray
_symmetry_cell_setting           cubic
_symmetry_space_group_name_H-M   'F 41 3 2'
_symmetry_Int_Tables_number      210
loop_
_symmetry_equiv_pos_site_id
_symmetry_equiv_pos_as_xyz
1 x,y,z
2 1/4-y,1/4+x,1/4+z
3 -x,-y,z
4 1/4+y,1/4-x,1/4+z
5 1/4+x,1/4-z,1/4+y
6 x,-y,-z
7 1/4+x,1/4+z,1/4-y
8 1/4+z,1/4+y,1/4-x
9 -x,y,-z
10 1/4-z,1/4+y,1/4+x
11 z,x,y
12 y,z,x
13 -y,-z,x
14 z,-x,-y
15 -y,z,-x
16 -z,-x,y
17 -z,x,-y
18 y,-z,-x
19 1/4+y,1/4+x,1/4-z
20 1/4-y,1/4-x,1/4-z
21 1/4-x,1/4+z,1/4+y
22 1/4-x,1/4-z,1/4-y
23 1/4+z,1/4-y,1/4+x
24 1/4-z,1/4-y,1/4-x
25 x,1/2+y,1/2+z
26 1/4-y,3/4+x,3/4+z
27 -x,1/2-y,1/2+z
28 1/4+y,3/4-x,3/4+z
29 1/4+x,3/4-z,3/4+y
30 x,1/2-y,1/2-z
31 1/4+x,3/4+z,3/4-y
32 1/4+z,3/4+y,3/4-x
33 -x,1/2+y,1/2-z
34 1/4-z,3/4+y,3/4+x
35 z,1/2+x,1/2+y
36 y,1/2+z,1/2+x
37 -y,1/2-z,1/2+x
38 z,1/2-x,1/2-y
39 -y,1/2+z,1/2-x
40 -z,1/2-x,1/2+y
41 -z,1/2+x,1/2-y
42 y,1/2-z,1/2-x
43 1/4+y,3/4+x,3/4-z
44 1/4-y,3/4-x,3/4-z
45 1/4-x,3/4+z,3/4+y
46 1/4-x,3/4-z,3/4-y
47 1/4+z,3/4-y,3/4+x
48 1/4-z,3/4-y,3/4-x
49 1/2+x,y,1/2+z
50 3/4-y,1/4+x,3/4+z
51 1/2-x,-y,1/2+z
52 3/4+y,1/4-x,3/4+z
53 3/4+x,1/4-z,3/4+y
54 1/2+x,-y,1/2-z
55 3/4+x,1/4+z,3/4-y
56 3/4+z,1/4+y,3/4-x
57 1/2-x,y,1/2-z
58 3/4-z,1/4+y,3/4+x
59 1/2+z,x,1/2+y
60 1/2+y,z,1/2+x
61 1/2-y,-z,1/2+x
62 1/2+z,-x,1/2-y
63 1/2-y,z,1/2-x
64 1/2-z,-x,1/2+y
65 1/2-z,x,1/2-y
66 1/2+y,-z,1/2-x
67 3/4+y,1/4+x,3/4-z
68 3/4-y,1/4-x,3/4-z
69 3/4-x,1/4+z,3/4+y
70 3/4-x,1/4-z,3/4-y
71 3/4+z,1/4-y,3/4+x
72 3/4-z,1/4-y,3/4-x
73 1/2+x,1/2+y,z
74 3/4-y,3/4+x,1/4+z
75 1/2-x,1/2-y,z
76 3/4+y,3/4-x,1/4+z
77 3/4+x,3/4-z,1/4+y
78 1/2+x,1/2-y,-z
79 3/4+x,3/4+z,1/4-y
80 3/4+z,3/4+y,1/4-x
81 1/2-x,1/2+y,-z
82 3/4-z,3/4+y,1/4+x
83 1/2+z,1/2+x,y
84 1/2+y,1/2+z,x
85 1/2-y,1/2-z,x
86 1/2+z,1/2-x,-y
87 1/2-y,1/2+z,-x
88 1/2-z,1/2-x,y
89 1/2-z,1/2+x,-y
90 1/2+y,1/2-z,-x
91 3/4+y,3/4+x,1/4-z
92 3/4-y,3/4-x,1/4-z
93 3/4-x,3/4+z,1/4+y
94 3/4-x,3/4-z,1/4-y
95 3/4+z,3/4-y,1/4+x
96 3/4-z,3/4-y,1/4-x
_cell_length_a                   24.80(5)
_cell_length_b                   24.80(5)
_cell_length_c                   24.80(5)
_cell_angle_alpha                90
_cell_angle_beta                 90
_cell_angle_gamma                90
_cell_volume                     15253
_exptl_crystal_colour            colorless
_exptl_crystal_description       prism
_cell_formula_units_Z            8
loop_
_atom_site_label
_atom_site_type_symbol
_atom_site_fract_x
_atom_site_fract_y
_atom_site_fract_z
N1 N 0.79496(14) 0.21354(17) 1.02781(18)
C1 C 0.8602(3) 0.19634(19) 1.1218(2)
C2 C 0.8156(2) 0.1655(3) 1.10828(19)
C3 C 0.78274(19) 0.1785(2) 1.0611(2)
C4 C 0.76001(18) 0.22151(14) 0.98142(17)
C5 C 0.7926(2) 0.2106(3) 0.9306(2)
C6 C 0.7587(4) 0.2216(2) 0.8806(2)
H1 H 0.86900 0.22600 1.10060
H2 H 0.75090 0.15940 1.05590
H3 H 0.72940 0.19660 0.98330
H4 H 0.80450 0.17330 0.93040
H5 H 0.82430 0.23350 0.93020
H6 H 0.77960 0.21410 0.84840
H7 H 0.72730 0.19820 0.88040
N1N N 0.78646 0.02781 1.20504
N1O N 0.97219 0.20504 1.21354
N1VB N 0.70504 0.28646 1.02781
N1NA N 0.97219 0.29496 1.28646
N1GB N 0.71354 0.02781 1.29496
N1IB N 0.52781 0.20504 1.28646
N1DC N 0.52781 0.29496 1.21354
N1KC N 0.71354 0.47219 1.20504
N1CA N 0.79496 0.28646 1.47219
N1JA N 0.78646 0.47219 1.29496
N1DB N 0.70504 0.21354 1.47219
C1N C 0.80366 0.1218 1.1398
C1O C 0.8782 0.1398 1.19634
C1VB C 0.6398 0.30366 1.1218
C1NA C 0.8782 0.3602 1.30366
C1GB C 0.69634 0.1218 1.3602
C1IB C 0.6218 0.1398 1.30366
C1DC C 0.6218 0.3602 1.19634
C1KC C 0.69634 0.3782 1.1398
C1CA C 0.8602 0.30366 1.3782
C1JA C 0.80366 0.3782 1.3602
C1DB C 0.6398 0.19634 1.3782
C2N C 0.8345 0.10828 1.1844
C2O C 0.89172 0.1844 1.1655
C2VB C 0.6844 0.3345 1.10828
C2NA C 0.89172 0.3156 1.3345
C2GB C 0.6655 0.10828 1.3156
C2IB C 0.60828 0.1844 1.3345
C2DC C 0.60828 0.3156 1.1655
C2KC C 0.6655 0.39172 1.1844
C2CA C 0.8156 0.3345 1.39172
C2JA C 0.8345 0.39172 1.3156
C2DB C 0.6844 0.1655 1.39172
C3N C 0.8215 0.0611 1.21726
C3O C 0.9389 0.21726 1.1785
C3VB C 0.71726 0.3215 1.0611
C3NA C 0.9389 0.28274 1.3215
C3GB C 0.6785 0.0611 1.28274
C3IB C 0.5611 0.21726 1.3215
C3DC C 0.5611 0.28274 1.1785
C3KC C 0.6785 0.4389 1.21726
C3CA C 0.78274 0.3215 1.4389
C3JA C 0.8215 0.4389 1.28274
C3DB C 0.71726 0.1785 1.4389
C4N C 0.77849 -0.01858 1.23999
C4O C 1.01858 0.23999 1.22151
C4VB C 0.73999 0.27849 0.98142
C4NA C 1.01858 0.26001 1.27849
C4GB C 0.72151 -0.01858 1.26001
C4IB C 0.48142 0.23999 1.27849
C4DC C 0.48142 0.26001 1.22151
C4KC C 0.72151 0.51858 1.23999
C4CA C 0.76001 0.27849 1.51858
C4JA C 0.77849 0.51858 1.26001
C4DB C 0.73999 0.22151 1.51858
C5N C 0.7894 -0.0694 1.2074
C5O C 1.0694 0.2074 1.2106
C5VB C 0.7074 0.2894 0.9306
C5NA C 1.0694 0.2926 1.2894
C5GB C 0.7106 -0.0694 1.2926
C5IB C 0.4306 0.2074 1.2894
C5DC C 0.4306 0.2926 1.2106
C5KC C 0.7106 0.5694 1.2074
C5CA C 0.7926 0.2894 1.5694
C5JA C 0.7894 0.5694 1.2926
C5DB C 0.7074 0.2106 1.5694
C6N C 0.7784 -0.1194 1.2413
C6O C 1.1194 0.2413 1.2216
C6VB C 0.7413 0.2784 0.8806
C6NA C 1.1194 0.2587 1.2784
C6GB C 0.7216 -0.1194 1.2587
C6IB C 0.3806 0.2413 1.2784
C6DC C 0.3806 0.2587 1.2216
C6KC C 0.7216 0.6194 1.2413
C6CA C 0.7587 0.2784 1.6194
C6JA C 0.7784 0.6194 1.2587
C6DB C 0.7413 0.2216 1.6194
H1N H 0.774 0.1006 1.131
H1O H 0.8994 0.131 1.226
H1VB H 0.631 0.274 1.1006
H1NA H 0.8994 0.369 1.274
H1GB H 0.726 0.1006 1.369
H1IB H 0.6006 0.131 1.274
H1DC H 0.6006 0.369 1.226
H1KC H 0.726 0.3994 1.131
H1CA H 0.869 0.274 1.3994
H1JA H 0.774 0.3994 1.369
H1DB H 0.631 0.226 1.3994
H2N H 0.8406 0.0559 1.2491
H2O H 0.9441 0.2491 1.1594
H2VB H 0.7491 0.3406 1.0559
H2NA H 0.9441 0.2509 1.3406
H2GB H 0.6594 0.0559 1.2509
H2IB H 0.5559 0.2491 1.3406
H2DC H 0.5559 0.2509 1.1594
H2KC H 0.6594 0.4441 1.2491
H2CA H 0.7509 0.3406 1.4441
H2JA H 0.8406 0.4441 1.2509
H2DB H 0.7491 0.1594 1.4441
H3N H 0.8034 -0.0167 1.2706
H3O H 1.0167 0.2706 1.1966
H3VB H 0.7706 0.3034 0.9833
H3NA H 1.0167 0.2294 1.3034
H3GB H 0.6966 -0.0167 1.2294
H3IB H 0.4833 0.2706 1.3034
H3DC H 0.4833 0.2294 1.1966
H3KC H 0.6966 0.5167 1.2706
H3CA H 0.7294 0.3034 1.5167
H3JA H 0.8034 0.5167 1.2294
H3DB H 0.7706 0.1966 1.5167
H4N H 0.8267 -0.0696 1.1955
H4O H 1.0696 0.1955 1.1733
H4VB H 0.6955 0.3267 0.9304
H4NA H 1.0696 0.3045 1.3267
H4GB H 0.6733 -0.0696 1.3045
H4IB H 0.4304 0.1955 1.3267
H4DC H 0.4304 0.3045 1.1733
H4KC H 0.6733 0.5696 1.1955
H4CA H 0.8045 0.3267 1.5696
H4JA H 0.8267 0.5696 1.3045
H4DB H 0.6955 0.1733 1.5696
H5N H 0.7665 -0.0698 1.1757
H5O H 1.0698 0.1757 1.2335
H5VB H 0.6757 0.2665 0.9302
H5NA H 1.0698 0.3243 1.2665
H5GB H 0.7335 -0.0698 1.3243
H5IB H 0.4302 0.1757 1.2665
H5DC H 0.4302 0.3243 1.2335
H5KC H 0.7335 0.5698 1.1757
H5CA H 0.8243 0.2665 1.5698
H5JA H 0.7665 0.5698 1.3243
H5DB H 0.6757 0.2335 1.5698
H6N H 0.7859 -0.1516 1.2204
H6O H 1.1516 0.2204 1.2141
H6VB H 0.7204 0.2859 0.8484
H6NA H 1.1516 0.2796 1.2859
H6GB H 0.7141 -0.1516 1.2796
H6IB H 0.3484 0.2204 1.2859
H6DC H 0.3484 0.2796 1.2141
H6KC H 0.7141 0.6516 1.2204
H6CA H 0.7796 0.2859 1.6516
H6JA H 0.7859 0.6516 1.2796
H6DB H 0.7204 0.2141 1.6516
H7N H 0.8018 -0.1196 1.2727
H7O H 1.1196 0.2727 1.1982
H7VB H 0.7727 0.3018 0.8804
H7NA H 1.1196 0.2273 1.3018
H7GB H 0.6982 -0.1196 1.2273
H7IB H 0.3804 0.2727 1.3018
H7DC H 0.3804 0.2273 1.1982
H7KC H 0.6982 0.6196 1.2727
H7CA H 0.7273 0.3018 1.6196
H7JA H 0.8018 0.6196 1.2273
H7DB H 0.7727 0.1982 1.6196

#END

