
#######################################################################
#
#                 Cambridge Crystallographic Data Centre
#                                CCDC 
#
#######################################################################
#
# If this CIF has been generated directly or indirectly from an entry in the 
# Cambridge Structural Database, then it will include bibliographic, chemical, 
# crystal, experimental, refinement or atomic coordinate data resulting from 
# the CCDC's data processing and validation procedures. Files generated from 
# CSD entries are Copyright 2015 Cambridge Crystallographic Data Centre. They 
# may be used in bona fide research applications only, and may not be copied or 
# further disseminated in any form, whether machine-readable or not, except for 
# the purposes of generating routine backup copies on your local computer 
# system.
# 
# Files arising from any other source may also contain material that is the 
# copyright of third parties, including the originator, and you should check 
# with the originator concerning the permitted uses of the information 
# contained in this CIF.
#
# For further information on the CCDC and the free tools enCIFer and Mercury
# for validating and visualising CIF files, please visit www.ccdc.cam.ac.uk
#
#######################################################################

data_PUDXES02
_audit_creation_date             2014-07-11
_database_code_depnum_ccdc_archive 'CCDC 991216'
_chemical_formula_moiety         'C72 H84 N12'
_chemical_name_systematic        
5,12,20,27,35,42,50,57,62,69,74,81-dodecaazatridecacyclo[29.29.10.10^16,46^.1^3,59^.1^14,18^.1^29,33^.1^44,48^.0^6,11^.0^21,26^.0^36,41^.0^51,56^.0^63,68^.0^75,80^]tetraoctaconta-1,3(71),4,12,14(84),15,17,19,27,29(83),30,32,34,42,44(72),45,47,49,57,59,61,69,73,81-tetracosaene
_journal_coden_Cambridge         182
_journal_volume                  50
_journal_year                    2014
_journal_page_first              9465
_journal_name_full               Chem.Commun.
loop_
_publ_author_name
M.A.Little
'Samantha Y.Chong'
M.Schmidtmann
T.Hasell
A.I.Cooper
_chemical_absolute_configuration unk
_diffrn_ambient_temperature      300
_exptl_crystal_density_meas      0.922
_exptl_crystal_density_diffrn    0.922
#These two values have been output from a single CSD field.
_refine_ls_R_factor_gt           0.0689
_refine_ls_wR_factor_gt          0.0689
_diffrn_radiation_probe          x-ray
_symmetry_cell_setting           trigonal
_symmetry_space_group_name_H-M   'P 3'
_symmetry_Int_Tables_number      143
loop_
_symmetry_equiv_pos_site_id
_symmetry_equiv_pos_as_xyz
1 x,y,z
2 -y,x-y,z
3 -x+y,-x,z
_cell_length_a                   25.1483(15)
_cell_length_b                   25.1483(15)
_cell_length_c                   11.0268(7)
_cell_angle_alpha                90
_cell_angle_beta                 90
_cell_angle_gamma                120
_cell_volume                     6039.45
_exptl_crystal_colour            colorless
_exptl_crystal_description       needle
_cell_formula_units_Z            3
loop_
_atom_site_label
_atom_site_type_symbol
_atom_site_fract_x
_atom_site_fract_y
_atom_site_fract_z
N1 N 0.4969(2) 0.2367(3) 1.3323(4)
N2 N 0.4248(2) 0.2035(3) 1.1118(5)
N3 N 0.5187(2) 0.1184(2) 0.6447(4)
N4 N 0.4992(2) 0.3582(2) 0.6219(5)
C1 C 0.6467(3) 0.3752(3) 1.3255(5)
H1 H 0.6335 0.4038 1.3263
C2 C 0.6041(3) 0.3141(3) 1.3249(5)
C3 C 0.5385(3) 0.2928(3) 1.3239(5)
H2 H 0.5263 0.3220 1.3166
C4 C 0.4323(3) 0.2216(3) 1.3268(5)
H3 H 0.4306 0.2587 1.3068
C5 C 0.4000(3) 0.1741(3) 1.2293(5)
H4 H 0.4075 0.1397 1.2409
C6 C 0.3314(3) 0.1506(4) 1.2272(7)
H5 H 0.3118 0.1175 1.1688
H6 H 0.3242 0.1834 1.2021
C7 C 0.3029(4) 0.1272(5) 1.3537(10)
H7 H 0.2596 0.1147 1.3519
H8 H 0.3065 0.0919 1.3758
C8 C 0.3347(4) 0.1764(6) 1.4443(8)
H9 H 0.3166 0.1614 1.5235
H10 H 0.3292 0.2109 1.4238
C9 C 0.4034(3) 0.1981(4) 1.4497(6)
H11 H 0.4231 0.2305 1.5095
H12 H 0.4092 0.1642 1.4740
C10 C 0.4458(3) 0.1805(3) 1.0396(7)
H13 H 0.4464 0.1452 1.0623
C11 C 0.4699(3) 0.2077(3) 0.9191(5)
C12 C 0.4888(3) 0.1787(3) 0.8373(6)
H14 H 0.4874 0.1424 0.8601
C13 C 0.5099(3) 0.2024(3) 0.7216(5)
C14 C 0.5121(3) 0.2568(3) 0.6913(5)
H15 H 0.5276 0.2744 0.6159
C15 C 0.4919(3) 0.2860(3) 0.7703(5)
C16 C 0.4711(3) 0.2611(3) 0.8832(6)
H16 H 0.4576 0.2804 0.9367
C17 C 0.5276(3) 0.1717(3) 0.6322(5)
H17 H 0.5465 0.1929 0.5615
C18 C 0.5370(3) 0.0934(2) 0.5437(5)
H18 H 0.5530 0.1233 0.4774
C19 C 0.4841(3) 0.0346(3) 0.4989(7)
H19 H 0.4529 0.0427 0.4668
H20 H 0.4663 0.0064 0.5664
C20 C 0.4891(3) 0.3407(3) 0.7294(6)
H21 H 0.4796 0.3624 0.7852
C21 C 0.4943(3) 0.4121(3) 0.5905(5)
H22 H 0.4820 0.4265 0.6620
C22 C 0.4453(3) 0.3927(3) 0.4913(6)
H23 H 0.4559 0.3753 0.4233
H24 H 0.4059 0.3615 0.5227
C23 C 0.4408(4) 0.4478(4) 0.4488(7)
H25 H 0.4099 0.4350 0.3858
H26 H 0.4283 0.4639 0.5160
C24 C 0.5016(4) 0.4972(4) 0.4004(7)
H27 H 0.4984 0.5325 0.3759
H28 H 0.5131 0.4821 0.3299
N1A N 0.7633 0.2602 1.3323
N2A N 0.7965 0.2213 1.1118
N3A N 0.8816 0.4003 0.6447
N4A N 0.6418 0.141 0.6219
C1A C 0.6248 0.2715 1.3255
H1A H 0.5962 0.2297 1.3263
C2A C 0.6859 0.29 1.3249
C3A C 0.7072 0.2457 1.3239
H2A H 0.678 0.2043 1.3166
C4A C 0.7784 0.2107 1.3268
H3A H 0.7413 0.1719 1.3068
C5A C 0.8259 0.2259 1.2293
H4A H 0.8603 0.2678 1.2409
C6A C 0.8494 0.1808 1.2272
H5A H 0.8825 0.1943 1.1688
H6A H 0.8166 0.1408 1.2021
C7A C 0.8728 0.1757 1.3537
H7A H 0.8853 0.1449 1.3519
H8A H 0.9081 0.2146 1.3758
C8A C 0.8236 0.1583 1.4443
H9A H 0.8386 0.1552 1.5235
H10A H 0.7891 0.1183 1.4238
C9A C 0.8019 0.2053 1.4497
H11A H 0.7695 0.1926 1.5095
H12A H 0.8358 0.245 1.474
C10A C 0.8195 0.2653 1.0396
H13A H 0.8548 0.3012 1.0623
C11A C 0.7923 0.2622 0.9191
C12A C 0.8213 0.3101 0.8373
H14A H 0.8576 0.345 0.8601
C13A C 0.7976 0.3075 0.7216
C14A C 0.7432 0.2553 0.6913
H15A H 0.7256 0.2532 0.6159
C15A C 0.714 0.2059 0.7703
C16A C 0.7389 0.21 0.8832
H16A H 0.7196 0.1772 0.9367
C17A C 0.8283 0.3559 0.6322
H17A H 0.8071 0.3536 0.5615
C18A C 0.9066 0.4436 0.5437
H18A H 0.8767 0.4297 0.4774
C19A C 0.9654 0.4495 0.4989
H19A H 0.9573 0.4102 0.4668
H20A H 0.9936 0.4599 0.5664
C20A C 0.6593 0.1484 0.7294
H21A H 0.6376 0.1172 0.7852
C21A C 0.5879 0.0822 0.5905
H22A H 0.5735 0.0555 0.662
C22A C 0.6073 0.0526 0.4913
H23A H 0.6247 0.0806 0.4233
H24A H 0.6385 0.0444 0.5227
C23A C 0.5522 -0.007 0.4488
H25A H 0.565 -0.0251 0.3858
H26A H 0.5361 -0.0356 0.516
C24A C 0.5028 0.0044 0.4004
H27A H 0.4675 -0.0341 0.3759
H28A H 0.5179 0.031 0.3299
N1B N 0.7398 0.5031 1.3323
N2B N 0.7787 0.5752 1.1118
N3B N 0.5997 0.4813 0.6447
N4B N 0.859 0.5008 0.6219
C1B C 0.7285 0.3533 1.3255
H1B H 0.7703 0.3665 1.3263
C2B C 0.71 0.3959 1.3249
C3B C 0.7543 0.4615 1.3239
H2B H 0.7957 0.4737 1.3166
C4B C 0.7893 0.5677 1.3268
H3B H 0.8281 0.5694 1.3068
C5B C 0.7741 0.6 1.2293
H4B H 0.7322 0.5925 1.2409
C6B C 0.8192 0.6686 1.2272
H5B H 0.8057 0.6882 1.1688
H6B H 0.8592 0.6758 1.2021
C7B C 0.8243 0.6971 1.3537
H7B H 0.8551 0.7404 1.3519
H8B H 0.7854 0.6935 1.3758
C8B C 0.8417 0.6653 1.4443
H9B H 0.8448 0.6834 1.5235
H10B H 0.8817 0.6708 1.4238
C9B C 0.7947 0.5966 1.4497
H11B H 0.8074 0.5769 1.5095
H12B H 0.755 0.5908 1.474
C10B C 0.7347 0.5542 1.0396
H13B H 0.6988 0.5536 1.0623
C11B C 0.7378 0.5301 0.9191
C12B C 0.6899 0.5112 0.8373
H14B H 0.655 0.5126 0.8601
C13B C 0.6925 0.4901 0.7216
C14B C 0.7447 0.4879 0.6913
H15B H 0.7468 0.4724 0.6159
C15B C 0.7941 0.5081 0.7703
C16B C 0.79 0.5289 0.8832
H16B H 0.8228 0.5424 0.9367
C17B C 0.6441 0.4724 0.6322
H17B H 0.6464 0.4535 0.5615
C18B C 0.5564 0.463 0.5437
H18B H 0.5703 0.447 0.4774
C19B C 0.5505 0.5159 0.4989
H19B H 0.5898 0.5471 0.4668
H20B H 0.5401 0.5337 0.5664
C20B C 0.8516 0.5109 0.7294
H21B H 0.8828 0.5204 0.7852
C21B C 0.9178 0.5057 0.5905
H22B H 0.9445 0.518 0.662
C22B C 0.9474 0.5547 0.4913
H23B H 0.9194 0.5441 0.4233
H24B H 0.9556 0.5941 0.5227
C23B C 1.007 0.5592 0.4488
H25B H 1.0251 0.5901 0.3858
H26B H 1.0356 0.5717 0.516
C24B C 0.9956 0.4984 0.4004
H27B H 1.0341 0.5016 0.3759
H28B H 0.969 0.4869 0.3299
N5 N 0.3639(3) 0.5367(2) 1.0391(4)
N6 N 0.3662(3) 0.4818(3) 0.8111(5)
N7 N 0.5078(3) 0.6441(3) 0.3461(5)
N8 N 0.2234(3) 0.4526(2) 0.3184(5)
C25 C 0.1521(4) 0.3666(4) 0.1902(8)
H29 H 0.1752 0.3893 0.1194
H30 H 0.1692 0.3417 0.2182
C26 C 0.1590(3) 0.4121(3) 0.2905(6)
H31 H 0.1376 0.3892 0.3636
C27 C 0.2393(3) 0.4605(3) 0.4290(7)
H32 H 0.2097 0.4386 0.4876
C28 C 0.3029(3) 0.5030(3) 0.4687(6)
C29 C 0.4065(3) 0.5798(3) 0.4205(5)
C30 C 0.3470(3) 0.5444(3) 0.3881(5)
H33 H 0.3351 0.5478 0.3100
C31 C 0.4241(3) 0.5756(3) 0.5373(5)
H34 H 0.4650 0.5996 0.5600
C32 C 0.3814(3) 0.5357(3) 0.6214(5)
C33 C 0.3205(3) 0.4994(3) 0.5855(6)
H35 H 0.2914 0.4726 0.6406
C34 C 0.4512(3) 0.6191(3) 0.3304(6)
H36 H 0.4369 0.6260 0.2576
C35 C 0.5499(3) 0.6804(3) 0.2481(6)
H37 H 0.5255 0.6790 0.1775
C36 C 0.5900(4) 0.6540(4) 0.2124(9)
H38 H 0.5645 0.6127 0.1812
H39 H 0.6114 0.6515 0.2834
C37 C 0.6373(5) 0.6939(5) 0.1148(10)
H40 H 0.6647 0.6780 0.0992
H41 H 0.6160 0.6916 0.0399
C38 C 0.6747(4) 0.7607(5) 0.1551(10)
H42 H 0.7002 0.7637 0.2238
H43 H 0.7016 0.7852 0.0896
C39 C 0.4015(3) 0.5256(3) 0.7415(6)
H44 H 0.4415 0.5523 0.7668
C40 C 0.3918(3) 0.4734(3) 0.9221(5)
H45 H 0.4346 0.5060 0.9318
C41 C 0.3522(3) 0.4741(3) 1.0280(5)
H46 H 0.3086 0.4461 1.0106
C42 C 0.3702(4) 0.4549(3) 1.1459(6)
H47 H 0.4121 0.4851 1.1667
H48 H 0.3437 0.4538 1.2110
C43 C 0.3647(5) 0.3926(4) 1.1333(7)
H49 H 0.3764 0.3815 1.2091
H50 H 0.3224 0.3620 1.1162
C44 C 0.4054(5) 0.3929(4) 1.0329(7)
H51 H 0.4011 0.3525 1.0252
H52 H 0.4480 0.4221 1.0514
C45 C 0.3873(5) 0.4104(4) 0.9153(6)
H53 H 0.3455 0.3796 0.8953
H54 H 0.4138 0.4109 0.8509
C46 C 0.3196(3) 0.5467(3) 1.0268(5)
H55 H 0.2804 0.5133 1.0155
C47 C 0.3267(3) 0.6083(3) 1.0294(5)
C48 C 0.2760(3) 0.6148(3) 1.0310(5)
H56 H 0.2372 0.5800 1.0332
N5A N 0.4633 0.8272 1.0391
N6A N 0.5182 0.8844 0.8111
N7A N 0.3559 0.8637 0.3461
N8A N 0.5474 0.7708 0.3184
C25A C 0.6334 0.7855 0.1902
H29A H 0.6107 0.7859 0.1194
H30A H 0.6583 0.8275 0.2182
C26A C 0.5879 0.7469 0.2905
H31A H 0.6108 0.7484 0.3636
C27A C 0.5395 0.7788 0.429
H32A H 0.5614 0.7711 0.4876
C28A C 0.497 0.7999 0.4687
C29A C 0.4202 0.8267 0.4205
C30A C 0.4556 0.8026 0.3881
H33A H 0.4522 0.7873 0.31
C31A C 0.4244 0.8485 0.5373
H34A H 0.4004 0.8654 0.56
C32A C 0.4643 0.8457 0.6214
C33A C 0.5006 0.8211 0.5855
H35A H 0.5274 0.8188 0.6406
C34A C 0.3809 0.8321 0.3304
H36A H 0.374 0.8109 0.2576
C35A C 0.3196 0.8695 0.2481
H37A H 0.321 0.8465 0.1775
C36A C 0.346 0.936 0.2124
H38A H 0.3873 0.9518 0.1812
H39A H 0.3485 0.9599 0.2834
C37A C 0.3061 0.9434 0.1148
H40A H 0.322 0.9867 0.0992
H41A H 0.3084 0.9244 0.0399
C38A C 0.2393 0.914 0.1551
H42A H 0.2363 0.9365 0.2238
H43A H 0.2148 0.9164 0.0896
C39A C 0.4744 0.8759 0.7415
H44A H 0.4477 0.8892 0.7668
C40A C 0.5266 0.9184 0.9221
H45A H 0.494 0.9286 0.9318
C41A C 0.5259 0.8781 1.028
H46A H 0.5539 0.8625 1.0106
C42A C 0.5451 0.9153 1.1459
H47A H 0.5149 0.927 1.1667
H48A H 0.5462 0.8899 1.211
C43A C 0.6074 0.9721 1.1333
H49A H 0.6185 0.9949 1.2091
H50A H 0.638 0.9604 1.1162
C44A C 0.6071 1.0125 1.0329
H51A H 0.6475 1.0486 1.0252
H52A H 0.5779 1.0259 1.0514
C45A C 0.5896 0.9769 0.9153
H53A H 0.6204 0.9659 0.8953
H54A H 0.5891 1.0029 0.8509
C46A C 0.4533 0.7729 1.0268
H55A H 0.4867 0.7671 1.0155
C47A C 0.3917 0.7184 1.0294
C48A C 0.3852 0.6612 1.031
H56A H 0.42 0.6572 1.0332
N5B N 0.1728 0.6361 1.0391
N6B N 0.1156 0.6338 0.8111
N7B N 0.1363 0.4922 0.3461
N8B N 0.2292 0.7766 0.3184
C25B C 0.2145 0.8479 0.1902
H29B H 0.2141 0.8248 0.1194
H30B H 0.1725 0.8308 0.2182
C26B C 0.2531 0.841 0.2905
H31B H 0.2516 0.8624 0.3636
C27B C 0.2212 0.7607 0.429
H32B H 0.2289 0.7903 0.4876
C28B C 0.2001 0.6971 0.4687
C29B C 0.1733 0.5935 0.4205
C30B C 0.1974 0.653 0.3881
H33B H 0.2127 0.6649 0.31
C31B C 0.1515 0.5759 0.5373
H34B H 0.1346 0.535 0.56
C32B C 0.1543 0.6186 0.6214
C33B C 0.1789 0.6795 0.5855
H35B H 0.1812 0.7086 0.6406
C34B C 0.1679 0.5488 0.3304
H36B H 0.1891 0.5631 0.2576
C35B C 0.1305 0.4501 0.2481
H37B H 0.1535 0.4745 0.1775
C36B C 0.064 0.41 0.2124
H38B H 0.0482 0.4355 0.1812
H39B H 0.0401 0.3886 0.2834
C37B C 0.0566 0.3627 0.1148
H40B H 0.0133 0.3353 0.0992
H41B H 0.0756 0.384 0.0399
C38B C 0.086 0.3253 0.1551
H42B H 0.0635 0.2998 0.2238
H43B H 0.0836 0.2984 0.0896
C39B C 0.1241 0.5985 0.7415
H44B H 0.1108 0.5585 0.7668
C40B C 0.0816 0.6082 0.9221
H45B H 0.0714 0.5654 0.9318
C41B C 0.1219 0.6478 1.028
H46B H 0.1375 0.6914 1.0106
C42B C 0.0847 0.6298 1.1459
H47B H 0.073 0.5879 1.1667
H48B H 0.1101 0.6563 1.211
C43B C 0.0279 0.6353 1.1333
H49B H 0.0051 0.6236 1.2091
H50B H 0.0396 0.6776 1.1162
C44B C -0.0125 0.5946 1.0329
H51B H -0.0486 0.5989 1.0252
H52B H -0.0259 0.552 1.0514
C45B C 0.0231 0.6127 0.9153
H53B H 0.0341 0.6545 0.8953
H54B H -0.0029 0.5862 0.8509
C46B C 0.2271 0.6804 1.0268
H55B H 0.2329 0.7196 1.0155
C47B C 0.2816 0.6733 1.0294
C48B C 0.3388 0.724 1.031
H56B H 0.3428 0.7628 1.0332
N9 N 0.1334(2) 0.1573(2) 0.5614(5)
N10 N 0.1991(3) 0.2166(2) 0.3414(6)
N11 N 0.2123(3) 0.0809(3) -0.1404(6)
N12 N 0.0496(3) 0.2102(3) -0.1242(5)
C49 C 0.2083(3) 0.0934(3) -0.0331(8)
H57 H 0.2279 0.0835 0.0268
C50 C 0.1726(3) 0.1243(3) 0.0023(7)
C51 C 0.1333(3) 0.1287(3) -0.0793(6)
H58 H 0.1270 0.1100 -0.1549
C52 C 0.1029(3) 0.1605(3) -0.0506(7)
C53 C 0.1100(3) 0.1843(3) 0.0650(7)
H59 H 0.0883 0.2037 0.0868
C54 C 0.1487(3) 0.1800(3) 0.1500(6)
C55 C 0.1791(3) 0.1489(3) 0.1153(8)
H60 H 0.2046 0.1447 0.1710
C56 C 0.0131(3) 0.2179(3) -0.2177(6)
H61 H 0.0088 0.1920 -0.2875
C57 C -0.0501(4) 0.1973(3) -0.1638(7)
H62 H -0.0453 0.2191 -0.0872
C58 C -0.0894(4) 0.2114(4) -0.2521(9)
H63 H -0.0990 0.1856 -0.3234
H64 H -0.1278 0.2017 -0.2130
C59 C -0.0562(6) 0.2776(5) -0.2896(11)
H65 H -0.0813 0.2843 -0.3475
H66 H -0.0506 0.3030 -0.2191
C60 C 0.0049(6) 0.2968(5) -0.3452(10)
H67 H 0.0254 0.3402 -0.3646
H68 H -0.0006 0.2742 -0.4199
C61 C 0.0442(4) 0.2844(4) -0.2576(8)
H69 H 0.0829 0.2951 -0.2964
H70 H 0.0530 0.3104 -0.1868
C62 C 0.0663(3) 0.1712(3) -0.1399(6)
H71 H 0.0549 0.1483 -0.2110
C63 C 0.1570(4) 0.2094(3) 0.2663(7)
H72 H 0.1307 0.2239 0.2878
C64 C 0.2040(3) 0.2486(3) 0.4527(6)
H73 H 0.1716 0.2594 0.4553
C65 C 0.2669(3) 0.3075(3) 0.4564(7)
H74 H 0.2693 0.3349 0.3921
H75 H 0.2990 0.2974 0.4429
C66 C 0.2773(4) 0.3401(4) 0.5798(10)
H76 H 0.3175 0.3768 0.5804
H77 H 0.2468 0.3526 0.5908
C67 C 0.2730(4) 0.2990(5) 0.6827(8)
H78 H 0.2792 0.3204 0.7592
H79 H 0.3047 0.2880 0.6744
C68 C 0.2102(4) 0.2414(4) 0.6816(7)
H80 H 0.1790 0.2525 0.6966
H81 H 0.2081 0.2144 0.7465
C69 C 0.1968(3) 0.2073(3) 0.5614(6)
H82 H 0.2244 0.1906 0.5515
C70 C 0.1226(3) 0.1027(3) 0.5548(6)
H83 H 0.1555 0.0957 0.5494
C71 C 0.0602(3) 0.0501(3) 0.5554(5)
C72 C 0.0497(3) -0.0088(3) 0.5550(6)
H84 H 0.0831 -0.0151 0.5544
N9A N -0.1573 -0.0239 0.5614
N10A N -0.2166 -0.0175 0.3414
N11A N -0.0809 0.1314 -0.1404
N12A N -0.2102 -0.1606 -0.1242
C49A C -0.0934 0.1149 -0.0331
H57A H -0.0835 0.1444 0.0268
C50A C -0.1243 0.0483 0.0023
C51A C -0.1287 0.0046 -0.0793
H58A H -0.11 0.017 -0.1549
C52A C -0.1605 -0.0576 -0.0506
C53A C -0.1843 -0.0743 0.065
H59A H -0.2037 -0.1154 0.0868
C54A C -0.18 -0.0313 0.15
C55A C -0.1489 0.0302 0.1153
H60A H -0.1447 0.0599 0.171
C56A C -0.2179 -0.2048 -0.2177
H61A H -0.192 -0.1832 -0.2875
C57A C -0.1973 -0.2474 -0.1638
H62A H -0.2191 -0.2644 -0.0872
C58A C -0.2114 -0.3008 -0.2521
H63A H -0.1856 -0.2846 -0.3234
H64A H -0.2017 -0.3295 -0.213
C59A C -0.2776 -0.3338 -0.2896
H65A H -0.2843 -0.3656 -0.3475
H66A H -0.303 -0.3536 -0.2191
C60A C -0.2968 -0.2919 -0.3452
H67A H -0.3402 -0.3148 -0.3646
H68A H -0.2742 -0.2748 -0.4199
C61A C -0.2844 -0.2402 -0.2576
H69A H -0.2951 -0.2122 -0.2964
H70A H -0.3104 -0.2574 -0.1868
C62A C -0.1712 -0.1049 -0.1399
H71A H -0.1483 -0.0934 -0.211
C63A C -0.2094 -0.0524 0.2663
H72A H -0.2239 -0.0932 0.2878
C64A C -0.2486 -0.0446 0.4527
H73A H -0.2594 -0.0878 0.4553
C65A C -0.3075 -0.0406 0.4564
H74A H -0.3349 -0.0656 0.3921
H75A H -0.2974 0.0016 0.4429
C66A C -0.3401 -0.0628 0.5798
H76A H -0.3768 -0.0593 0.5804
H77A H -0.3526 -0.1058 0.5908
C67A C -0.299 -0.026 0.6827
H78A H -0.3204 -0.0412 0.7592
H79A H -0.288 0.0167 0.6744
C68A C -0.2414 -0.0312 0.6816
H80A H -0.2525 -0.0735 0.6966
H81A H -0.2144 -0.0063 0.7465
C69A C -0.2073 -0.0105 0.5614
H82A H -0.1906 0.0338 0.5515
C70A C -0.1027 0.0199 0.5548
H83A H -0.0957 0.0598 0.5494
C71A C -0.0501 0.0101 0.5554
C72A C 0.0088 0.0585 0.555
H84A H 0.0151 0.0982 0.5544
N9B N 0.0239 -0.1334 0.5614
N10B N 0.0175 -0.1991 0.3414
N11B N -0.1314 -0.2123 -0.1404
N12B N 0.1606 -0.0496 -0.1242
C49B C -0.1149 -0.2083 -0.0331
H57B H -0.1444 -0.2279 0.0268
C50B C -0.0483 -0.1726 0.0023
C51B C -0.0046 -0.1333 -0.0793
H58B H -0.017 -0.127 -0.1549
C52B C 0.0576 -0.1029 -0.0506
C53B C 0.0743 -0.11 0.065
H59B H 0.1154 -0.0883 0.0868
C54B C 0.0313 -0.1487 0.15
C55B C -0.0302 -0.1791 0.1153
H60B H -0.0599 -0.2046 0.171
C56B C 0.2048 -0.0131 -0.2177
H61B H 0.1832 -0.0088 -0.2875
C57B C 0.2474 0.0501 -0.1638
H62B H 0.2644 0.0453 -0.0872
C58B C 0.3008 0.0894 -0.2521
H63B H 0.2846 0.099 -0.3234
H64B H 0.3295 0.1278 -0.213
C59B C 0.3338 0.0562 -0.2896
H65B H 0.3656 0.0813 -0.3475
H66B H 0.3536 0.0506 -0.2191
C60B C 0.2919 -0.0049 -0.3452
H67B H 0.3148 -0.0254 -0.3646
H68B H 0.2748 0.0006 -0.4199
C61B C 0.2402 -0.0442 -0.2576
H69B H 0.2122 -0.0829 -0.2964
H70B H 0.2574 -0.053 -0.1868
C62B C 0.1049 -0.0663 -0.1399
H71B H 0.0934 -0.0549 -0.211
C63B C 0.0524 -0.157 0.2663
H72B H 0.0932 -0.1307 0.2878
C64B C 0.0446 -0.204 0.4527
H73B H 0.0878 -0.1716 0.4553
C65B C 0.0406 -0.2669 0.4564
H74B H 0.0656 -0.2693 0.3921
H75B H -0.0016 -0.299 0.4429
C66B C 0.0628 -0.2773 0.5798
H76B H 0.0593 -0.3175 0.5804
H77B H 0.1058 -0.2468 0.5908
C67B C 0.026 -0.273 0.6827
H78B H 0.0412 -0.2792 0.7592
H79B H -0.0167 -0.3047 0.6744
C68B C 0.0312 -0.2102 0.6816
H80B H 0.0735 -0.179 0.6966
H81B H 0.0063 -0.2081 0.7465
C69B C 0.0105 -0.1968 0.5614
H82B H -0.0338 -0.2244 0.5515
C70B C -0.0199 -0.1226 0.5548
H83B H -0.0598 -0.1555 0.5494
C71B C -0.0101 -0.0602 0.5554
C72B C -0.0585 -0.0497 0.555
H84B H -0.0982 -0.0831 0.5544

#END

