
#######################################################################
#
#                 Cambridge Crystallographic Data Centre
#                                CCDC 
#
#######################################################################
#
# If this CIF has been generated directly or indirectly from an entry in the 
# Cambridge Structural Database, then it will include bibliographic, chemical, 
# crystal, experimental, refinement or atomic coordinate data resulting from 
# the CCDC's data processing and validation procedures. Files generated from 
# CSD entries are Copyright 2015 Cambridge Crystallographic Data Centre. They 
# may be used in bona fide research applications only, and may not be copied or 
# further disseminated in any form, whether machine-readable or not, except for 
# the purposes of generating routine backup copies on your local computer 
# system.
# 
# Files arising from any other source may also contain material that is the 
# copyright of third parties, including the originator, and you should check 
# with the originator concerning the permitted uses of the information 
# contained in this CIF.
#
# For further information on the CCDC and the free tools enCIFer and Mercury
# for validating and visualising CIF files, please visit www.ccdc.cam.ac.uk
#
#######################################################################

data_SATJEE
_audit_creation_date             2012-07-19
_database_code_depnum_ccdc_archive 'CCDC 860486'
_chemical_formula_moiety         'C88 H64 N6 O6'
_chemical_name_systematic        
"2,2':7,7':11,11'-tris(ethane-1,2-diylbis((6-hydroxy-3,1-phenylene)methylylideneazanylylidene))-bis(triptycene) unknown solvate"
_journal_coden_Cambridge         1220
_journal_volume                  18
_journal_year                    2012
_journal_page_first              4156
_journal_name_full               Chem.-Eur.J.
loop_
_publ_author_name
M.W.Schneider
I.M.Oppel
M.Mastalerz
_chemical_absolute_configuration unk
_diffrn_ambient_temperature      100
_exptl_crystal_density_meas      0.804
_exptl_crystal_density_diffrn    0.804
#These two values have been output from a single CSD field.
_refine_ls_R_factor_gt           0.0876
_refine_ls_wR_factor_gt          0.0876
_diffrn_radiation_probe          x-ray
_symmetry_cell_setting           rhombohedral
_symmetry_space_group_name_H-M   'R -3'
_symmetry_Int_Tables_number      148
loop_
_symmetry_equiv_pos_site_id
_symmetry_equiv_pos_as_xyz
1 x,y,z
2 -y,x-y,z
3 -x+y,-x,z
4 2/3+x,1/3+y,1/3+z
5 2/3-y,1/3+x-y,1/3+z
6 2/3-x+y,1/3-x,1/3+z
7 1/3+x,2/3+y,2/3+z
8 1/3-y,2/3+x-y,2/3+z
9 1/3-x+y,2/3-x,2/3+z
10 -x,-y,-z
11 y,-x+y,-z
12 x-y,x,-z
13 1/3-x,2/3-y,2/3-z
14 1/3+y,2/3-x+y,2/3-z
15 1/3+x-y,2/3+x,2/3-z
16 2/3-x,1/3-y,1/3-z
17 2/3+y,1/3-x+y,1/3-z
18 2/3+x-y,1/3+x,1/3-z
_cell_length_a                   19.129(3)
_cell_length_b                   19.129(3)
_cell_length_c                   50.923(6)
_cell_angle_alpha                90
_cell_angle_beta                 90
_cell_angle_gamma                120
_cell_volume                     16137.2
_exptl_crystal_colour            red
_exptl_crystal_description       cube
_cell_formula_units_Z            6
loop_
_atom_site_label
_atom_site_type_symbol
_atom_site_fract_x
_atom_site_fract_y
_atom_site_fract_z
O1 O 0.31658(13) 0.41838(16) 0.21352(3)
H1 H 0.3112 0.3773 0.2212
O2 O 0.28866(18) 0.3680(2) -0.02116(4)
H2 H 0.3282 0.3642 -0.0264
N1 N 0.42768(16) 0.37880(14) 0.21282(4)
N2 N 0.42978(13) 0.38127(11) -0.01923(3)
C1 C 0.4111(2) 0.36381(16) 0.18784(4)
H3 H 0.4377 0.3423 0.1785
C2 C 0.35552(17) 0.37828(15) 0.17432(4)
C3 C 0.30904(18) 0.40521(19) 0.18725(5)
C4 C 0.2560(2) 0.4190(2) 0.17317(6)
H4 H 0.2248 0.4365 0.1819
C5 C 0.24789(17) 0.40762(19) 0.14629(5)
H5 H 0.2130 0.4195 0.1371
C6 C 0.29150(16) 0.37843(15) 0.13275(5)
C7 C 0.34347(17) 0.36432(15) 0.14691(4)
H6 H 0.3726 0.3445 0.1382
C8 C 0.28146(16) 0.36432(15) 0.10348(4)
H7 H 0.3049 0.3316 0.0983
H8 H 0.2243 0.3341 0.0994
C9 C 0.43266(16) 0.39971(13) 0.00524(4)
H9 H 0.4783 0.4106 0.0149
C10 C 0.36842(17) 0.40420(14) 0.01827(4)
C11 C 0.2976(2) 0.3873(2) 0.00514(5)
C12 C 0.2386(3) 0.3907(3) 0.01834(7)
H10 H 0.1920 0.3806 0.0094
C13 C 0.2451(2) 0.4088(3) 0.04473(6)
H11 H 0.2026 0.4094 0.0534
C14 C 0.31493(19) 0.42638(16) 0.05870(5)
C15 C 0.37481(17) 0.42232(15) 0.04520(4)
H12 H 0.4211 0.4319 0.0542
C16 C 0.31966(18) 0.44019(16) 0.08779(5)
H13 H 0.3759 0.4722 0.0928
H14 H 0.2935 0.4710 0.0920
C17 C 0.6667 0.3333 0.26514(7)
H15 H 0.6667 0.3333 0.2844
C18 C 0.6667 0.3333 0.21479(6)
H16 H 0.6667 0.3333 0.1955
C19 C 0.6018(2) 0.3468(2) 0.25396(4)
C20 C 0.5442(2) 0.3584(2) 0.26693(5)
H17 H 0.5430 0.3582 0.2852
C21 C 0.4886(2) 0.3703(2) 0.25295(5)
H18 H 0.4517 0.3796 0.2620
C22 C 0.4873(2) 0.36861(18) 0.22555(4)
C23 C 0.54451(19) 0.35683(18) 0.21237(4)
H19 H 0.5448 0.3560 0.1941
C24 C 0.6004(2) 0.34640(19) 0.22614(4)
C25 C 0.6667 0.3333 -0.07065(5)
H20 H 0.6667 0.3333 -0.0899
C26 C 0.6667 0.3333 -0.01987(5)
H21 H 0.6667 0.3333 -0.0006
C27 C 0.60341(15) 0.34913(14) -0.03127(3)
C28 C 0.54726(15) 0.36056(14) -0.01747(4)
H22 H 0.5470 0.3603 0.0008
C29 C 0.49058(15) 0.37251(13) -0.03157(4)
C30 C 0.49154(15) 0.37194(13) -0.05887(4)
H23 H 0.4538 0.3793 -0.0681
C31 C 0.54768(15) 0.36056(13) -0.07247(3)
H24 H 0.5478 0.3607 -0.0907
C32 C 0.60305(15) 0.34915(14) -0.05894(3)
O1A O 0.58162 -0.1018 0.21352
O1B O 1.1018 0.68342 0.21352
H1A H 0.6227 -0.0661 0.2212
H1B H 1.0661 0.6888 0.2212
O2A O 0.632 -0.07934 -0.02116
O2B O 1.07934 0.71134 -0.02116
H2A H 0.6358 -0.036 -0.0264
H2B H 1.036 0.6718 -0.0264
N1A N 0.6212 0.04888 0.21282
N1B N 0.95112 0.57232 0.21282
N2A N 0.61873 0.04851 -0.01923
N2B N 0.95149 0.57022 -0.01923
C1A C 0.63619 0.04729 0.18784
C1B C 0.95271 0.5889 0.18784
H3A H 0.6577 0.0954 0.1785
H3B H 0.9046 0.5623 0.1785
C2A C 0.62172 -0.02276 0.17432
C2B C 1.02276 0.64448 0.17432
C3A C 0.59479 -0.09617 0.18725
C3B C 1.09617 0.69096 0.18725
C4A C 0.581 -0.163 0.17317
C4B C 1.163 0.744 0.17317
H4A H 0.5635 -0.2117 0.1819
H4B H 1.2117 0.7752 0.1819
C5A C 0.59238 -0.15973 0.14629
C5B C 1.15973 0.75211 0.14629
H5A H 0.5805 -0.2065 0.1371
H5B H 1.2065 0.787 0.1371
C6A C 0.62157 -0.08693 0.13275
C6B C 1.08693 0.7085 0.13275
C7A C 0.63568 -0.02085 0.14691
C7B C 1.02085 0.65653 0.14691
H6A H 0.6555 0.0281 0.1382
H6B H 0.9719 0.6274 0.1382
C8A C 0.63568 -0.08286 0.10348
C8B C 1.08286 0.71854 0.10348
H7A H 0.6684 -0.0267 0.0983
H7B H 1.0267 0.6951 0.0983
H8A H 0.6659 -0.1098 0.0994
H8B H 1.1098 0.7757 0.0994
C9A C 0.60029 0.03295 0.00524
C9B C 0.96705 0.56734 0.00524
H9A H 0.5894 0.0677 0.0149
H9B H 0.9323 0.5217 0.0149
C10A C 0.5958 -0.03578 0.01827
C10B C 1.03578 0.63158 0.01827
C11A C 0.6127 -0.0897 0.00514
C11B C 1.0897 0.7024 0.00514
C12A C 0.6093 -0.1521 0.01834
C12B C 1.1521 0.7614 0.01834
H10A H 0.6194 -0.1886 0.0094
H10B H 1.1886 0.808 0.0094
C13A C 0.5912 -0.1637 0.04473
C13B C 1.1637 0.7549 0.04473
H11A H 0.5906 -0.2068 0.0534
H11B H 1.2068 0.7974 0.0534
C14A C 0.57362 -0.11145 0.0587
C14B C 1.11145 0.68507 0.0587
C15A C 0.57768 -0.04751 0.0452
C15B C 1.04751 0.62519 0.0452
H12A H 0.5681 -0.0108 0.0542
H12B H 1.0108 0.5789 0.0542
C16A C 0.55981 -0.12053 0.08779
C16B C 1.12053 0.68034 0.08779
H13A H 0.5278 -0.0963 0.0928
H13B H 1.0963 0.6241 0.0928
H14A H 0.529 -0.1775 0.092
H14B H 1.1775 0.7065 0.092
C19A C 0.6532 0.255 0.25396
C19B C 0.745 0.3982 0.25396
C20A C 0.6416 0.1858 0.26693
C20B C 0.8142 0.4558 0.26693
H17A H 0.6418 0.1848 0.2852
H17B H 0.8152 0.457 0.2852
C21A C 0.6297 0.1183 0.25295
C21B C 0.8817 0.5114 0.25295
H18A H 0.6204 0.0721 0.262
H18B H 0.9279 0.5483 0.262
C22A C 0.63139 0.11869 0.22555
C22B C 0.88131 0.5127 0.22555
C23A C 0.64317 0.18768 0.21237
C23B C 0.81232 0.45549 0.21237
H19A H 0.644 0.1888 0.1941
H19B H 0.8112 0.4552 0.1941
C24A C 0.6536 0.254 0.22614
C24B C 0.746 0.3996 0.22614
C27A C 0.65087 0.25428 -0.03127
C27B C 0.74572 0.39659 -0.03127
C28A C 0.63944 0.1867 -0.01747
C28B C 0.8133 0.45274 -0.01747
H22A H 0.6397 0.1867 0.0008
H22B H 0.8133 0.453 0.0008
C29A C 0.62749 0.11807 -0.03157
C29B C 0.88193 0.50942 -0.03157
C30A C 0.62806 0.1196 -0.05887
C30B C 0.8804 0.50846 -0.05887
H23A H 0.6207 0.0745 -0.0681
H23B H 0.9255 0.5462 -0.0681
C31A C 0.63944 0.18712 -0.07247
C31B C 0.81288 0.45232 -0.07247
H24A H 0.6393 0.1871 -0.0907
H24B H 0.8129 0.4522 -0.0907
C32A C 0.65085 0.2539 -0.05894
C32B C 0.7461 0.39695 -0.05894

#END

