
#######################################################################
#
#                 Cambridge Crystallographic Data Centre
#                                CCDC 
#
#######################################################################
#
# If this CIF has been generated directly or indirectly from an entry in the 
# Cambridge Structural Database, then it will include bibliographic, chemical, 
# crystal, experimental, refinement or atomic coordinate data resulting from 
# the CCDC's data processing and validation procedures. Files generated from 
# CSD entries are Copyright 2015 Cambridge Crystallographic Data Centre. They 
# may be used in bona fide research applications only, and may not be copied or 
# further disseminated in any form, whether machine-readable or not, except for 
# the purposes of generating routine backup copies on your local computer 
# system.
# 
# Files arising from any other source may also contain material that is the 
# copyright of third parties, including the originator, and you should check 
# with the originator concerning the permitted uses of the information 
# contained in this CIF.
#
# For further information on the CCDC and the free tools enCIFer and Mercury
# for validating and visualising CIF files, please visit www.ccdc.cam.ac.uk
#
#######################################################################

data_KATJAS
_audit_creation_date             2012-02-24
_database_code_depnum_ccdc_archive 'CCDC 862527'
_chemical_formula_moiety         'C240 H240 N32,80(C1 H2 Cl2)'
_chemical_name_systematic        
'1,4,6,9,12,14,17,20,22,25,28,30,33,36,38,41,44,46,51,53,56,59,61,66,68,71,74,76,81,83,88,90-dotriacontaaza-2,8,10,16,18,24,26,32,34,40,42,48,49,55,57,63,64,70,72,78,79,85,86,92(1,4)-tetracosabenzena-5,13,21,29,37,45,52,60,67,75,82,89(1,2)-dodecacyclohexana-pentacyclo(31.15.15,15^9,41^.7^25,71^.7^17,56^)dononacontaphane-3,6,11,14,19,22,27,30,35,38,43,46,50,53,58,61,65,68,73,76,80,83,87,90-tetracosaene dichloromethane solvate'
_journal_coden_Cambridge         179
_journal_volume                  50
_journal_year                    2011
_journal_page_first              10653
_journal_name_full               Angew.Chem.,Int.Ed.
loop_
_publ_author_name
K.E.Jelfs
'Xiaofeng Wu'
M.Schmidtmann
J.T.A.Jones
J.E.Warren
D.J.Adams
A.I.Cooper
_chemical_absolute_configuration unk
_diffrn_ambient_temperature      100
_exptl_crystal_density_meas      1.304
_exptl_crystal_density_diffrn    1.304
#These two values have been output from a single CSD field.
_refine_ls_R_factor_gt           0.0323
_refine_ls_wR_factor_gt          0.0323
_diffrn_radiation_probe          x-ray
_diffrn_source                   'synchrotron radiation'
_symmetry_cell_setting           cubic
_symmetry_space_group_name_H-M   'P 21 3'
_symmetry_Int_Tables_number      198
loop_
_symmetry_equiv_pos_site_id
_symmetry_equiv_pos_as_xyz
1 x,y,z
2 1/2-x,-y,1/2+z
3 1/2+x,1/2-y,-z
4 z,x,y
5 -x,1/2+y,1/2-z
6 1/2-z,-x,1/2+y
7 1/2+z,1/2-x,-y
8 -z,1/2+x,1/2-y
9 y,z,x
10 1/2+y,1/2-z,-x
11 -y,1/2+z,1/2-x
12 1/2-y,-z,1/2+x
_cell_length_a                   47.2656(14)
_cell_length_b                   47.2656(14)
_cell_length_c                   47.2656(14)
_cell_angle_alpha                90
_cell_angle_beta                 90
_cell_angle_gamma                90
_cell_volume                     105593
_exptl_crystal_colour            'pale yellow'
_exptl_crystal_description       block
_cell_formula_units_Z            8
loop_
_atom_site_label
_atom_site_type_symbol
_atom_site_fract_x
_atom_site_fract_y
_atom_site_fract_z
N13 N 0.21472(4) 0.71472(4) 0.78528(4)
N14 N 0.20317(6) 0.71111(6) 0.56704(6)
N15 N 0.23065(6) 0.92711(6) 0.57641(6)
N16 N 0.44952(4) 0.94952(4) 0.55048(4)
N17 N 0.10070(6) 0.73691(6) 0.71188(5)
N18 N 0.09763(6) 0.73744(7) 0.64989(7)
N19 N 0.23304(7) 0.79047(5) 0.46045(5)
N20 N 0.23753(7) 0.85042(5) 0.46265(6)
N21 N 0.11499(7) 0.90772(9) 0.64707(6)
N22 N 0.29067(7) 0.60836(8) 0.59538(6)
N23 N 0.30153(5) 1.04523(6) 0.58454(6)
N24 N 0.36102(5) 1.04992(4) 0.57984(6)
C81 C 0.19298(5) 0.72461(7) 0.76853(5)
C82 C 0.17264(6) 0.70515(5) 0.75739(5)
C83 C 0.15087(6) 0.71500(8) 0.74189(6)
C84 C 0.14610(7) 0.74166(9) 0.73522(6)
C85 C 0.16580(8) 0.75957(6) 0.74499(6)
C86 C 0.18749(6) 0.75137(6) 0.76269(6)
H47 H 0.1990 0.7656 0.7710
C87 C 0.18107(7) 0.71325(9) 0.58673(7)
C88 C 0.16958(9) 0.68517(7) 0.59540(8)
H48 H 0.1773 0.6677 0.5892
C89 C 0.14465(8) 0.68717(9) 0.61483(7)
H49 H 0.1356 0.6707 0.6219
C90 C 0.13542(7) 0.71375(11) 0.62208(7)
C91 C 0.14597(9) 0.73834(8) 0.61434(7)
H50 H 0.1379 0.7560 0.6198
C92 C 0.17064(7) 0.73604(8) 0.59701(8)
H51 H 0.1803 0.7531 0.5927
C93 C 0.22440(8) 0.68728(7) 0.56911(11)
C94 C 0.23134(8) 0.67490(8) 0.54589(8)
H52 H 0.2235 0.6817 0.5287
C95 C 0.24985(10) 0.65196(9) 0.54472(9)
H53 H 0.2543 0.6421 0.5278
C96 C 0.26140(8) 0.64495(9) 0.57169(15)
C97 C 0.25253(11) 0.65960(10) 0.59512(9)
H54 H 0.2597 0.6549 0.6133
C98 C 0.23449(10) 0.67976(9) 0.59229(9)
H55 H 0.2285 0.6895 0.6088
C99 C 0.20499(9) 0.72855(6) 0.54313(7)
C100 C 0.18024(7) 0.73981(7) 0.53235(7)
H56 H 0.1623 0.7363 0.5408
C101 C 0.18353(8) 0.75764(6) 0.50690(7)
H57 H 0.1672 0.7638 0.4969
C102 C 0.20991(10) 0.76545(7) 0.49763(7)
C103 C 0.23188(7) 0.75576(6) 0.51075(8)
H58 H 0.2499 0.7618 0.5043
C104 C 0.23111(7) 0.73776(8) 0.53296(7)
H59 H 0.2482 0.7315 0.5415
C105 C 0.23716(10) 0.91063(6) 0.55163(8)
C106 C 0.26324(9) 0.90587(7) 0.54430(7)
H60 H 0.2779 0.9150 0.5546
C107 C 0.27095(7) 0.88765(7) 0.52166(9)
H61 H 0.2901 0.8827 0.5183
C108 C 0.24923(11) 0.87734(7) 0.50447(7)
C109 C 0.22287(9) 0.88175(7) 0.51299(8)
H62 H 0.2078 0.8735 0.5026
C110 C 0.21651(8) 0.89823(7) 0.53692(8)
H63 H 0.1974 0.9006 0.5426
C111 C 0.20597(9) 0.91976(9) 0.59394(6)
C112 C 0.20269(7) 0.89184(8) 0.60079(8)
H64 H 0.2160 0.8783 0.5941
C113 C 0.17939(9) 0.88294(7) 0.61792(7)
H65 H 0.1773 0.8638 0.6236
C114 C 0.16089(9) 0.90249(11) 0.62560(9)
C115 C 0.16405(8) 0.92861(10) 0.61903(7)
H66 H 0.1504 0.9418 0.6257
C116 C 0.18688(9) 0.93905(8) 0.60228(7)
H67 H 0.1885 0.9585 0.5973
C117 C 0.24519(8) 0.95160(7) 0.58176(8)
C118 C 0.25254(6) 0.95800(6) 0.61091(8)
H68 H 0.2475 0.9453 0.6256
C119 C 0.26661(6) 0.98204(8) 0.61704(6)
H69 H 0.2696 0.9871 0.6363
C120 C 0.27699(7) 0.99972(7) 0.59548(9)
C121 C 0.27046(7) 0.99276(7) 0.56804(7)
H70 H 0.2773 1.0044 0.5531
C122 C 0.25433(7) 0.96947(9) 0.56163(8)
H71 H 0.2495 0.9659 0.5425
C123 C 0.42885(6) 0.97127(6) 0.55186(8)
C124 C 0.41944(6) 0.98030(6) 0.57791(7)
H72 H 0.4266 0.9721 0.5948
C125 C 0.40008(7) 1.00076(7) 0.57901(7)
H73 H 0.3933 1.0060 0.5972
C126 C 0.38824(7) 1.01586(6) 0.55464(7)
C127 C 0.39924(7) 1.00551(7) 0.52962(7)
H74 H 0.3924 1.0138 0.5126
C128 C 0.41861(6) 0.98503(7) 0.52690(6)
H75 H 0.4254 0.9797 0.5088
C129 C 0.12134(8) 0.75203(6) 0.71935(6)
H76 H 0.1209 0.7715 0.7144
C130 C 0.10783(7) 0.71758(9) 0.64166(8)
H77 H 0.0988 0.7005 0.6471
C131 C 0.28265(9) 0.61845(8) 0.57213(10)
H78 H 0.2891 0.6104 0.5549
C132 C 0.21017(9) 0.78374(7) 0.47214(8)
H79 H 0.1928 0.7905 0.4646
C133 C 0.25609(10) 0.85857(8) 0.48007(8)
H80 H 0.2751 0.8525 0.4775
C134 C 0.13518(10) 0.89298(8) 0.64077(7)
H81 H 0.1344 0.8736 0.6461
C135 C 0.29388(7) 1.02738(7) 0.60203(7)
H82 H 0.2987 1.0308 0.6212
C136 C 0.36993(6) 1.04045(7) 0.55588(7)
H83 H 0.3645 1.0497 0.5389
C137 C 0.07735(6) 0.74926(6) 0.69339(8)
H84 H 0.0836 0.7689 0.6885
C138 C 0.07321(7) 0.73546(8) 0.66738(6)
H85 H 0.0696 0.7150 0.6713
C139 C 0.04947(6) 0.74631(8) 0.65221(7)
H86 H 0.0463 0.7341 0.6355
H87 H 0.0545 0.7654 0.6451
C140 C 0.02043(7) 0.74875(10) 0.66882(7)
H88 H 0.0059 0.7579 0.6568
H89 H 0.0136 0.7297 0.6743
C141 C 0.02608(6) 0.76665(9) 0.69525(8)
H90 H 0.0087 0.7677 0.7069
H91 H 0.0313 0.7861 0.6896
C142 C 0.05114(6) 0.75292(9) 0.71332(6)
H92 H 0.0560 0.7654 0.7294
H93 H 0.0452 0.7343 0.7209
C143 C 0.23270(9) 0.80909(7) 0.43539(6)
H94 H 0.2127 0.8147 0.4312
C144 C 0.24928(10) 0.83374(7) 0.43885(6)
H95 H 0.2694 0.8285 0.4429
C145 C 0.24771(10) 0.85365(7) 0.41073(8)
H96 H 0.2283 0.8612 0.4083
H97 H 0.2610 0.8698 0.4125
C146 C 0.25578(14) 0.83527(9) 0.38545(7)
H98 H 0.2520 0.8463 0.3681
H99 H 0.2764 0.8319 0.3863
C147 C 0.24225(14) 0.80843(9) 0.38237(6)
H100 H 0.2510 0.7981 0.3664
H101 H 0.2220 0.8114 0.3778
C148 C 0.24464(10) 0.79031(6) 0.40936(6)
H102 H 0.2646 0.7850 0.4128
H103 H 0.2334 0.7728 0.4073
C149 C 0.09166(8) 0.89264(8) 0.66300(8)
H104 H 0.0981 0.8728 0.6663
C150 C 0.30832(10) 0.58418(9) 0.59479(9)
H105 H 0.3118 0.5799 0.5744
C151 C 0.29349(7) 0.55884(11) 0.60662(8)
H106 H 0.2847 0.5635 0.6251
H107 H 0.2785 0.5524 0.5935
C152 C 0.31405(8) 0.53750(10) 0.61001(10)
H108 H 0.3045 0.5225 0.6211
H109 H 0.3168 0.5296 0.5908
C153 C 0.34139(9) 0.53946(12) 0.62161(11)
H110 H 0.3524 0.5222 0.6171
H111 H 0.3403 0.5413 0.6424
C154 C 0.06579(8) 0.89129(13) 0.64422(9)
H112 H 0.0704 0.8799 0.6272
H113 H 0.0611 0.9107 0.6378
C155 C 0.31533(7) 1.06958(7) 0.59437(7)
H114 H 0.3207 1.0648 0.6143
C156 C 0.34228(7) 1.07320(6) 0.58009(6)
H115 H 0.3371 1.0759 0.5598
C157 C 0.35725(6) 1.10096(6) 0.58818(6)
H116 H 0.3658 1.0985 0.6071
H117 H 0.3729 1.1042 0.5746
C158 C 0.33877(8) 1.12742(6) 0.58879(9)
H118 H 0.3497 1.1434 0.5967
H119 H 0.3331 1.1325 0.5693
C159 C 0.31265(7) 1.12226(6) 0.60664(10)
H120 H 0.2992 1.1381 0.6042
H121 H 0.3180 1.1213 0.6269
C160 C 0.29789(6) 1.09301(7) 0.59721(8)
H122 H 0.2831 1.0884 0.6113
H123 H 0.2883 1.0962 0.5789
N14G N 0.43296 0.70317 0.78889
N14I N 0.21111 0.93296 0.79683
N15G N 0.42359 0.73065 0.57289
N15I N 0.42711 0.92359 0.76935
N17G N 0.28812 0.6007 0.76309
N17I N 0.23691 0.78812 0.8993
N18G N 0.35011 0.59763 0.76256
N18I N 0.23744 0.85011 0.90237
N19G N 0.53955 0.73304 0.70953
N19I N 0.29047 1.03955 0.76696
N20G N 0.53735 0.73753 0.64958
N20I N 0.35042 1.03735 0.76247
N21G N 0.35293 0.61499 0.59228
N21I N 0.40772 0.85293 0.88501
N22I N 0.10836 0.90462 0.70933
N22G N 0.40462 0.79067 0.89164
N23G N 0.41546 0.80153 0.45477
N23I N 0.54523 0.91546 0.69847
N24G N 0.42016 0.86102 0.45008
N24I N 0.54992 0.92016 0.63898
C81G C 0.23147 0.69298 0.77539
C81I C 0.22461 0.73147 0.80702
C82G C 0.24261 0.67264 0.79485
C82I C 0.20515 0.74261 0.82736
C83G C 0.25811 0.65087 0.785
C83I C 0.215 0.75811 0.84913
C84G C 0.26478 0.6461 0.75834
C84I C 0.24166 0.76478 0.8539
C85I C 0.25957 0.75501 0.8342
C85G C 0.25501 0.6658 0.74043
C86I C 0.25137 0.73731 0.81251
C86G C 0.23731 0.68749 0.74863
H47I H 0.2656 0.729 0.801
H47G H 0.229 0.699 0.7344
C87G C 0.41327 0.68107 0.78675
C87I C 0.21325 0.91327 0.81893
C88G C 0.4046 0.66958 0.81483
C88I C 0.18517 0.9046 0.83042
H48G H 0.4108 0.6773 0.8323
H48I H 0.1677 0.9108 0.8227
C89G C 0.38517 0.64465 0.81283
C89I C 0.18717 0.88517 0.85535
H49G H 0.3781 0.6356 0.8293
H49I H 0.1707 0.8781 0.8644
C90G C 0.37792 0.63542 0.78625
C90I C 0.21375 0.87792 0.86458
C91G C 0.38566 0.64597 0.76166
C91I C 0.23834 0.88566 0.85403
H50G H 0.3802 0.6379 0.744
H50I H 0.256 0.8802 0.8621
C92G C 0.40299 0.67064 0.76396
C92I C 0.23604 0.90299 0.82936
H51G H 0.4073 0.6803 0.7469
H51I H 0.2531 0.9073 0.8197
C93I C 0.18728 0.93089 0.7756
C93G C 0.43089 0.7244 0.81272
C94I C 0.1749 0.95411 0.76866
C94G C 0.45411 0.73134 0.8251
H52I H 0.1817 0.9713 0.7765
H52G H 0.4713 0.7235 0.8183
C95I C 0.15196 0.95528 0.75015
C95G C 0.45528 0.74985 0.84804
H53I H 0.1421 0.9722 0.7457
H53G H 0.4722 0.7543 0.8579
C96I C 0.14495 0.92831 0.7386
C96G C 0.42831 0.7614 0.85505
C97I C 0.1596 0.90488 0.74747
C97G C 0.40488 0.75253 0.8404
H54I H 0.1549 0.8867 0.7403
H54G H 0.3867 0.7597 0.8451
C98I C 0.17976 0.90771 0.76551
C98G C 0.40771 0.73449 0.82024
H55I H 0.1895 0.8912 0.7715
H55G H 0.3912 0.7285 0.8105
C99G C 0.45687 0.70499 0.77145
C99I C 0.22855 0.95687 0.79501
C100G C 0.46765 0.68024 0.76019
C100I C 0.23981 0.96765 0.81976
H56I H 0.2363 0.9592 0.8377
H56G H 0.4592 0.6623 0.7637
C101G C 0.4931 0.68353 0.74236
C101I C 0.25764 0.9931 0.81647
H57I H 0.2638 1.0031 0.8328
H57G H 0.5031 0.6672 0.7362
C102G C 0.50237 0.70991 0.73455
C102I C 0.26545 1.00237 0.79009
C103I C 0.25576 0.98925 0.76812
C103G C 0.48925 0.73188 0.74424
H58I H 0.2618 0.9957 0.7501
H58G H 0.4957 0.7499 0.7382
C104I C 0.23776 0.96704 0.76889
C104G C 0.46704 0.73111 0.76224
H59I H 0.2315 0.9585 0.7518
H59G H 0.4585 0.7482 0.7685
C105G C 0.44837 0.73716 0.58937
C105I C 0.41063 0.94837 0.76284
C106G C 0.4557 0.76324 0.59413
C106I C 0.40587 0.9557 0.73676
H60G H 0.4454 0.7779 0.585
H60I H 0.415 0.9454 0.7221
C107G C 0.47834 0.77095 0.61235
C107I C 0.38765 0.97834 0.72905
H61G H 0.4817 0.7901 0.6173
H61I H 0.3827 0.9817 0.7099
C108G C 0.49553 0.74923 0.62266
C108I C 0.37734 0.99553 0.75077
C109G C 0.48701 0.72287 0.61825
C109I C 0.38175 0.98701 0.77713
H62G H 0.4974 0.7078 0.6265
H62I H 0.3735 0.9974 0.7922
C110G C 0.46308 0.71651 0.60177
C110I C 0.39823 0.96308 0.78349
H63G H 0.4574 0.6974 0.5994
H63I H 0.4006 0.9574 0.8026
C111G C 0.40606 0.70597 0.58024
C111I C 0.41976 0.90606 0.79403
C112G C 0.39921 0.70269 0.60816
C112I C 0.39184 0.89921 0.79731
H64I H 0.3783 0.9059 0.784
H64G H 0.4059 0.716 0.6217
C113G C 0.38208 0.67939 0.61706
C113I C 0.38294 0.88208 0.82061
H65I H 0.3638 0.8764 0.8227
H65G H 0.3764 0.6773 0.6362
C114G C 0.3744 0.66089 0.59751
C114I C 0.40249 0.8744 0.83911
C115I C 0.42861 0.88097 0.83595
C115G C 0.38097 0.66405 0.57139
H66I H 0.4418 0.8743 0.8496
H66G H 0.3743 0.6504 0.5582
C116I C 0.43905 0.89772 0.81312
C116G C 0.39772 0.68688 0.56095
H67I H 0.4585 0.9027 0.8115
H67G H 0.4027 0.6885 0.5415
C117G C 0.41824 0.74519 0.5484
C117I C 0.4516 0.91824 0.75481
C118G C 0.38909 0.75254 0.542
C118I C 0.458 0.88909 0.74746
H68G H 0.3744 0.7475 0.5547
H68I H 0.4453 0.8744 0.7525
C119G C 0.38296 0.76661 0.51796
C119I C 0.48204 0.88296 0.73339
H69G H 0.3637 0.7696 0.5129
H69I H 0.4871 0.8637 0.7304
C120G C 0.40452 0.77699 0.50028
C120I C 0.49972 0.90452 0.72301
C121G C 0.43196 0.77046 0.50724
C121I C 0.49276 0.93196 0.72954
H70G H 0.4469 0.7773 0.4956
H70I H 0.5044 0.9469 0.7227
C122G C 0.43837 0.75433 0.53053
C122I C 0.46947 0.93837 0.74567
H71G H 0.4575 0.7495 0.5341
H71I H 0.4659 0.9575 0.7505
C123G C 0.44814 0.92885 0.52873
C123I C 0.47127 0.94814 0.57115
C124G C 0.42209 0.91944 0.5197
C124I C 0.4803 0.92209 0.58056
H72G H 0.4052 0.9266 0.5279
H72I H 0.4721 0.9052 0.5734
C125G C 0.42099 0.90008 0.49924
C125I C 0.50076 0.92099 0.59992
H73G H 0.4028 0.8933 0.494
H73I H 0.506 0.9028 0.6067
C126G C 0.44536 0.88824 0.48414
C126I C 0.51586 0.94536 0.61176
C127G C 0.47038 0.89924 0.49449
C127I C 0.50551 0.97038 0.60076
H74G H 0.4874 0.8924 0.4862
H74I H 0.5138 0.9874 0.6076
C128G C 0.4731 0.91861 0.51497
C128I C 0.48503 0.9731 0.58139
H75G H 0.4912 0.9254 0.5203
H75I H 0.4797 0.9912 0.5746
C129G C 0.28065 0.62134 0.74797
C129I C 0.25203 0.78065 0.87866
H76I H 0.2715 0.7856 0.8791
H76G H 0.2856 0.6209 0.7285
C130G C 0.35834 0.60783 0.78242
C130I C 0.21758 0.85834 0.89217
H77I H 0.2005 0.8529 0.9012
H77G H 0.3529 0.5988 0.7995
C131I C 0.11845 0.92787 0.71735
C131G C 0.42787 0.78265 0.88155
H78G H 0.4451 0.7891 0.8896
H78I H 0.1104 0.9451 0.7109
C132G C 0.52786 0.71017 0.71626
C132I C 0.28374 1.02786 0.78983
H79I H 0.2905 1.0354 0.8072
H79G H 0.5354 0.6928 0.7095
C133G C 0.51993 0.75609 0.64143
C133I C 0.35857 1.01993 0.74391
H80I H 0.3525 1.0225 0.7249
H80G H 0.5225 0.7751 0.6475
C134G C 0.35923 0.63518 0.60702
C134I C 0.39298 0.85923 0.86482
H81I H 0.3736 0.8539 0.8656
H81G H 0.3539 0.6344 0.6264
C135G C 0.39797 0.79388 0.47262
C135I C 0.52738 0.89797 0.70612
H82G H 0.3788 0.7987 0.4692
H82I H 0.5308 0.8788 0.7013
C136G C 0.44412 0.86993 0.45955
C136I C 0.54045 0.94412 0.63007
H83G H 0.4611 0.8645 0.4503
H83I H 0.5497 0.9611 0.6355
C137G C 0.30661 0.57735 0.75074
C137I C 0.24926 0.80661 0.92265
H84I H 0.2689 0.8115 0.9164
H84G H 0.3115 0.5836 0.7311
C138G C 0.33262 0.57321 0.76454
C138I C 0.23546 0.83262 0.92679
H85I H 0.215 0.8287 0.9304
H85G H 0.3287 0.5696 0.785
C139I C 0.24631 0.84779 0.95053
C139G C 0.34779 0.54947 0.75369
H86I H 0.2341 0.8645 0.9537
H86G H 0.3645 0.5463 0.7659
H87I H 0.2654 0.8549 0.9455
H87G H 0.3549 0.5545 0.7346
C140I C 0.24875 0.83118 0.97957
C140G C 0.33118 0.52043 0.75125
H88I H 0.2579 0.8432 0.9941
H88G H 0.3432 0.5059 0.7421
H89I H 0.2297 0.8257 0.9864
H89G H 0.3257 0.5136 0.7703
C141I C 0.26665 0.80475 0.97392
C141G C 0.30475 0.52608 0.73335
H90I H 0.2677 0.7931 0.9913
H90G H 0.2931 0.5087 0.7323
H91I H 0.2861 0.8104 0.9687
H91G H 0.3104 0.5313 0.7139
C142I C 0.25292 0.78668 0.94886
C142G C 0.28668 0.55114 0.74708
H92I H 0.2654 0.7706 0.944
H92G H 0.2706 0.556 0.7346
H93I H 0.2343 0.7791 0.9548
H93G H 0.2791 0.5452 0.7657
C143G C 0.56461 0.7327 0.69091
C143I C 0.30909 1.06461 0.7673
H94I H 0.3147 1.0688 0.7873
H94G H 0.5688 0.7127 0.6853
C144G C 0.56115 0.74928 0.66626
C144I C 0.33374 1.06115 0.75072
H95I H 0.3285 1.0571 0.7306
H95G H 0.5571 0.7694 0.6715
C145I C 0.35365 1.08927 0.75229
C145G C 0.58927 0.74771 0.64635
H96I H 0.3612 1.0917 0.7717
H96G H 0.5917 0.7283 0.6388
H97I H 0.3698 1.0875 0.739
H97G H 0.5875 0.761 0.6302
C146I C 0.33527 1.11455 0.74422
C146G C 0.61455 0.75578 0.66473
H98I H 0.3463 1.1319 0.748
H98G H 0.6319 0.752 0.6537
H99I H 0.3319 1.1137 0.7236
H99G H 0.6137 0.7764 0.6681
C147I C 0.30843 1.11763 0.75775
C147G C 0.61763 0.74225 0.69157
H100I H 0.2981 1.1336 0.749
H100G H 0.6336 0.751 0.7019
H101I H 0.3114 1.1222 0.778
H101G H 0.6222 0.722 0.6886
C148I C 0.29031 1.09064 0.75536
C148G C 0.59064 0.74464 0.70969
H102I H 0.285 1.0872 0.7354
H102G H 0.5872 0.7646 0.715
H103I H 0.2728 1.0927 0.7666
H103G H 0.5927 0.7334 0.7272
C149G C 0.337 0.59166 0.60736
C149I C 0.39264 0.837 0.90834
H104I H 0.3728 0.8337 0.9019
H104G H 0.3337 0.5981 0.6272
C150I C 0.08418 0.90521 0.69168
C150G C 0.40521 0.80832 0.91582
H105G H 0.4256 0.8118 0.9201
H105I H 0.0799 0.9256 0.6882
C151G C 0.39338 0.79349 0.94116
C151I C 0.05884 0.89338 0.70651
H106G H 0.3749 0.7847 0.9365
H106I H 0.0635 0.8749 0.7153
H107G H 0.4065 0.7785 0.9476
H107I H 0.0524 0.9065 0.7215
C152G C 0.38999 0.81405 0.9625
C152I C 0.0375 0.88999 0.68595
H108G H 0.3789 0.8045 0.9775
H108I H 0.0225 0.8789 0.6955
H109G H 0.4092 0.8168 0.9704
H109I H 0.0296 0.9092 0.6832
C153G C 0.37839 0.84139 0.96054
C153I C 0.03946 0.87839 0.65861
H110G H 0.3829 0.8524 0.9778
H110I H 0.0222 0.8829 0.6476
H111G H 0.3576 0.8403 0.9587
H111I H 0.0413 0.8576 0.6597
C154I C 0.39129 0.85578 0.93421
C154G C 0.35578 0.56579 0.60871
H112I H 0.3799 0.8728 0.9296
H112G H 0.3728 0.5704 0.6201
H113I H 0.4107 0.8622 0.9389
H113G H 0.3622 0.5611 0.5893
C155G C 0.40563 0.81533 0.43042
C155I C 0.56958 0.90563 0.68467
H114G H 0.3857 0.8207 0.4352
H114I H 0.5648 0.8857 0.6793
C156G C 0.41991 0.84228 0.4268
C156I C 0.5732 0.91991 0.65772
H115G H 0.4402 0.8371 0.4241
H115I H 0.5759 0.9402 0.6629
C157G C 0.41182 0.85725 0.39904
C157I C 0.60096 0.91182 0.64275
H116G H 0.3929 0.8658 0.4015
H116I H 0.5985 0.8929 0.6342
H117G H 0.4254 0.8729 0.3958
H117I H 0.6042 0.9254 0.6271
C158G C 0.41121 0.83877 0.37258
C158I C 0.62742 0.91121 0.66123
H118G H 0.4033 0.8497 0.3566
H118I H 0.6434 0.9033 0.6503
H119G H 0.4307 0.8331 0.3675
H119I H 0.6325 0.9307 0.6669
C159G C 0.39336 0.81265 0.37774
C159I C 0.62226 0.89336 0.68735
H120G H 0.3958 0.7992 0.3619
H120I H 0.6381 0.8958 0.7008
H121G H 0.3731 0.818 0.3787
H121I H 0.6213 0.8731 0.682
C160G C 0.40279 0.79789 0.40699
C160I C 0.59301 0.90279 0.70211
H122G H 0.3887 0.7831 0.4116
H122I H 0.5884 0.8887 0.7169
H123G H 0.4211 0.7883 0.4038
H123I H 0.5962 0.9211 0.7117
N1 N 0.28478(4) 0.21522(4) 0.78478(4)
N2 N 0.28038(7) 0.21872(6) 0.57034(6)
N3 N 0.30587(7) 0.43568(6) 0.55769(6)
N4 N 0.09038(5) 0.40962(5) 0.59038(5)
N5 N 0.39389(6) 0.24314(6) 0.70783(5)
N6 N 0.39287(7) 0.24063(8) 0.64629(6)
N7 N 0.26747(5) 0.29306(5) 0.45750(6)
N8 N 0.27303(5) 0.35222(5) 0.45493(5)
N9 N 0.40636(8) 0.41776(9) 0.64845(9)
N10 N 0.21096(7) 0.10015(8) 0.58142(6)
N11 N 0.21648(6) 0.53635(6) 0.58736(6)
N12 N 0.15614(7) 0.52965(7) 0.59502(7)
C1 C 0.30893(5) 0.21598(8) 0.76692(5)
C2 C 0.32278(7) 0.19245(6) 0.75839(6)
H1 H 0.3156 0.1744 0.7635
C3 C 0.34744(7) 0.19411(7) 0.74226(8)
H2 H 0.3578 0.1774 0.7378
C4 C 0.35714(7) 0.22120(10) 0.73241(7)
C5 C 0.34284(7) 0.24321(6) 0.74043(6)
H3 H 0.3489 0.2614 0.7345
C6 C 0.32051(7) 0.24115(6) 0.75641(6)
H4 H 0.3112 0.2583 0.7614
C7 C 0.30373(7) 0.22653(8) 0.58786(6)
C8 C 0.30971(8) 0.25405(7) 0.59127(8)
H5 H 0.3002 0.2678 0.5801
C9 C 0.32924(11) 0.26249(8) 0.61067(8)
H6 H 0.3283 0.2811 0.6181
C10 C 0.35068(9) 0.24416(10) 0.61989(7)
C11 C 0.34532(8) 0.21541(9) 0.61493(7)
H7 H 0.3576 0.2015 0.6227
C12 C 0.32313(10) 0.20736(7) 0.59939(7)
H8 H 0.3204 0.1877 0.5960
C13 C 0.26416(6) 0.19267(7) 0.57704(8)
C14 C 0.25882(8) 0.18545(8) 0.60464(8)
H9 H 0.2661 0.1966 0.6197
C15 C 0.24275(9) 0.16173(11) 0.61022(8)
H10 H 0.2381 0.1579 0.6294
C16 C 0.23357(8) 0.14422(10) 0.59098(10)
C17 C 0.23968(6) 0.15140(7) 0.56393(8)
H11 H 0.2326 0.1392 0.5496
C18 C 0.25480(7) 0.17415(7) 0.55516(6)
H12 H 0.2589 0.1775 0.5358
C19 C 0.27375(9) 0.23472(6) 0.54575(7)
C20 C 0.24685(8) 0.24173(6) 0.54208(7)
H13 H 0.2329 0.2354 0.5551
C21 C 0.23922(7) 0.25836(6) 0.51919(8)
H14 H 0.2199 0.2633 0.5163
C22 C 0.25944(8) 0.26768(6) 0.50076(7)
C23 C 0.28621(7) 0.26013(5) 0.50426(6)
H15 H 0.2998 0.2656 0.4905
C24 C 0.29525(7) 0.24391(6) 0.52822(7)
H16 H 0.3146 0.2398 0.5318
C25 C 0.30355(8) 0.41548(6) 0.53543(6)
C26 C 0.32686(7) 0.40597(7) 0.52335(8)
H17 H 0.3448 0.4111 0.5308
C27 C 0.32520(6) 0.38947(7) 0.50105(7)
H18 H 0.3421 0.3843 0.4915
C28 C 0.29951(8) 0.37932(6) 0.49103(6)
C29 C 0.27554(6) 0.38806(5) 0.50465(8)
H19 H 0.2574 0.3819 0.4985
C30 C 0.27794(7) 0.40508(8) 0.52629(6)
H20 H 0.2613 0.4105 0.5361
C31 C 0.32956(8) 0.43628(10) 0.57626(10)
C32 C 0.33951(8) 0.46306(8) 0.58558(9)
C33 C 0.36327(11) 0.46164(11) 0.60403(11)
C34 C 0.37201(10) 0.43759(14) 0.61661(10)
C35 C 0.36075(8) 0.41126(11) 0.60671(9)
C36 C 0.33898(9) 0.41260(10) 0.58721(10)
C37 C 0.28381(7) 0.45967(8) 0.55821(11)
C38 C 0.27414(11) 0.47041(9) 0.53645(8)
C39 C 0.25419(8) 0.49296(8) 0.53770(7)
C40 C 0.24503(7) 0.50036(8) 0.56381(9)
C41 C 0.25366(7) 0.48866(7) 0.58704(7)
C42 C 0.27442(8) 0.46832(7) 0.58432(7)
C43 C 0.10692(6) 0.43449(7) 0.59589(9)
C44 C 0.11676(7) 0.45040(8) 0.57497(6)
C45 C 0.13119(6) 0.47575(7) 0.57932(6)
C46 C 0.13739(8) 0.48461(7) 0.60707(9)
C47 C 0.12634(7) 0.46593(11) 0.62758(7)
C48 C 0.11305(7) 0.44217(7) 0.62429(7)
C49 C 0.38389(6) 0.21972(8) 0.71507(6)
H21 H 0.3925 0.2023 0.7100
C50 C 0.37398(11) 0.25397(8) 0.63596(7)
H22 H 0.3747 0.2738 0.6389
C51 C 0.21772(8) 0.11768(10) 0.60037(8)
H23 H 0.2131 0.1145 0.6197
C52 C 0.25048(6) 0.28493(6) 0.47537(7)
H24 H 0.2311 0.2896 0.4732
C53 C 0.29652(7) 0.36030(6) 0.46427(7)
H25 H 0.3132 0.3546 0.4546
C54 C 0.39651(10) 0.43621(11) 0.63773(11)
C55 C 0.22509(7) 0.52491(9) 0.56541(7)
C56 C 0.15193(6) 0.51125(9) 0.61105(7)
H26 H 0.1592 0.5143 0.6296
C57 C 0.42041(7) 0.24071(7) 0.69115(8)
H27 H 0.4248 0.2202 0.6882
C58 C 0.41714(7) 0.25527(9) 0.66212(8)
H28 H 0.4120 0.2756 0.6652
C59 C 0.44498(9) 0.25398(14) 0.64500(9)
H29 H 0.4496 0.2341 0.6402
H30 H 0.4430 0.2648 0.6272
C60 C 0.46664(9) 0.26591(15) 0.66207(12)
H31 H 0.4613 0.2857 0.6665
H32 H 0.4842 0.2666 0.6507
C61 C 0.47323(7) 0.25097(13) 0.68978(9)
H33 H 0.4890 0.2602 0.6999
H34 H 0.4779 0.2308 0.6867
C62 C 0.44482(7) 0.25452(7) 0.70588(7)
H35 H 0.4468 0.2463 0.7250
H36 H 0.4408 0.2750 0.7081
C63 C 0.25753(6) 0.30952(6) 0.43237(6)
H37 H 0.2377 0.3153 0.4372
C64 C 0.27296(6) 0.33639(6) 0.42893(6)
H38 H 0.2931 0.3314 0.4248
C65 C 0.26260(6) 0.35296(5) 0.40454(6)
H39 H 0.2750 0.3696 0.4018
H40 H 0.2433 0.3600 0.4088
C66 C 0.26180(7) 0.33610(6) 0.37769(5)
H41 H 0.2811 0.3299 0.3726
H42 H 0.2544 0.3480 0.3621
C67 C 0.24251(8) 0.31011(7) 0.38186(6)
H43 H 0.2420 0.2986 0.3643
H44 H 0.2230 0.3162 0.3864
C68 C 0.25478(6) 0.29251(5) 0.40648(5)
H45 H 0.2422 0.2762 0.4102
H46 H 0.2736 0.2851 0.4010
C69 C 0.42995(9) 0.41748(13) 0.66886(9)
C70 C 0.19828(9) 0.07484(11) 0.59680(10)
C71 C 0.21632(8) 0.05050(10) 0.59060(8)
C72 C 0.19923(10) 0.02239(16) 0.60085(13)
C73 C 0.17428(11) 0.01512(15) 0.58593(12)
C74 C 0.45627(8) 0.40826(12) 0.65285(9)
C75 C 0.19696(8) 0.55853(7) 0.58733(8)
C76 C 0.17178(9) 0.55395(8) 0.60577(8)
C77 C 0.15058(6) 0.57968(7) 0.60321(8)
C78 C 0.16425(7) 0.60646(7) 0.61290(12)
C79 C 0.19277(9) 0.61186(6) 0.59225(9)
C80 C 0.21162(7) 0.58782(7) 0.59417(8)
N2F N 0.07034 0.21962 0.78128
N2K N 0.28128 0.42966 0.78038
N3F N 0.05769 0.19413 0.56432
N3K N 0.06432 0.44231 0.80587
N5F N 0.20783 0.10611 0.75686
N5K N 0.25686 0.29217 0.89389
N6F N 0.14629 0.10713 0.75937
N6K N 0.25937 0.35371 0.89287
N7F N -0.0425 0.23253 0.70694
N7K N 0.20694 0.5425 0.76747
N8F N -0.04507 0.22697 0.64778
N8K N 0.14778 0.54507 0.77303
N9F N 0.14845 0.09364 0.58224
N9K N 0.08224 0.35155 0.90636
N10K N 0.39985 0.41858 0.71096
N10F N 0.08142 0.28904 0.89985
N11F N 0.08736 0.28352 0.46365
N11K N -0.03635 0.41264 0.71648
N12F N 0.09502 0.34386 0.47035
N12K N -0.02965 0.40498 0.65614
C1F C 0.26692 0.19107 0.78402
C1K C 0.28402 0.23308 0.80893
C2F C 0.25839 0.17722 0.80755
C2K C 0.30755 0.24161 0.82278
H1K H 0.3256 0.2365 0.8156
H1F H 0.2635 0.1844 0.8256
C3F C 0.24226 0.15256 0.80589
C3K C 0.30589 0.25774 0.84744
H2K H 0.3226 0.2622 0.8578
H2F H 0.2378 0.1422 0.8226
C4F C 0.23241 0.14286 0.7788
C4K C 0.2788 0.26759 0.85714
C5K C 0.25679 0.25957 0.84284
C5F C 0.24043 0.15716 0.75679
H3K H 0.2386 0.2655 0.8489
H3F H 0.2345 0.1511 0.7386
C6K C 0.25885 0.24359 0.82051
C6F C 0.25641 0.17949 0.75885
H4K H 0.2417 0.2386 0.8112
H4F H 0.2614 0.1888 0.7417
C7F C 0.08786 0.19627 0.77347
C7K C 0.27347 0.41214 0.80373
C8F C 0.09127 0.19029 0.74595
C8K C 0.24595 0.40873 0.80971
H5F H 0.0801 0.1998 0.7322
H5K H 0.2322 0.4199 0.8002
C9F C 0.11067 0.17076 0.73751
C9K C 0.23751 0.38933 0.82924
H6F H 0.1181 0.1717 0.7189
H6K H 0.2189 0.3819 0.8283
C10F C 0.11989 0.14932 0.75584
C10K C 0.25584 0.38011 0.85068
C11F C 0.11493 0.15468 0.78459
C11K C 0.28459 0.38507 0.84532
H7F H 0.1227 0.1424 0.7985
H7K H 0.2985 0.3773 0.8576
C12F C 0.09939 0.17687 0.79264
C12K C 0.29264 0.40061 0.82313
H8F H 0.096 0.1796 0.8123
H8K H 0.3123 0.404 0.8204
C13K C 0.30733 0.42296 0.76416
C13F C 0.07704 0.23584 0.80733
C14K C 0.31455 0.39536 0.75882
C14F C 0.10464 0.24118 0.81455
H9K H 0.3034 0.3803 0.7661
H9F H 0.1197 0.2339 0.8034
C15K C 0.33827 0.38978 0.74275
C15F C 0.11022 0.25725 0.83827
H10K H 0.3421 0.3706 0.7381
H10F H 0.1294 0.2619 0.8421
C16K C 0.35578 0.40902 0.73357
C16F C 0.09098 0.26643 0.85578
C17K C 0.3486 0.43607 0.73968
C17F C 0.06393 0.26032 0.8486
H11K H 0.3608 0.4504 0.7326
H11F H 0.0496 0.2674 0.8608
C18K C 0.32585 0.44484 0.7548
C18F C 0.05516 0.2452 0.82585
H12K H 0.3225 0.4642 0.7589
H12F H 0.0358 0.2411 0.8225
C19F C 0.04575 0.22625 0.76528
C19K C 0.26528 0.45425 0.77375
C20F C 0.04208 0.25315 0.75827
C20K C 0.25827 0.45792 0.74685
H13K H 0.2646 0.4449 0.7329
H13F H 0.0551 0.2671 0.7646
C21F C 0.01919 0.26078 0.74164
C21K C 0.24164 0.48081 0.73922
H14K H 0.2367 0.4837 0.7199
H14F H 0.0163 0.2801 0.7367
C22F C 0.00076 0.24056 0.73232
C22K C 0.23232 0.49924 0.75944
C23K C 0.23987 0.49574 0.78621
C23F C 0.00426 0.21379 0.73987
H15K H 0.2344 0.5095 0.7998
H15F H -0.0095 0.2002 0.7344
C24K C 0.25609 0.47178 0.79525
C24F C 0.02822 0.20475 0.75609
H16K H 0.2602 0.4682 0.8146
H16F H 0.0318 0.1854 0.7602
C25F C 0.03543 0.19645 0.58452
C25K C 0.08452 0.46457 0.80355
C26F C 0.02335 0.17314 0.59403
C26K C 0.09403 0.47665 0.82686
H17F H 0.0308 0.1552 0.5889
H17K H 0.0889 0.4692 0.8448
C27F C 0.00105 0.1748 0.61053
C27K C 0.11053 0.49895 0.8252
H18F H -0.0085 0.1579 0.6157
H18K H 0.1157 0.5085 0.8421
C28F C -0.00897 0.20049 0.62068
C28K C 0.12068 0.50897 0.79951
C29F C 0.00465 0.22446 0.61194
C29K C 0.11194 0.49535 0.77554
H19F H -0.0015 0.2426 0.6181
H19K H 0.1181 0.5015 0.7574
C30F C 0.02629 0.22206 0.59492
C30K C 0.09492 0.47371 0.77794
H20F H 0.0361 0.2387 0.5895
H20K H 0.0895 0.4639 0.7613
C31F C 0.07626 0.17044 0.56372
C31K C 0.06372 0.42374 0.82956
C32F C 0.08558 0.16049 0.53694
C32K C 0.03694 0.41442 0.83951
C33F C 0.10403 0.13673 0.53836
C33K C 0.03836 0.39597 0.86327
C34F C 0.11661 0.12799 0.56241
C34K C 0.06241 0.38339 0.87201
C35K C 0.08874 0.39329 0.86075
C35F C 0.10671 0.13925 0.58874
C36K C 0.0874 0.41279 0.83898
C36F C 0.08721 0.16102 0.5874
C37F C 0.05821 0.21619 0.54033
C37K C 0.04033 0.44179 0.78381
C38F C 0.03645 0.22586 0.52959
C38K C 0.02959 0.46355 0.77414
C39F C 0.0377 0.24581 0.50704
C39K C 0.00704 0.4623 0.75419
C40F C 0.06381 0.25497 0.49964
C40K C -0.00036 0.43619 0.74503
C41F C 0.08704 0.24634 0.51134
C41K C 0.01134 0.41296 0.75366
C42F C 0.08432 0.22558 0.53168
C42K C 0.03168 0.41568 0.77442
C43F C 0.09589 0.39308 0.56551
C43K C 0.06551 0.40411 0.60692
C44F C 0.07497 0.38324 0.5496
C44K C 0.0496 0.42503 0.61676
C45F C 0.07932 0.36881 0.52425
C45K C 0.02425 0.42068 0.63119
C46F C 0.10707 0.36261 0.51539
C46K C 0.01539 0.39293 0.63739
C47F C 0.12758 0.37366 0.53407
C47K C 0.03407 0.37242 0.62634
C48F C 0.12429 0.38695 0.55783
C48K C 0.05783 0.37571 0.61305
C49F C 0.21507 0.11611 0.78028
C49K C 0.28028 0.28493 0.88389
H21K H 0.2977 0.29 0.8925
H21F H 0.21 0.1075 0.7977
C50F C 0.13596 0.12602 0.74603
C50K C 0.24603 0.36404 0.87398
H22K H 0.2262 0.3611 0.8747
H22F H 0.1389 0.1253 0.7262
C51K C 0.38232 0.39963 0.71772
C51F C 0.10037 0.28228 0.88232
H23F H 0.1197 0.2869 0.8855
H23K H 0.3855 0.3803 0.7131
C52F C -0.02463 0.24952 0.71507
C52K C 0.21507 0.52463 0.75048
H24K H 0.2104 0.5268 0.7311
H24F H -0.0268 0.2689 0.7104
C53F C -0.03573 0.20348 0.6397
C53K C 0.1397 0.53573 0.79652
H25K H 0.1454 0.5454 0.8132
H25F H -0.0454 0.1868 0.6454
C54F C 0.13773 0.10349 0.56379
C54K C 0.06379 0.36227 0.89651
C55F C 0.06541 0.27491 0.47509
C55K C -0.02491 0.43459 0.72509
C56F C 0.11105 0.34807 0.48875
C56K C -0.01125 0.38895 0.65193
H26F H 0.1296 0.3408 0.4857
H26K H -0.0143 0.3704 0.6592
C57F C 0.19115 0.07959 0.75929
C57K C 0.25929 0.30885 0.92041
H27K H 0.2798 0.3118 0.9248
H27F H 0.1882 0.0752 0.7798
C58F C 0.16212 0.08286 0.74473
C58K C 0.24473 0.33788 0.91714
H28K H 0.2244 0.3348 0.912
H28F H 0.1652 0.088 0.7244
C59K C 0.24602 0.355 0.94498
C59F C 0.145 0.05502 0.74602
H29K H 0.2659 0.3598 0.9496
H29F H 0.1402 0.0504 0.7659
H30K H 0.2352 0.3728 0.943
H30F H 0.1272 0.057 0.7352
C60K C 0.23409 0.33793 0.96664
C60F C 0.16207 0.03336 0.73409
H31K H 0.2143 0.3335 0.9613
H31F H 0.1665 0.0387 0.7143
H32K H 0.2334 0.3493 0.9842
H32F H 0.1507 0.0158 0.7334
C61K C 0.24903 0.31022 0.97323
C61F C 0.18978 0.02677 0.74903
H33K H 0.2398 0.3001 0.989
H33F H 0.1999 0.011 0.7398
H34K H 0.2692 0.3133 0.9779
H34F H 0.1867 0.0221 0.7692
C62K C 0.24548 0.29412 0.94482
C62F C 0.20588 0.05518 0.74548
H35K H 0.2537 0.275 0.9468
H35F H 0.225 0.0532 0.7537
H36K H 0.225 0.2919 0.9408
H36F H 0.2081 0.0592 0.725
C63F C -0.06763 0.24247 0.69048
C63K C 0.19048 0.56763 0.75753
H37K H 0.1847 0.5628 0.7377
H37F H -0.0628 0.2623 0.6847
C64F C -0.07107 0.22704 0.66361
C64K C 0.16361 0.57107 0.77296
H38K H 0.1686 0.5752 0.7931
H38F H -0.0752 0.2069 0.6686
C65K C 0.14704 0.59546 0.7626
C65F C -0.09546 0.2374 0.64704
H39K H 0.1304 0.5982 0.775
H39F H -0.0982 0.225 0.6304
H40K H 0.14 0.5912 0.7433
H40F H -0.0912 0.2567 0.64
C66K C 0.1639 0.62231 0.7618
C66F C -0.12231 0.2382 0.6639
H41K H 0.1701 0.6274 0.7811
H41F H -0.1274 0.2189 0.6701
H42K H 0.152 0.6379 0.7544
H42F H -0.1379 0.2456 0.652
C67K C 0.18989 0.61814 0.74251
C67F C -0.11814 0.25749 0.68989
H43K H 0.2014 0.6357 0.742
H43F H -0.1357 0.258 0.7014
H44K H 0.1838 0.6136 0.723
H44F H -0.1136 0.277 0.6838
C68K C 0.20749 0.59352 0.75478
C68F C -0.09352 0.24522 0.70749
H45K H 0.2238 0.5898 0.7422
H45F H -0.0898 0.2578 0.7238
H46K H 0.2149 0.599 0.7736
H46F H -0.099 0.2264 0.7149
C69F C 0.16886 0.07005 0.58252
C69K C 0.08252 0.33114 0.92995
C70K C 0.42516 0.4032 0.69828
C70F C 0.0968 0.30172 0.92516
C71F C 0.0906 0.28368 0.9495
C71K C 0.4495 0.4094 0.71632
C72F C 0.10085 0.30077 0.97761
C72K C 0.47761 0.39915 0.69923
C73F C 0.08593 0.32572 0.98488
C73K C 0.48488 0.41407 0.67428
C74K C 0.09174 0.34715 0.95627
C74F C 0.15285 0.04373 0.59174
C75F C 0.08733 0.30304 0.44147
C75K C -0.05853 0.41267 0.69696
C76F C 0.10577 0.32822 0.44605
C76K C -0.05395 0.39423 0.67178
C77F C 0.10321 0.34942 0.42032
C77K C -0.07968 0.39679 0.65058
C78F C 0.1129 0.33575 0.39354
C78K C -0.10646 0.3871 0.66425
C79F C 0.09225 0.30723 0.38814
C79K C -0.11186 0.40775 0.69277
C80F C 0.09417 0.28838 0.41218
C80K C -0.08782 0.40583 0.71162

#END

