
#######################################################################
#
#                 Cambridge Crystallographic Data Centre
#                                CCDC 
#
#######################################################################
#
# If this CIF has been generated directly or indirectly from an entry in the 
# Cambridge Structural Database, then it will include bibliographic, chemical, 
# crystal, experimental, refinement or atomic coordinate data resulting from 
# the CCDC's data processing and validation procedures. Files generated from 
# CSD entries are Copyright 2015 Cambridge Crystallographic Data Centre. They 
# may be used in bona fide research applications only, and may not be copied or 
# further disseminated in any form, whether machine-readable or not, except for 
# the purposes of generating routine backup copies on your local computer 
# system.
# 
# Files arising from any other source may also contain material that is the 
# copyright of third parties, including the originator, and you should check 
# with the originator concerning the permitted uses of the information 
# contained in this CIF.
#
# For further information on the CCDC and the free tools enCIFer and Mercury
# for validating and visualising CIF files, please visit www.ccdc.cam.ac.uk
#
#######################################################################

data_GANDUW
_audit_creation_date             2012-03-13
_database_code_depnum_ccdc_archive 'CCDC 867152'
_chemical_formula_moiety         'C120 H84 F12 N12,0.5(N2)'
_chemical_name_systematic        
'6,7,17,18,28,29,39,40,47,48,55,56-dodecakis(4-fluorophenyl)-5,8,16,19,27,30,38,41,46,49,54,57-dodecaazaheptacyclo[21.21.6.6^12,34^.1^3,43^.1^10,14^.1^21,25^.1^32,36^]hexaconta-1,3(51),4,8,10(60),11,13,15,19,21(59),22,24,26,30,32(52),33,35,37,41,43,45,49,53,57-tetracosaene dinitrogen'
_journal_coden_Cambridge         4
_journal_volume                  133
_journal_year                    2011
_journal_page_first              16566
_journal_name_full               J.Am.Chem.Soc.
loop_
_publ_author_name
M.J.Bojdys
M.E.Briggs
J.T.A.Jones
D.J.Adams
S.Y.Chong
M.Schmidtmann
A.I.Cooper
_chemical_absolute_configuration unk
_diffrn_ambient_temperature      100
_exptl_crystal_density_meas      1.183
_exptl_crystal_density_diffrn    1.183
#These two values have been output from a single CSD field.
_refine_ls_R_factor_gt           0.0535
_refine_ls_wR_factor_gt          0.0535
_diffrn_radiation_probe          x-ray
_symmetry_cell_setting           rhombohedral
_symmetry_space_group_name_H-M   'R 3 2'
_symmetry_Int_Tables_number      155
loop_
_symmetry_equiv_pos_site_id
_symmetry_equiv_pos_as_xyz
1 x,y,z
2 -y,x-y,z
3 -x+y,-x,z
4 y,x,-z
5 x-y,-y,-z
6 -x,-x+y,-z
7 2/3+x,1/3+y,1/3+z
8 2/3-y,1/3+x-y,1/3+z
9 2/3-x+y,1/3-x,1/3+z
10 2/3+y,1/3+x,1/3-z
11 2/3+x-y,1/3-y,1/3-z
12 2/3-x,1/3-x+y,1/3-z
13 1/3+x,2/3+y,2/3+z
14 1/3-y,2/3+x-y,2/3+z
15 1/3-x+y,2/3-x,2/3+z
16 1/3+y,2/3+x,2/3-z
17 1/3+x-y,2/3-y,2/3-z
18 1/3-x,2/3-x+y,2/3-z
_cell_length_a                   30.128(5)
_cell_length_b                   30.128(5)
_cell_length_c                   20.746(4)
_cell_angle_alpha                90
_cell_angle_beta                 90
_cell_angle_gamma                120
_cell_volume                     16308.2
_exptl_crystal_colour            colorless
_exptl_crystal_description       plate
_cell_formula_units_Z            6
loop_
_atom_site_label
_atom_site_type_symbol
_atom_site_fract_x
_atom_site_fract_y
_atom_site_fract_z
N1 N 0.7374(4) 0.4737(3) 0.7808(3)
N2 N 0.7862(4) 0.5430(3) 0.6818(3)
N3 N 0.6374(4) 0.4816(3) 0.4381(3)
N4 N 0.5461(4) 0.3817(3) 0.4335(3)
F1 F 0.7728(4) 0.5708(2) 1.0541(2)
F2 F 0.9664(4) 0.7480(2) 0.7981(3)
F3 F 0.5961(4) 0.6491(3) 0.3230(4)
F4 F 0.3691(4) 0.3856(3) 0.2909(5)
C1 C 0.7177(6) 0.3471(4) 0.7512(3)
H1 H 0.7529 0.3565 0.7522
C2 C 0.7041(6) 0.3843(3) 0.7506(3)
C3 C 0.7453(4) 0.4379(3) 0.7611(3)
H2 H 0.7796 0.4462 0.7528
C4 C 0.7821(4) 0.5232(3) 0.7942(3)
H3 H 0.8136 0.5204 0.7887
C5 C 0.7838(5) 0.5630(3) 0.7451(3)
H4 H 0.7526 0.5664 0.7489
C6 C 0.7488(5) 0.5288(3) 0.6451(4)
H5 H 0.7211 0.5333 0.6583
C7 C 0.7460(6) 0.5046(4) 0.5802(4)
C8 C 0.7841(5) 0.4922(3) 0.5669(4)
H6 H 0.8094 0.4977 0.5982
C9 C 0.7840(5) 0.4714(3) 0.5059(4)
C10 C 0.7444(5) 0.4617(3) 0.4642(4)
H7 H 0.7438 0.4468 0.4236
C11 C 0.7062(6) 0.4717(4) 0.4770(4)
C12 C 0.7072(5) 0.4939(3) 0.5373(4)
H8 H 0.6810 0.5014 0.5483
C13 C 0.6659(6) 0.4633(4) 0.4318(4)
H9 H 0.6612 0.4425 0.3951
C14 C 0.5970(6) 0.4701(4) 0.3913(4)
H10 H 0.6032 0.4547 0.3520
C15 C 0.5457(6) 0.4294(4) 0.4232(4)
H11 H 0.5430 0.4429 0.4662
C16 C 0.8279(5) 0.4645(4) 0.4904(4)
H12 H 0.8510 0.4680 0.5237
C17 C 0.7800(5) 0.5390(3) 0.8632(4)
C18 C 0.7340(5) 0.5294(3) 0.8898(4)
H13 H 0.7038 0.5151 0.8641
C19 C 0.7319(6) 0.5408(4) 0.9554(5)
H14 H 0.7004 0.5343 0.9743
C20 C 0.7738(6) 0.5604(4) 0.9897(4)
C21 C 0.8204(6) 0.5712(4) 0.9658(5)
H15 H 0.8503 0.5868 0.9918
C22 C 0.8223(5) 0.5586(3) 0.9026(4)
H16 H 0.8538 0.5636 0.8857
C23 C 0.8319(6) 0.6139(4) 0.7558(4)
C24 C 0.8309(5) 0.6542(3) 0.7865(4)
H17 H 0.7989 0.6507 0.7984
C25 C 0.8759(6) 0.7000(4) 0.8004(5)
H18 H 0.8746 0.7277 0.8203
C26 C 0.9206(6) 0.7037(4) 0.7851(6)
C27 C 0.9252(6) 0.6667(4) 0.7538(4)
H19 H 0.9576 0.6711 0.7423
C28 C 0.8791(6) 0.6211(4) 0.7391(4)
H20 H 0.8810 0.5945 0.7170
C29 C 0.5965(6) 0.5187(4) 0.3719(5)
C30 C 0.5941(6) 0.5292(4) 0.3096(5)
H21 H 0.5926 0.5061 0.2774
C31 C 0.5938(7) 0.5739(5) 0.2913(7)
H22 H 0.5914 0.5811 0.2473
C32 C 0.5971(8) 0.6054(6) 0.3370(9)
C33 C 0.5977(7) 0.5961(5) 0.4023(7)
H23 H 0.5976 0.6186 0.4343
C34 C 0.5983(6) 0.5514(5) 0.4177(6)
H24 H 0.6001 0.5438 0.4617
C35 C 0.5005(6) 0.4190(4) 0.3853(5)
C36 C 0.4930(6) 0.4000(4) 0.3241(5)
H25 H 0.5184 0.3945 0.3048
C37 C 0.4491(6) 0.3886(4) 0.2894(6)
H26 H 0.4444 0.3763 0.2463
C38 C 0.4128(9) 0.3960(5) 0.3203(9)
C39 C 0.4185(8) 0.4125(6) 0.3840(8)
H27 H 0.3916 0.4149 0.4045
C40 C 0.4626(6) 0.4253(4) 0.4177(6)
H28 H 0.4674 0.4377 0.4607
N1A N 0.5263 0.2637 0.7808
N1B N 0.7363 0.2626 0.7808
N2A N 0.457 0.2432 0.6818
N2B N 0.7568 0.2138 0.6818
N3A N 0.5184 0.1558 0.4381
N3B N 0.8442 0.3626 0.4381
N4A N 0.6183 0.1644 0.4335
N4B N 0.8356 0.4539 0.4335
F1B F 0.798 0.2272 1.0541
F1A F 0.4292 0.202 1.0541
F2B F 0.7816 0.0336 0.7981
F2A F 0.252 0.2184 0.7981
F3B F 1.053 0.4039 0.323
F3A F 0.3509 -0.053 0.323
F4B F 1.0165 0.6309 0.2909
F4A F 0.6144 -0.0165 0.2909
C1B C 0.6294 0.2823 0.7512
C1A C 0.6529 0.3706 0.7512
H1B H 0.6036 0.2471 0.7522
H1A H 0.6435 0.3964 0.7522
C2B C 0.6802 0.2959 0.7506
C2A C 0.6157 0.3198 0.7506
C3A C 0.5621 0.3074 0.7611
C3B C 0.6926 0.2547 0.7611
H2B H 0.6666 0.2204 0.7528
H2A H 0.5538 0.3334 0.7528
C4A C 0.4768 0.2589 0.7942
C4B C 0.7411 0.2179 0.7942
H3A H 0.4796 0.2932 0.7887
H3B H 0.7068 0.1864 0.7887
C5A C 0.437 0.2208 0.7451
C5B C 0.7792 0.2162 0.7451
H4B H 0.8138 0.2474 0.7489
H4A H 0.4336 0.1862 0.7489
C6A C 0.4712 0.22 0.6451
C6B C 0.78 0.2512 0.6451
H5A H 0.4667 0.1878 0.6583
H5B H 0.8122 0.2789 0.6583
C7A C 0.4954 0.2414 0.5802
C7B C 0.7586 0.254 0.5802
C8A C 0.5078 0.2919 0.5669
C8B C 0.7081 0.2159 0.5669
H6A H 0.5023 0.3117 0.5982
H6B H 0.6883 0.1906 0.5982
C9A C 0.5286 0.3126 0.5059
C9B C 0.6874 0.216 0.5059
C10A C 0.5383 0.2827 0.4642
C10B C 0.7173 0.2556 0.4642
H7A H 0.5532 0.297 0.4236
H7B H 0.703 0.2562 0.4236
C11A C 0.5283 0.2345 0.477
C11B C 0.7655 0.2938 0.477
C12A C 0.5061 0.2133 0.5373
C12B C 0.7867 0.2928 0.5373
H8A H 0.4986 0.1796 0.5483
H8B H 0.8204 0.319 0.5483
C13A C 0.5367 0.2026 0.4318
C13B C 0.7974 0.3341 0.4318
H9B H 0.7813 0.3388 0.3951
H9A H 0.5575 0.2187 0.3951
C14A C 0.5299 0.1269 0.3913
C14B C 0.8731 0.403 0.3913
H10A H 0.5453 0.1485 0.352
H10B H 0.8515 0.3968 0.352
C15A C 0.5706 0.1163 0.4232
C15B C 0.8837 0.4543 0.4232
H11B H 0.8999 0.457 0.4662
H11A H 0.5571 0.1001 0.4662
C16B C 0.6366 0.1721 0.4904
C16A C 0.5355 0.3634 0.4904
H12A H 0.532 0.383 0.5237
H12B H 0.617 0.149 0.5237
C17B C 0.759 0.22 0.8632
C17A C 0.461 0.241 0.8632
C18B C 0.7954 0.266 0.8898
C18A C 0.4706 0.2046 0.8898
H13B H 0.8113 0.2962 0.8641
H13A H 0.4849 0.1887 0.8641
C19B C 0.8089 0.2681 0.9554
C19A C 0.4592 0.1911 0.9554
H14B H 0.8339 0.2996 0.9743
H14A H 0.4657 0.1661 0.9743
C20B C 0.7866 0.2262 0.9897
C20A C 0.4396 0.2134 0.9897
C21B C 0.7508 0.1796 0.9658
C21A C 0.4288 0.2492 0.9658
H15B H 0.7365 0.1497 0.9918
H15A H 0.4132 0.2635 0.9918
C22B C 0.7363 0.1777 0.9026
C22A C 0.4414 0.2637 0.9026
H16B H 0.7098 0.1462 0.8857
H16A H 0.4364 0.2902 0.8857
C23B C 0.782 0.1681 0.7558
C23A C 0.3861 0.218 0.7558
C24B C 0.8233 0.1691 0.7865
C24A C 0.3458 0.1767 0.7865
H17B H 0.8518 0.2011 0.7984
H17A H 0.3493 0.1482 0.7984
C25B C 0.8241 0.1241 0.8004
C25A C 0.3 0.1759 0.8004
H18B H 0.8531 0.1254 0.8203
H18A H 0.2723 0.1469 0.8203
C26B C 0.7831 0.0794 0.7851
C26A C 0.2963 0.2169 0.7851
C27B C 0.7415 0.0748 0.7538
C27A C 0.3333 0.2585 0.7538
H19B H 0.7135 0.0424 0.7423
H19A H 0.3289 0.2865 0.7423
C28B C 0.742 0.1209 0.7391
C28A C 0.3789 0.258 0.7391
H20B H 0.7135 0.119 0.717
H20A H 0.4055 0.2865 0.717
C29B C 0.9222 0.4035 0.3719
C29A C 0.4813 0.0778 0.3719
C30B C 0.9351 0.4059 0.3096
C30A C 0.4708 0.0649 0.3096
H21B H 0.9135 0.4074 0.2774
H21A H 0.4939 0.0865 0.2774
C31B C 0.9801 0.4062 0.2913
C31A C 0.4261 0.0199 0.2913
H22B H 0.9897 0.4086 0.2473
H22A H 0.4189 0.0103 0.2473
C32B C 1.0083 0.4029 0.337
C32A C 0.3946 -0.0083 0.337
C33B C 0.9984 0.4023 0.4023
C33A C 0.4039 0.0016 0.4023
H23B H 1.021 0.4024 0.4343
H23A H 0.3814 -0.021 0.4343
C34B C 0.9531 0.4017 0.4177
C34A C 0.4486 0.0469 0.4177
H24B H 0.9437 0.3999 0.4617
H24A H 0.4562 0.0563 0.4617
C35B C 0.9185 0.4995 0.3853
C35A C 0.581 0.0815 0.3853
C36B C 0.907 0.507 0.3241
C36A C 0.6 0.093 0.3241
H25B H 0.8761 0.4816 0.3048
H25A H 0.6055 0.1239 0.3048
C37B C 0.9395 0.5509 0.2894
C37A C 0.6114 0.0605 0.2894
H26B H 0.9319 0.5556 0.2463
H26A H 0.6237 0.0681 0.2463
C38B C 0.9832 0.5872 0.3203
C38A C 0.604 0.0168 0.3203
C39B C 0.994 0.5815 0.384
C39A C 0.5875 0.006 0.384
H27B H 1.0233 0.6084 0.4045
H27A H 0.5851 -0.0233 0.4045
C40B C 0.9627 0.5374 0.4177
C40A C 0.5747 0.0373 0.4177
H28B H 0.9703 0.5326 0.4607
H28A H 0.5623 0.0297 0.4607
N5? N 0.6869(10) 0.341(2) 0.5731(8)

#END

