
#######################################################################
#
#                 Cambridge Crystallographic Data Centre
#                                CCDC 
#
#######################################################################
#
# If this CIF has been generated directly or indirectly from an entry in the 
# Cambridge Structural Database, then it will include bibliographic, chemical, 
# crystal, experimental, refinement or atomic coordinate data resulting from 
# the CCDC's data processing and validation procedures. Files generated from 
# CSD entries are Copyright 2015 Cambridge Crystallographic Data Centre. They 
# may be used in bona fide research applications only, and may not be copied or 
# further disseminated in any form, whether machine-readable or not, except for 
# the purposes of generating routine backup copies on your local computer 
# system.
# 
# Files arising from any other source may also contain material that is the 
# copyright of third parties, including the originator, and you should check 
# with the originator concerning the permitted uses of the information 
# contained in this CIF.
#
# For further information on the CCDC and the free tools enCIFer and Mercury
# for validating and visualising CIF files, please visit www.ccdc.cam.ac.uk
#
#######################################################################

data_LEJNUL
_audit_creation_date             2012-11-29
_database_code_depnum_ccdc_archive 'CCDC 876253'
_chemical_formula_moiety         
'C48 H48 N12,0.5(C66 H72 N12),0.5(C72 H84 N12),1.5(N2)'
_chemical_name_systematic        
'3,6,10,13,17,20,24,27,30,33,36,39-Dodeca-aza-1,8,15,22(1,3,5)-tetrabenzenatricyclo[13.13.6.6^8,22^]tetracontaphane-2,6,9,13,16,20,24,27,29,33,35,39-dodecaene hemikis((R)-3,5,9,11,15,17,21,23,26,28,31,33-dodeca-aza-1,7,13,19(1,3,5)-tetrabenzena-4,10,16,22,27,32(1,2)-hexacyclopentanatricyclo[11.11.5.5^7,19^]tetratriacontaphane-2,5,8,11,14,17 20,23,25,28,30,33-dodecaene) hemikis((R)-3,5,9,11,15,17,21,23,26,28,31,33-dodeca-aza-1,7,13,19(1,3,5)-tetrabenzena-4,10,16,22,27,32(1,2)-hexacyclohexanatricyclo[11.11.5.5^7,19^]tetratriacontaphane-2,5,8,11,14,17 20,23,25,28,30,33-dodecaene) dinitrogen'
_journal_coden_Cambridge         179
_journal_volume                  51
_journal_year                    2012
_journal_page_first              7154
_journal_name_full               Angew.Chem.,Int.Ed.
loop_
_publ_author_name
T.Hasell
S.Y.Chong
M.Schmidtmann
D.J.Adams
A.I.Cooper
_chemical_absolute_configuration unk
_diffrn_ambient_temperature      100
_exptl_crystal_density_meas      0.924
_exptl_crystal_density_diffrn    0.924
#These two values have been output from a single CSD field.
_refine_ls_R_factor_gt           0.041
_refine_ls_wR_factor_gt          0.041
_diffrn_radiation_probe          x-ray
_symmetry_cell_setting           cubic
_symmetry_space_group_name_H-M   'F 2 3'
_symmetry_Int_Tables_number      196
loop_
_symmetry_equiv_pos_site_id
_symmetry_equiv_pos_as_xyz
1 x,y,z
2 -x,-y,z
3 -x,y,-z
4 x,-y,-z
5 z,x,y
6 z,-x,-y
7 -z,-x,y
8 -z,x,-y
9 y,z,x
10 -y,z,-x
11 y,-z,-x
12 -y,-z,x
13 x,1/2+y,1/2+z
14 -x,1/2-y,1/2+z
15 -x,1/2+y,1/2-z
16 x,1/2-y,1/2-z
17 z,1/2+x,1/2+y
18 z,1/2-x,1/2-y
19 -z,1/2-x,1/2+y
20 -z,1/2+x,1/2-y
21 y,1/2+z,1/2+x
22 -y,1/2+z,1/2-x
23 y,1/2-z,1/2-x
24 -y,1/2-z,1/2+x
25 1/2+x,y,1/2+z
26 1/2-x,-y,1/2+z
27 1/2-x,y,1/2-z
28 1/2+x,-y,1/2-z
29 1/2+z,x,1/2+y
30 1/2+z,-x,1/2-y
31 1/2-z,-x,1/2+y
32 1/2-z,x,1/2-y
33 1/2+y,z,1/2+x
34 1/2-y,z,1/2-x
35 1/2+y,-z,1/2-x
36 1/2-y,-z,1/2+x
37 1/2+x,1/2+y,z
38 1/2-x,1/2-y,z
39 1/2-x,1/2+y,-z
40 1/2+x,1/2-y,-z
41 1/2+z,1/2+x,y
42 1/2+z,1/2-x,-y
43 1/2-z,1/2-x,y
44 1/2-z,1/2+x,-y
45 1/2+y,1/2+z,x
46 1/2-y,1/2+z,-x
47 1/2+y,1/2-z,-x
48 1/2-y,1/2-z,x
_cell_length_a                   23.9478(5)
_cell_length_b                   23.9478(5)
_cell_length_c                   23.9478(5)
_cell_angle_alpha                90
_cell_angle_beta                 90
_cell_angle_gamma                90
_cell_volume                     13734
_exptl_crystal_colour            colorless
_exptl_crystal_description       'truncated tetrahedron'
_cell_formula_units_Z            4
loop_
_atom_site_label
_atom_site_type_symbol
_atom_site_fract_x
_atom_site_fract_y
_atom_site_fract_z
N2 N 0.54960(7) 0.23235(7) 0.03585(7)
C9 C 0.51321(10) 0.28107(8) 0.02884(9)
H11 H 0.5353 0.3157 0.0339
H12 H 0.4835 0.2804 0.0576
C10 C 0.53764(9) 0.19923(9) 0.07507(9)
H13 H 0.5056 0.2071 0.0972
C11 C 0.57062(8) 0.14917(8) 0.08839(9)
C12 C 0.61711(9) 0.13416(9) 0.05658(9)
H14 H 0.6268 0.1558 0.0248
N2B N 0.4504 0.23235 -0.03585
N2FA N 0.73235 0.03585 0.0496
N2NA N 0.53585 0.0496 0.23235
N2GA N 0.26765 0.03585 -0.0496
N2HA N 0.73235 -0.03585 -0.0496
N2IA N 0.26765 -0.03585 0.0496
N2OA N 0.53585 -0.0496 -0.23235
N2PA N 0.46415 -0.0496 0.23235
N2QA N 0.46415 0.0496 -0.23235
N2A N 0.4504 -0.23235 0.03585
N2C N 0.5496 -0.23235 -0.03585
C9B C 0.48679 0.28107 -0.02884
C9FA C 0.78107 0.02884 0.01321
C9NA C 0.52884 0.01321 0.28107
C9GA C 0.21893 0.02884 -0.01321
C9HA C 0.78107 -0.02884 -0.01321
C9IA C 0.21893 -0.02884 0.01321
C9OA C 0.52884 -0.01321 -0.28107
C9PA C 0.47116 -0.01321 0.28107
C9QA C 0.47116 0.01321 -0.28107
C9A C 0.48679 -0.28107 0.02884
C9C C 0.51321 -0.28107 -0.02884
H11B H 0.4647 0.3157 -0.0339
H11FA H 0.8157 0.0339 0.0353
H11NA H 0.5339 0.0353 0.3157
H11GA H 0.1843 0.0339 -0.0353
H11HA H 0.8157 -0.0339 -0.0353
H11IA H 0.1843 -0.0339 0.0353
H11OA H 0.5339 -0.0353 -0.3157
H11PA H 0.4661 -0.0353 0.3157
H11QA H 0.4661 0.0353 -0.3157
H11A H 0.4647 -0.3157 0.0339
H11C H 0.5353 -0.3157 -0.0339
H12B H 0.5165 0.2804 -0.0576
H12FA H 0.7804 0.0576 -0.0165
H12NA H 0.5576 -0.0165 0.2804
H12GA H 0.2196 0.0576 0.0165
H12HA H 0.7804 -0.0576 0.0165
H12IA H 0.2196 -0.0576 -0.0165
H12OA H 0.5576 0.0165 -0.2804
H12PA H 0.4424 0.0165 0.2804
H12QA H 0.4424 -0.0165 -0.2804
H12A H 0.5165 -0.2804 0.0576
H12C H 0.4835 -0.2804 -0.0576
C10B C 0.46236 0.19923 -0.07507
C10FA C 0.69923 0.07507 0.03764
C10NA C 0.57507 0.03764 0.19923
C10GA C 0.30077 0.07507 -0.03764
C10HA C 0.69923 -0.07507 -0.03764
C10IA C 0.30077 -0.07507 0.03764
C10OA C 0.57507 -0.03764 -0.19923
C10PA C 0.42493 -0.03764 0.19923
C10QA C 0.42493 0.03764 -0.19923
C10A C 0.46236 -0.19923 0.07507
C10C C 0.53764 -0.19923 -0.07507
H13B H 0.4944 0.2071 -0.0972
H13FA H 0.7071 0.0972 0.0056
H13NA H 0.5972 0.0056 0.2071
H13GA H 0.2929 0.0972 -0.0056
H13HA H 0.7071 -0.0972 -0.0056
H13IA H 0.2929 -0.0972 0.0056
H13OA H 0.5972 -0.0056 -0.2071
H13PA H 0.4028 -0.0056 0.2071
H13QA H 0.4028 0.0056 -0.2071
H13A H 0.4944 -0.2071 0.0972
H13C H 0.5056 -0.2071 -0.0972
C11B C 0.42938 0.14917 -0.08839
C11FA C 0.64917 0.08839 0.07062
C11NA C 0.58839 0.07062 0.14917
C11GA C 0.35083 0.08839 -0.07062
C11HA C 0.64917 -0.08839 -0.07062
C11IA C 0.35083 -0.08839 0.07062
C11OA C 0.58839 -0.07062 -0.14917
C11PA C 0.41161 -0.07062 0.14917
C11QA C 0.41161 0.07062 -0.14917
C11A C 0.42938 -0.14917 0.08839
C11C C 0.57062 -0.14917 -0.08839
C12B C 0.38289 0.13416 -0.05658
C12FA C 0.63416 0.05658 0.11711
C12NA C 0.55658 0.11711 0.13416
C12GA C 0.36584 0.05658 -0.11711
C12HA C 0.63416 -0.05658 -0.11711
C12IA C 0.36584 -0.05658 0.11711
C12OA C 0.55658 -0.11711 -0.13416
C12PA C 0.44342 -0.11711 0.13416
C12QA C 0.44342 0.11711 -0.13416
C12A C 0.38289 -0.13416 0.05658
C12C C 0.61711 -0.13416 -0.05658
H14B H 0.3732 0.1558 -0.0248
H14FA H 0.6558 0.0248 0.1268
H14NA H 0.5248 0.1268 0.1558
H14GA H 0.3442 0.0248 -0.1268
H14HA H 0.6558 -0.0248 -0.1268
H14IA H 0.3442 -0.0248 0.1268
H14OA H 0.5248 -0.1268 -0.1558
H14PA H 0.4752 -0.1268 0.1558
H14QA H 0.4752 0.1268 -0.1558
H14A H 0.3732 -0.1558 0.0248
H14C H 0.6268 -0.1558 -0.0248
N3 N 0.2500 0.2500 0.2500
N4 N 0.5000 0.0000 0.0000
N5 N 0.3777(13) 0.1223(13) 0.1223(13)
N1 N 0.01718(8) 0.21110(9) 0.20105(8)
C1 C -0.02933(8) 0.22025(11) 0.23900(12)
H1 H -0.0264 0.1937 0.2711
C2 C -0.08723(11) 0.21615(18) 0.21375(16)
H2 H -0.0987 0.1765 0.2118
H3 H -0.0866 0.2312 0.1753
C5 C -0.13083(15) 0.2500 0.2500
H8 H -0.1546 0.2253 0.2731
C6 C 0.05117(9) 0.17296(10) 0.21372(10)
H9 H 0.0448 0.1518 0.2466
C7 C 0.10024(11) 0.16018(11) 0.17933(11)
C8 C 0.13310(11) 0.11441(11) 0.19261(11)
H10 H 0.1240 0.0924 0.2243
N1D N 0.20105 0.01718 0.2111
N1H N 0.2111 0.20105 0.01718
N1O N 0.01718 0.2889 0.29895
N1Q N 0.20105 0.48282 0.2889
N1V N 0.2111 0.29895 0.48282
N1EA N 0.29895 0.01718 0.2889
N1GA N 0.2889 0.20105 0.48282
N1PA N 0.29895 0.48282 0.2111
N1UA N 0.2889 0.29895 0.01718
N1Z N 0.48282 0.2111 0.29895
N1KA N 0.48282 0.2889 0.20105
C1D C 0.239 -0.02933 0.22025
C1H C 0.22025 0.239 -0.02933
C1O C -0.02933 0.27975 0.261
C1Q C 0.239 0.52933 0.27975
C1V C 0.22025 0.261 0.52933
C1EA C 0.261 -0.02933 0.27975
C1GA C 0.27975 0.239 0.52933
C1PA C 0.261 0.52933 0.22025
C1UA C 0.27975 0.261 -0.02933
C1Z C 0.52933 0.22025 0.261
C1KA C 0.52933 0.27975 0.239
H1D H 0.2711 -0.0264 0.1937
H1H H 0.1937 0.2711 -0.0264
H1O H -0.0264 0.3063 0.2289
H1Q H 0.2711 0.5264 0.3063
H1V H 0.1937 0.2289 0.5264
H1EA H 0.2289 -0.0264 0.3063
H1GA H 0.3063 0.2711 0.5264
H1PA H 0.2289 0.5264 0.1937
H1UA H 0.3063 0.2289 -0.0264
H1Z H 0.5264 0.1937 0.2289
H1KA H 0.5264 0.3063 0.2711
C2D C 0.21375 -0.08723 0.21615
C2H C 0.21615 0.21375 -0.08723
C2O C -0.08723 0.28385 0.28625
C2Q C 0.21375 0.58723 0.28385
C2V C 0.21615 0.28625 0.58723
C2EA C 0.28625 -0.08723 0.28385
C2GA C 0.28385 0.21375 0.58723
C2PA C 0.28625 0.58723 0.21615
C2UA C 0.28385 0.28625 -0.08723
C2Z C 0.58723 0.21615 0.28625
C2KA C 0.58723 0.28385 0.21375
H2D H 0.2118 -0.0987 0.1765
H2H H 0.1765 0.2118 -0.0987
H2O H -0.0987 0.3235 0.2882
H2Q H 0.2118 0.5987 0.3235
H2V H 0.1765 0.2882 0.5987
H2EA H 0.2882 -0.0987 0.3235
H2GA H 0.3235 0.2118 0.5987
H2PA H 0.2882 0.5987 0.1765
H2UA H 0.3235 0.2882 -0.0987
H2Z H 0.5987 0.1765 0.2882
H2KA H 0.5987 0.3235 0.2118
H3D H 0.1753 -0.0866 0.2312
H3H H 0.2312 0.1753 -0.0866
H3O H -0.0866 0.2688 0.3247
H3Q H 0.1753 0.5866 0.2688
H3V H 0.2312 0.3247 0.5866
H3EA H 0.3247 -0.0866 0.2688
H3GA H 0.2688 0.1753 0.5866
H3PA H 0.3247 0.5866 0.2312
H3UA H 0.2688 0.3247 -0.0866
H3Z H 0.5866 0.2312 0.3247
H3KA H 0.5866 0.2688 0.1753
C5D C 0.25 -0.13083 0.25
C5H C 0.25 0.25 -0.13083
C5Q C 0.25 0.63083 0.25
C5V C 0.25 0.25 0.63083
C5Z C 0.63083 0.25 0.25
H8D H 0.2731 -0.1546 0.2253
H8H H 0.2253 0.2731 -0.1546
H8O H -0.1546 0.2747 0.2269
H8Q H 0.2731 0.6546 0.2747
H8V H 0.2253 0.2269 0.6546
H8EA H 0.2269 -0.1546 0.2747
H8GA H 0.2747 0.2731 0.6546
H8PA H 0.2269 0.6546 0.2253
H8UA H 0.2747 0.2269 -0.1546
H8Z H 0.6546 0.2253 0.2269
H8KA H 0.6546 0.2747 0.2731
C6D C 0.21372 0.05117 0.17296
C6H C 0.17296 0.21372 0.05117
C6O C 0.05117 0.32704 0.28628
C6Q C 0.21372 0.44883 0.32704
C6V C 0.17296 0.28628 0.44883
C6EA C 0.28628 0.05117 0.32704
C6GA C 0.32704 0.21372 0.44883
C6PA C 0.28628 0.44883 0.17296
C6UA C 0.32704 0.28628 0.05117
C6Z C 0.44883 0.17296 0.28628
C6KA C 0.44883 0.32704 0.21372
H9D H 0.2466 0.0448 0.1518
H9H H 0.1518 0.2466 0.0448
H9O H 0.0448 0.3482 0.2534
H9Q H 0.2466 0.4552 0.3482
H9V H 0.1518 0.2534 0.4552
H9EA H 0.2534 0.0448 0.3482
H9GA H 0.3482 0.2466 0.4552
H9PA H 0.2534 0.4552 0.1518
H9UA H 0.3482 0.2534 0.0448
H9Z H 0.4552 0.1518 0.2534
H9KA H 0.4552 0.3482 0.2466
C7D C 0.17933 0.10024 0.16018
C7H C 0.16018 0.17933 0.10024
C7O C 0.10024 0.33982 0.32067
C7Q C 0.17933 0.39976 0.33982
C7V C 0.16018 0.32067 0.39976
C7EA C 0.32067 0.10024 0.33982
C7GA C 0.33982 0.17933 0.39976
C7PA C 0.32067 0.39976 0.16018
C7UA C 0.33982 0.32067 0.10024
C7Z C 0.39976 0.16018 0.32067
C7KA C 0.39976 0.33982 0.17933
C8D C 0.19261 0.1331 0.11441
C8H C 0.11441 0.19261 0.1331
C8O C 0.1331 0.38559 0.30739
C8Q C 0.19261 0.3669 0.38559
C8V C 0.11441 0.30739 0.3669
C8EA C 0.30739 0.1331 0.38559
C8GA C 0.38559 0.19261 0.3669
C8PA C 0.30739 0.3669 0.11441
C8UA C 0.38559 0.30739 0.1331
C8Z C 0.3669 0.11441 0.30739
C8KA C 0.3669 0.38559 0.19261
H10D H 0.2243 0.124 0.0924
H10H H 0.0924 0.2243 0.124
H10O H 0.124 0.4076 0.2757
H10Q H 0.2243 0.376 0.4076
H10V H 0.0924 0.2757 0.376
H10EA H 0.2757 0.124 0.4076
H10GA H 0.4076 0.2243 0.376
H10PA H 0.2757 0.376 0.0924
H10UA H 0.4076 0.2757 0.124
H10Z H 0.376 0.0924 0.2757
H10KA H 0.376 0.4076 0.2243
C3? C -0.0754(4) 0.3070(5) 0.3094(5)
H4? H -0.0749 0.2859 0.3449
H5? H -0.0683 0.3470 0.3168
C4? C -0.1304(4) 0.2978(3) 0.2764(3)
H6? H -0.1623 0.2990 0.3027
H7? H -0.1352 0.3285 0.2491

#END

