
#######################################################################
#
#                 Cambridge Crystallographic Data Centre
#                                CCDC 
#
#######################################################################
#
# If this CIF has been generated directly or indirectly from an entry in the 
# Cambridge Structural Database, then it will include bibliographic, chemical, 
# crystal, experimental, refinement or atomic coordinate data resulting from 
# the CCDC's data processing and validation procedures. Files generated from 
# CSD entries are Copyright 2015 Cambridge Crystallographic Data Centre. They 
# may be used in bona fide research applications only, and may not be copied or 
# further disseminated in any form, whether machine-readable or not, except for 
# the purposes of generating routine backup copies on your local computer 
# system.
# 
# Files arising from any other source may also contain material that is the 
# copyright of third parties, including the originator, and you should check 
# with the originator concerning the permitted uses of the information 
# contained in this CIF.
#
# For further information on the CCDC and the free tools enCIFer and Mercury
# for validating and visualising CIF files, please visit www.ccdc.cam.ac.uk
#
#######################################################################

data_LEJPAT
_audit_creation_date             2012-11-29
_database_code_depnum_ccdc_archive 'CCDC 876254'
_chemical_formula_moiety         
'C48 H48 N12,0.6(C66 H72 N12),0.4(C72 H84 N12),1.5(N2)'
_chemical_name_systematic        
'3,6,10,13,17,20,24,27,30,33,36,39-Dodeca-aza-1,8,15,22(1,3,5)-tetrabenzenatricyclo[13.13.6.6^8,22^]tetracontaphane-2,6,9,13,16,20,24,27,29,33,35,39-dodecaene (((R)-3,5,9,11,15,17,21,23,26,28,31,33-dodeca-aza-1,7,13,19(1,3,5)-tetrabenzena-4,10,16,22,27,32(1,2)-hexacyclopentanatricyclo[11.11.5.5^7,19^]tetratriacontaphane-2,5,8,11,14,17 20,23,25,28,30,33-dodecaene) ((R)-3,5,9,11,15,17,21,23,26,28,31,33-dodeca-aza-1,7,13,19(1,3,5)-tetrabenzena-4,10,16,22,27,32(1,2)-hexacyclohexanatricyclo[11.11.5.5^7,19^]tetratriacontaphane-2,5,8,11,14,17 20,23,25,28,30,33-dodecaene)) dinitrogen'
_journal_coden_Cambridge         179
_journal_volume                  51
_journal_year                    2012
_journal_page_first              7154
_journal_name_full               Angew.Chem.,Int.Ed.
loop_
_publ_author_name
T.Hasell
S.Y.Chong
M.Schmidtmann
D.J.Adams
A.I.Cooper
_chemical_absolute_configuration unk
_diffrn_ambient_temperature      100
_exptl_crystal_density_meas      0.928
_exptl_crystal_density_diffrn    0.928
#These two values have been output from a single CSD field.
_refine_ls_R_factor_gt           0.0429
_refine_ls_wR_factor_gt          0.0429
_diffrn_radiation_probe          x-ray
_symmetry_cell_setting           cubic
_symmetry_space_group_name_H-M   'F 2 3'
_symmetry_Int_Tables_number      196
loop_
_symmetry_equiv_pos_site_id
_symmetry_equiv_pos_as_xyz
1 x,y,z
2 -x,-y,z
3 -x,y,-z
4 x,-y,-z
5 z,x,y
6 z,-x,-y
7 -z,-x,y
8 -z,x,-y
9 y,z,x
10 -y,z,-x
11 y,-z,-x
12 -y,-z,x
13 x,1/2+y,1/2+z
14 -x,1/2-y,1/2+z
15 -x,1/2+y,1/2-z
16 x,1/2-y,1/2-z
17 z,1/2+x,1/2+y
18 z,1/2-x,1/2-y
19 -z,1/2-x,1/2+y
20 -z,1/2+x,1/2-y
21 y,1/2+z,1/2+x
22 -y,1/2+z,1/2-x
23 y,1/2-z,1/2-x
24 -y,1/2-z,1/2+x
25 1/2+x,y,1/2+z
26 1/2-x,-y,1/2+z
27 1/2-x,y,1/2-z
28 1/2+x,-y,1/2-z
29 1/2+z,x,1/2+y
30 1/2+z,-x,1/2-y
31 1/2-z,-x,1/2+y
32 1/2-z,x,1/2-y
33 1/2+y,z,1/2+x
34 1/2-y,z,1/2-x
35 1/2+y,-z,1/2-x
36 1/2-y,-z,1/2+x
37 1/2+x,1/2+y,z
38 1/2-x,1/2-y,z
39 1/2-x,1/2+y,-z
40 1/2+x,1/2-y,-z
41 1/2+z,1/2+x,y
42 1/2+z,1/2-x,-y
43 1/2-z,1/2-x,y
44 1/2-z,1/2+x,-y
45 1/2+y,1/2+z,x
46 1/2-y,1/2+z,-x
47 1/2+y,1/2-z,-x
48 1/2-y,1/2-z,x
_cell_length_a                   23.8776(6)
_cell_length_b                   23.8776(6)
_cell_length_c                   23.8776(6)
_cell_angle_alpha                90
_cell_angle_beta                 90
_cell_angle_gamma                90
_cell_volume                     13613.6
_exptl_crystal_colour            colorless
_exptl_crystal_description       'truncated tetrahedron'
_cell_formula_units_Z            4
loop_
_atom_site_label
_atom_site_type_symbol
_atom_site_fract_x
_atom_site_fract_y
_atom_site_fract_z
N2 N 0.55000(6) 0.23314(6) 0.03547(6)
C9 C 0.51361(9) 0.28203(6) 0.02905(9)
H11 H 0.5359 0.3167 0.0340
H12 H 0.4841 0.2814 0.0582
C10 C 0.53747(8) 0.19974(7) 0.07506(7)
H13 H 0.5053 0.2076 0.0971
C11 C 0.57052(7) 0.14941(7) 0.08822(7)
C12 C 0.61724(7) 0.13414(7) 0.05610(7)
H14 H 0.6269 0.1556 0.0240
N2B N 0.45 0.23314 -0.03547
N2FA N 0.73314 0.03547 0.05
N2NA N 0.53547 0.05 0.23314
N2GA N 0.26686 0.03547 -0.05
N2HA N 0.73314 -0.03547 -0.05
N2IA N 0.26686 -0.03547 0.05
N2OA N 0.53547 -0.05 -0.23314
N2PA N 0.46453 -0.05 0.23314
N2QA N 0.46453 0.05 -0.23314
N2A N 0.45 -0.23314 0.03547
N2C N 0.55 -0.23314 -0.03547
C9B C 0.48639 0.28203 -0.02905
C9FA C 0.78203 0.02905 0.01361
C9NA C 0.52905 0.01361 0.28203
C9GA C 0.21797 0.02905 -0.01361
C9HA C 0.78203 -0.02905 -0.01361
C9IA C 0.21797 -0.02905 0.01361
C9OA C 0.52905 -0.01361 -0.28203
C9PA C 0.47095 -0.01361 0.28203
C9QA C 0.47095 0.01361 -0.28203
C9A C 0.48639 -0.28203 0.02905
C9C C 0.51361 -0.28203 -0.02905
H11B H 0.4641 0.3167 -0.034
H11FA H 0.8167 0.034 0.0359
H11NA H 0.534 0.0359 0.3167
H11GA H 0.1833 0.034 -0.0359
H11HA H 0.8167 -0.034 -0.0359
H11IA H 0.1833 -0.034 0.0359
H11OA H 0.534 -0.0359 -0.3167
H11PA H 0.466 -0.0359 0.3167
H11QA H 0.466 0.0359 -0.3167
H11A H 0.4641 -0.3167 0.034
H11C H 0.5359 -0.3167 -0.034
H12B H 0.5159 0.2814 -0.0582
H12FA H 0.7814 0.0582 -0.0159
H12NA H 0.5582 -0.0159 0.2814
H12GA H 0.2186 0.0582 0.0159
H12HA H 0.7814 -0.0582 0.0159
H12IA H 0.2186 -0.0582 -0.0159
H12OA H 0.5582 0.0159 -0.2814
H12PA H 0.4418 0.0159 0.2814
H12QA H 0.4418 -0.0159 -0.2814
H12A H 0.5159 -0.2814 0.0582
H12C H 0.4841 -0.2814 -0.0582
C10B C 0.46253 0.19974 -0.07506
C10FA C 0.69974 0.07506 0.03747
C10NA C 0.57506 0.03747 0.19974
C10GA C 0.30026 0.07506 -0.03747
C10HA C 0.69974 -0.07506 -0.03747
C10IA C 0.30026 -0.07506 0.03747
C10OA C 0.57506 -0.03747 -0.19974
C10PA C 0.42494 -0.03747 0.19974
C10QA C 0.42494 0.03747 -0.19974
C10A C 0.46253 -0.19974 0.07506
C10C C 0.53747 -0.19974 -0.07506
H13B H 0.4947 0.2076 -0.0971
H13FA H 0.7076 0.0971 0.0053
H13NA H 0.5971 0.0053 0.2076
H13GA H 0.2924 0.0971 -0.0053
H13HA H 0.7076 -0.0971 -0.0053
H13IA H 0.2924 -0.0971 0.0053
H13OA H 0.5971 -0.0053 -0.2076
H13PA H 0.4029 -0.0053 0.2076
H13QA H 0.4029 0.0053 -0.2076
H13A H 0.4947 -0.2076 0.0971
H13C H 0.5053 -0.2076 -0.0971
C11B C 0.42948 0.14941 -0.08822
C11FA C 0.64941 0.08822 0.07052
C11NA C 0.58822 0.07052 0.14941
C11GA C 0.35059 0.08822 -0.07052
C11HA C 0.64941 -0.08822 -0.07052
C11IA C 0.35059 -0.08822 0.07052
C11OA C 0.58822 -0.07052 -0.14941
C11PA C 0.41178 -0.07052 0.14941
C11QA C 0.41178 0.07052 -0.14941
C11A C 0.42948 -0.14941 0.08822
C11C C 0.57052 -0.14941 -0.08822
C12B C 0.38276 0.13414 -0.0561
C12FA C 0.63414 0.0561 0.11724
C12NA C 0.5561 0.11724 0.13414
C12GA C 0.36586 0.0561 -0.11724
C12HA C 0.63414 -0.0561 -0.11724
C12IA C 0.36586 -0.0561 0.11724
C12OA C 0.5561 -0.11724 -0.13414
C12PA C 0.4439 -0.11724 0.13414
C12QA C 0.4439 0.11724 -0.13414
C12A C 0.38276 -0.13414 0.0561
C12C C 0.61724 -0.13414 -0.0561
H14B H 0.3731 0.1556 -0.024
H14FA H 0.6556 0.024 0.1269
H14NA H 0.524 0.1269 0.1556
H14GA H 0.3444 0.024 -0.1269
H14HA H 0.6556 -0.024 -0.1269
H14IA H 0.3444 -0.024 0.1269
H14OA H 0.524 -0.1269 -0.1556
H14PA H 0.476 -0.1269 0.1556
H14QA H 0.476 0.1269 -0.1556
H14A H 0.3731 -0.1556 0.024
H14C H 0.6269 -0.1556 -0.024
N3 N 0.2500 0.2500 0.2500
N4 N 0.5000 0.0000 0.0000
N5 N 0.3722(11) 0.1278(11) 0.1278(11)
N1 N 0.01595(5) 0.21093(6) 0.20077(6)
C1 C -0.03058(6) 0.22028(8) 0.23876(8)
H1 H -0.0277 0.1935 0.2708
C2 C -0.08875(9) 0.21524(14) 0.21230(13)
H2 H -0.1005 0.1755 0.2108
H3 H -0.0883 0.2303 0.1737
C5 C -0.13033(13) 0.2500 0.2500
H8 H -0.1543 0.2749 0.2271
C6 C 0.05009(7) 0.17273(7) 0.21316(7)
H9 H 0.0436 0.1513 0.2460
C7 C 0.09953(8) 0.15984(7) 0.17905(8)
C8 C 0.13244(8) 0.11371(8) 0.19235(8)
H10 H 0.1231 0.0915 0.2240
N1D N 0.20077 0.01595 0.21093
N1H N 0.21093 0.20077 0.01595
N1O N 0.01595 0.28907 0.29923
N1Q N 0.20077 0.48405 0.28907
N1V N 0.21093 0.29923 0.48405
N1EA N 0.29923 0.01595 0.28907
N1GA N 0.28907 0.20077 0.48405
N1PA N 0.29923 0.48405 0.21093
N1UA N 0.28907 0.29923 0.01595
N1Z N 0.48405 0.21093 0.29923
N1KA N 0.48405 0.28907 0.20077
C1D C 0.23876 -0.03058 0.22028
C1H C 0.22028 0.23876 -0.03058
C1O C -0.03058 0.27972 0.26124
C1Q C 0.23876 0.53058 0.27972
C1V C 0.22028 0.26124 0.53058
C1EA C 0.26124 -0.03058 0.27972
C1GA C 0.27972 0.23876 0.53058
C1PA C 0.26124 0.53058 0.22028
C1UA C 0.27972 0.26124 -0.03058
C1Z C 0.53058 0.22028 0.26124
C1KA C 0.53058 0.27972 0.23876
H1D H 0.2708 -0.0277 0.1935
H1H H 0.1935 0.2708 -0.0277
H1O H -0.0277 0.3065 0.2292
H1Q H 0.2708 0.5277 0.3065
H1V H 0.1935 0.2292 0.5277
H1EA H 0.2292 -0.0277 0.3065
H1GA H 0.3065 0.2708 0.5277
H1PA H 0.2292 0.5277 0.1935
H1UA H 0.3065 0.2292 -0.0277
H1Z H 0.5277 0.1935 0.2292
H1KA H 0.5277 0.3065 0.2708
C2D C 0.2123 -0.08875 0.21524
C2H C 0.21524 0.2123 -0.08875
C2O C -0.08875 0.28476 0.2877
C2Q C 0.2123 0.58875 0.28476
C2V C 0.21524 0.2877 0.58875
C2EA C 0.2877 -0.08875 0.28476
C2GA C 0.28476 0.2123 0.58875
C2PA C 0.2877 0.58875 0.21524
C2UA C 0.28476 0.2877 -0.08875
C2Z C 0.58875 0.21524 0.2877
C2KA C 0.58875 0.28476 0.2123
H2D H 0.2108 -0.1005 0.1755
H2H H 0.1755 0.2108 -0.1005
H2O H -0.1005 0.3245 0.2892
H2Q H 0.2108 0.6005 0.3245
H2V H 0.1755 0.2892 0.6005
H2EA H 0.2892 -0.1005 0.3245
H2GA H 0.3245 0.2108 0.6005
H2PA H 0.2892 0.6005 0.1755
H2UA H 0.3245 0.2892 -0.1005
H2Z H 0.6005 0.1755 0.2892
H2KA H 0.6005 0.3245 0.2108
H3D H 0.1737 -0.0883 0.2303
H3H H 0.2303 0.1737 -0.0883
H3O H -0.0883 0.2697 0.3263
H3Q H 0.1737 0.5883 0.2697
H3V H 0.2303 0.3263 0.5883
H3EA H 0.3263 -0.0883 0.2697
H3GA H 0.2697 0.1737 0.5883
H3PA H 0.3263 0.5883 0.2303
H3UA H 0.2697 0.3263 -0.0883
H3Z H 0.5883 0.2303 0.3263
H3KA H 0.5883 0.2697 0.1737
C5D C 0.25 -0.13033 0.25
C5H C 0.25 0.25 -0.13033
C5Q C 0.25 0.63033 0.25
C5V C 0.25 0.25 0.63033
C5Z C 0.63033 0.25 0.25
H8D H 0.2271 -0.1543 0.2749
H8H H 0.2749 0.2271 -0.1543
H8O H -0.1543 0.2251 0.2729
H8Q H 0.2271 0.6543 0.2251
H8V H 0.2749 0.2729 0.6543
H8EA H 0.2729 -0.1543 0.2251
H8GA H 0.2251 0.2271 0.6543
H8PA H 0.2729 0.6543 0.2749
H8UA H 0.2251 0.2729 -0.1543
H8Z H 0.6543 0.2749 0.2729
H8KA H 0.6543 0.2251 0.2271
C6D C 0.21316 0.05009 0.17273
C6H C 0.17273 0.21316 0.05009
C6O C 0.05009 0.32727 0.28684
C6Q C 0.21316 0.44991 0.32727
C6V C 0.17273 0.28684 0.44991
C6EA C 0.28684 0.05009 0.32727
C6GA C 0.32727 0.21316 0.44991
C6PA C 0.28684 0.44991 0.17273
C6UA C 0.32727 0.28684 0.05009
C6Z C 0.44991 0.17273 0.28684
C6KA C 0.44991 0.32727 0.21316
H9D H 0.246 0.0436 0.1513
H9H H 0.1513 0.246 0.0436
H9O H 0.0436 0.3487 0.254
H9Q H 0.246 0.4564 0.3487
H9V H 0.1513 0.254 0.4564
H9EA H 0.254 0.0436 0.3487
H9GA H 0.3487 0.246 0.4564
H9PA H 0.254 0.4564 0.1513
H9UA H 0.3487 0.254 0.0436
H9Z H 0.4564 0.1513 0.254
H9KA H 0.4564 0.3487 0.246
C7D C 0.17905 0.09953 0.15984
C7H C 0.15984 0.17905 0.09953
C7O C 0.09953 0.34016 0.32095
C7Q C 0.17905 0.40047 0.34016
C7V C 0.15984 0.32095 0.40047
C7EA C 0.32095 0.09953 0.34016
C7GA C 0.34016 0.17905 0.40047
C7PA C 0.32095 0.40047 0.15984
C7UA C 0.34016 0.32095 0.09953
C7Z C 0.40047 0.15984 0.32095
C7KA C 0.40047 0.34016 0.17905
C8D C 0.19235 0.13244 0.11371
C8H C 0.11371 0.19235 0.13244
C8O C 0.13244 0.38629 0.30765
C8Q C 0.19235 0.36756 0.38629
C8V C 0.11371 0.30765 0.36756
C8EA C 0.30765 0.13244 0.38629
C8GA C 0.38629 0.19235 0.36756
C8PA C 0.30765 0.36756 0.11371
C8UA C 0.38629 0.30765 0.13244
C8Z C 0.36756 0.11371 0.30765
C8KA C 0.36756 0.38629 0.19235
H10D H 0.224 0.1231 0.0915
H10H H 0.0915 0.224 0.1231
H10O H 0.1231 0.4085 0.276
H10Q H 0.224 0.3769 0.4085
H10V H 0.0915 0.276 0.3769
H10EA H 0.276 0.1231 0.4085
H10GA H 0.4085 0.224 0.3769
H10PA H 0.276 0.3769 0.0915
H10UA H 0.4085 0.276 0.1231
H10Z H 0.3769 0.0915 0.276
H10KA H 0.3769 0.4085 0.224
C3? C -0.0789(5) 0.3024(5) 0.3037(5)
H4? H -0.0781 0.2816 0.3396
H5? H -0.0740 0.3429 0.3115
C4? C -0.1336(4) 0.2915(4) 0.2720(4)
H6? H -0.1655 0.2909 0.2985
H7? H -0.1402 0.3216 0.2443

#END

