
#######################################################################
#
#                 Cambridge Crystallographic Data Centre
#                                CCDC
#
#######################################################################
#
# If this CIF has been generated from an entry in the Cambridge
# Structural Database, then it will include bibliographic, chemical,
# crystal, experimental, refinement or atomic coordinate data resulting
# from the CCDC's data processing and validation procedures.
#
#######################################################################

data_CSD_CIF_ABIKUU
_audit_creation_date 2016-11-23
_audit_creation_method CSD-ConQuest-V1
_database_code_CSD ABIKUU
_database_code_depnum_ccdc_archive 'CCDC 1453923'
_chemical_formula_sum 'C100.8 H158.3 N12 O23.39'
_chemical_formula_moiety
;
C90 H90 N12,10.75(C1 H4 O1),12.64(H2 O1)
;
_journal_coden_Cambridge 1441
_journal_volume 9
_journal_year 2016
_journal_page_first 17
_journal_name_full 'Nature Chemistry '
loop_
_publ_author_name
"A.G.Slater"
"M.A.Little"
"A.Pulido"
"S.Y.Chong"
"D.Holden"
"L.Chen"
"C.Morgan"
"X.Wu"
"G.Cheng"
"R.Clowes"
"M.E.Briggs"
"T.Hasell"
"K.E.Jelfs"
"G.M.Day"
"A.I.Cooper"
_chemical_name_systematic
;
(R)-6,8,12,14,21,23,27,29,32,34,39,41-dodecaaza-7,13,22,28,33,40(1,2)-hexacycl
ohexana-1,4,10,16,19,25(1,3,5)-hexabenzenatetracyclo[17.11.5.5^4,16^.2^10,25^]
dotetracontaphane-5,8,11,14,20,23,26,29,31,34,38,41-dodecaene-2,17,36-triyne 
methanol solvate hydrate
;
_chemical_name_common
;
TCC1-R methanol solvate hydrate
;
_cell_volume  27257.313
_exptl_crystal_colour 'colorless'
_exptl_crystal_density_diffrn 0.932
_exptl_crystal_description 'cube'
_diffrn_ambient_temperature 100
_refine_special_details
;
The structure is disordered.

;
#These two values have been output from a single CSD field.
_refine_ls_R_factor_gt 0.0889
_refine_ls_wR_factor_gt 0.0889
_symmetry_cell_setting cubic
_symmetry_space_group_name_H-M 'I 21 3'
_symmetry_Int_Tables_number 199
loop_
_symmetry_equiv_pos_site_id
_symmetry_equiv_pos_as_xyz
1 x,y,z
2 z,x,y
3 y,z,x
4 -y,1/2-z,x
5 z,-x,1/2-y
6 1/2-y,z,-x
7 -z,1/2-x,y
8 1/2-z,x,-y
9 y,-z,1/2-x
10 -x,1/2-y,z
11 x,-y,1/2-z
12 1/2-x,y,-z
13 1/2+x,1/2+y,1/2+z
14 1/2+z,1/2+x,1/2+y
15 1/2+y,1/2+z,1/2+x
16 1/2-y,-z,1/2+x
17 1/2+z,1/2-x,-y
18 -y,1/2+z,1/2-x
19 1/2-z,-x,1/2+y
20 -z,1/2+x,1/2-y
21 1/2+y,1/2-z,-x
22 1/2-x,-y,1/2+z
23 1/2+x,1/2-y,-z
24 -x,1/2+y,1/2-z
_cell_length_a 30.095(5)
_cell_length_b 30.095(5)
_cell_length_c 30.095(5)
_cell_angle_alpha 90
_cell_angle_beta 90
_cell_angle_gamma 90
_cell_formula_units_Z 8
loop_
_atom_type_symbol
_atom_type_radius_bond
C 0.68
H 0.23
N 0.68
O 0.68
loop_
_atom_site_label
_atom_site_type_symbol
_atom_site_fract_x
_atom_site_fract_y
_atom_site_fract_z
O1 O 0.786(3) 0.590(3) 0.436(3)
O2 O 0.3435(11) 0.3435(11) 0.3435(11)
O3 O 0.5182(5) 0.3818(5) 0.0285(5)
H1 H 0.49780 0.37260 0.01180
C1 C 0.5524(18) 0.3491(18) 0.031(2)
H2 H 0.58180 0.36570 0.03440
H3 H 0.55330 0.33090 0.00600
H4 H 0.54870 0.33200 0.05890
O4 O 0.6563(18) 0.4543(18) 0.0028(18)
O5 O 0.6859(8) 0.50000 0.25000
C2 C 0.6385(9) 0.50000 0.25000
O6 O 0.4353(5) 0.4353(5) 0.4353(5)
C3 C 0.4084(8) 0.4084(8) 0.4084(8)
H5 H 0.37900 0.40670 0.42190
O7 O 0.3186(4) 0.2130(4) 0.1853(4)
N1 N 0.60343(17) 0.46878(16) 0.37584(18)
N2 N 0.61300(15) 0.40738(15) 0.44740(17)
N3 N 0.28734(14) 0.40737(14) 0.17881(14)
N4 N 0.20842(14) 0.40871(14) 0.23227(14)
C4 C 0.4356(2) 0.58286(17) 0.38088(18)
H6 H 0.40670 0.58480 0.36830
C5 C 0.4636(2) 0.54471(16) 0.36808(17)
C6 C 0.4488(2) 0.51692(17) 0.33453(19)
H7 H 0.42080 0.52250 0.32120
C7 C 0.4743(2) 0.48066(17) 0.31977(19)
C8 C 0.51570(18) 0.47370(17) 0.33855(18)
H8 H 0.53360 0.44970 0.32850
C9 C 0.53143(18) 0.50167(16) 0.37215(18)
C10 C 0.50437(18) 0.53607(16) 0.38757(17)
H9 H 0.51410 0.55380 0.41180
C11 C 0.45636(19) 0.45044(18) 0.2886(2)
C12 C 0.4376(2) 0.42275(18) 0.2659(2)
C13 C 0.41426(18) 0.38882(17) 0.24202(18)
C14 C 0.37319(17) 0.39654(16) 0.22307(17)
H10 H 0.36060 0.42550 0.22460
C15 C 0.34984(17) 0.36285(16) 0.20171(17)
C16 C 0.36779(17) 0.32010(17) 0.20074(17)
H11 H 0.35180 0.29660 0.18690
C17 C 0.40907(17) 0.31167(17) 0.21998(18)
C18 C 0.43211(19) 0.34593(18) 0.24034(19)
H12 H 0.46030 0.34020 0.25330
C19 C 0.57560(18) 0.49480(16) 0.39225(19)
H13 H 0.58310 0.51070 0.41850
C20 C 0.42878(17) 0.26699(17) 0.22134(19)
H14 H 0.45820 0.26400 0.23250
C21 C 0.30594(17) 0.36958(17) 0.18214(17)
H15 H 0.29040 0.34430 0.17130
C22 C 0.24286(18) 0.40908(18) 0.15866(17)
H16 H 0.23170 0.37820 0.15350
C23 C 0.2456(2) 0.4339(2) 0.11413(19)
H17 H 0.25890 0.46360 0.11890
H18 H 0.26500 0.41730 0.09340
C24 C 0.1998(2) 0.4390(3) 0.0938(2)
H19 H 0.20200 0.45680 0.06620
H20 H 0.18800 0.40940 0.08590
C25 C 0.1683(2) 0.4615(3) 0.1255(2)
H21 H 0.13830 0.46260 0.11200
H22 H 0.17820 0.49240 0.13050
C26 C 0.1655(2) 0.4378(2) 0.16994(19)
H23 H 0.15230 0.40790 0.16570
H24 H 0.14600 0.45480 0.19030
C27 C 0.21203(18) 0.43314(18) 0.19061(17)
H25 H 0.22420 0.46340 0.19680
C28 C 0.6459(2) 0.4637(2) 0.3996(2)
H26 H 0.64720 0.48480 0.42520
C29 C 0.6844(3) 0.4729(3) 0.3677(4)
H27 H 0.68190 0.45310 0.34160
H28 H 0.68260 0.50400 0.35710
C30 C 0.7291(3) 0.4654(3) 0.3905(5)
H29 H 0.75340 0.47090 0.36900
H30 H 0.73240 0.48670 0.41530
C31 C 0.7329(2) 0.4187(3) 0.4082(4)
H31 H 0.76120 0.41540 0.42470
H32 H 0.73330 0.39740 0.38310
C32 C 0.69396(19) 0.4078(2) 0.4390(3)
H33 H 0.69600 0.42650 0.46600
H34 H 0.69590 0.37640 0.44830
C33 C 0.64905(18) 0.4159(2) 0.4163(2)
H35 H 0.64610 0.39520 0.39040
O8 O 0.179(3) 0.179(3) 0.179(3)
O9 O 0.687(2) 0.378(2) 0.1671(19)
C34 C 0.707(2) 0.367(2) 0.209(2)
O10? O 0.789(3) 0.587(3) 0.384(3)
O11? O 0.5318(9) 0.3645(9) 0.0500(9)
O12? O 0.674(2) 0.337(2) 0.089(2)
O13? O 0.6509(15) 0.4031(16) 0.0815(16)
H36? H 0.65820 0.37750 0.08990
C35? C 0.6119(15) 0.4003(15) 0.0542(15)
H37? H 0.61280 0.42310 0.03180
H38? H 0.58510 0.40340 0.07270
H39? H 0.61070 0.37060 0.03960
O14? O 0.3177(4) 0.5037(4) 0.3003(4)
H40? H 0.33090 0.49900 0.27620
C36? C 0.343(1) 0.4866(12) 0.3355(9)
H41? H 0.36300 0.46340 0.32430
H42? H 0.32310 0.47390 0.35800
H43? H 0.36060 0.51050 0.34890
O15? O 0.3543(8) 0.4338(8) 0.3469(8)
O16? O 0.3068(5) 0.5061(5) 0.2881(5)
O17? O 0.513(5) 0.221(5) -0.187(5)
O18? O 0.6243(8) 0.4644(7) 0.2823(7)
H44? H 0.65160 0.46440 0.28820
C37? C 0.614(2) 0.50000 0.25000
H45? H 0.61540 0.48780 0.21980
H46? H 0.63670 0.52360 0.25280
H47? H 0.58490 0.51220 0.25590
O19? O 0.6923(9) 0.4086(9) 0.2375(9)
H48? H 0.69120 0.39310 0.21440
C38? C 0.733(2) 0.434(3) 0.238(4)
H49? H 0.75650 0.42790 0.26350
H50? H 0.72910 0.46990 0.24570
H51? H 0.75330 0.43730 0.21130
H52? H 0.68460 0.40540 0.16490
H53? H 0.73490 0.35030 0.20100
H54? H 0.68710 0.34730 0.22410
H55? H 0.71490 0.39260 0.22620
H56? H 0.37900 0.40670 0.42190
H57? H 0.37900 0.40670 0.42190
O20? O 0.2854(12) 0.2562(12) 0.1206(11)
O21? O 0.50000 0.25000 -0.128(7)
H58? H 0.44510 0.45660 0.42020
O22? O 0.5480(11) 0.5362(11) 0.5029(11)
H59? H 0.56390 0.52290 0.48430
C39? C 0.5117(6) 0.5117(6) 0.5117(6)
H60? H 0.50120 0.49770 0.48430
H61? H 0.48830 0.53090 0.52380
H62? H 0.51920 0.48870 0.53350
O23? O 0.2593(14) 0.2677(12) 0.2296(11)
H63? H 0.26460 0.24150 0.22170
C40? C 0.2740(8) 0.2740(8) 0.2740(8)
H64? H 0.28140 0.24510 0.28700
H65? H 0.25010 0.28790 0.29140
H66? H 0.30060 0.29340 0.27530
H67? H 0.62780 0.48630 0.27750
H68? H 0.62780 0.48300 0.22440
H69? H 0.69520 0.52630 0.25050
H70? H 0.62780 0.53060 0.24810
H5A H 0.42190 0.37900 0.40670
H5B H 0.40670 0.42190 0.37900
N1A N 0.37584(17) 0.60343(16) 0.46878(18)
N2A N 0.44740(15) 0.61300(15) 0.40738(17)
N3A N 0.17881(14) 0.28734(14) 0.40737(14)
N4A N 0.23227(14) 0.20842(14) 0.40871(14)
C4A C 0.38088(20) 0.43560(17) 0.58286(18)
H6A H 0.36830 0.40670 0.58480
C5A C 0.36808(20) 0.46360(16) 0.54471(17)
C6A C 0.33453(20) 0.44880(17) 0.51692(19)
H7A H 0.32120 0.42080 0.52250
C7A C 0.31977(20) 0.47430(17) 0.48066(19)
C8A C 0.33855(18) 0.51570(17) 0.47370(18)
H8A H 0.32850 0.53360 0.44970
C9A C 0.37215(18) 0.53143(16) 0.50167(18)
C10A C 0.38757(18) 0.50437(16) 0.53607(17)
H9A H 0.41180 0.51410 0.55380
C11A C 0.28860(19) 0.45636(18) 0.45044(20)
C12A C 0.2659(2) 0.43760(18) 0.42275(20)
C13A C 0.24202(18) 0.41426(17) 0.38882(18)
C14A C 0.22307(17) 0.37319(16) 0.39654(17)
H10A H 0.22460 0.36060 0.42550
C15A C 0.20171(17) 0.34984(16) 0.36285(17)
C16A C 0.20074(17) 0.36779(17) 0.32010(17)
H11A H 0.18690 0.35180 0.29660
C17A C 0.21998(17) 0.40907(17) 0.31167(18)
C18A C 0.24034(19) 0.43211(18) 0.34593(19)
H12A H 0.25330 0.46030 0.34020
C19A C 0.39225(18) 0.57560(16) 0.49480(19)
H13A H 0.41850 0.58310 0.51070
C20A C 0.22134(17) 0.42878(17) 0.26699(19)
H14A H 0.23250 0.45820 0.26400
C21A C 0.18214(17) 0.30594(17) 0.36958(17)
H15A H 0.17130 0.29040 0.34430
C22A C 0.15866(18) 0.24286(18) 0.40908(17)
H16A H 0.15350 0.23170 0.37820
C23A C 0.11413(20) 0.2456(2) 0.43390(19)
H17A H 0.11890 0.25890 0.46360
H18A H 0.09340 0.26500 0.41730
C24A C 0.0938(2) 0.1998(3) 0.4390(2)
H19A H 0.06620 0.20200 0.45680
H20A H 0.08590 0.18800 0.40940
C25A C 0.1255(2) 0.1683(3) 0.4615(2)
H21A H 0.11200 0.13830 0.46260
H22A H 0.13050 0.17820 0.49240
C26A C 0.16994(20) 0.1655(2) 0.43780(19)
H23A H 0.16570 0.15230 0.40790
H24A H 0.19030 0.14600 0.45480
C27A C 0.19061(18) 0.21203(18) 0.43314(17)
H25A H 0.19680 0.22420 0.46340
C28A C 0.3996(2) 0.6459(2) 0.4637(2)
H26A H 0.42520 0.64720 0.48480
C29A C 0.3677(3) 0.6844(3) 0.4729(4)
H27A H 0.34160 0.68190 0.45310
H28A H 0.35710 0.68260 0.50400
C30A C 0.3905(3) 0.7291(3) 0.4654(5)
H29A H 0.36900 0.75340 0.47090
H30A H 0.41530 0.73240 0.48670
C31A C 0.4082(2) 0.7329(3) 0.4187(4)
H31A H 0.42470 0.76120 0.41540
H32A H 0.38310 0.73330 0.39740
C32A C 0.43900(19) 0.69396(20) 0.4078(3)
H33A H 0.46600 0.69600 0.42650
H34A H 0.44830 0.69590 0.37640
C33A C 0.41630(18) 0.64905(20) 0.4159(2)
H35A H 0.39040 0.64610 0.39520
N1B N 0.46878(17) 0.37584(16) 0.60343(18)
N2B N 0.40738(15) 0.44740(15) 0.61300(17)
N3B N 0.40737(14) 0.17881(14) 0.28734(14)
N4B N 0.40871(14) 0.23227(14) 0.20842(14)
C4B C 0.58286(20) 0.38088(17) 0.43560(18)
H6B H 0.58480 0.36830 0.40670
C5B C 0.54471(20) 0.36808(16) 0.46360(17)
C6B C 0.51692(20) 0.33453(17) 0.44880(19)
H7B H 0.52250 0.32120 0.42080
C7B C 0.48066(20) 0.31977(17) 0.47430(19)
C8B C 0.47370(18) 0.33855(17) 0.51570(18)
H8B H 0.44970 0.32850 0.53360
C9B C 0.50167(18) 0.37215(16) 0.53143(18)
C10B C 0.53607(18) 0.38757(16) 0.50437(17)
H9B H 0.55380 0.41180 0.51410
C11B C 0.45044(19) 0.28860(18) 0.45636(20)
C12B C 0.42275(20) 0.26590(18) 0.4376(2)
C13B C 0.38882(18) 0.24202(17) 0.41426(18)
C14B C 0.39654(17) 0.22307(16) 0.37319(17)
H10B H 0.42550 0.22460 0.36060
C15B C 0.36285(17) 0.20171(16) 0.34984(17)
C16B C 0.32010(17) 0.20074(17) 0.36779(17)
H11B H 0.29660 0.18690 0.35180
C17B C 0.31167(17) 0.21998(17) 0.40907(18)
C18B C 0.34593(19) 0.24034(18) 0.43211(19)
H12B H 0.34020 0.25330 0.46030
C19B C 0.49480(18) 0.39225(16) 0.57560(19)
H13B H 0.51070 0.41850 0.58310
C20B C 0.26699(17) 0.22134(17) 0.42878(19)
H14B H 0.26400 0.23250 0.45820
C21B C 0.36958(17) 0.18214(17) 0.30594(17)
H15B H 0.34430 0.17130 0.29040
C22B C 0.40908(18) 0.15866(18) 0.24286(17)
H16B H 0.37820 0.15350 0.23170
C23B C 0.4339(2) 0.11413(20) 0.24560(19)
H17B H 0.46360 0.11890 0.25890
H18B H 0.41730 0.09340 0.26500
C24B C 0.4390(2) 0.0938(3) 0.1998(2)
H19B H 0.45680 0.06620 0.20200
H20B H 0.40940 0.08590 0.18800
C25B C 0.4615(2) 0.1255(3) 0.1683(2)
H21B H 0.46260 0.11200 0.13830
H22B H 0.49240 0.13050 0.17820
C26B C 0.4378(2) 0.16994(20) 0.16550(19)
H23B H 0.40790 0.16570 0.15230
H24B H 0.45480 0.19030 0.14600
C27B C 0.43314(18) 0.19061(18) 0.21203(17)
H25B H 0.46340 0.19680 0.22420
C28B C 0.4637(2) 0.3996(2) 0.6459(2)
H26B H 0.48480 0.42520 0.64720
C29B C 0.4729(3) 0.3677(3) 0.6844(4)
H27B H 0.45310 0.34160 0.68190
H28B H 0.50400 0.35710 0.68260
C30B C 0.4654(3) 0.3905(3) 0.7291(5)
H29B H 0.47090 0.36900 0.75340
H30B H 0.48670 0.41530 0.73240
C31B C 0.4187(2) 0.4082(3) 0.7329(4)
H31B H 0.41540 0.42470 0.76120
H32B H 0.39740 0.38310 0.73330
C32B C 0.40780(19) 0.4390(2) 0.69396(30)
H33B H 0.42650 0.46600 0.69600
H34B H 0.37640 0.44830 0.69590
C33B C 0.41590(18) 0.4163(2) 0.64905(20)
H35B H 0.39520 0.39040 0.64610
#END
