
#######################################################################
#
#                 Cambridge Crystallographic Data Centre
#                                CCDC
#
#######################################################################
#
# If this CIF has been generated from an entry in the Cambridge
# Structural Database, then it will include bibliographic, chemical,
# crystal, experimental, refinement or atomic coordinate data resulting
# from the CCDC's data processing and validation procedures.
#
#######################################################################

data_CSD_CIF_ABILAB
_audit_creation_date 2016-11-23
_audit_creation_method CSD-ConQuest-V1
_database_code_CSD ABILAB
_database_code_depnum_ccdc_archive 'CCDC 1453924'
_chemical_formula_sum 'C110 H140 N12 O5'
_chemical_formula_moiety
;
C90 H90 N12,5(C4 H10 O1)
;
_journal_coden_Cambridge 1441
_journal_volume 9
_journal_year 2016
_journal_page_first 17
_journal_name_full 'Nature Chemistry '
loop_
_publ_author_name
"A.G.Slater"
"M.A.Little"
"A.Pulido"
"S.Y.Chong"
"D.Holden"
"L.Chen"
"C.Morgan"
"X.Wu"
"G.Cheng"
"R.Clowes"
"M.E.Briggs"
"T.Hasell"
"K.E.Jelfs"
"G.M.Day"
"A.I.Cooper"
_chemical_name_systematic
;
rac-6,8,12,14,21,23,27,29,32,34,39,41-dodecaaza-7,13,22,28,33,40(1,2)-hexacycl
ohexana-1,4,10,16,19,25(1,3,5)-hexabenzenatetracyclo[17.11.5.5^4,16^.2^10,25^]
dotetracontaphane-5,8,11,14,20,23,26,29,31,34,38,41-dodecaene-2,17,36-triyne 
diethyl ether solvate
;
_chemical_name_common
;
rac-TCC1 diethyl ether solvate
;
_cell_volume  14999.662
_exptl_crystal_colour 'colorless'
_exptl_crystal_density_diffrn 1.136
_exptl_crystal_description 'needle'
_diffrn_ambient_temperature 100
_refine_special_details
;
O1 disordered by symmetry over two configurations with occupancy 0.5.

;
#These two values have been output from a single CSD field.
_refine_ls_R_factor_gt 0.0919
_refine_ls_wR_factor_gt 0.0919
_symmetry_cell_setting rhombohedral
_symmetry_space_group_name_H-M 'R -3 c'
_symmetry_Int_Tables_number 167
loop_
_symmetry_equiv_pos_site_id
_symmetry_equiv_pos_as_xyz
1 x,y,z
2 -y,x-y,z
3 -x+y,-x,z
4 x-y,-y,1/2-z
5 -x,-x+y,1/2-z
6 y,x,1/2-z
7 2/3+x,1/3+y,1/3+z
8 2/3-y,1/3+x-y,1/3+z
9 2/3-x+y,1/3-x,1/3+z
10 2/3+x-y,1/3-y,5/6-z
11 2/3-x,1/3-x+y,5/6-z
12 2/3+y,1/3+x,5/6-z
13 1/3+x,2/3+y,2/3+z
14 1/3-y,2/3+x-y,2/3+z
15 1/3-x+y,2/3-x,2/3+z
16 1/3+x-y,2/3-y,1/6-z
17 1/3-x,2/3-x+y,1/6-z
18 1/3+y,2/3+x,1/6-z
19 -x,-y,-z
20 y,-x+y,-z
21 x-y,x,-z
22 -x+y,y,-1/2+z
23 x,x-y,-1/2+z
24 -y,-x,-1/2+z
25 -2/3-x,-1/3-y,-1/3-z
26 -2/3+y,-1/3-x+y,-1/3-z
27 -2/3+x-y,-1/3+x,-1/3-z
28 -2/3-x+y,-1/3+y,-5/6+z
29 -2/3+x,-1/3+x-y,-5/6+z
30 -2/3-y,-1/3-x,-5/6+z
31 -1/3-x,-2/3-y,-2/3-z
32 -1/3+y,-2/3-x+y,-2/3-z
33 -1/3+x-y,-2/3+x,-2/3-z
34 -1/3-x+y,-2/3+y,-1/6+z
35 -1/3+x,-2/3+x-y,-1/6+z
36 -1/3-y,-2/3-x,-1/6+z
_cell_length_a 24.469(3)
_cell_length_b 24.469(3)
_cell_length_c 28.928(3)
_cell_angle_alpha 90
_cell_angle_beta 90
_cell_angle_gamma 120
_cell_formula_units_Z 6
loop_
_atom_type_symbol
_atom_type_radius_bond
C 0.68
H 0.23
N 0.68
O 0.68
loop_
_atom_site_label
_atom_site_type_symbol
_atom_site_fract_x
_atom_site_fract_y
_atom_site_fract_z
N1 N 0.4667(2) 0.57279(19) 0.59075(13)
N2 N 0.5408(2) 0.7070(2) 0.60406(14)
C1 C 0.3309(3) 0.4965(3) 0.43736(16)
C2 C 0.3203(3) 0.4974(2) 0.48635(15)
C3 C 0.3696(3) 0.5214(2) 0.51790(16)
H1 H 0.41130 0.53470 0.50770
C4 C 0.3580(2) 0.5262(2) 0.56484(15)
C5 C 0.2973(3) 0.5058(3) 0.57887(16)
H2 H 0.28950 0.50930 0.61060
C6 C 0.2468(3) 0.4804(2) 0.54826(15)
C7 C 0.2591(3) 0.4764(2) 0.50142(16)
H3 H 0.22530 0.45920 0.47980
C8 C 0.4094(3) 0.5544(2) 0.59911(16)
H4 H 0.39860 0.55910 0.62980
C9 C 0.5111(2) 0.6006(2) 0.62907(15)
H5 H 0.48860 0.60690 0.65560
C10 C 0.5361(3) 0.5577(3) 0.64491(16)
H6 H 0.50040 0.51680 0.65530
H7 H 0.55680 0.54940 0.61860
C11 C 0.5829(3) 0.5877(3) 0.68407(18)
H8 H 0.56160 0.59400 0.71090
H9 H 0.59850 0.55910 0.69360
C12 C 0.6381(3) 0.6506(3) 0.6694(2)
H10 H 0.66220 0.64370 0.64480
H11 H 0.66670 0.67060 0.69600
C13 C 0.6152(3) 0.6939(3) 0.6516(2)
H12 H 0.59800 0.70660 0.67790
H13 H 0.65160 0.73260 0.63900
C14 C 0.5652(3) 0.6645(2) 0.61465(17)
H14 H 0.58490 0.65900 0.58610
C15 C 0.5433(2) 0.7247(2) 0.56270(17)
H15 H 0.56130 0.71030 0.54000
O1? O 0.4290(5) 0.3184(5) 0.5668(4)
C16? C 0.4717(4) 0.4312(3) 0.5505(3)
H16? H 0.43730 0.42920 0.56920
H17? H 0.46440 0.43580 0.51780
H18? H 0.51190 0.46740 0.56030
C17? C 0.4741(5) 0.3758(4) 0.5566(3)
H19? H 0.49280 0.37100 0.52760
H20? H 0.50650 0.38620 0.58080
N1A N 0.42721(20) 0.89391(19) 0.59075(13)
N2A N 0.2930(2) 0.8338(2) 0.60406(14)
C1A C 0.5035(3) 0.8344(3) 0.43736(16)
C2A C 0.5026(3) 0.8229(2) 0.48635(15)
C3A C 0.4786(3) 0.8482(2) 0.51790(16)
H1A H 0.46530 0.87660 0.50770
C4A C 0.4738(2) 0.8318(2) 0.56484(15)
C5A C 0.4942(3) 0.7915(3) 0.57887(16)
H2A H 0.49070 0.78020 0.61060
C6A C 0.5196(3) 0.7664(2) 0.54826(15)
C7A C 0.5236(3) 0.7827(2) 0.50142(16)
H3A H 0.54080 0.76610 0.47980
C8A C 0.4456(3) 0.8550(2) 0.59911(16)
H4A H 0.44090 0.83950 0.62980
C9A C 0.3994(2) 0.9105(2) 0.62907(15)
H5A H 0.39310 0.88170 0.65560
C10A C 0.4423(3) 0.9784(3) 0.64491(16)
H6A H 0.48320 0.98360 0.65530
H7A H 0.45060 1.00740 0.61860
C11A C 0.4123(3) 0.9952(3) 0.68407(18)
H8A H 0.40600 0.96760 0.71090
H9A H 0.44090 1.03940 0.69360
C12A C 0.3494(3) 0.9875(3) 0.6694(2)
H10A H 0.35630 1.01850 0.64480
H11A H 0.32940 0.99610 0.69600
C13A C 0.3061(3) 0.9213(3) 0.6516(2)
H12A H 0.29340 0.89140 0.67790
H13A H 0.26740 0.91900 0.63900
C14A C 0.3355(3) 0.9007(2) 0.61465(17)
H14A H 0.34100 0.92590 0.58610
C15A C 0.2753(2) 0.8186(2) 0.56270(17)
H15A H 0.28970 0.85100 0.54000
N1B N 0.10609(20) 0.53330(19) 0.59075(13)
N2B N 0.1662(2) 0.4592(2) 0.60406(14)
C1B C 0.1656(3) 0.6691(3) 0.43736(16)
C2B C 0.1771(3) 0.6797(2) 0.48635(15)
C3B C 0.1518(3) 0.6304(2) 0.51790(16)
H1B H 0.12340 0.58870 0.50770
C4B C 0.1682(2) 0.6420(2) 0.56484(15)
C5B C 0.2085(3) 0.7027(3) 0.57887(16)
H2B H 0.21980 0.71050 0.61060
C6B C 0.2336(3) 0.7532(2) 0.54826(15)
C7B C 0.2173(3) 0.7409(2) 0.50142(16)
H3B H 0.23390 0.77470 0.47980
C8B C 0.1450(3) 0.5906(2) 0.59911(16)
H4B H 0.16050 0.60140 0.62980
C9B C 0.0895(2) 0.4889(2) 0.62907(15)
H5B H 0.11830 0.51140 0.65560
C10B C 0.0216(3) 0.4639(3) 0.64491(16)
H6B H 0.01640 0.49960 0.65530
H7B H -0.00740 0.44320 0.61860
C11B C 0.0048(3) 0.4171(3) 0.68407(18)
H8B H 0.03240 0.43840 0.71090
H9B H -0.03940 0.40150 0.69360
C12B C 0.0125(3) 0.3619(3) 0.6694(2)
H10B H -0.01850 0.33780 0.64480
H11B H 0.00390 0.33330 0.69600
C13B C 0.0787(3) 0.3848(3) 0.6516(2)
H12B H 0.10860 0.40200 0.67790
H13B H 0.08100 0.34840 0.63900
C14B C 0.0993(3) 0.4348(2) 0.61465(17)
H14B H 0.07410 0.41510 0.58610
C15B C 0.1814(2) 0.4567(2) 0.56270(17)
H15B H 0.14900 0.43870 0.54000
N1J N 0.199967(200) 0.439423(190) 0.242583(130)
N2J N 0.125867(200) 0.499533(200) 0.229273(140)
C1J C 0.335767(300) 0.498933(300) 0.395973(160)
C2J C 0.346367(300) 0.510433(200) 0.346983(150)
C3J C 0.297067(300) 0.485133(200) 0.315433(160)
H1J H 0.25537 0.45673 0.32563
C4J C 0.308667(200) 0.501533(200) 0.268493(150)
C5J C 0.369367(300) 0.541833(300) 0.254463(160)
H2J H 0.37717 0.55313 0.22273
C6J C 0.419867(300) 0.566933(200) 0.285073(150)
C7J C 0.407567(300) 0.550633(200) 0.331913(160)
H3J H 0.44137 0.56723 0.35353
C8J C 0.257267(300) 0.478333(200) 0.234223(160)
H4J H 0.26807 0.49383 0.20353
C9J C 0.155567(200) 0.422833(200) 0.204263(150)
H5J H 0.17807 0.45163 0.17773
C10J C 0.130567(300) 0.354933(300) 0.188423(160)
H6J H 0.16627 0.34973 0.17803
H7J H 0.10987 0.32593 0.21473
C11J C 0.083767(300) 0.338133(300) 0.149263(180)
H8J H 0.10507 0.36573 0.12243
H9J H 0.06817 0.29393 0.13973
C12J C 0.028567(300) 0.345833(300) 0.163933(200)
H10J H 0.00447 0.31483 0.18853
H11J H -0.00003 0.33723 0.13733
C13J C 0.051467(300) 0.412033(300) 0.181733(200)
H12J H 0.06867 0.44193 0.15543
H13J H 0.01507 0.41433 0.19433
C14J C 0.101467(300) 0.432633(200) 0.218683(170)
H14J H 0.08177 0.40743 0.24723
C15J C 0.123367(200) 0.514733(200) 0.270633(170)
H15J H 0.10537 0.48233 0.29333
N1K N 0.239457(200) 0.800033(190) 0.242583(130)
N2K N 0.373667(200) 0.874133(200) 0.229273(140)
C1K C 0.163167(300) 0.664233(300) 0.395973(160)
C2K C 0.164067(300) 0.653633(200) 0.346983(150)
C3K C 0.188067(300) 0.702933(200) 0.315433(160)
H1K H 0.20137 0.74463 0.32563
C4K C 0.192867(200) 0.691333(200) 0.268493(150)
C5K C 0.172467(300) 0.630633(300) 0.254463(160)
H2K H 0.17597 0.62283 0.22273
C6K C 0.147067(300) 0.580133(200) 0.285073(150)
C7K C 0.143067(300) 0.592433(200) 0.331913(160)
H3K H 0.12587 0.55863 0.35353
C8K C 0.221067(300) 0.742733(200) 0.234223(160)
H4K H 0.22577 0.73193 0.20353
C9K C 0.267267(200) 0.844433(200) 0.204263(150)
H5K H 0.27357 0.82193 0.17773
C10K C 0.224367(300) 0.869433(300) 0.188423(160)
H6K H 0.18347 0.83373 0.17803
H7K H 0.21607 0.89013 0.21473
C11K C 0.254367(300) 0.916233(300) 0.149263(180)
H8K H 0.26067 0.89493 0.12243
H9K H 0.22577 0.93183 0.13973
C12K C 0.317267(300) 0.971433(300) 0.163933(200)
H10K H 0.31037 0.99553 0.18853
H11K H 0.33727 1.00003 0.13733
C13K C 0.360567(300) 0.948533(300) 0.181733(200)
H12K H 0.37327 0.93133 0.15543
H13K H 0.39927 0.98493 0.19433
C14K C 0.331167(300) 0.898533(200) 0.218683(170)
H14K H 0.32567 0.91823 0.24723
C15K C 0.391367(200) 0.876633(200) 0.270633(170)
H15K H 0.37697 0.89463 0.29333
N1I N 0.560577(200) 0.760543(190) 0.242583(130)
N2I N 0.500467(200) 0.626333(200) 0.229273(140)
C1I C 0.501067(300) 0.836833(300) 0.395973(160)
C2I C 0.489567(300) 0.835933(200) 0.346983(150)
C3I C 0.514867(300) 0.811933(200) 0.315433(160)
H1I H 0.54327 0.79863 0.32563
C4I C 0.498467(200) 0.807133(200) 0.268493(150)
C5I C 0.458167(300) 0.827533(300) 0.254463(160)
H2I H 0.44687 0.82403 0.22273
C6I C 0.433067(300) 0.852933(200) 0.285073(150)
C7I C 0.449367(300) 0.856933(200) 0.331913(160)
H3I H 0.43277 0.87413 0.35353
C8I C 0.521667(300) 0.778933(200) 0.234223(160)
H4I H 0.50617 0.77423 0.20353
C9I C 0.577167(200) 0.732733(200) 0.204263(150)
H5I H 0.54837 0.72643 0.17773
C10I C 0.645067(300) 0.775633(300) 0.188423(160)
H6I H 0.65027 0.81653 0.17803
H7I H 0.67407 0.78393 0.21473
C11I C 0.661867(300) 0.745633(300) 0.149263(180)
H8I H 0.63427 0.73933 0.12243
H9I H 0.70607 0.77423 0.13973
C12I C 0.654167(300) 0.682733(300) 0.163933(200)
H10I H 0.68517 0.68963 0.18853
H11I H 0.66277 0.66273 0.13733
C13I C 0.587967(300) 0.639433(300) 0.181733(200)
H12I H 0.55807 0.62673 0.15543
H13I H 0.58567 0.60073 0.19433
C14I C 0.567367(300) 0.668833(200) 0.218683(170)
H14I H 0.59257 0.67433 0.24723
C15I C 0.485267(200) 0.608633(200) 0.270633(170)
H15I H 0.51767 0.62303 0.29333
#END
