
#######################################################################
#
#                 Cambridge Crystallographic Data Centre
#                                CCDC
#
#######################################################################
#
# If this CIF has been generated from an entry in the Cambridge
# Structural Database, then it will include bibliographic, chemical,
# crystal, experimental, refinement or atomic coordinate data resulting
# from the CCDC's data processing and validation procedures.
#
#######################################################################

data_CSD_CIF_ABILEF
_audit_creation_date 2016-11-23
_audit_creation_method CSD-ConQuest-V1
_database_code_CSD ABILEF
_database_code_depnum_ccdc_archive 'CCDC 1453925'
_chemical_formula_sum 'C246 H270 N36'
_chemical_formula_moiety
;
C102 H102 N12,2(C72 H84 N12)
;
_journal_coden_Cambridge 1441
_journal_volume 9
_journal_year 2016
_journal_page_first 17
_journal_name_full 'Nature Chemistry '
loop_
_publ_author_name
"A.G.Slater"
"M.A.Little"
"A.Pulido"
"S.Y.Chong"
"D.Holden"
"L.Chen"
"C.Morgan"
"X.Wu"
"G.Cheng"
"R.Clowes"
"M.E.Briggs"
"T.Hasell"
"K.E.Jelfs"
"G.M.Day"
"A.I.Cooper"
_chemical_name_systematic
;
(R)-5,7,11,13,19,21,25,27,30,32,36,38-dodecaaza-6,12,20,26,31,37(1,2)-hexacycl
ohexana-1,3,9,15,17,23(1,3,5),2,16,24(1,4)-nonabenzenatetracyclo[15.11.5.5^3,1
5^.1^9,23^]nonatriacontaphane-4,7,10,13,18,21,24,27,29,32,35,38-dodecane 
bis((S)-3,5,9,11,15,17,21,23,26,28,31,33-dodecaaza-4,10,16,22,27,32(1,2)-hexac
yclohexana-1,7,13,19(1,3,5)-tetrabenzenatricyclo[11.11.5.5^7,19^]tetratriacont
aphane-2,5,8,11,14,17,20,23,25,28,30,33-dodecaene)
;
_chemical_name_common
;
TCC2-R bis(CC3-S)
;
_cell_volume  31583.954
_exptl_crystal_colour 'colorless'
_exptl_crystal_density_diffrn 0.785
_exptl_crystal_description 'hexagonal'
_diffrn_ambient_temperature 293
_refine_special_details
;
C64,C65,C66,C67 disordered by symmetry over two configurations with occupancy 
0.5; C83,C84,C85,C86 disordered by symmetry over two configurations with 
occupancy 0.5.
;
#These two values have been output from a single CSD field.
_refine_ls_R_factor_gt 0.0953
_refine_ls_wR_factor_gt 0.0953
_symmetry_cell_setting hexagonal
_symmetry_space_group_name_H-M 'P 63 2 2'
_symmetry_Int_Tables_number 182
loop_
_symmetry_equiv_pos_site_id
_symmetry_equiv_pos_as_xyz
1 x,y,z
2 x-y,x,1/2+z
3 -y,x-y,z
4 -x,-y,1/2+z
5 -x+y,-x,z
6 y,-x+y,1/2+z
7 -y,-x,1/2-z
8 x-y,-y,-z
9 x,x-y,1/2-z
10 y,x,-z
11 -x+y,y,1/2-z
12 -x,-x+y,-z
_cell_length_a 17.316(6)
_cell_length_b 17.316(6)
_cell_length_c 121.63(5)
_cell_angle_alpha 90
_cell_angle_beta 90
_cell_angle_gamma 120
_cell_formula_units_Z 4
loop_
_atom_type_symbol
_atom_type_radius_bond
C 0.68
H 0.23
N 0.68
loop_
_atom_site_label
_atom_site_type_symbol
_atom_site_fract_x
_atom_site_fract_y
_atom_site_fract_z
C1 C 0.5780(5) 0.3131(4) 0.60534(6)
H1 H 0.51880 0.29970 0.60540
C2 C 0.5978(4) 0.2443(4) 0.60533(6)
C3 C 0.5253(4) 0.1508(4) 0.60521(6)
H2 H 0.46660 0.13870 0.60560
C4 C 0.4634(4) -0.0014(4) 0.60377(5)
H3 H 0.40930 0.00310 0.60410
C5 C 0.4669(6) -0.0410(5) 0.59282(7)
H4 H 0.46460 -0.00450 0.58690
H5 H 0.52290 -0.04080 0.59220
C6 C 0.3919(7) -0.1333(7) 0.59162(9)
H6 H 0.33590 -0.13330 0.59180
H7 H 0.39630 -0.15720 0.58460
C7 C 0.3934(7) -0.1899(6) 0.60052(9)
H8 H 0.44840 -0.19180 0.60020
H9 H 0.34400 -0.25020 0.59960
C8 C 0.3864(5) -0.1537(5) 0.61179(8)
H10 H 0.33010 -0.15460 0.61230
H11 H 0.38850 -0.19120 0.61760
C9 C 0.4636(4) -0.0582(4) 0.61318(6)
H12 H 0.52030 -0.05800 0.61330
C10 C 0.5136(5) 0.0053(5) 0.63053(6)
H13 H 0.56480 0.00390 0.62860
C11 C 0.5115(4) 0.0396(5) 0.64147(6)
C12 C 0.4438(4) 0.0578(5) 0.64463(7)
H14 H 0.40040 0.04990 0.63950
C13 C 0.4402(4) 0.0866(5) 0.65496(6)
C14 C 0.5076(5) 0.0993(5) 0.66275(6)
H15 H 0.50610 0.11880 0.66980
C15 C 0.5749(4) 0.0826(5) 0.65974(6)
C16 C 0.5766(5) 0.0544(5) 0.64907(6)
H16 H 0.62310 0.04530 0.64700
C17 C 0.6418(5) 0.0953(5) 0.66790(6)
H17 H 0.64000 0.11680 0.67480
C18 C 0.3685(4) 0.1043(5) 0.65819(7)
H18 H 0.32920 0.10200 0.65280
C19 C 0.2834(4) 0.1392(5) 0.66966(6)
H19 H 0.25150 0.13300 0.66280
C20 C 0.2203(5) 0.0704(5) 0.67803(8)
H20 H 0.19380 0.01120 0.67480
H21 H 0.25400 0.07160 0.68450
C21 C 0.1471(5) 0.0892(6) 0.68145(8)
H22 H 0.11020 0.08270 0.67510
H23 H 0.10960 0.04570 0.68690
C22 C 0.1838(5) 0.1815(6) 0.68614(8)
H24 H 0.21590 0.18700 0.69290
H25 H 0.13530 0.19250 0.68780
C23 C 0.2464(5) 0.2493(5) 0.67771(7)
H26 H 0.21210 0.24710 0.67130
H27 H 0.27210 0.30860 0.68080
C24 C 0.3212(4) 0.2332(4) 0.67414(6)
H28 H 0.35940 0.24100 0.68050
N1 N 0.5401(3) 0.0860(3) 0.60458(4)
N2 N 0.4514(4) -0.0226(4) 0.62358(5)
N3 N 0.3579(4) 0.1222(4) 0.66771(6)
N4 N 0.3743(4) 0.2971(4) 0.66558(5)
C25 C 0.1710(4) -0.1121(4) 0.60327(5)
H29 H 0.21860 -0.08120 0.60810
C26 C 0.1762(4) -0.0803(4) 0.59283(5)
C27 C 0.1044(4) -0.1260(4) 0.58562(5)
H30 H 0.10740 -0.10430 0.57850
C28 C 0.2599(4) -0.0004(4) 0.58917(6)
H31 H 0.30190 0.03260 0.59450
C29 C 0.3659(4) 0.1004(4) 0.57746(5)
H32 H 0.40180 0.11240 0.58410
C30 C 0.4108(5) 0.0765(5) 0.56799(6)
H33 H 0.41420 0.02410 0.57000
H34 H 0.37490 0.06280 0.56140
C31 C 0.5034(5) 0.1533(5) 0.56576(7)
H35 H 0.53000 0.13790 0.55970
H36 H 0.54040 0.16450 0.57220
C32 C 0.4999(5) 0.2364(5) 0.56285(7)
H37 H 0.46620 0.22630 0.55610
H38 H 0.55990 0.28530 0.56160
C33 C 0.4568(4) 0.2614(5) 0.57200(7)
H39 H 0.45290 0.31330 0.56980
H40 H 0.49310 0.27640 0.57860
C34 C 0.3624(4) 0.1828(4) 0.57445(5)
H41 H 0.32580 0.17030 0.56780
C35 C 0.2515(4) 0.2073(4) 0.58103(5)
H42 H 0.22800 0.19060 0.57400
C36 C 0.2035(4) 0.2321(4) 0.58900(5)
C37 C 0.2352(4) 0.2599(4) 0.59960(5)
H43 H 0.28720 0.26120 0.60180
C38 C 0.1911(4) 0.2857(4) 0.60694(5)
C39 C 0.2253(4) 0.3170(4) 0.61789(5)
H44 H 0.27340 0.31170 0.62030
C40 C 0.2344(4) 0.3845(4) 0.63502(5)
H45 H 0.28400 0.37300 0.63600
C41 C 0.2709(5) 0.4850(4) 0.63519(6)
H46 H 0.31610 0.51320 0.62950
H47 H 0.22320 0.49720 0.63360
C42 C 0.3110(5) 0.5236(4) 0.64628(7)
H48 H 0.36210 0.51590 0.64750
H49 H 0.33190 0.58710 0.64630
C43 C 0.2457(6) 0.4804(5) 0.65541(6)
H50 H 0.19710 0.49260 0.65460
H51 H 0.27460 0.50460 0.66240
C44 C 0.2093(5) 0.3802(4) 0.65517(5)
H52 H 0.25740 0.36840 0.65670
H53 H 0.16490 0.35230 0.66090
C45 C 0.1677(4) 0.3390(3) 0.64415(5)
H54 H 0.11480 0.34450 0.64290
C46 C 0.0620(4) 0.1881(4) 0.64339(6)
H55 H 0.02070 0.20720 0.64280
C47 C 0.0299(4) 0.0903(4) 0.64342(6)
C48 C 0.0901(4) 0.0596(4) 0.64357(6)
H56 H 0.15100 0.10000 0.64380
N5 N 0.2782(3) 0.0257(3) 0.57947(5)
N6 N 0.3223(3) 0.2075(3) 0.58325(4)
N7 N 0.1936(3) 0.3509(4) 0.62431(4)
N8 N 0.1430(3) 0.2449(3) 0.64418(4)
C49 C 0.2619(5) 0.2492(4) 0.54064(6)
H57 H 0.27000 0.28950 0.53510
C50 C 0.2882(4) 0.3659(4) 0.55222(6)
H58 H 0.30440 0.39800 0.54520
C51 C 0.3624(5) 0.4158(5) 0.56039(7)
H59 H 0.41720 0.42090 0.55760
H60 H 0.34780 0.38310 0.56730
C52 C 0.3756(6) 0.5100(5) 0.56242(8)
H61 H 0.42400 0.54230 0.56760
H62 H 0.39070 0.54320 0.55560
C53 C 0.2900(6) 0.5005(6) 0.56702(9)
H63 H 0.29760 0.55900 0.56840
H64 H 0.27570 0.46820 0.57390
C54 C 0.2138(6) 0.4503(5) 0.55888(7)
H65 H 0.15930 0.44460 0.56190
H66 H 0.22700 0.48400 0.55210
C55 C 0.2002(5) 0.3581(4) 0.55648(5)
H67 H 0.18130 0.32200 0.56320
C56 C 0.0615(4) 0.2450(5) 0.55052(5)
H68 H 0.05180 0.22640 0.55780
C57 C -0.0073(4) 0.1919(4) 0.54221(5)
C58 C -0.0916(4) 0.1306(5) 0.54538(5)
H69 H -0.10570 0.12190 0.55280
C59 C -0.1574(4) 0.0805(5) 0.53753(5)
C60 C -0.1348(4) 0.0933(5) 0.52654(5)
H70 H -0.17820 0.06100 0.52130
C61 C -0.0474(4) 0.1542(5) 0.52311(5)
C62 C 0.0146(5) 0.2027(5) 0.53102(5)
H71 H 0.07260 0.24380 0.52890
C63 C -0.0240(4) 0.1637(5) 0.51131(5)
C64 C 0.0455(11) 0.2435(10) 0.50734(11)
H72 H 0.07490 0.29120 0.51220
C65 C 0.0729(12) 0.2548(12) 0.49641(10)
H73 H 0.12370 0.30690 0.49420
N9 N 0.1327(4) 0.3145(4) 0.54796(4)
N10 N 0.2721(4) 0.2756(3) 0.55050(5)
C66 C 0.4609(8) 0.4243(7) 0.70764(8)
H74 H 0.45790 0.46140 0.71290
C67 C 0.4522(9) 0.3382(7) 0.71122(7)
C68 C 0.4500(12) 0.3233(8) 0.72214(8)
H75 H 0.45500 0.36690 0.72700
C69 C 0.4401(12) 0.2417(8) 0.72633(7)
C70 C 0.4313(11) 0.1791(8) 0.71877(8)
H76 H 0.42310 0.12480 0.72130
C71 C 0.4341(8) 0.1934(6) 0.70774(7)
C72 C 0.4461(7) 0.2752(6) 0.70382(7)
H77 H 0.45000 0.28660 0.69630
C73 C 0.4244(7) 0.1252(6) 0.69967(7)
H78 H 0.43690 0.14230 0.69230
C74 C 0.4000(6) -0.0098(6) 0.69310(7)
H79 H 0.42210 0.02560 0.68640
C75 C 0.3049(7) -0.0858(7) 0.69131(8)
H80 H 0.26690 -0.06150 0.68940
H81 H 0.28240 -0.11950 0.69810
C76 C 0.3021(8) -0.1481(7) 0.68202(9)
H82 H 0.24180 -0.19790 0.68130
H83 H 0.31880 -0.11580 0.67510
C77 C 0.3643(7) -0.1827(6) 0.68442(10)
H84 H 0.36510 -0.21700 0.67820
H85 H 0.34200 -0.22250 0.69070
C78 C 0.4575(7) -0.1097(6) 0.68677(8)
H86 H 0.48280 -0.07420 0.68020
H87 H 0.49390 -0.13560 0.68880
C79 C 0.4590(6) -0.0500(5) 0.69605(7)
H88 H 0.43660 -0.08530 0.70280
C80 C 0.4442(8) 0.2316(9) 0.73835(10)
C81 C 0.3962(15) 0.1406(13) 0.75462(15)
H89 H 0.36480 0.08400 0.75770
C82 C 0.3922(14) 0.1479(12) 0.74303(16)
H90 H 0.35610 0.09830 0.73870
N11 N 0.4007(5) 0.0464(5) 0.70203(5)
N12 N 0.5507(5) 0.0228(5) 0.69785(6)
C83? C -0.0413(9) 0.1079(9) 0.49289(9)
H91? H -0.07110 0.06030 0.48810
C84? C -0.0651(9) 0.0943(9) 0.50385(9)
H92? H -0.10880 0.03820 0.50620
C85? C 0.5010(18) 0.2943(15) 0.7564(2)
H93? H 0.54080 0.34230 0.76070
C86? C 0.5003(16) 0.3066(15) 0.74488(18)
H94? H 0.53570 0.36240 0.74170
C1B C 0.6869(5) 0.2649(4) 0.60534(6)
H1B H 0.70030 0.21910 0.60540
C2B C 0.7557(4) 0.3535(4) 0.60533(6)
C3B C 0.8492(4) 0.3745(4) 0.60521(6)
H2B H 0.86130 0.32790 0.60560
C4B C 1.0014(4) 0.4648(4) 0.60377(5)
H3B H 0.99690 0.40620 0.60410
C5B C 1.0410(6) 0.5079(5) 0.59282(7)
H4B H 1.00450 0.46910 0.58690
H5B H 1.04080 0.56370 0.59220
C6B C 1.1333(7) 0.5252(7) 0.59162(9)
H6B H 1.13330 0.46920 0.59180
H7B H 1.15720 0.55350 0.58460
C7B C 1.1899(7) 0.5833(6) 0.60052(9)
H8B H 1.19180 0.64020 0.60020
H9B H 1.25020 0.59420 0.59960
C8B C 1.1537(5) 0.5401(5) 0.61179(8)
H10B H 1.15460 0.48470 0.61230
H11B H 1.19120 0.57970 0.61760
C9B C 1.0582(4) 0.5218(4) 0.61318(6)
H12B H 1.05800 0.57830 0.61330
C10B C 0.9947(5) 0.5083(5) 0.63053(6)
H13B H 0.99610 0.56090 0.62860
C11B C 0.9604(4) 0.4719(5) 0.64147(6)
C12B C 0.9422(4) 0.3860(5) 0.64463(7)
H14B H 0.95010 0.35050 0.63950
C13B C 0.9134(4) 0.3536(5) 0.65496(6)
C14B C 0.9007(5) 0.4083(5) 0.66275(6)
H15B H 0.88120 0.38730 0.66980
C15B C 0.9174(4) 0.4923(5) 0.65974(6)
C16B C 0.9456(5) 0.5222(5) 0.64907(6)
H16B H 0.95470 0.57780 0.64700
C17B C 0.9047(5) 0.5465(5) 0.66790(6)
H17B H 0.88320 0.52320 0.67480
C18B C 0.8957(4) 0.2642(5) 0.65819(7)
H18B H 0.89800 0.22720 0.65280
C19B C 0.8608(4) 0.1442(5) 0.66966(6)
H19B H 0.86700 0.11850 0.66280
C20B C 0.9296(5) 0.1499(5) 0.67803(8)
H20B H 0.98880 0.18260 0.67480
H21B H 0.92840 0.18240 0.68450
C21B C 0.9108(5) 0.0579(6) 0.68145(8)
H22B H 0.91730 0.02750 0.67510
H23B H 0.95430 0.06390 0.68690
C22B C 0.8185(5) 0.0023(6) 0.68614(8)
H24B H 0.81300 0.02890 0.69290
H25B H 0.80750 -0.05720 0.68780
C23B C 0.7507(5) -0.0029(5) 0.67771(7)
H26B H 0.75290 -0.03500 0.67130
H27B H 0.69140 -0.03650 0.68080
C24B C 0.7668(4) 0.0880(4) 0.67414(6)
H28B H 0.75900 0.11840 0.68050
N1B N 0.9140(3) 0.4541(3) 0.60458(4)
N2B N 1.0226(4) 0.4740(4) 0.62358(5)
N3B N 0.8778(4) 0.2357(4) 0.66771(6)
N4B N 0.7029(4) 0.0772(4) 0.66558(5)
C1D C 0.7351(5) 0.4220(4) 0.60534(6)
H1D H 0.78090 0.48120 0.60540
C2D C 0.6465(4) 0.4022(4) 0.60533(6)
C3D C 0.6255(4) 0.4747(4) 0.60521(6)
H2D H 0.67210 0.53340 0.60560
C4D C 0.5352(4) 0.5366(4) 0.60377(5)
H3D H 0.59380 0.59070 0.60410
C5D C 0.4921(6) 0.5331(5) 0.59282(7)
H4D H 0.53090 0.53540 0.58690
H5D H 0.43630 0.47710 0.59220
C6D C 0.4748(7) 0.6081(7) 0.59162(9)
H6D H 0.53080 0.66410 0.59180
H7D H 0.44650 0.60370 0.58460
C7D C 0.4167(7) 0.6066(6) 0.60052(9)
H8D H 0.35980 0.55160 0.60020
H9D H 0.40580 0.65600 0.59960
C8D C 0.4599(5) 0.6136(5) 0.61179(8)
H10D H 0.51530 0.66990 0.61230
H11D H 0.42030 0.61150 0.61760
C9D C 0.4782(4) 0.5364(4) 0.61318(6)
H12D H 0.42170 0.47970 0.61330
C10D C 0.4917(5) 0.4864(5) 0.63053(6)
H13D H 0.43910 0.43520 0.62860
C11D C 0.5281(4) 0.4885(5) 0.64147(6)
C12D C 0.6140(4) 0.5562(5) 0.64463(7)
H14D H 0.64950 0.59960 0.63950
C13D C 0.6464(4) 0.5598(5) 0.65496(6)
C14D C 0.5917(5) 0.4924(5) 0.66275(6)
H15D H 0.61270 0.49390 0.66980
C15D C 0.5077(4) 0.4251(5) 0.65974(6)
C16D C 0.4778(5) 0.4234(5) 0.64907(6)
H16D H 0.42220 0.37690 0.64700
C17D C 0.4535(5) 0.3582(5) 0.66790(6)
H17D H 0.47680 0.36000 0.67480
C18D C 0.7358(4) 0.6315(5) 0.65819(7)
H18D H 0.77280 0.67080 0.65280
C19D C 0.8558(4) 0.7166(5) 0.66966(6)
H19D H 0.88150 0.74850 0.66280
C20D C 0.8501(5) 0.7797(5) 0.67803(8)
H20D H 0.81740 0.80620 0.67480
H21D H 0.81760 0.74600 0.68450
C21D C 0.9421(5) 0.8529(6) 0.68145(8)
H22D H 0.97250 0.88980 0.67510
H23D H 0.93610 0.89040 0.68690
C22D C 0.9977(5) 0.8162(6) 0.68614(8)
H24D H 0.97110 0.78410 0.69290
H25D H 1.05720 0.86470 0.68780
C23D C 1.0029(5) 0.7536(5) 0.67771(7)
H26D H 1.03500 0.78790 0.67130
H27D H 1.03650 0.72790 0.68080
C24D C 0.9120(4) 0.6788(4) 0.67414(6)
H28D H 0.88160 0.64060 0.68050
N1D N 0.5459(3) 0.4599(3) 0.60458(4)
N2D N 0.5260(4) 0.5486(4) 0.62358(5)
N3D N 0.7643(4) 0.6421(4) 0.66771(6)
N4D N 0.9228(4) 0.6257(4) 0.66558(5)
C25B C 0.1121(4) 0.2831(4) 0.60327(5)
H29B H 0.08120 0.29980 0.60810
C26B C 0.0803(4) 0.2565(4) 0.59283(5)
C27B C 0.1260(4) 0.2304(4) 0.58562(5)
H30B H 0.10430 0.21170 0.57850
C28B C 0.0004(4) 0.2603(4) 0.58917(6)
H31B H -0.03260 0.26930 0.59450
C29B C -0.1004(4) 0.2655(4) 0.57746(5)
H32B H -0.11240 0.28940 0.58410
C30B C -0.0765(5) 0.3343(5) 0.56799(6)
H33B H -0.02410 0.39010 0.57000
H34B H -0.06280 0.31210 0.56140
C31B C -0.1533(5) 0.3501(5) 0.56576(7)
H35B H -0.13790 0.39210 0.55970
H36B H -0.16450 0.37590 0.57220
C32B C -0.2364(5) 0.2635(5) 0.56285(7)
H37B H -0.22630 0.23990 0.55610
H38B H -0.28530 0.27460 0.56160
C33B C -0.2614(4) 0.1954(5) 0.57200(7)
H39B H -0.31330 0.13960 0.56980
H40B H -0.27640 0.21670 0.57860
C34B C -0.1828(4) 0.1796(4) 0.57445(5)
H41B H -0.17030 0.15550 0.56780
C35B C -0.2073(4) 0.0442(4) 0.58103(5)
H42B H -0.19060 0.03740 0.57400
C36B C -0.2321(4) -0.0286(4) 0.58900(5)
C37B C -0.2599(4) -0.0247(4) 0.59960(5)
H43B H -0.26120 0.02600 0.60180
C38B C -0.2857(4) -0.0946(4) 0.60694(5)
C39B C -0.3170(4) -0.0917(4) 0.61789(5)
H44B H -0.31170 -0.03830 0.62030
C40B C -0.3845(4) -0.1501(4) 0.63502(5)
H45B H -0.37300 -0.08900 0.63600
C41B C -0.4850(5) -0.2141(4) 0.63519(6)
H46B H -0.51320 -0.19710 0.62950
H47B H -0.49720 -0.27400 0.63360
C42B C -0.5236(5) -0.2126(4) 0.64628(7)
H48B H -0.51590 -0.15380 0.64750
H49B H -0.58710 -0.25520 0.64630
C43B C -0.4804(6) -0.2347(5) 0.65541(6)
H50B H -0.49260 -0.29550 0.65460
H51B H -0.50460 -0.23000 0.66240
C44B C -0.3802(5) -0.1709(4) 0.65517(5)
H52B H -0.36840 -0.11100 0.65670
H53B H -0.35230 -0.18740 0.66090
C45B C -0.3390(4) -0.1713(3) 0.64415(5)
H54B H -0.34450 -0.22970 0.64290
C46B C -0.1881(4) -0.1261(4) 0.64339(6)
H55B H -0.20720 -0.18650 0.64280
C47B C -0.0903(4) -0.0604(4) 0.64342(6)
C48B C -0.0596(4) 0.0305(4) 0.64357(6)
H56B H -0.10000 0.05100 0.64380
N5B N -0.0257(3) 0.2525(3) 0.57947(5)
N6B N -0.2075(3) 0.1148(3) 0.58325(4)
N7B N -0.3509(3) -0.1573(4) 0.62431(4)
N8B N -0.2449(3) -0.1019(3) 0.64418(4)
C25D C -0.2831(4) -0.1710(4) 0.60327(5)
H29D H -0.29980 -0.21860 0.60810
C26D C -0.2565(4) -0.1762(4) 0.59283(5)
C27D C -0.2304(4) -0.1044(4) 0.58562(5)
H30D H -0.21170 -0.10740 0.57850
C28D C -0.2603(4) -0.2599(4) 0.58917(6)
H31D H -0.26930 -0.30190 0.59450
C29D C -0.2655(4) -0.3659(4) 0.57746(5)
H32D H -0.28940 -0.40180 0.58410
C30D C -0.3343(5) -0.4108(5) 0.56799(6)
H33D H -0.39010 -0.41420 0.57000
H34D H -0.31210 -0.37490 0.56140
C31D C -0.3501(5) -0.5034(5) 0.56576(7)
H35D H -0.39210 -0.53000 0.55970
H36D H -0.37590 -0.54040 0.57220
C32D C -0.2635(5) -0.4999(5) 0.56285(7)
H37D H -0.23990 -0.46620 0.55610
H38D H -0.27460 -0.55990 0.56160
C33D C -0.1954(4) -0.4568(5) 0.57200(7)
H39D H -0.13960 -0.45290 0.56980
H40D H -0.21670 -0.49310 0.57860
C34D C -0.1796(4) -0.3624(4) 0.57445(5)
H41D H -0.15550 -0.32580 0.56780
C35D C -0.0442(4) -0.2515(4) 0.58103(5)
H42D H -0.03740 -0.22800 0.57400
C36D C 0.0286(4) -0.2035(4) 0.58900(5)
C37D C 0.0247(4) -0.2352(4) 0.59960(5)
H43D H -0.02600 -0.28720 0.60180
C38D C 0.0946(4) -0.1911(4) 0.60694(5)
C39D C 0.0917(4) -0.2253(4) 0.61789(5)
H44D H 0.03830 -0.27340 0.62030
C40D C 0.1501(4) -0.2344(4) 0.63502(5)
H45D H 0.08900 -0.28400 0.63600
C41D C 0.2141(5) -0.2709(4) 0.63519(6)
H46D H 0.19710 -0.31610 0.62950
H47D H 0.27400 -0.22320 0.63360
C42D C 0.2126(5) -0.3110(4) 0.64628(7)
H48D H 0.15380 -0.36210 0.64750
H49D H 0.25520 -0.33190 0.64630
C43D C 0.2347(6) -0.2457(5) 0.65541(6)
H50D H 0.29550 -0.19710 0.65460
H51D H 0.23000 -0.27460 0.66240
C44D C 0.1709(5) -0.2093(4) 0.65517(5)
H52D H 0.11100 -0.25740 0.65670
H53D H 0.18740 -0.16490 0.66090
C45D C 0.1713(4) -0.1677(3) 0.64415(5)
H54D H 0.22970 -0.11480 0.64290
C46D C 0.1261(4) -0.0620(4) 0.64339(6)
H55D H 0.18650 -0.02070 0.64280
C47D C 0.0604(4) -0.0299(4) 0.64342(6)
C48D C -0.0305(4) -0.0901(4) 0.64357(6)
H56D H -0.05100 -0.15100 0.64380
N5D N -0.2525(3) -0.2782(3) 0.57947(5)
N6D N -0.1148(3) -0.3223(3) 0.58325(4)
N7D N 0.1573(3) -0.1936(4) 0.62431(4)
N8D N 0.1019(3) -0.1430(3) 0.64418(4)
C49B C -0.2492(5) 0.0127(4) 0.54064(6)
H57B H -0.28950 -0.01950 0.53510
C50B C -0.3659(4) -0.0777(4) 0.55222(6)
H58B H -0.39800 -0.09360 0.54520
C51B C -0.4158(5) -0.0534(5) 0.56039(7)
H59B H -0.42090 -0.00370 0.55760
H60B H -0.38310 -0.03530 0.56730
C52B C -0.5100(6) -0.1344(5) 0.56242(8)
H61B H -0.54230 -0.11830 0.56760
H62B H -0.54320 -0.15250 0.55560
C53B C -0.5005(6) -0.2105(6) 0.56702(9)
H63B H -0.55900 -0.26140 0.56840
H64B H -0.46820 -0.19250 0.57390
C54B C -0.4503(6) -0.2365(5) 0.55888(7)
H65B H -0.44460 -0.28530 0.56190
H66B H -0.48400 -0.25700 0.55210
C55B C -0.3581(5) -0.1579(4) 0.55648(5)
H67B H -0.32200 -0.14070 0.56320
C56B C -0.2450(4) -0.1835(5) 0.55052(5)
H68B H -0.22640 -0.17460 0.55780
C57B C -0.1919(4) -0.1992(4) 0.54221(5)
C58B C -0.1306(4) -0.2222(5) 0.54538(5)
H69B H -0.12190 -0.22760 0.55280
C59B C -0.0805(4) -0.2379(5) 0.53753(5)
C60B C -0.0933(4) -0.2281(5) 0.52654(5)
H70B H -0.06100 -0.23920 0.52130
C61B C -0.1542(4) -0.2016(5) 0.52311(5)
C62B C -0.2027(5) -0.1881(5) 0.53102(5)
H71B H -0.24380 -0.17120 0.52890
C63B C -0.1637(4) -0.1877(5) 0.51131(5)
C64B C -0.2435(11) -0.198(1) 0.50734(11)
H72B H -0.29120 -0.21630 0.51220
C65B C -0.2548(12) -0.1819(12) 0.49641(10)
H73B H -0.30690 -0.18320 0.49420
N9B N -0.3145(4) -0.1818(4) 0.54796(4)
N10B N -0.2756(4) -0.0035(3) 0.55050(5)
C49D C -0.0127(5) -0.2619(4) 0.54064(6)
H57D H 0.01950 -0.27000 0.53510
C50D C 0.0777(4) -0.2882(4) 0.55222(6)
H58D H 0.09360 -0.30440 0.54520
C51D C 0.0534(5) -0.3624(5) 0.56039(7)
H59D H 0.00370 -0.41720 0.55760
H60D H 0.03530 -0.34780 0.56730
C52D C 0.1344(6) -0.3756(5) 0.56242(8)
H61D H 0.11830 -0.42400 0.56760
H62D H 0.15250 -0.39070 0.55560
C53D C 0.2105(6) -0.2900(6) 0.56702(9)
H63D H 0.26140 -0.29760 0.56840
H64D H 0.19250 -0.27570 0.57390
C54D C 0.2365(6) -0.2138(5) 0.55888(7)
H65D H 0.28530 -0.15930 0.56190
H66D H 0.25700 -0.22700 0.55210
C55D C 0.1579(5) -0.2002(4) 0.55648(5)
H67D H 0.14070 -0.18130 0.56320
C56D C 0.1835(4) -0.0615(5) 0.55052(5)
H68D H 0.17460 -0.05180 0.55780
C57D C 0.1992(4) 0.0073(4) 0.54221(5)
C58D C 0.2222(4) 0.0916(5) 0.54538(5)
H69D H 0.22760 0.10570 0.55280
C59D C 0.2379(4) 0.1574(5) 0.53753(5)
C60D C 0.2281(4) 0.1348(5) 0.52654(5)
H70D H 0.23920 0.17820 0.52130
C61D C 0.2016(4) 0.0474(5) 0.52311(5)
C62D C 0.1881(5) -0.0146(5) 0.53102(5)
H71D H 0.17120 -0.07260 0.52890
C63D C 0.1877(4) 0.0240(5) 0.51131(5)
C64D C 0.1980(11) -0.0455(10) 0.50734(11)
H72D H 0.21630 -0.07490 0.51220
C65D C 0.1819(12) -0.0729(12) 0.49641(10)
H73D H 0.18320 -0.12370 0.49420
N9D N 0.1818(4) -0.1327(4) 0.54796(4)
N10D N 0.0035(4) -0.2721(3) 0.55050(5)
C49I C 0.2492(5) 0.2619(4) 0.45936(6)
H57I H 0.28950 0.27000 0.46490
C50I C 0.3659(4) 0.2882(4) 0.44778(6)
H58I H 0.39800 0.30440 0.45480
C51I C 0.4158(5) 0.3624(5) 0.43961(7)
H59I H 0.42090 0.41720 0.44240
H60I H 0.38310 0.34780 0.43270
C52I C 0.5100(6) 0.3756(5) 0.43758(8)
H61I H 0.54230 0.42400 0.43240
H62I H 0.54320 0.39070 0.44440
C53I C 0.5005(6) 0.2900(6) 0.43298(9)
H63I H 0.55900 0.29760 0.43160
H64I H 0.46820 0.27570 0.42610
C54I C 0.4503(6) 0.2138(5) 0.44112(7)
H65I H 0.44460 0.15930 0.43810
H66I H 0.48400 0.22700 0.44790
C55I C 0.3581(5) 0.2002(4) 0.44352(5)
H67I H 0.32200 0.18130 0.43680
C56I C 0.2450(4) 0.0615(5) 0.44948(5)
H68I H 0.22640 0.05180 0.44220
C57I C 0.1919(4) -0.0073(4) 0.45779(5)
C58I C 0.1306(4) -0.0916(5) 0.45462(5)
H69I H 0.12190 -0.10570 0.44720
C59I C 0.0805(4) -0.1574(5) 0.46247(5)
C60I C 0.0933(4) -0.1348(5) 0.47346(5)
H70I H 0.06100 -0.17820 0.47870
C61I C 0.1542(4) -0.0474(5) 0.47689(5)
C62I C 0.2027(5) 0.0146(5) 0.46898(5)
H71I H 0.24380 0.07260 0.47110
C63I C 0.1637(4) -0.0240(5) 0.48869(5)
C64I C 0.2435(11) 0.0455(10) 0.49266(11)
H72I H 0.29120 0.07490 0.48780
C65I C 0.2548(12) 0.0729(12) 0.50359(10)
H73I H 0.30690 0.12370 0.50580
N9I N 0.3145(4) 0.1327(4) 0.45204(4)
N10I N 0.2756(4) 0.2721(3) 0.44950(5)
C49K C -0.2619(5) -0.0127(4) 0.45936(6)
H57K H -0.27000 0.01950 0.46490
C50K C -0.2882(4) 0.0777(4) 0.44778(6)
H58K H -0.30440 0.09360 0.45480
C51K C -0.3624(5) 0.0534(5) 0.43961(7)
H59K H -0.41720 0.00370 0.44240
H60K H -0.34780 0.03530 0.43270
C52K C -0.3756(6) 0.1344(5) 0.43758(8)
H61K H -0.42400 0.11830 0.43240
H62K H -0.39070 0.15250 0.44440
C53K C -0.2900(6) 0.2105(6) 0.43298(9)
H63K H -0.29760 0.26140 0.43160
H64K H -0.27570 0.19250 0.42610
C54K C -0.2138(6) 0.2365(5) 0.44112(7)
H65K H -0.15930 0.28530 0.43810
H66K H -0.22700 0.25700 0.44790
C55K C -0.2002(5) 0.1579(4) 0.44352(5)
H67K H -0.18130 0.14070 0.43680
C56K C -0.0615(4) 0.1835(5) 0.44948(5)
H68K H -0.05180 0.17460 0.44220
C57K C 0.0073(4) 0.1992(4) 0.45779(5)
C58K C 0.0916(4) 0.2222(5) 0.45462(5)
H69K H 0.10570 0.22760 0.44720
C59K C 0.1574(4) 0.2379(5) 0.46247(5)
C60K C 0.1348(4) 0.2281(5) 0.47346(5)
H70K H 0.17820 0.23920 0.47870
C61K C 0.0474(4) 0.2016(5) 0.47689(5)
C62K C -0.0146(5) 0.1881(5) 0.46898(5)
H71K H -0.07260 0.17120 0.47110
C63K C 0.0240(4) 0.1877(5) 0.48869(5)
C64K C -0.0455(11) 0.198(1) 0.49266(11)
H72K H -0.07490 0.21630 0.48780
C65K C -0.0729(12) 0.1819(12) 0.50359(10)
H73K H -0.12370 0.18320 0.50580
N9K N -0.1327(4) 0.1818(4) 0.45204(4)
N10K N -0.2721(4) 0.0035(3) 0.44950(5)
C49G C 0.0127(5) -0.2492(4) 0.45936(6)
H57G H -0.01950 -0.28950 0.46490
C50G C -0.0777(4) -0.3659(4) 0.44778(6)
H58G H -0.09360 -0.39800 0.45480
C51G C -0.0534(5) -0.4158(5) 0.43961(7)
H59G H -0.00370 -0.42090 0.44240
H60G H -0.03530 -0.38310 0.43270
C52G C -0.1344(6) -0.5100(5) 0.43758(8)
H61G H -0.11830 -0.54230 0.43240
H62G H -0.15250 -0.54320 0.44440
C53G C -0.2105(6) -0.5005(6) 0.43298(9)
H63G H -0.26140 -0.55900 0.43160
H64G H -0.19250 -0.46820 0.42610
C54G C -0.2365(6) -0.4503(5) 0.44112(7)
H65G H -0.28530 -0.44460 0.43810
H66G H -0.25700 -0.48400 0.44790
C55G C -0.1579(5) -0.3581(4) 0.44352(5)
H67G H -0.14070 -0.32200 0.43680
C56G C -0.1835(4) -0.2450(5) 0.44948(5)
H68G H -0.17460 -0.22640 0.44220
C57G C -0.1992(4) -0.1919(4) 0.45779(5)
C58G C -0.2222(4) -0.1306(5) 0.45462(5)
H69G H -0.22760 -0.12190 0.44720
C59G C -0.2379(4) -0.0805(5) 0.46247(5)
C60G C -0.2281(4) -0.0933(5) 0.47346(5)
H70G H -0.23920 -0.06100 0.47870
C61G C -0.2016(4) -0.1542(5) 0.47689(5)
C62G C -0.1881(5) -0.2027(5) 0.46898(5)
H71G H -0.17120 -0.24380 0.47110
C63G C -0.1877(4) -0.1637(5) 0.48869(5)
C64G C -0.1980(11) -0.2435(10) 0.49266(11)
H72G H -0.21630 -0.29120 0.48780
C65G C -0.1819(12) -0.2548(12) 0.50359(10)
H73G H -0.18320 -0.30690 0.50580
N9G N -0.1818(4) -0.3145(4) 0.45204(4)
N10G N -0.0035(4) -0.2756(3) 0.44950(5)
C66B C 0.5757(8) 0.0366(7) 0.70764(8)
H74B H 0.53860 -0.00350 0.71290
C67B C 0.6618(9) 0.1140(7) 0.71122(7)
C68B C 0.6767(12) 0.1267(8) 0.72214(8)
H75B H 0.63310 0.08810 0.72700
C69B C 0.7583(12) 0.1984(8) 0.72633(7)
C70B C 0.8209(11) 0.2522(8) 0.71877(8)
H76B H 0.87520 0.29830 0.72130
C71B C 0.8066(8) 0.2407(6) 0.70774(7)
C72B C 0.7248(7) 0.1709(6) 0.70382(7)
H77B H 0.71340 0.16340 0.69630
C73B C 0.8748(7) 0.2992(6) 0.69967(7)
H78B H 0.85770 0.29460 0.69230
C74B C 1.0098(6) 0.4098(6) 0.69310(7)
H79B H 0.97440 0.39650 0.68640
C75B C 1.0858(7) 0.3907(7) 0.69131(8)
H80B H 1.06150 0.32840 0.68940
H81B H 1.11950 0.40190 0.69810
C76B C 1.1481(8) 0.4502(7) 0.68202(9)
H82B H 1.19790 0.43970 0.68130
H83B H 1.11580 0.43460 0.67510
C77B C 1.1827(7) 0.5470(6) 0.68442(10)
H84B H 1.21700 0.58210 0.67820
H85B H 1.22250 0.56450 0.69070
C78B C 1.1097(7) 0.5672(6) 0.68677(8)
H86B H 1.07420 0.55700 0.68020
H87B H 1.13560 0.62950 0.68880
C79B C 1.0500(6) 0.5090(5) 0.69605(7)
H88B H 1.08530 0.52190 0.70280
C80B C 0.7684(8) 0.2126(9) 0.73835(10)
C81B C 0.8594(15) 0.2556(13) 0.75462(15)
H89B H 0.91600 0.28080 0.75770
C82B C 0.8521(14) 0.2443(12) 0.74303(16)
H90B H 0.90170 0.25780 0.73870
N11B N 0.9536(5) 0.3543(5) 0.70203(5)
N12B N 0.9772(5) 0.5279(5) 0.69785(6)
C66D C 0.9634(8) 0.5391(7) 0.70764(8)
H74D H 1.00350 0.54210 0.71290
C67D C 0.8860(9) 0.5478(7) 0.71122(7)
C68D C 0.8733(12) 0.5500(8) 0.72214(8)
H75D H 0.91190 0.54500 0.72700
C69D C 0.8016(12) 0.5599(8) 0.72633(7)
C70D C 0.7478(11) 0.5687(8) 0.71877(8)
H76D H 0.70170 0.57690 0.72130
C71D C 0.7593(8) 0.5659(6) 0.70774(7)
C72D C 0.8291(7) 0.5539(6) 0.70382(7)
H77D H 0.83660 0.55000 0.69630
C73D C 0.7008(7) 0.5756(6) 0.69967(7)
H78D H 0.70540 0.56310 0.69230
C74D C 0.5902(6) 0.6000(6) 0.69310(7)
H79D H 0.60350 0.57790 0.68640
C75D C 0.6093(7) 0.6951(7) 0.69131(8)
H80D H 0.67160 0.73310 0.68940
H81D H 0.59810 0.71760 0.69810
C76D C 0.5498(8) 0.6979(7) 0.68202(9)
H82D H 0.56030 0.75820 0.68130
H83D H 0.56540 0.68120 0.67510
C77D C 0.4530(7) 0.6357(6) 0.68442(10)
H84D H 0.41790 0.63490 0.67820
H85D H 0.43550 0.65800 0.69070
C78D C 0.4328(7) 0.5425(6) 0.68677(8)
H86D H 0.44300 0.51720 0.68020
H87D H 0.37050 0.50610 0.68880
C79D C 0.4910(6) 0.5410(5) 0.69605(7)
H88D H 0.47810 0.56340 0.70280
C80D C 0.7874(8) 0.5558(9) 0.73835(10)
C81D C 0.7444(15) 0.6038(13) 0.75462(15)
H89D H 0.71920 0.63520 0.75770
C82D C 0.7557(14) 0.6078(12) 0.74303(16)
H90D H 0.74220 0.64390 0.73870
N11D N 0.6457(5) 0.5993(5) 0.70203(5)
N12D N 0.4721(5) 0.4493(5) 0.69785(6)
C66H C 0.4609(8) 0.0366(7) 0.79236(8)
H74H H 0.45790 -0.00350 0.78710
C67H C 0.4522(9) 0.1140(7) 0.78878(7)
C68H C 0.4500(12) 0.1267(8) 0.77786(8)
H75H H 0.45500 0.08810 0.77300
C69H C 0.4401(12) 0.1984(8) 0.77367(7)
C70H C 0.4313(11) 0.2522(8) 0.78123(8)
H76H H 0.42310 0.29830 0.77870
C71H C 0.4341(8) 0.2407(6) 0.79226(7)
C72H C 0.4461(7) 0.1709(6) 0.79618(7)
H77H H 0.45000 0.16340 0.80370
C73H C 0.4244(7) 0.2992(6) 0.80033(7)
H78H H 0.43690 0.29460 0.80770
C74H C 0.4000(6) 0.4098(6) 0.80690(7)
H79H H 0.42210 0.39650 0.81360
C75H C 0.3049(7) 0.3907(7) 0.80869(8)
H80H H 0.26690 0.32840 0.81060
H81H H 0.28240 0.40190 0.80190
C76H C 0.3021(8) 0.4502(7) 0.81798(9)
H82H H 0.24180 0.43970 0.81870
H83H H 0.31880 0.43460 0.82490
C77H C 0.3643(7) 0.5470(6) 0.81558(10)
H84H H 0.36510 0.58210 0.82180
H85H H 0.34200 0.56450 0.80930
C78H C 0.4575(7) 0.5672(6) 0.81323(8)
H86H H 0.48280 0.55700 0.81980
H87H H 0.49390 0.62950 0.81120
C79H C 0.4590(6) 0.5090(5) 0.80395(7)
H88H H 0.43660 0.52190 0.79720
C80H C 0.4442(8) 0.2126(9) 0.76165(10)
C81H C 0.3962(15) 0.2556(13) 0.74538(15)
H89H H 0.36480 0.28080 0.74230
C82H C 0.3922(14) 0.2443(12) 0.75697(16)
H90H H 0.35610 0.25780 0.76130
N11H N 0.4007(5) 0.3543(5) 0.79797(5)
N12H N 0.5507(5) 0.5279(5) 0.80215(6)
C66F C 0.5757(8) 0.5391(7) 0.79236(8)
H74F H 0.53860 0.54210 0.78710
C67F C 0.6618(9) 0.5478(7) 0.78878(7)
C68F C 0.6767(12) 0.5500(8) 0.77786(8)
H75F H 0.63310 0.54500 0.77300
C69F C 0.7583(12) 0.5599(8) 0.77367(7)
C70F C 0.8209(11) 0.5687(8) 0.78123(8)
H76F H 0.87520 0.57690 0.77870
C71F C 0.8066(8) 0.5659(6) 0.79226(7)
C72F C 0.7248(7) 0.5539(6) 0.79618(7)
H77F H 0.71340 0.55000 0.80370
C73F C 0.8748(7) 0.5756(6) 0.80033(7)
H78F H 0.85770 0.56310 0.80770
C74F C 1.0098(6) 0.6000(6) 0.80690(7)
H79F H 0.97440 0.57790 0.81360
C75F C 1.0858(7) 0.6951(7) 0.80869(8)
H80F H 1.06150 0.73310 0.81060
H81F H 1.11950 0.71760 0.80190
C76F C 1.1481(8) 0.6979(7) 0.81798(9)
H82F H 1.19790 0.75820 0.81870
H83F H 1.11580 0.68120 0.82490
C77F C 1.1827(7) 0.6357(6) 0.81558(10)
H84F H 1.21700 0.63490 0.82180
H85F H 1.22250 0.65800 0.80930
C78F C 1.1097(7) 0.5425(6) 0.81323(8)
H86F H 1.07420 0.51720 0.81980
H87F H 1.13560 0.50610 0.81120
C79F C 1.0500(6) 0.5410(5) 0.80395(7)
H88F H 1.08530 0.56340 0.79720
C80F C 0.7684(8) 0.5558(9) 0.76165(10)
C81F C 0.8594(15) 0.6038(13) 0.74538(15)
H89F H 0.91600 0.63520 0.74230
C82F C 0.8521(14) 0.6078(12) 0.75697(16)
H90F H 0.90170 0.64390 0.76130
N11F N 0.9536(5) 0.5993(5) 0.79797(5)
N12F N 0.9772(5) 0.4493(5) 0.80215(6)
C66J C 0.9634(8) 0.4243(7) 0.79236(8)
H74J H 1.00350 0.46140 0.78710
C67J C 0.8860(9) 0.3382(7) 0.78878(7)
C68J C 0.8733(12) 0.3233(8) 0.77786(8)
H75J H 0.91190 0.36690 0.77300
C69J C 0.8016(12) 0.2417(8) 0.77367(7)
C70J C 0.7478(11) 0.1791(8) 0.78123(8)
H76J H 0.70170 0.12480 0.77870
C71J C 0.7593(8) 0.1934(6) 0.79226(7)
C72J C 0.8291(7) 0.2752(6) 0.79618(7)
H77J H 0.83660 0.28660 0.80370
C73J C 0.7008(7) 0.1252(6) 0.80033(7)
H78J H 0.70540 0.14230 0.80770
C74J C 0.5902(6) -0.0098(6) 0.80690(7)
H79J H 0.60350 0.02560 0.81360
C75J C 0.6093(7) -0.0858(7) 0.80869(8)
H80J H 0.67160 -0.06150 0.81060
H81J H 0.59810 -0.11950 0.80190
C76J C 0.5498(8) -0.1481(7) 0.81798(9)
H82J H 0.56030 -0.19790 0.81870
H83J H 0.56540 -0.11580 0.82490
C77J C 0.4530(7) -0.1827(6) 0.81558(10)
H84J H 0.41790 -0.21700 0.82180
H85J H 0.43550 -0.22250 0.80930
C78J C 0.4328(7) -0.1097(6) 0.81323(8)
H86J H 0.44300 -0.07420 0.81980
H87J H 0.37050 -0.13560 0.81120
C79J C 0.4910(6) -0.0500(5) 0.80395(7)
H88J H 0.47810 -0.08530 0.79720
C80J C 0.7874(8) 0.2316(9) 0.76165(10)
C81J C 0.7444(15) 0.1406(13) 0.74538(15)
H89J H 0.71920 0.08400 0.74230
C82J C 0.7557(14) 0.1479(12) 0.75697(16)
H90J H 0.74220 0.09830 0.76130
N11J N 0.6457(5) 0.0464(5) 0.79797(5)
N12J N 0.4721(5) 0.0228(5) 0.80215(6)
#END
