
#######################################################################
#
#                 Cambridge Crystallographic Data Centre
#                                CCDC
#
#######################################################################
#
# If this CIF has been generated from an entry in the Cambridge
# Structural Database, then it will include bibliographic, chemical,
# crystal, experimental, refinement or atomic coordinate data resulting
# from the CCDC's data processing and validation procedures.
#
#######################################################################

data_CSD_CIF_ABILUV
_audit_creation_date 2016-11-23
_audit_creation_method CSD-ConQuest-V1
_database_code_CSD ABILUV
_database_code_depnum_ccdc_archive 'CCDC 1453928'
_chemical_formula_sum 'C127.7 H157 N16.33 O8.33'
_chemical_formula_moiety
;
C102 H102 N12,4.33(C5 H9 N1 O1),4(C1 H4 O1)
;
_journal_coden_Cambridge 1441
_journal_volume 9
_journal_year 2016
_journal_page_first 17
_journal_name_full 'Nature Chemistry '
loop_
_publ_author_name
"A.G.Slater"
"M.A.Little"
"A.Pulido"
"S.Y.Chong"
"D.Holden"
"L.Chen"
"C.Morgan"
"X.Wu"
"G.Cheng"
"R.Clowes"
"M.E.Briggs"
"T.Hasell"
"K.E.Jelfs"
"G.M.Day"
"A.I.Cooper"
_chemical_name_systematic
;
(R)-5,7,11,13,19,21,25,27,30,32,36,38-dodecaaza-6,12,20,26,31,37(1,2)-hexacycl
ohexana-1,3,9,15,17,23(1,3,5),2,16,24(1,4)-nonabenzenatetracyclo[15.11.5.5^3,1
5^.1^9,23^]nonatriacontaphane-4,7,10,13,18,21,24,27,29,32,35,38-dodecane 
1-methylpyrrolidin-2-one methanol solvate
;
_chemical_name_common
;
TCC2-R 1-methylpyrrolidin-2-one methanol solvate
;
_cell_volume   8714.333
_exptl_crystal_colour 'colorless'
_exptl_crystal_density_diffrn 1.174
_exptl_crystal_description 'block'
_diffrn_ambient_temperature 100
_refine_special_details
;
The structure is disordered. Disordered solvent molecules were not modelled 
and the disordered density was taken into account using the SQUEEZE/PLATON 
procedure.
;
#These two values have been output from a single CSD field.
_refine_ls_R_factor_gt 0.0619
_refine_ls_wR_factor_gt 0.0619
_symmetry_cell_setting hexagonal
_symmetry_space_group_name_H-M 'P 31 2 1'
_symmetry_Int_Tables_number 152
loop_
_symmetry_equiv_pos_site_id
_symmetry_equiv_pos_as_xyz
1 x,y,z
2 -y,x-y,1/3+z
3 -x+y,-x,2/3+z
4 x-y,-y,2/3-z
5 -x,-x+y,1/3-z
6 y,x,-z
_cell_length_a 19.5496(10)
_cell_length_b 19.5496(10)
_cell_length_c 26.3286(14)
_cell_angle_alpha 90
_cell_angle_beta 90
_cell_angle_gamma 120
_cell_formula_units_Z 3
loop_
_atom_type_symbol
_atom_type_radius_bond
C 0.68
H 0.23
N 0.68
O 0.68
loop_
_atom_site_label
_atom_site_type_symbol
_atom_site_fract_x
_atom_site_fract_y
_atom_site_fract_z
N1 N 0.3019(2) 0.62169(19) 0.62455(11)
N2 N 0.36562(19) 0.78044(18) 0.59372(12)
N3 N 0.5167(2) 0.5544(2) 0.77995(11)
N4 N 0.6838(2) 0.6568(2) 0.79763(12)
N5 N 0.8158(2) 1.0046(2) 0.70341(13)
N6 N 0.7338(2) 1.0379(2) 0.62464(13)
C1 C 0.7324(3) 0.7828(3) 0.29005(15)
H1 H 0.67820 0.76610 0.28470
C2 C 0.7696(3) 0.8290(3) 0.33088(16)
C3 C 0.7271(3) 0.8463(3) 0.37094(16)
C4 C 0.6537(3) 0.7849(3) 0.38753(15)
H2 H 0.63050 0.73480 0.37120
C5 C 0.6152(3) 0.7969(3) 0.42751(16)
H3 H 0.56460 0.75550 0.43750
C6 C 0.6492(3) 0.8686(3) 0.45341(14)
C7 C 0.7197(3) 0.9301(3) 0.43550(17)
H4 H 0.74140 0.98050 0.45120
C8 C 0.7596(3) 0.9204(4) 0.39538(17)
H5 H 0.80860 0.96330 0.38430
C9 C 0.6089(3) 0.8775(3) 0.50007(14)
C10 C 0.5278(3) 0.8289(3) 0.50614(15)
H6 H 0.49720 0.79370 0.47980
C11 C 0.4914(3) 0.8321(3) 0.55124(15)
C12 C 0.5361(3) 0.8843(3) 0.58892(15)
H7 H 0.51110 0.88700 0.61920
C13 C 0.6161(2) 0.9326(3) 0.58356(16)
C14 C 0.6540(3) 0.9298(3) 0.53838(16)
H8 H 0.70940 0.96310 0.53430
C15 C 0.4038(2) 0.7799(2) 0.55565(15)
H9 H 0.37610 0.74490 0.52850
C16 C 0.6605(3) 0.9862(3) 0.62553(16)
H10 H 0.63230 0.98210 0.65580
C17 C 0.8545(3) 0.8505(3) 0.66224(16)
H11 H 0.88940 0.87860 0.63510
C18 C 0.8295(3) 0.8892(3) 0.69457(17)
C19 C 0.8494(3) 0.9709(3) 0.68285(16)
H12 H 0.88970 0.99960 0.65850
C20 C 0.7818(3) 0.8490(3) 0.73629(16)
H13 H 0.76530 0.87590 0.75890
C21 C 0.7585(3) 0.7711(3) 0.74494(16)
C22 C 0.7064(3) 0.7284(2) 0.78701(15)
H14 H 0.68810 0.75570 0.80780
C23 C 0.4579(6) 0.4915(6) 0.4594(3)
H15 H 0.42350 0.48450 0.43200
C24 C 0.4823(3) 0.5155(3) 0.54919(15)
C25 C 0.4406(6) 0.5113(4) 0.5064(3)
H16 H 0.39860 0.52220 0.50890
C26 C 0.4644(3) 0.5381(3) 0.59966(14)
C27 C 0.5023(3) 0.5303(3) 0.64295(14)
H17 H 0.53770 0.51060 0.63950
C28 C 0.4881(3) 0.5515(2) 0.69105(14)
C29 C 0.4371(2) 0.5811(2) 0.69560(14)
H18 H 0.42820 0.59660 0.72800
C30 C 0.3989(2) 0.5884(2) 0.65331(13)
C31 C 0.4127(3) 0.5660(2) 0.60548(14)
H19 H 0.38590 0.57010 0.57660
C32 C 0.5291(3) 0.5420(2) 0.73489(14)
H20 H 0.56670 0.52570 0.72890
C33 C 0.3454(2) 0.6220(2) 0.65925(14)
H21 H 0.34460 0.64480 0.69100
C34 C 0.6284(3) 0.6187(2) 0.83887(14)
H22 H 0.60740 0.65340 0.85040
C35 C 0.6702(3) 0.6038(3) 0.88338(16)
H23 H 0.69490 0.57330 0.87100
H24 H 0.71270 0.65500 0.89640
C36 C 0.6142(3) 0.5593(3) 0.92573(16)
H25 H 0.59260 0.59140 0.93990
H26 H 0.64300 0.54960 0.95320
C37 C 0.5456(3) 0.4794(3) 0.90667(16)
H27 H 0.56650 0.44530 0.89490
H28 H 0.50790 0.45200 0.93470
C38 C 0.5038(3) 0.4947(3) 0.86313(15)
H29 H 0.47910 0.52490 0.87600
H30 H 0.46120 0.44360 0.84990
C39 C 0.5608(3) 0.5410(2) 0.81966(14)
H31 H 0.58290 0.50860 0.80530
C40 C 0.2593(2) 0.6641(2) 0.63404(14)
H32 H 0.27630 0.69170 0.66760
C41 C 0.1695(2) 0.6074(3) 0.63490(17)
H33 H 0.15260 0.57840 0.60230
H34 H 0.15610 0.56820 0.66250
C42 C 0.1258(3) 0.6518(3) 0.64314(18)
H35 H 0.13860 0.67630 0.67730
H36 H 0.06820 0.61430 0.64180
C43 C 0.1477(3) 0.7158(3) 0.60306(18)
H37 H 0.12870 0.69070 0.56940
H38 H 0.12120 0.74630 0.61110
C44 C 0.2360(2) 0.7711(2) 0.60081(17)
H39 H 0.25410 0.80140 0.63290
H40 H 0.24860 0.80900 0.57260
C45 C 0.2796(2) 0.7249(2) 0.59273(14)
H41 H 0.26450 0.69780 0.55900
C46 C 0.7661(3) 1.0867(2) 0.66897(16)
H42 H 0.72540 1.06580 0.69650
C47 C 0.7874(3) 1.1716(3) 0.6569(2)
H43 H 0.73930 1.17270 0.64650
H44 H 0.82540 1.19180 0.62830
C48 C 0.8244(4) 1.2248(3) 0.7041(2)
H45 H 0.83900 1.27980 0.69560
H46 H 0.78510 1.20650 0.73190
C49 C 0.8955(4) 1.2229(3) 0.7214(2)
H47 H 0.91670 1.25560 0.75240
H48 H 0.93670 1.24570 0.69480
C50 C 0.8761(3) 1.1395(3) 0.7327(2)
H49 H 0.83920 1.11900 0.76180
H50 H 0.92510 1.13970 0.74250
C51 C 0.8393(3) 1.0854(2) 0.68764(16)
H51 H 0.87880 1.10200 0.65950
H52? H 0.65170 0.68840 0.48110
C52? C 0.7139(6) 0.7594(6) 0.5367(4)
H53? H 0.67480 0.77740 0.53350
H54? H 0.71230 0.74030 0.57170
C53? C 0.7883(7) 0.8181(7) 0.5239(4)
H55? H 0.82460 0.83010 0.55300
H56? H 0.78740 0.86680 0.51480
C54? C 0.5440(4) 0.4984(3) 0.5423(3)
H57? H 0.57480 0.50050 0.57080
C55? C 0.5610(5) 0.4788(5) 0.4955(3)
H58? H 0.59990 0.46360 0.49180
O1? O 0.8168(7) 0.8862(8) 0.5461(5)
N7? N 0.7139(6) 0.7594(6) 0.5367(4)
C56? C 0.7002(8) 0.7002(8) 0.50000
H59? H 0.65170 0.68840 0.48110
C57? C 0.7883(7) 0.8181(7) 0.5239(4)
C58? C 0.6671(11) 0.7594(11) 0.5787(8)
H60? H 0.69700 0.80840 0.59810
H61? H 0.65430 0.71410 0.60070
H62? H 0.61830 0.75560 0.56590
N1E N 0.62169(20) 0.30190(19) 0.37545(11)
N2E N 0.78044(19) 0.36562(18) 0.40628(12)
N3E N 0.5544(2) 0.5167(2) 0.22005(11)
N4E N 0.6568(2) 0.6838(2) 0.20237(12)
N5E N 1.0046(2) 0.8158(2) 0.29659(13)
N6E N 1.0379(2) 0.7338(2) 0.37536(13)
C1E C 0.7828(3) 0.7324(3) 0.70995(15)
H1E H 0.76610 0.67820 0.71530
C2E C 0.8290(3) 0.7696(3) 0.66912(16)
C3E C 0.8463(3) 0.7271(3) 0.62906(16)
C4E C 0.7849(3) 0.6537(3) 0.61247(15)
H2E H 0.73480 0.63050 0.62880
C5E C 0.7969(3) 0.6152(3) 0.57249(16)
H3E H 0.75550 0.56460 0.56250
C6E C 0.8686(3) 0.6492(3) 0.54659(14)
C7E C 0.9301(3) 0.7197(3) 0.56450(17)
H4E H 0.98050 0.74140 0.54880
C8E C 0.9204(3) 0.7596(4) 0.60462(17)
H5E H 0.96330 0.80860 0.61570
C9E C 0.8775(3) 0.6089(3) 0.49993(14)
C10E C 0.8289(3) 0.5278(3) 0.49386(15)
H6E H 0.79370 0.49720 0.52020
C11E C 0.8321(3) 0.4914(3) 0.44876(15)
C12E C 0.8843(3) 0.5361(3) 0.41108(15)
H7E H 0.88700 0.51110 0.38080
C13E C 0.9326(2) 0.6161(3) 0.41644(16)
C14E C 0.9298(3) 0.6540(3) 0.46162(16)
H8E H 0.96310 0.70940 0.46570
C15E C 0.7799(2) 0.4038(2) 0.44435(15)
H9E H 0.74490 0.37610 0.47150
C16E C 0.9862(3) 0.6605(3) 0.37447(16)
H10E H 0.98210 0.63230 0.34420
C17E C 0.8505(3) 0.8545(3) 0.33776(16)
H11E H 0.87860 0.88940 0.36490
C18E C 0.8892(3) 0.8295(3) 0.30543(17)
C19E C 0.9709(3) 0.8494(3) 0.31715(16)
H12E H 0.99960 0.88970 0.34150
C20E C 0.8490(3) 0.7818(3) 0.26371(16)
H13E H 0.87590 0.76530 0.24110
C21E C 0.7711(3) 0.7585(3) 0.25506(16)
C22E C 0.7284(3) 0.7064(2) 0.21299(15)
H14E H 0.75570 0.68810 0.19220
C23E C 0.4915(6) 0.4579(6) 0.5406(3)
H15E H 0.48450 0.42350 0.56800
C24E C 0.5155(3) 0.4823(3) 0.45081(15)
C25E C 0.5113(6) 0.4406(4) 0.4936(3)
H16E H 0.52220 0.39860 0.49110
C26E C 0.5381(3) 0.4644(3) 0.40034(14)
C27E C 0.5303(3) 0.5023(3) 0.35705(14)
H17E H 0.51060 0.53770 0.36050
C28E C 0.5515(3) 0.4881(2) 0.30895(14)
C29E C 0.5811(2) 0.4371(2) 0.30440(14)
H18E H 0.59660 0.42820 0.27200
C30E C 0.5884(2) 0.3989(2) 0.34669(13)
C31E C 0.5660(3) 0.4127(2) 0.39452(14)
H19E H 0.57010 0.38590 0.42340
C32E C 0.5420(3) 0.5291(2) 0.26511(14)
H20E H 0.52570 0.56670 0.27110
C33E C 0.6220(2) 0.3454(2) 0.34075(14)
H21E H 0.64480 0.34460 0.30900
C34E C 0.6187(3) 0.6284(2) 0.16113(14)
H22E H 0.65340 0.60740 0.14960
C35E C 0.6038(3) 0.6702(3) 0.11662(16)
H23E H 0.57330 0.69490 0.12900
H24E H 0.65500 0.71270 0.10360
C36E C 0.5593(3) 0.6142(3) 0.07427(16)
H25E H 0.59140 0.59260 0.06010
H26E H 0.54960 0.64300 0.04680
C37E C 0.4794(3) 0.5456(3) 0.09333(16)
H27E H 0.44530 0.56650 0.10510
H28E H 0.45200 0.50790 0.06530
C38E C 0.4947(3) 0.5038(3) 0.13687(15)
H29E H 0.52490 0.47910 0.12400
H30E H 0.44360 0.46120 0.15010
C39E C 0.5410(3) 0.5608(2) 0.18034(14)
H31E H 0.50860 0.58290 0.19470
C40E C 0.6641(2) 0.2593(2) 0.36596(14)
H32E H 0.69170 0.27630 0.33240
C41E C 0.6074(2) 0.1695(3) 0.36510(17)
H33E H 0.57840 0.15260 0.39770
H34E H 0.56820 0.15610 0.33750
C42E C 0.6518(3) 0.1258(3) 0.35686(18)
H35E H 0.67630 0.13860 0.32270
H36E H 0.61430 0.06820 0.35820
C43E C 0.7158(3) 0.1477(3) 0.39694(18)
H37E H 0.69070 0.12870 0.43060
H38E H 0.74630 0.12120 0.38890
C44E C 0.7711(2) 0.2360(2) 0.39919(17)
H39E H 0.80140 0.25410 0.36710
H40E H 0.80900 0.24860 0.42740
C45E C 0.7249(2) 0.2796(2) 0.40727(14)
H41E H 0.69780 0.26450 0.44100
C46E C 1.0867(3) 0.7661(2) 0.33103(16)
H42E H 1.06580 0.72540 0.30350
C47E C 1.1716(3) 0.7874(3) 0.3431(2)
H43E H 1.17270 0.73930 0.35350
H44E H 1.19180 0.82540 0.37170
C48E C 1.2248(4) 0.8244(3) 0.2959(2)
H45E H 1.27980 0.83900 0.30440
H46E H 1.20650 0.78510 0.26810
C49E C 1.2229(4) 0.8955(3) 0.2786(2)
H47E H 1.25560 0.91670 0.24760
H48E H 1.24570 0.93670 0.30520
C50E C 1.1395(3) 0.8761(3) 0.2673(2)
H49E H 1.11900 0.83920 0.23820
H50E H 1.13970 0.92510 0.25750
C51E C 1.0854(3) 0.8393(2) 0.31236(16)
H51E H 1.10200 0.87880 0.34050
#END
