
#######################################################################
#
#                 Cambridge Crystallographic Data Centre
#                                CCDC
#
#######################################################################
#
# If this CIF has been generated from an entry in the Cambridge
# Structural Database, then it will include bibliographic, chemical,
# crystal, experimental, refinement or atomic coordinate data resulting
# from the CCDC's data processing and validation procedures.
#
#######################################################################

data_CSD_CIF_ABILIJ
_audit_creation_date 2016-11-23
_audit_creation_method CSD-ConQuest-V1
_database_code_CSD ABILIJ
_database_code_depnum_ccdc_archive 'CCDC 1453926'
_chemical_formula_sum 'C306 H390 Cl16 N36 O26'
_chemical_formula_moiety
;
C102 H102 N12,2(C72 H84 N12),13(C4 H8 O2),8(C1 H2 Cl2)
;
_journal_coden_Cambridge 1441
_journal_volume 9
_journal_year 2016
_journal_page_first 17
_journal_name_full 'Nature Chemistry '
loop_
_publ_author_name
"A.G.Slater"
"M.A.Little"
"A.Pulido"
"S.Y.Chong"
"D.Holden"
"L.Chen"
"C.Morgan"
"X.Wu"
"G.Cheng"
"R.Clowes"
"M.E.Briggs"
"T.Hasell"
"K.E.Jelfs"
"G.M.Day"
"A.I.Cooper"
_chemical_name_systematic
;
(R)-5,7,11,13,19,21,25,27,30,32,36,38-dodecaaza-6,12,20,26,31,37(1,2)-hexacycl
ohexana-1,3,9,15,17,23(1,3,5),2,16,24(1,4)-nonabenzenatetracyclo[15.11.5.5^3,1
5^.1^9,23^]nonatriacontaphane-4,7,10,13,18,21,24,27,29,32,35,38-dodecane 
bis((S)-3,5,9,11,15,17,21,23,26,28,31,33-dodecaaza-4,10,16,22,27,32(1,2)-hexac
yclohexana-1,7,13,19(1,3,5)-tetrabenzenatricyclo[11.11.5.5^7,19^]tetratriacont
aphane-2,5,8,11,14,17,20,23,25,28,30,33-dodecaene) 1,4-dioxane 
dichloromethane solvate
;
_chemical_name_common
;
TCC2-R bis(CC3-S) 1,4-dioxane dichloromethane solvate
;
_cell_volume  31049.247
_exptl_crystal_colour 'colorless'
_exptl_crystal_description 'prism'
_diffrn_ambient_temperature 100
_refine_special_details
;
The structure is disordered. Disordered dichloromethane and 1,4-dioxane 
solvent molecules were not modelled and the disordered density was taken into 
account using the SQUEEZE/PLATON procedure.
;
#These two values have been output from a single CSD field.
_refine_ls_R_factor_gt 0.0802
_refine_ls_wR_factor_gt 0.0802
_symmetry_cell_setting hexagonal
_symmetry_space_group_name_H-M 'P 63 2 2'
_symmetry_Int_Tables_number 182
loop_
_symmetry_equiv_pos_site_id
_symmetry_equiv_pos_as_xyz
1 x,y,z
2 x-y,x,1/2+z
3 -y,x-y,z
4 -x,-y,1/2+z
5 -x+y,-x,z
6 y,-x+y,1/2+z
7 -y,-x,1/2-z
8 x-y,-y,-z
9 x,x-y,1/2-z
10 y,x,-z
11 -x+y,y,1/2-z
12 -x,-x+y,-z
_cell_length_a 17.1566(6)
_cell_length_b 17.1566(6)
_cell_length_c 121.803(4)
_cell_angle_alpha 90
_cell_angle_beta 90
_cell_angle_gamma 120
_cell_formula_units_Z 4
loop_
_atom_type_symbol
_atom_type_radius_bond
C 0.68
H 0.23
N 0.68
O 0.68
loop_
_atom_site_label
_atom_site_type_symbol
_atom_site_fract_x
_atom_site_fract_y
_atom_site_fract_z
N1 N 0.5526(6) 0.5274(5) 0.37589(7)
N2 N 0.4613(5) 0.5452(6) 0.39458(5)
N3 N 0.6443(5) 0.7654(5) 0.33029(7)
N4 N 0.6311(6) 0.9273(5) 0.33369(6)
C1 C 0.4207(7) 0.7370(7) 0.39574(6)
H1 H 0.48120 0.78510 0.39590
C2 C 0.4033(7) 0.6477(8) 0.39564(6)
C3 C 0.4751(6) 0.6241(8) 0.39552(6)
H2 H 0.53560 0.67160 0.39620
C4 C 0.5414(6) 0.5362(6) 0.39534(7)
H3 H 0.59720 0.59670 0.39520
C5 C 0.5324(7) 0.4876(7) 0.40670(8)
H4 H 0.53020 0.52500 0.41280
H5 H 0.47560 0.42900 0.40680
C6 C 0.6099(8) 0.4728(9) 0.40835(11)
H6 H 0.60480 0.44440 0.41560
H7 H 0.66680 0.53120 0.40820
C7 C 0.6103(8) 0.4130(9) 0.39940(13)
H8 H 0.55530 0.35310 0.39990
H9 H 0.66320 0.40490 0.40020
C8 C 0.6142(7) 0.4585(8) 0.38776(11)
H10 H 0.67250 0.51520 0.38710
H11 H 0.61180 0.41770 0.38190
C9 C 0.5421(7) 0.4780(7) 0.38607(9)
H12 H 0.48320 0.42030 0.38590
C10 C 0.4942(6) 0.4918(6) 0.36862(9)
H13 H 0.44250 0.43620 0.37050
C11 C 0.4957(8) 0.5263(8) 0.35727(9)
C12 C 0.4290(6) 0.4726(6) 0.35019(10)
H14 H 0.38140 0.41580 0.35260
C13 C 0.4309(7) 0.5021(7) 0.33913(9)
C14 C 0.4984(7) 0.5842(8) 0.33621(8)
H15 H 0.49890 0.60410 0.32890
C15 C 0.5672(6) 0.6416(7) 0.34323(10)
C16 C 0.5645(6) 0.6126(7) 0.35384(10)
H16 H 0.60930 0.65100 0.35890
C17 C 0.3615(7) 0.4448(8) 0.33094(8)
H17 H 0.36620 0.46520 0.32360
C18 C 0.6384(6) 0.7343(7) 0.34021(10)
H18 H 0.68040 0.77160 0.34560
C19 C 0.7226(5) 0.8569(5) 0.32871(7)
H19 H 0.75640 0.88030 0.33580
C20 C 0.7810(5) 0.8545(5) 0.32024(8)
H20 H 0.80460 0.81530 0.32270
H21 H 0.74500 0.82740 0.31350
C21 C 0.8562(6) 0.9427(6) 0.31758(7)
H22 H 0.89490 0.93660 0.31200
H23 H 0.89280 0.97020 0.32420
C22 C 0.8212(6) 1.0046(7) 0.31301(8)
H24 H 0.87230 1.06530 0.31140
H25 H 0.78640 0.97900 0.30620
C23 C 0.7609(6) 1.0102(6) 0.32194(7)
H26 H 0.79720 1.03880 0.32860
H27 H 0.73620 1.04810 0.31930
C24 C 0.6834(6) 0.9164(6) 0.32484(7)
H28 H 0.64420 0.88870 0.31830
N5 N 0.7217(5) 0.7426(5) 0.42112(6)
N6 N 0.6736(5) 0.8781(5) 0.41653(5)
N7 N 0.8089(5) 1.1573(5) 0.37513(6)
N8 N 0.8508(6) 1.0970(4) 0.35468(5)
C25 C 0.8940(7) 0.7588(7) 0.41453(7)
H29 H 0.89000 0.77670 0.42180
C26 C 0.8219(6) 0.7310(6) 0.40765(8)
C27 C 0.8267(6) 0.7077(6) 0.39707(9)
H30 H 0.77710 0.69160 0.39230
C28 C 0.7369(6) 0.7279(6) 0.41144(8)
H31 H 0.69120 0.71370 0.40610
C29 C 0.6308(6) 0.7274(7) 0.42291(7)
H32 H 0.59460 0.70130 0.41610
C30 C 0.5864(5) 0.6601(6) 0.43231(6)
H33 H 0.62360 0.68360 0.43900
H34 H 0.58260 0.60230 0.43040
C31 C 0.4919(5) 0.6447(6) 0.43453(7)
H35 H 0.45320 0.61520 0.42810
H36 H 0.46550 0.60390 0.44090
C32 C 0.4937(6) 0.7311(6) 0.43681(7)
H37 H 0.52580 0.75640 0.44380
H38 H 0.43120 0.71890 0.43770
C33 C 0.5395(5) 0.7999(6) 0.42773(7)
H39 H 0.54400 0.85760 0.42990
H40 H 0.50300 0.77860 0.42100
C34 C 0.6335(5) 0.8148(6) 0.42550(6)
H41 H 0.67110 0.84140 0.43220
C35 C 0.7408(7) 0.9533(7) 0.41900(7)
H42 H 0.76090 0.96190 0.42640
C36 C 0.7902(7) 1.0286(6) 0.41135(8)
C37 C 0.7560(6) 1.0238(6) 0.40055(8)
H43 H 0.70160 0.97220 0.39830
C38 C 0.8040(6) 1.0971(6) 0.39308(8)
C39 C 0.7688(6) 1.0916(6) 0.38206(8)
H44 H 0.71530 1.03880 0.37990
C40 C 0.7610(6) 1.1475(6) 0.36467(8)
H45 H 0.70880 1.08500 0.36390
C41 C 0.7293(7) 1.2154(7) 0.36467(9)
H46 H 0.68710 1.20260 0.37080
H47 H 0.78150 1.27660 0.36570
C42 C 0.6834(6) 1.2117(6) 0.35408(8)
H48 H 0.66190 1.25550 0.35430
H49 H 0.63030 1.15090 0.35310
C43 C 0.7459(7) 1.2327(6) 0.34442(7)
H50 H 0.79580 1.29570 0.34490
H51 H 0.71270 1.22620 0.33750
C44 C 0.7840(6) 1.1695(6) 0.34422(7)
H52 H 0.73500 1.10760 0.34260
H53 H 0.82940 1.18810 0.33830
C45 C 0.8271(6) 1.1699(6) 0.35508(6)
H54 H 0.88230 1.22960 0.35630
C46 C 0.9348(6) 1.1247(6) 0.35361(6)
H55 H 0.97640 1.18740 0.35310
C47 C 0.9678(7) 1.0586(6) 0.35314(6)
C48 C 0.9061(5) 0.9643(6) 0.35324(6)
H56 H 0.84290 0.94100 0.35340
N9 N 1.0016(5) 0.7244(5) 0.44939(6)
N10 N 0.8229(5) 0.6831(5) 0.45244(5)
C49 C 0.7493(14) 0.7953(14) 0.50720(16)
H57 H 0.70140 0.77900 0.51230
C50 C 0.7358(15) 0.8067(13) 0.49632(15)
H58 H 0.67930 0.79780 0.49390
C51 C 0.8070(6) 0.8317(6) 0.48890(7)
C52 C 0.7934(6) 0.8408(7) 0.47694(6)
C53 C 0.7630(6) 0.8991(6) 0.47345(8)
H59 H 0.74920 0.93090 0.47880
C54 C 0.7531(6) 0.9106(6) 0.46268(8)
C55 C 0.7639(6) 0.8569(6) 0.45490(7)
H60 H 0.75180 0.86190 0.44740
C56 C 0.7918(6) 0.7964(6) 0.45781(7)
C57 C 0.8090(6) 0.7911(6) 0.46901(7)
H61 H 0.83170 0.75310 0.47120
C58 C 0.8053(5) 0.7439(8) 0.44995(7)
H62 H 0.80080 0.75490 0.44240
C59 C 0.8471(6) 0.6400(6) 0.44402(7)
H63 H 0.86280 0.67550 0.43710
C60 C 0.7635(7) 0.5436(7) 0.44226(8)
H64 H 0.71150 0.54840 0.43960
H65 H 0.74660 0.50990 0.44930
C61 C 0.7906(7) 0.4922(7) 0.43331(9)
H66 H 0.73910 0.43110 0.43200
H67 H 0.80700 0.52570 0.42630
C62 C 0.8715(7) 0.4858(6) 0.43777(9)
H68 H 0.88760 0.45200 0.43250
H69 H 0.85520 0.45310 0.44490
C63 C 0.9536(6) 0.5825(6) 0.43944(8)
H70 H 1.00660 0.57890 0.44200
H71 H 0.96910 0.61610 0.43240
C64 C 0.9279(6) 0.6313(5) 0.44812(6)
H72 H 0.91360 0.59870 0.45530
C65 C 1.0212(6) 0.7486(5) 0.45923(8)
H73 H 0.99110 0.70490 0.46480
N11 N 0.6025(5) 0.6421(6) 0.29722(6)
N12 N 0.4452(5) 0.4652(5) 0.30118(7)
C66 C 0.5645(6) 0.9782(6) 0.29163(9)
H74 H 0.57490 1.02420 0.28650
C67 C 0.5830(4) 0.9054(4) 0.28838(6)
C68 C 0.6105(4) 0.9071(4) 0.27761(6)
H75 H 0.61550 0.95260 0.27270
C69 C 0.6305(3) 0.8423(5) 0.27398(4)
C70 C 0.6232(4) 0.7759(4) 0.28113(6)
H76 H 0.63690 0.73160 0.27870
C71 C 0.5958(4) 0.7742(4) 0.29191(5)
C72 C 0.5757(3) 0.8390(4) 0.29554(4)
H77 H 0.55690 0.83780 0.30290
C73 C 0.6305(3) 0.8941(13) 0.2538(2)
H78 H 0.63050 0.94620 0.25640
C74 C 0.6306(3) 0.8308(7) 0.26092(9)
C75 C 0.5985(7) 0.5825(7) 0.30614(7)
H79 H 0.57390 0.59580 0.31290
C76 C 0.6937(7) 0.6013(6) 0.30851(7)
H80 H 0.73240 0.66560 0.31040
H81 H 0.71860 0.58880 0.30180
C77 C 0.6949(7) 0.5425(6) 0.31813(7)
H82 H 0.67300 0.55640 0.32500
H83 H 0.75690 0.55420 0.31940
C78 C 0.6311(6) 0.4411(6) 0.31475(9)
H84 H 0.65600 0.42700 0.30820
H85 H 0.62820 0.40130 0.32080
C79 C 0.5355(7) 0.4233(7) 0.31217(8)
H86 H 0.49720 0.36000 0.30980
H87 H 0.50860 0.43260 0.31890
C80 C 0.5391(7) 0.4868(7) 0.30308(7)
H88 H 0.56270 0.47390 0.29620
C81 C 0.5898(6) 0.7072(7) 0.30006(8)
H89 H 0.57630 0.71230 0.30750
C82 C 0.6305(3) 0.7532(12) 0.2574(3)
H90 H 0.63050 0.71210 0.26270
O1 O 0.7052(5) 0.8184(5) 0.36476(6)
O2 O 0.6342(5) 0.8471(5) 0.38417(6)
C83 C 0.6409(8) 0.8540(8) 0.36422(9)
H91 H 0.60100 0.82970 0.35770
H92 H 0.67390 0.92050 0.36380
C84 C 0.5878(8) 0.8216(8) 0.37470(8)
H93 H 0.54360 0.84260 0.37480
H94 H 0.55330 0.75500 0.37450
C85 C 0.7581(8) 0.8497(8) 0.37482(8)
H95 H 0.80240 0.82880 0.37510
H96 H 0.79140 0.91630 0.37500
C86 C 0.6994(9) 0.8152(9) 0.38395(10)
H97 H 0.73520 0.83380 0.39080
H98 H 0.66650 0.74860 0.38360
C87? C 0.6804(16) 0.7761(18) 0.2458(3)
H99? H 0.71350 0.74980 0.24290
C88? C 0.5791(17) 0.8560(19) 0.2544(3)
H100? H 0.54610 0.88220 0.25730
C89? C 0.5815(18) 0.8386(16) 0.2433(4)
H101? H 0.54850 0.85370 0.23830
C90? C 0.6793(16) 0.7928(16) 0.2570(3)
H102? H 0.71250 0.77780 0.26200
C91? C 0.8905(12) 0.8468(11) 0.49288(13)
H103? H 0.93800 0.86320 0.48780
C92? C 0.9070(13) 0.8391(12) 0.50383(13)
H104? H 0.96520 0.85440 0.50640
O3? O 0.9545(16) 0.9169(13) 0.43877(15)
O4? O 0.9198(14) 0.9601(18) 0.43000(17)
C93? C 0.9545(16) 0.9169(13) 0.43877(15)
C94? C 0.9198(14) 0.9601(18) 0.43000(17)
N1B N 0.4726(6) 1.0252(5) 0.37589(7)
N2B N 0.4548(5) 0.9161(6) 0.39458(5)
N3B N 0.2346(5) 0.8789(5) 0.33029(7)
N4B N 0.0727(6) 0.7038(5) 0.33369(6)
C1B C 0.2630(7) 0.6837(7) 0.39574(6)
H1B H 0.21490 0.69610 0.39590
C2B C 0.3523(7) 0.7556(8) 0.39564(6)
C3B C 0.3759(6) 0.8510(8) 0.39552(6)
H2B H 0.32840 0.86400 0.39620
C4B C 0.4638(6) 1.0052(6) 0.39534(7)
H3B H 0.40330 1.00050 0.39520
C5B C 0.5124(7) 1.0448(7) 0.40670(8)
H4B H 0.47500 1.00520 0.41280
H5B H 0.57100 1.04660 0.40680
C6B C 0.5272(8) 1.1371(9) 0.40835(11)
H6B H 0.55560 1.16040 0.41560
H7B H 0.46880 1.13560 0.40820
C7B C 0.5870(8) 1.1973(9) 0.39940(13)
H8B H 0.64690 1.20220 0.39990
H9B H 0.59510 1.25830 0.40020
C8B C 0.5415(7) 1.1557(8) 0.38776(11)
H10B H 0.48480 1.15730 0.38710
H11B H 0.58230 1.19410 0.38190
C9B C 0.5220(7) 1.0641(7) 0.38607(9)
H12B H 0.57970 1.06290 0.38590
C10B C 0.5082(6) 1.0024(6) 0.36862(9)
H13B H 0.56380 1.00630 0.37050
C11B C 0.4737(8) 0.9694(8) 0.35727(9)
C12B C 0.5274(6) 0.9564(6) 0.35019(10)
H14B H 0.58420 0.96560 0.35260
C13B C 0.4979(7) 0.9288(7) 0.33913(9)
C14B C 0.4158(7) 0.9142(8) 0.33621(8)
H15B H 0.39590 0.89480 0.32890
C15B C 0.3584(6) 0.9256(7) 0.34323(10)
C16B C 0.3874(6) 0.9519(7) 0.35384(10)
H16B H 0.34900 0.95830 0.35890
C17B C 0.5552(7) 0.9167(8) 0.33094(8)
H17B H 0.53480 0.90100 0.32360
C18B C 0.2657(6) 0.9041(7) 0.34021(10)
H18B H 0.22840 0.90880 0.34560
C19B C 0.1431(5) 0.8657(5) 0.32871(7)
H19B H 0.11970 0.87610 0.33580
C20B C 0.1455(5) 0.9265(5) 0.32024(8)
H20B H 0.18470 0.98930 0.32270
H21B H 0.17260 0.91760 0.31350
C21B C 0.0573(6) 0.9135(6) 0.31758(7)
H22B H 0.06340 0.95830 0.31200
H23B H 0.02980 0.92260 0.32420
C22B C -0.0046(6) 0.8166(7) 0.31301(8)
H24B H -0.06530 0.80700 0.31140
H25B H 0.02100 0.80740 0.30620
C23B C -0.0102(6) 0.7507(6) 0.32194(7)
H26B H -0.03880 0.75840 0.32860
H27B H -0.04810 0.68810 0.31930
C24B C 0.0836(6) 0.7670(6) 0.32484(7)
H28B H 0.11130 0.75550 0.31830
N1D N -0.0252(6) 0.4474(5) 0.37589(7)
N2D N 0.0839(5) 0.5387(6) 0.39458(5)
N3D N 0.1211(5) 0.3557(5) 0.33029(7)
N4D N 0.2962(6) 0.3689(5) 0.33369(6)
C1D C 0.3163(7) 0.5793(7) 0.39574(6)
H1D H 0.30390 0.51880 0.39590
C2D C 0.2444(7) 0.5967(8) 0.39564(6)
C3D C 0.1490(6) 0.5249(8) 0.39552(6)
H2D H 0.13600 0.46440 0.39620
C4D C -0.0052(6) 0.4586(6) 0.39534(7)
H3D H -0.00050 0.40280 0.39520
C5D C -0.0448(7) 0.4676(7) 0.40670(8)
H4D H -0.00520 0.46980 0.41280
H5D H -0.04660 0.52440 0.40680
C6D C -0.1371(8) 0.3901(9) 0.40835(11)
H6D H -0.16040 0.39520 0.41560
H7D H -0.13560 0.33320 0.40820
C7D C -0.1973(8) 0.3897(9) 0.39940(13)
H8D H -0.20220 0.44470 0.39990
H9D H -0.25830 0.33680 0.40020
C8D C -0.1557(7) 0.3858(8) 0.38776(11)
H10D H -0.15730 0.32750 0.38710
H11D H -0.19410 0.38820 0.38190
C9D C -0.0641(7) 0.4579(7) 0.38607(9)
H12D H -0.06290 0.51680 0.38590
C10D C -0.0024(6) 0.5058(6) 0.36862(9)
H13D H -0.00630 0.55750 0.37050
C11D C 0.0306(8) 0.5043(8) 0.35727(9)
C12D C 0.0436(6) 0.5710(6) 0.35019(10)
H14D H 0.03440 0.61860 0.35260
C13D C 0.0712(7) 0.5691(7) 0.33913(9)
C14D C 0.0858(7) 0.5016(8) 0.33621(8)
H15D H 0.10520 0.50110 0.32890
C15D C 0.0744(6) 0.4328(7) 0.34323(10)
C16D C 0.0481(6) 0.4355(7) 0.35384(10)
H16D H 0.04170 0.39070 0.35890
C17D C 0.0833(7) 0.6385(8) 0.33094(8)
H17D H 0.09900 0.63380 0.32360
C18D C 0.0959(6) 0.3616(7) 0.34021(10)
H18D H 0.09120 0.31960 0.34560
C19D C 0.1343(5) 0.2774(5) 0.32871(7)
H19D H 0.12390 0.24360 0.33580
C20D C 0.0735(5) 0.2190(5) 0.32024(8)
H20D H 0.01070 0.19540 0.32270
H21D H 0.08240 0.25500 0.31350
C21D C 0.0865(6) 0.1438(6) 0.31758(7)
H22D H 0.04170 0.10510 0.31200
H23D H 0.07740 0.10720 0.32420
C22D C 0.1834(6) 0.1788(7) 0.31301(8)
H24D H 0.19300 0.12770 0.31140
H25D H 0.19260 0.21360 0.30620
C23D C 0.2493(6) 0.2391(6) 0.32194(7)
H26D H 0.24160 0.20280 0.32860
H27D H 0.31190 0.26380 0.31930
C24D C 0.2330(6) 0.3166(6) 0.32484(7)
H28D H 0.24450 0.35580 0.31830
N5B N 1.2574(5) 0.9791(5) 0.42112(6)
N6B N 1.1219(5) 0.7955(5) 0.41653(5)
N7B N 0.8427(5) 0.6516(5) 0.37513(6)
N8B N 0.9030(6) 0.7538(4) 0.35468(5)
C25B C 1.2412(7) 1.1352(7) 0.41453(7)
H29B H 1.22330 1.11330 0.42180
C26B C 1.2690(6) 1.0909(6) 0.40765(8)
C27B C 1.2923(6) 1.1190(6) 0.39707(9)
H30B H 1.30840 1.08550 0.39230
C28B C 1.2721(6) 1.0090(6) 0.41144(8)
H31B H 1.28630 0.97750 0.40610
C29B C 1.2726(6) 0.9034(7) 0.42291(7)
H32B H 1.29870 0.89330 0.41610
C30B C 1.3399(5) 0.9263(6) 0.43231(6)
H33B H 1.31640 0.94000 0.43900
H34B H 1.39770 0.98030 0.43040
C31B C 1.3553(5) 0.8472(6) 0.43453(7)
H35B H 1.38480 0.83800 0.42810
H36B H 1.39610 0.86160 0.44090
C32B C 1.2689(6) 0.7626(6) 0.43681(7)
H37B H 1.24360 0.76940 0.44380
H38B H 1.28110 0.71230 0.43770
C33B C 1.2001(5) 0.7396(6) 0.42773(7)
H39B H 1.14240 0.68640 0.42990
H40B H 1.22140 0.72440 0.42100
C34B C 1.1852(5) 0.8187(6) 0.42550(6)
H41B H 1.15860 0.82970 0.43220
C35B C 1.0467(7) 0.7875(7) 0.41900(7)
H42B H 1.03810 0.79900 0.42640
C36B C 0.9714(7) 0.7616(6) 0.41135(8)
C37B C 0.9762(6) 0.7322(6) 0.40055(8)
H43B H 1.02780 0.72940 0.39830
C38B C 0.9029(6) 0.7069(6) 0.39308(8)
C39B C 0.9084(6) 0.6772(6) 0.38206(8)
H44B H 0.96120 0.67650 0.37990
C40B C 0.8525(6) 0.6135(6) 0.36467(8)
H45B H 0.91500 0.62380 0.36390
C41B C 0.7846(7) 0.5139(7) 0.36467(9)
H46B H 0.79740 0.48450 0.37080
H47B H 0.72340 0.50490 0.36570
C42B C 0.7883(6) 0.4717(6) 0.35408(8)
H48B H 0.74450 0.40640 0.35430
H49B H 0.84910 0.47940 0.35310
C43B C 0.7673(7) 0.5132(6) 0.34442(7)
H50B H 0.70430 0.50010 0.34490
H51B H 0.77380 0.48650 0.33750
C44B C 0.8305(6) 0.6145(6) 0.34422(7)
H52B H 0.89240 0.62740 0.34260
H53B H 0.81190 0.64130 0.33830
C45B C 0.8301(6) 0.6572(6) 0.35508(6)
H54B H 0.77040 0.65270 0.35630
C46B C 0.8753(6) 0.8101(6) 0.35361(6)
H55B H 0.81260 0.78900 0.35310
C47B C 0.9414(7) 0.9092(6) 0.35314(6)
C48B C 1.0357(5) 0.9418(6) 0.35324(6)
H56B H 1.05900 0.90190 0.35340
N5D N 1.0209(5) 1.2783(5) 0.42112(6)
N6D N 1.2045(5) 1.3264(5) 0.41653(5)
N7D N 1.3484(5) 1.1911(5) 0.37513(6)
N8D N 1.2462(6) 1.1492(4) 0.35468(5)
C25D C 0.8648(7) 1.1060(7) 0.41453(7)
H29D H 0.88670 1.11000 0.42180
C26D C 0.9091(6) 1.1781(6) 0.40765(8)
C27D C 0.8810(6) 1.1733(6) 0.39707(9)
H30D H 0.91450 1.22290 0.39230
C28D C 0.9910(6) 1.2631(6) 0.41144(8)
H31D H 1.02250 1.30880 0.40610
C29D C 1.0966(6) 1.3692(7) 0.42291(7)
H32D H 1.10670 1.40540 0.41610
C30D C 1.0737(5) 1.4136(6) 0.43231(6)
H33D H 1.06000 1.37640 0.43900
H34D H 1.01970 1.41740 0.43040
C31D C 1.1528(5) 1.5081(6) 0.43453(7)
H35D H 1.16200 1.54680 0.42810
H36D H 1.13840 1.53450 0.44090
C32D C 1.2374(6) 1.5063(6) 0.43681(7)
H37D H 1.23060 1.47420 0.44380
H38D H 1.28770 1.56880 0.43770
C33D C 1.2604(5) 1.4605(6) 0.42773(7)
H39D H 1.31360 1.45600 0.42990
H40D H 1.27560 1.49700 0.42100
C34D C 1.1813(5) 1.3665(6) 0.42550(6)
H41D H 1.17030 1.32890 0.43220
C35D C 1.2125(7) 1.2592(7) 0.41900(7)
H42D H 1.20100 1.23910 0.42640
C36D C 1.2384(7) 1.2098(6) 0.41135(8)
C37D C 1.2678(6) 1.2440(6) 0.40055(8)
H43D H 1.27060 1.29840 0.39830
C38D C 1.2931(6) 1.1960(6) 0.39308(8)
C39D C 1.3228(6) 1.2312(6) 0.38206(8)
H44D H 1.32350 1.28470 0.37990
C40D C 1.3865(6) 1.2390(6) 0.36467(8)
H45D H 1.37620 1.29120 0.36390
C41D C 1.4861(7) 1.2707(7) 0.36467(9)
H46D H 1.51550 1.31290 0.37080
H47D H 1.49510 1.21850 0.36570
C42D C 1.5283(6) 1.3166(6) 0.35408(8)
H48D H 1.59360 1.33810 0.35430
H49D H 1.52060 1.36970 0.35310
C43D C 1.4868(7) 1.2541(6) 0.34442(7)
H50D H 1.49990 1.20420 0.34490
H51D H 1.51350 1.28730 0.33750
C44D C 1.3855(6) 1.2160(6) 0.34422(7)
H52D H 1.37260 1.26500 0.34260
H53D H 1.35870 1.17060 0.33830
C45D C 1.3428(6) 1.1729(6) 0.35508(6)
H54D H 1.34730 1.11770 0.35630
C46D C 1.1899(6) 1.0652(6) 0.35361(6)
H55D H 1.21100 1.02360 0.35310
C47D C 1.0908(7) 1.0322(6) 0.35314(6)
C48D C 1.0582(5) 1.0939(6) 0.35324(6)
H56D H 1.09810 1.15710 0.35340
N9B N 1.2756(5) 1.2772(5) 0.44939(6)
N10B N 1.3169(5) 1.1398(5) 0.45244(5)
C49B C 1.2047(14) 0.9540(14) 0.50720(16)
H57B H 1.22100 0.92240 0.51230
C50B C 1.1933(15) 0.9291(13) 0.49632(15)
H58B H 1.20220 0.88150 0.49390
C51B C 1.1683(6) 0.9753(6) 0.48890(7)
C52B C 1.1592(6) 0.9526(7) 0.47694(6)
C53B C 1.1009(6) 0.8639(6) 0.47345(8)
H59B H 1.06910 0.81830 0.47880
C54B C 1.0894(6) 0.8425(6) 0.46268(8)
C55B C 1.1431(6) 0.9070(6) 0.45490(7)
H60B H 1.13810 0.88990 0.44740
C56B C 1.2036(6) 0.9954(6) 0.45781(7)
C57B C 1.2089(6) 1.0179(6) 0.46901(7)
H61B H 1.24690 1.07860 0.47120
C58B C 1.2561(5) 1.0614(8) 0.44995(7)
H62B H 1.24510 1.04590 0.44240
C59B C 1.3600(6) 1.2071(6) 0.44402(7)
H63B H 1.32450 1.18730 0.43710
C60B C 1.4564(7) 1.2199(7) 0.44226(8)
H64B H 1.45160 1.16310 0.43960
H65B H 1.49010 1.23670 0.44930
C61B C 1.5078(7) 1.2984(7) 0.43331(9)
H66B H 1.56890 1.30800 0.43200
H67B H 1.47430 1.28130 0.42630
C62B C 1.5142(7) 1.3857(6) 0.43777(9)
H68B H 1.54800 1.43560 0.43250
H69B H 1.54690 1.40210 0.44490
C63B C 1.4175(6) 1.3711(6) 0.43944(8)
H70B H 1.42110 1.42770 0.44200
H71B H 1.38390 1.35300 0.43240
C64B C 1.3687(6) 1.2966(5) 0.44812(6)
H72B H 1.40130 1.31490 0.45530
C65B C 1.2514(6) 1.2726(5) 0.45923(8)
H73B H 1.29510 1.28620 0.46480
N9D N 0.7228(5) 0.9984(5) 0.44939(6)
N10D N 0.8602(5) 1.1771(5) 0.45244(5)
C49D C 1.0460(14) 1.2507(14) 0.50720(16)
H57D H 1.07760 1.29860 0.51230
C50D C 1.0709(15) 1.2642(13) 0.49632(15)
H58D H 1.11850 1.32070 0.49390
C51D C 1.0247(6) 1.1930(6) 0.48890(7)
C52D C 1.0474(6) 1.2066(7) 0.47694(6)
C53D C 1.1361(6) 1.2370(6) 0.47345(8)
H59D H 1.18170 1.25080 0.47880
C54D C 1.1575(6) 1.2469(6) 0.46268(8)
C55D C 1.0930(6) 1.2361(6) 0.45490(7)
H60D H 1.11010 1.24820 0.44740
C56D C 1.0046(6) 1.2082(6) 0.45781(7)
C57D C 0.9821(6) 1.1910(6) 0.46901(7)
H61D H 0.92140 1.16830 0.47120
C58D C 0.9386(5) 1.1947(8) 0.44995(7)
H62D H 0.95410 1.19920 0.44240
C59D C 0.7929(6) 1.1529(6) 0.44402(7)
H63D H 0.81270 1.13720 0.43710
C60D C 0.7801(7) 1.2365(7) 0.44226(8)
H64D H 0.83690 1.28850 0.43960
H65D H 0.76330 1.25340 0.44930
C61D C 0.7016(7) 1.2094(7) 0.43331(9)
H66D H 0.69200 1.26090 0.43200
H67D H 0.71870 1.19300 0.42630
C62D C 0.6143(7) 1.1285(6) 0.43777(9)
H68D H 0.56440 1.11240 0.43250
H69D H 0.59790 1.14480 0.44490
C63D C 0.6289(6) 1.0464(6) 0.43944(8)
H70D H 0.57230 0.99340 0.44200
H71D H 0.64700 1.03090 0.43240
C64D C 0.7034(6) 1.0721(5) 0.44812(6)
H72D H 0.68510 1.08640 0.45530
C65D C 0.7274(6) 0.9788(5) 0.45923(8)
H73D H 0.71380 1.00890 0.46480
N9I N 0.7244(5) 1.0016(5) 0.55061(6)
N10I N 0.6831(5) 0.8229(5) 0.54756(5)
C49I C 0.7953(14) 0.7493(14) 0.49280(16)
H57I H 0.77900 0.70140 0.48770
C50I C 0.8067(15) 0.7358(13) 0.50368(15)
H58I H 0.79780 0.67930 0.50610
C51I C 0.8317(6) 0.8070(6) 0.51110(7)
C52I C 0.8408(6) 0.7934(7) 0.52306(6)
C53I C 0.8991(6) 0.7630(6) 0.52655(8)
H59I H 0.93090 0.74920 0.52120
C54I C 0.9106(6) 0.7531(6) 0.53732(8)
C55I C 0.8569(6) 0.7639(6) 0.54510(7)
H60I H 0.86190 0.75180 0.55260
C56I C 0.7964(6) 0.7918(6) 0.54219(7)
C57I C 0.7911(6) 0.8090(6) 0.53099(7)
H61I H 0.75310 0.83170 0.52880
C58I C 0.7439(5) 0.8053(8) 0.55005(7)
H62I H 0.75490 0.80080 0.55760
C59I C 0.6400(6) 0.8471(6) 0.55598(7)
H63I H 0.67550 0.86280 0.56290
C60I C 0.5436(7) 0.7635(7) 0.55774(8)
H64I H 0.54840 0.71150 0.56040
H65I H 0.50990 0.74660 0.55070
C61I C 0.4922(7) 0.7906(7) 0.56669(9)
H66I H 0.43110 0.73910 0.56800
H67I H 0.52570 0.80700 0.57370
C62I C 0.4858(7) 0.8715(6) 0.56223(9)
H68I H 0.45200 0.88760 0.56750
H69I H 0.45310 0.85520 0.55510
C63I C 0.5825(6) 0.9536(6) 0.56056(8)
H70I H 0.57890 1.00660 0.55800
H71I H 0.61610 0.96910 0.56760
C64I C 0.6313(6) 0.9279(5) 0.55188(6)
H72I H 0.59870 0.91360 0.54470
C65I C 0.7486(6) 1.0212(5) 0.54077(8)
H73I H 0.70490 0.99110 0.53520
N9G N 1.2772(5) 1.2756(5) 0.55061(6)
N10G N 1.1398(5) 1.3169(5) 0.54756(5)
C49G C 0.9540(14) 1.2047(14) 0.49280(16)
H57G H 0.92240 1.22100 0.48770
C50G C 0.9291(15) 1.1933(13) 0.50368(15)
H58G H 0.88150 1.20220 0.50610
C51G C 0.9753(6) 1.1683(6) 0.51110(7)
C52G C 0.9526(6) 1.1592(7) 0.52306(6)
C53G C 0.8639(6) 1.1009(6) 0.52655(8)
H59G H 0.81830 1.06910 0.52120
C54G C 0.8425(6) 1.0894(6) 0.53732(8)
C55G C 0.9070(6) 1.1431(6) 0.54510(7)
H60G H 0.88990 1.13810 0.55260
C56G C 0.9954(6) 1.2036(6) 0.54219(7)
C57G C 1.0179(6) 1.2089(6) 0.53099(7)
H61G H 1.07860 1.24690 0.52880
C58G C 1.0614(5) 1.2561(8) 0.55005(7)
H62G H 1.04590 1.24510 0.55760
C59G C 1.2071(6) 1.3600(6) 0.55598(7)
H63G H 1.18730 1.32450 0.56290
C60G C 1.2199(7) 1.4564(7) 0.55774(8)
H64G H 1.16310 1.45160 0.56040
H65G H 1.23670 1.49010 0.55070
C61G C 1.2984(7) 1.5078(7) 0.56669(9)
H66G H 1.30800 1.56890 0.56800
H67G H 1.28130 1.47430 0.57370
C62G C 1.3857(7) 1.5142(6) 0.56223(9)
H68G H 1.43560 1.54800 0.56750
H69G H 1.40210 1.54690 0.55510
C63G C 1.3711(6) 1.4175(6) 0.56056(8)
H70G H 1.42770 1.42110 0.55800
H71G H 1.35300 1.38390 0.56760
C64G C 1.2966(6) 1.3687(5) 0.55188(6)
H72G H 1.31490 1.40130 0.54470
C65G C 1.2726(6) 1.2514(5) 0.54077(8)
H73G H 1.28620 1.29510 0.53520
N9K N 0.9984(5) 0.7228(5) 0.55061(6)
N10K N 1.1771(5) 0.8602(5) 0.54756(5)
C49K C 1.2507(14) 1.0460(14) 0.49280(16)
H57K H 1.29860 1.07760 0.48770
C50K C 1.2642(15) 1.0709(13) 0.50368(15)
H58K H 1.32070 1.11850 0.50610
C51K C 1.1930(6) 1.0247(6) 0.51110(7)
C52K C 1.2066(6) 1.0474(7) 0.52306(6)
C53K C 1.2370(6) 1.1361(6) 0.52655(8)
H59K H 1.25080 1.18170 0.52120
C54K C 1.2469(6) 1.1575(6) 0.53732(8)
C55K C 1.2361(6) 1.0930(6) 0.54510(7)
H60K H 1.24820 1.11010 0.55260
C56K C 1.2082(6) 1.0046(6) 0.54219(7)
C57K C 1.1910(6) 0.9821(6) 0.53099(7)
H61K H 1.16830 0.92140 0.52880
C58K C 1.1947(5) 0.9386(8) 0.55005(7)
H62K H 1.19920 0.95410 0.55760
C59K C 1.1529(6) 0.7929(6) 0.55598(7)
H63K H 1.13720 0.81270 0.56290
C60K C 1.2365(7) 0.7801(7) 0.55774(8)
H64K H 1.28850 0.83690 0.56040
H65K H 1.25340 0.76330 0.55070
C61K C 1.2094(7) 0.7016(7) 0.56669(9)
H66K H 1.26090 0.69200 0.56800
H67K H 1.19300 0.71870 0.57370
C62K C 1.1285(7) 0.6143(6) 0.56223(9)
H68K H 1.11240 0.56440 0.56750
H69K H 1.14480 0.59790 0.55510
C63K C 1.0464(6) 0.6289(6) 0.56056(8)
H70K H 0.99340 0.57230 0.55800
H71K H 1.03090 0.64700 0.56760
C64K C 1.0721(6) 0.7034(5) 0.55188(6)
H72K H 1.08640 0.68510 0.54470
C65K C 0.9788(6) 0.7274(5) 0.54077(8)
H73K H 1.00890 0.71380 0.53520
N11B N 0.3579(5) 0.9604(6) 0.29722(6)
N12B N 0.5348(5) 0.9800(5) 0.30118(7)
C66B C 0.0218(6) 0.5863(6) 0.29163(9)
H74B H -0.02420 0.55070 0.28650
C67B C 0.0946(4) 0.6776(4) 0.28838(6)
C68B C 0.0929(4) 0.7034(4) 0.27761(6)
H75B H 0.04740 0.66290 0.27270
C69B C 0.1577(3) 0.7882(5) 0.27398(4)
C70B C 0.2241(4) 0.8473(4) 0.28113(6)
H76B H 0.26840 0.90530 0.27870
C71B C 0.2258(4) 0.8216(4) 0.29191(5)
C72B C 0.1610(3) 0.7367(4) 0.29554(4)
H77B H 0.16220 0.71910 0.30290
C73B C 0.1059(3) 0.7364(13) 0.2538(2)
H78B H 0.05380 0.68430 0.25640
C74B C 0.1692(3) 0.7998(7) 0.26092(9)
C75B C 0.4175(7) 1.0160(7) 0.30614(7)
H79B H 0.40420 0.97810 0.31290
C76B C 0.3987(7) 1.0924(6) 0.30851(7)
H80B H 0.33440 1.06680 0.31040
H81B H 0.41120 1.12980 0.30180
C77B C 0.4575(7) 1.1524(6) 0.31813(7)
H82B H 0.44360 1.11660 0.32500
H83B H 0.44580 1.20270 0.31940
C78B C 0.5589(6) 1.1900(6) 0.31475(9)
H84B H 0.57300 1.22900 0.30820
H85B H 0.59870 1.22690 0.32080
C79B C 0.5767(7) 1.1122(7) 0.31217(8)
H86B H 0.64000 1.13720 0.30980
H87B H 0.56740 1.07600 0.31890
C80B C 0.5132(7) 1.0523(7) 0.30308(7)
H88B H 0.52610 1.08880 0.29620
C81B C 0.2928(6) 0.8826(7) 0.30006(8)
H89B H 0.28770 0.86400 0.30750
C82B C 0.2468(3) 0.8773(12) 0.2574(3)
H90B H 0.28790 0.91840 0.26270
N11D N 0.0396(5) 0.3975(6) 0.29722(6)
N12D N 0.0200(5) 0.5548(5) 0.30118(7)
C66D C 0.4137(6) 0.4355(6) 0.29163(9)
H74D H 0.44930 0.42510 0.28650
C67D C 0.3224(4) 0.4170(4) 0.28838(6)
C68D C 0.2966(4) 0.3895(4) 0.27761(6)
H75D H 0.33710 0.38450 0.27270
C69D C 0.2118(3) 0.3695(5) 0.27398(4)
C70D C 0.1527(4) 0.3768(4) 0.28113(6)
H76D H 0.09470 0.36310 0.27870
C71D C 0.1784(4) 0.4042(4) 0.29191(5)
C72D C 0.2633(3) 0.4243(4) 0.29554(4)
H77D H 0.28090 0.44310 0.30290
C73D C 0.2636(3) 0.3695(13) 0.2538(2)
H78D H 0.31570 0.36950 0.25640
C74D C 0.2002(3) 0.3694(7) 0.26092(9)
C75D C -0.0160(7) 0.4015(7) 0.30614(7)
H79D H 0.02190 0.42610 0.31290
C76D C -0.0924(7) 0.3063(6) 0.30851(7)
H80D H -0.06680 0.26760 0.31040
H81D H -0.12980 0.28140 0.30180
C77D C -0.1524(7) 0.3051(6) 0.31813(7)
H82D H -0.11660 0.32700 0.32500
H83D H -0.20270 0.24310 0.31940
C78D C -0.1900(6) 0.3689(6) 0.31475(9)
H84D H -0.22900 0.34400 0.30820
H85D H -0.22690 0.37180 0.32080
C79D C -0.1122(7) 0.4645(7) 0.31217(8)
H86D H -0.13720 0.50280 0.30980
H87D H -0.07600 0.49140 0.31890
C80D C -0.0523(7) 0.4609(7) 0.30308(7)
H88D H -0.08880 0.43730 0.29620
C81D C 0.1174(6) 0.4102(7) 0.30006(8)
H89D H 0.13600 0.42370 0.30750
C82D C 0.1227(3) 0.3695(12) 0.2574(3)
H90D H 0.08160 0.36950 0.26270
N11H N 0.6025(5) 0.9604(6) 0.20278(6)
N12H N 0.4452(5) 0.9800(5) 0.19882(7)
C66H C 0.5645(6) 0.5863(6) 0.20837(9)
H74H H 0.57490 0.55070 0.21350
C67H C 0.5830(4) 0.6776(4) 0.21162(6)
C68H C 0.6105(4) 0.7034(4) 0.22239(6)
H75H H 0.61550 0.66290 0.22730
C69H C 0.6305(3) 0.7882(5) 0.22602(4)
C70H C 0.6232(4) 0.8473(4) 0.21887(6)
H76H H 0.63690 0.90530 0.22130
C71H C 0.5958(4) 0.8216(4) 0.20809(5)
C72H C 0.5757(3) 0.7367(4) 0.20446(4)
H77H H 0.55690 0.71910 0.19710
C73H C 0.6305(3) 0.7364(13) 0.2462(2)
H78H H 0.63050 0.68430 0.24360
C74H C 0.6306(3) 0.7998(7) 0.23908(9)
C75H C 0.5985(7) 1.0160(7) 0.19386(7)
H79H H 0.57390 0.97810 0.18710
C76H C 0.6937(7) 1.0924(6) 0.19149(7)
H80H H 0.73240 1.06680 0.18960
H81H H 0.71860 1.12980 0.19820
C77H C 0.6949(7) 1.1524(6) 0.18187(7)
H82H H 0.67300 1.11660 0.17500
H83H H 0.75690 1.20270 0.18060
C78H C 0.6311(6) 1.1900(6) 0.18525(9)
H84H H 0.65600 1.22900 0.19180
H85H H 0.62820 1.22690 0.17920
C79H C 0.5355(7) 1.1122(7) 0.18783(8)
H86H H 0.49720 1.13720 0.19020
H87H H 0.50860 1.07600 0.18110
C80H C 0.5391(7) 1.0523(7) 0.19692(7)
H88H H 0.56270 1.08880 0.20380
C81H C 0.5898(6) 0.8826(7) 0.19994(8)
H89H H 0.57630 0.86400 0.19250
C82H C 0.6305(3) 0.8773(12) 0.2426(3)
H90H H 0.63050 0.91840 0.23730
N11F N 0.3579(5) 0.3975(6) 0.20278(6)
N12F N 0.5348(5) 0.5548(5) 0.19882(7)
C66F C 0.0218(6) 0.4355(6) 0.20837(9)
H74F H -0.02420 0.42510 0.21350
C67F C 0.0946(4) 0.4170(4) 0.21162(6)
C68F C 0.0929(4) 0.3895(4) 0.22239(6)
H75F H 0.04740 0.38450 0.22730
C69F C 0.1577(3) 0.3695(5) 0.22602(4)
C70F C 0.2241(4) 0.3768(4) 0.21887(6)
H76F H 0.26840 0.36310 0.22130
C71F C 0.2258(4) 0.4042(4) 0.20809(5)
C72F C 0.1610(3) 0.4243(4) 0.20446(4)
H77F H 0.16220 0.44310 0.19710
C73F C 0.1059(3) 0.3695(13) 0.2462(2)
H78F H 0.05380 0.36950 0.24360
C74F C 0.1692(3) 0.3694(7) 0.23908(9)
C75F C 0.4175(7) 0.4015(7) 0.19386(7)
H79F H 0.40420 0.42610 0.18710
C76F C 0.3987(7) 0.3063(6) 0.19149(7)
H80F H 0.33440 0.26760 0.18960
H81F H 0.41120 0.28140 0.19820
C77F C 0.4575(7) 0.3051(6) 0.18187(7)
H82F H 0.44360 0.32700 0.17500
H83F H 0.44580 0.24310 0.18060
C78F C 0.5589(6) 0.3689(6) 0.18525(9)
H84F H 0.57300 0.34400 0.19180
H85F H 0.59870 0.37180 0.17920
C79F C 0.5767(7) 0.4645(7) 0.18783(8)
H86F H 0.64000 0.50280 0.19020
H87F H 0.56740 0.49140 0.18110
C80F C 0.5132(7) 0.4609(7) 0.19692(7)
H88F H 0.52610 0.43730 0.20380
C81F C 0.2928(6) 0.4102(7) 0.19994(8)
H89F H 0.28770 0.42370 0.19250
C82F C 0.2468(3) 0.3695(12) 0.2426(3)
H90F H 0.28790 0.36950 0.23730
N11J N 0.0396(5) 0.6421(6) 0.20278(6)
N12J N 0.0200(5) 0.4652(5) 0.19882(7)
C66J C 0.4137(6) 0.9782(6) 0.20837(9)
H74J H 0.44930 1.02420 0.21350
C67J C 0.3224(4) 0.9054(4) 0.21162(6)
C68J C 0.2966(4) 0.9071(4) 0.22239(6)
H75J H 0.33710 0.95260 0.22730
C69J C 0.2118(3) 0.8423(5) 0.22602(4)
C70J C 0.1527(4) 0.7759(4) 0.21887(6)
H76J H 0.09470 0.73160 0.22130
C71J C 0.1784(4) 0.7742(4) 0.20809(5)
C72J C 0.2633(3) 0.8390(4) 0.20446(4)
H77J H 0.28090 0.83780 0.19710
C73J C 0.2636(3) 0.8941(13) 0.2462(2)
H78J H 0.31570 0.94620 0.24360
C74J C 0.2002(3) 0.8308(7) 0.23908(9)
C75J C -0.0160(7) 0.5825(7) 0.19386(7)
H79J H 0.02190 0.59580 0.18710
C76J C -0.0924(7) 0.6013(6) 0.19149(7)
H80J H -0.06680 0.66560 0.18960
H81J H -0.12980 0.58880 0.19820
C77J C -0.1524(7) 0.5425(6) 0.18187(7)
H82J H -0.11660 0.55640 0.17500
H83J H -0.20270 0.55420 0.18060
C78J C -0.1900(6) 0.4411(6) 0.18525(9)
H84J H -0.22900 0.42700 0.19180
H85J H -0.22690 0.40130 0.17920
C79J C -0.1122(7) 0.4233(7) 0.18783(8)
H86J H -0.13720 0.36000 0.19020
H87J H -0.07600 0.43260 0.18110
C80J C -0.0523(7) 0.4868(7) 0.19692(7)
H88J H -0.08880 0.47390 0.20380
C81J C 0.1174(6) 0.7072(7) 0.19994(8)
H89J H 0.13600 0.71230 0.19250
C82J C 0.1227(3) 0.7532(12) 0.2426(3)
H90J H 0.08160 0.71210 0.23730
#END
