
#######################################################################
#
#                 Cambridge Crystallographic Data Centre
#                                CCDC
#
#######################################################################
#
# If this CIF has been generated from an entry in the Cambridge
# Structural Database, then it will include bibliographic, chemical,
# crystal, experimental, refinement or atomic coordinate data resulting
# from the CCDC's data processing and validation procedures.
#
#######################################################################

data_CSD_CIF_ABILOP
_audit_creation_date 2016-11-23
_audit_creation_method CSD-ConQuest-V1
_database_code_CSD ABILOP
_database_code_depnum_ccdc_archive 'CCDC 1453927'
_chemical_formula_sum 'C111.5 H152.5 N12 O15.75'
_chemical_formula_moiety
;
C102 H102 N12,9.5(C1 H4 O1),6.25(H2 O1)
;
_journal_coden_Cambridge 1441
_journal_volume 9
_journal_year 2016
_journal_page_first 17
_journal_name_full 'Nature Chemistry '
loop_
_publ_author_name
"A.G.Slater"
"M.A.Little"
"A.Pulido"
"S.Y.Chong"
"D.Holden"
"L.Chen"
"C.Morgan"
"X.Wu"
"G.Cheng"
"R.Clowes"
"M.E.Briggs"
"T.Hasell"
"K.E.Jelfs"
"G.M.Day"
"A.I.Cooper"
_chemical_name_systematic
;
(R)-5,7,11,13,19,21,25,27,30,32,36,38-dodecaaza-6,12,20,26,31,37(1,2)-hexacycl
ohexana-1,3,9,15,17,23(1,3,5),2,16,24(1,4)-nonabenzenatetracyclo[15.11.5.5^3,1
5^.1^9,23^]nonatriacontaphane-4,7,10,13,18,21,24,27,29,32,35,38-dodecane 
methanol solvate hydrate
;
_chemical_name_common
;
TCC2-R methanol solvate hydrate
;
_cell_volume   8650.227
_exptl_crystal_colour 'colorless'
_exptl_crystal_density_diffrn 1.097
_exptl_crystal_description 'block'
_diffrn_ambient_temperature 100
_refine_special_details
;
The structure is disordered.

;
#These two values have been output from a single CSD field.
_refine_ls_R_factor_gt 0.0787
_refine_ls_wR_factor_gt 0.0787
_symmetry_cell_setting hexagonal
_symmetry_space_group_name_H-M 'P 31 2 1'
_symmetry_Int_Tables_number 152
loop_
_symmetry_equiv_pos_site_id
_symmetry_equiv_pos_as_xyz
1 x,y,z
2 -y,x-y,1/3+z
3 -x+y,-x,2/3+z
4 x-y,-y,2/3-z
5 -x,-x+y,1/3-z
6 y,x,-z
_cell_length_a 19.490(4)
_cell_length_b 19.490(4)
_cell_length_c 26.295(5)
_cell_angle_alpha 90
_cell_angle_beta 90
_cell_angle_gamma 120
_cell_formula_units_Z 3
loop_
_atom_type_symbol
_atom_type_radius_bond
C 0.68
H 0.23
N 0.68
O 0.68
loop_
_atom_site_label
_atom_site_type_symbol
_atom_site_fract_x
_atom_site_fract_y
_atom_site_fract_z
C1 C 0.3367(4) 0.3221(4) 0.2044(2)
H1 H 0.36520 0.34770 0.17440
C2 C 0.3816(4) 0.3130(4) 0.2457(2)
C3 C 0.4626(4) 0.3454(4) 0.2401(2)
H2 H 0.48740 0.37250 0.20960
C4 C 0.5086(4) 0.3390(3) 0.2783(2)
C5 C 0.4718(4) 0.2981(3) 0.3227(2)
H3 H 0.50280 0.29340 0.34880
C6 C 0.3449(4) 0.2716(4) 0.2912(2)
H4 H 0.28930 0.24910 0.29540
C7 C 0.3516(4) 0.2168(4) 0.3763(2)
C8 C 0.3829(4) 0.1756(4) 0.4006(2)
H5 H 0.43120 0.18050 0.38880
C9 C 0.3449(4) 0.1274(4) 0.4419(2)
H6 H 0.36720 0.09930 0.45780
C10 C 0.2734(4) 0.1195(4) 0.4606(2)
C11 C 0.2428(4) 0.1624(5) 0.4369(3)
H7 H 0.19510 0.15840 0.44920
C12 C 0.2811(4) 0.2109(5) 0.3955(3)
H8 H 0.25990 0.24020 0.38000
C13 C 0.1484(4) 0.0068(5) 0.4957(2)
H9 H 0.11980 0.01340 0.46870
C14 C 0.2312(4) 0.0608(4) 0.5009(2)
C15 C 0.2705(4) 0.0523(4) 0.5424(2)
H10 H 0.32530 0.08880 0.54680
C16 C 0.2310(4) -0.0090(4) 0.5779(2)
C17 C 0.1517(4) -0.0615(5) 0.5717(2)
H11 H 0.12470 -0.10280 0.59580
C18 C 0.1093(4) -0.0550(5) 0.5297(3)
C19 C 0.0269(4) -0.1161(5) 0.5186(3)
H12 H -0.00280 -0.10480 0.49470
C20 C 0.2736(4) -0.0196(4) 0.6201(2)
H13 H 0.24620 -0.06490 0.64120
C21 C 0.3804(4) -0.2748(3) 0.4932(2)
H14 H 0.35660 -0.29750 0.52500
C22 C 0.4615(4) -0.0113(4) 0.5675(2)
H15 H 0.47770 0.04270 0.56110
C23 C 0.4517(4) -0.0624(4) 0.5241(2)
C24 C 0.4208(4) -0.1432(4) 0.52863(19)
H16 H 0.40390 -0.16760 0.56100
C25 C 0.4141(4) -0.1892(3) 0.4866(2)
C26 C 0.4367(4) -0.1533(4) 0.4385(2)
H17 H 0.43220 -0.18450 0.40960
C27 C 0.4650(4) -0.0738(4) 0.4329(2)
C28 C 0.4741(4) -0.0276(4) 0.4758(2)
H18 H 0.49580 0.02800 0.47230
C29 C 0.4858(5) -0.0353(4) 0.3815(2)
C30 C 0.4351(10) -0.0730(8) 0.3409(4)
H19 H 0.38970 -0.12390 0.34520
C31 C 0.4518(10) -0.0344(8) 0.2926(5)
H20 H 0.41480 -0.05720 0.26560
C32 C 0.3388(4) -0.4053(3) 0.46949(19)
H21 H 0.31360 -0.41500 0.50380
C33 C 0.3950(4) -0.4389(4) 0.4678(2)
H22 H 0.43600 -0.41340 0.49450
H23 H 0.42190 -0.42710 0.43440
C34 C 0.2817(4) -0.5700(4) 0.4379(3)
H24 H 0.30450 -0.56510 0.40350
H25 H 0.25030 -0.62710 0.44630
C35 C 0.3487(4) -0.5286(4) 0.4764(3)
H26 H 0.38520 -0.54990 0.47340
H27 H 0.32630 -0.53980 0.51120
C36 C 0.2278(4) -0.5347(3) 0.4376(2)
H28 H 0.19960 -0.54580 0.47060
H29 H 0.18770 -0.56000 0.41040
C37 C 0.2746(3) -0.4459(3) 0.4289(2)
H30 H 0.30020 -0.43520 0.39470
C38 C 0.3848(4) 0.0125(4) 0.6714(2)
H31 H 0.35010 -0.04350 0.68300
C39 C 0.3986(4) 0.0692(4) 0.7156(2)
H32 H 0.42890 0.12440 0.70320
H33 H 0.34680 0.06000 0.72820
C40 C 0.4429(4) 0.0586(5) 0.7588(2)
H34 H 0.41110 0.00470 0.77320
H35 H 0.45200 0.09740 0.78590
C41 C 0.5241(4) 0.0708(5) 0.7396(2)
H36 H 0.55750 0.12580 0.72720
H37 H 0.55220 0.06180 0.76780
C42 C 0.5091(4) 0.0126(4) 0.6966(2)
H38 H 0.47870 -0.04220 0.70980
H39 H 0.56040 0.02090 0.68360
C43 C 0.4626(4) 0.0233(4) 0.65262(19)
H40 H 0.49490 0.07780 0.63820
C44 C 0.2300(4) 0.3166(4) 0.1604(2)
H41 H 0.27000 0.33600 0.13230
C45 C 0.2112(5) 0.3820(5) 0.1736(3)
H42 H 0.17320 0.36450 0.20230
H43 H 0.26030 0.43020 0.18440
C46 C 0.1760(5) 0.4009(5) 0.1280(3)
H44 H 0.16330 0.44260 0.13730
H45 H 0.21510 0.42130 0.10000
C47 C 0.1014(5) 0.3274(6) 0.1106(3)
H46 H 0.07970 0.34030 0.08030
H47 H 0.06110 0.30910 0.13790
C48 C 0.1189(5) 0.2610(5) 0.0972(3)
H48 H 0.06910 0.21290 0.08720
H49 H 0.15580 0.27750 0.06790
C49 C 0.1557(4) 0.2421(4) 0.1424(2)
H50 H 0.11640 0.21980 0.17080
C50 C 0.3894(4) 0.2636(4) 0.3295(2)
C51 C 0.2206(3) -0.3741(3) 0.3929(2)
H51 H 0.25540 -0.36670 0.36550
N1 N 0.1782(4) 0.1837(3) 0.12642(19)
N2 N 0.2640(3) 0.2993(3) 0.20483(19)
N3 N 0.3814(3) -0.3206(3) 0.45894(16)
N4 N 0.2214(3) -0.4134(3) 0.43070(16)
N5 N 0.4495(3) -0.0351(3) 0.61302(17)
N6 N 0.3463(3) 0.0298(3) 0.62959(18)
C52 C 0.8134(13) 0.5085(9) 0.3699(6)
H52 H 0.79400 0.49000 0.40450
H53 H 0.77100 0.50850 0.34980
H54 H 0.85900 0.56230 0.37140
O1 O 0.8357(11) 0.4587(8) 0.3477(5)
H55 H 0.80030 0.41140 0.35250
O2 O 0.5511(11) 0.1643(10) 0.4693(7)
C53 C 0.056(2) 0.2165(16) 0.7088(13)
H56 H 0.01930 0.21490 0.67860
H57 H 0.10650 0.24900 0.69800
H58 H 0.03740 0.22410 0.73710
O3 O 0.0409(12) 0.1389(12) 0.7062(8)
H59 H 0.07950 0.13640 0.71820
C54 C 0.8153(10) 0.9589(8) 0.6072(5)
H60 H 0.83610 1.00770 0.62730
H61 H 0.77640 0.95660 0.58270
H62 H 0.85890 0.95840 0.58900
O4 O 0.7787(12) 0.8927(11) 0.6399(7)
H63 H 0.81110 0.87760 0.64720
C55 C 0.7579(12) 0.2139(14) 0.4621(8)
H64 H 0.71160 0.19660 0.48420
H65 H 0.74610 0.17370 0.43590
H66 H 0.77090 0.26420 0.44590
O5 O 0.8173(9) 0.2232(9) 0.4889(6)
H67 H 0.81670 0.24270 0.51720
C56 C 0.7087(34) 0.095(3) 0.3741(17)
H68 H 0.74430 0.13930 0.35170
H69 H 0.69430 0.11630 0.40340
H70 H 0.66140 0.05830 0.35530
O6 O 0.7490(15) 0.0554(11) 0.3912(8)
H71 H 0.75920 0.06430 0.42240
C57 C 0.4870(9) 0.7063(9) 0.3352(6)
H72 H 0.52810 0.72230 0.36130
H73 H 0.50870 0.74150 0.30570
H74 H 0.46910 0.65160 0.32460
O7 O 0.4273(5) 0.7107(5) 0.3535(3)
H75 H 0.40290 0.67410 0.37470
O8 O 0.0930(19) 0.375(2) 0.7415(12)
C58? C 0.582(3) 0.205(2) 0.4236(15)
H76? H 0.56300 0.15560 0.40430
H77? H 0.54030 0.19770 0.44650
H78? H 0.62740 0.21360 0.44280
O9? O 0.6023(8) 0.2707(9) 0.3887(5)
H79? H 0.63870 0.27610 0.36910
O10? O 0.708(3) 0.359(3) 0.3658(18)
O11? O 0.6018(6) 0.1799(5) 0.4651(3)
O12? O 0.6262(17) 0.3039(17) 0.3893(9)
O13? O 0.727(2) 0.452(2) 0.3895(14)
C59? C 0.075(4) 0.020(6) 0.731(3)
H80? H 0.05060 0.03520 0.75890
H81? H 0.11680 0.06340 0.71720
H82? H 0.08780 -0.01750 0.74520
O14? O 0.015(3) -0.024(4) 0.6940(19)
H83? H 0.02680 -0.05330 0.67760
O15? O 0.046(5) 0.057(5) 0.720(3)
O16? O 0.00000 -0.085(3) 0.66660
C60? C 0.7803(17) 0.9320(17) 0.6177(10)
H84? H 0.80370 0.98720 0.62880
H85? H 0.75230 0.92480 0.58540
H86? H 0.82230 0.91880 0.61310
O17? O 0.725(2) 0.881(2) 0.6556(12)
H87? H 0.75060 0.87990 0.68130
O18? O 0.7330(13) 0.1619(10) 0.4469(6)
C61? C 0.655(3) 0.869(4) 0.318(4)
H88? H 0.68610 0.86750 0.33680
H89? H 0.62940 0.90230 0.34300
H90? H 0.66910 0.90710 0.29020
O19? O 0.5805(12) 0.8001(12) 0.3063(8)
H91? H 0.57230 0.79800 0.27480
O20? O 0.7092(14) 0.9609(14) 0.3039(10)
C62? C 0.5740(11) 0.0688(10) 0.3247(5)
H92? H 0.62320 0.11600 0.31930
C63? C 0.5557(12) 0.0343(9) 0.3717(5)
H93? H 0.59240 0.05900 0.39870
C1C C 0.0146(4) -0.3221(4) 0.462267(200)
H1C H 0.01750 -0.34770 0.49227
C2C C 0.0686(4) -0.3130(4) 0.420967(200)
C3C C 0.1172(4) -0.3454(4) 0.426567(200)
H2C H 0.11490 -0.37250 0.45707
C4C C 0.1696(4) -0.3390(3) 0.388367(200)
C5C C 0.1737(4) -0.2981(3) 0.343967(200)
H3C H 0.20940 -0.29340 0.31787
C6C C 0.0733(4) -0.2716(4) 0.375467(200)
H4C H 0.04020 -0.24910 0.37127
C7C C 0.1348(4) -0.2168(4) 0.290367(200)
C8C C 0.2073(4) -0.1756(4) 0.266067(200)
H5C H 0.25070 -0.18050 0.27787
C9C C 0.2175(4) -0.1274(4) 0.224767(200)
H6C H 0.26790 -0.09930 0.20887
C10C C 0.1539(4) -0.1195(4) 0.206067(200)
C11C C 0.0804(4) -0.1624(5) 0.229767(300)
H7C H 0.03670 -0.15840 0.21747
C12C C 0.0702(4) -0.2109(5) 0.271167(300)
H8C H 0.01970 -0.24020 0.28667
C13C C 0.1416(4) -0.0068(5) 0.170967(200)
H9C H 0.10640 -0.01340 0.19797
C14C C 0.1704(4) -0.0608(4) 0.165767(200)
C15C C 0.2182(4) -0.0523(4) 0.124267(200)
H10C H 0.23650 -0.08880 0.11987
C16C C 0.2400(4) 0.0090(4) 0.088767(200)
C17C C 0.2132(4) 0.0615(5) 0.094967(200)
H11C H 0.22750 0.10280 0.07087
C18C C 0.1643(4) 0.0550(5) 0.136967(300)
C19C C 0.1430(4) 0.1161(5) 0.148067(300)
H12C H 0.10200 0.10480 0.17197
C20C C 0.2932(4) 0.0196(4) 0.046567(200)
H13C H 0.31110 0.06490 0.02547
C21C C 0.6552(4) 0.2748(3) 0.173467(200)
H14C H 0.65410 0.29750 0.14167
C22C C 0.4728(4) 0.0113(4) 0.099167(200)
H15C H 0.43500 -0.04270 0.10557
C23C C 0.5141(4) 0.0624(4) 0.142567(200)
C24C C 0.5640(4) 0.1432(4) 0.138037(190)
H16C H 0.57150 0.16760 0.10567
C25C C 0.6033(4) 0.1892(3) 0.180067(200)
C26C C 0.5900(4) 0.1533(4) 0.228167(200)
H17C H 0.61670 0.18450 0.25707
C27C C 0.5388(4) 0.0738(4) 0.233767(200)
C28C C 0.5017(4) 0.0276(4) 0.190867(200)
H18C H 0.46780 -0.02800 0.19437
C29C C 0.5211(5) 0.0353(4) 0.285167(200)
C30C C 0.5081(10) 0.0730(8) 0.325767(400)
H19C H 0.51360 0.12390 0.32147
C31C C 0.4862(10) 0.0344(8) 0.374067(500)
H20C H 0.47200 0.05720 0.40107
C32C C 0.7441(4) 0.4053(3) 0.197177(190)
H21C H 0.72860 0.41500 0.16287
C33C C 0.8339(4) 0.4389(4) 0.198867(200)
H22C H 0.84940 0.41340 0.17217
H23C H 0.84900 0.42710 0.23227
C34C C 0.8517(4) 0.5700(4) 0.228767(300)
H24C H 0.86960 0.56510 0.26317
H25C H 0.87740 0.62710 0.22037
C35C C 0.8773(4) 0.5286(4) 0.190267(300)
H26C H 0.93510 0.54990 0.19327
H27C H 0.86610 0.53980 0.15547
C36C C 0.7625(4) 0.5347(3) 0.229067(200)
H28C H 0.74540 0.54580 0.19607
H29C H 0.74770 0.56000 0.25627
C37C C 0.7205(3) 0.4459(3) 0.237767(200)
H30C H 0.73540 0.43520 0.27197
C38C C 0.3723(4) -0.0125(4) -0.004733(200)
H31C H 0.39360 0.04350 -0.01633
C39C C 0.3294(4) -0.0692(4) -0.048933(200)
H32C H 0.30450 -0.12440 -0.03653
H33C H 0.28680 -0.06000 -0.06153
C40C C 0.3843(4) -0.0586(5) -0.092133(200)
H34C H 0.40640 -0.00470 -0.10653
H35C H 0.35460 -0.09740 -0.11923
C41C C 0.4533(4) -0.0708(5) -0.072933(200)
H36C H 0.43170 -0.12580 -0.06053
H37C H 0.49040 -0.06180 -0.10113
C42C C 0.4965(4) -0.0126(4) -0.029933(200)
H38C H 0.52090 0.04220 -0.04313
H39C H 0.53950 -0.02090 -0.01693
C43C C 0.4393(4) -0.0233(4) 0.014047(190)
H40C H 0.41710 -0.07780 0.02847
C44C C -0.0866(4) -0.3166(4) 0.506267(200)
H41C H -0.06600 -0.33600 0.53437
C45C C -0.1708(5) -0.3820(5) 0.493067(300)
H42C H -0.19130 -0.36450 0.46437
H43C H -0.16990 -0.43020 0.48227
C46C C -0.2249(5) -0.4009(5) 0.538667(300)
H44C H -0.27930 -0.44260 0.52937
H45C H -0.20620 -0.42130 0.56667
C47C C -0.2260(5) -0.3274(6) 0.556067(300)
H46C H -0.26060 -0.34030 0.58637
H47C H -0.24800 -0.30910 0.52877
C48C C -0.1421(5) -0.2610(5) 0.569467(300)
H48C H -0.14380 -0.21290 0.57947
H49C H -0.12170 -0.27750 0.59877
C49C C -0.0864(4) -0.2421(4) 0.524267(200)
H50C H -0.10340 -0.21980 0.49587
C50C C 0.1258(4) -0.2636(4) 0.337167(200)
C51C C 0.5947(3) 0.3741(3) 0.273767(200)
H51C H 0.62210 0.36670 0.30117
N1C N -0.0055(4) -0.1837(3) 0.540247(190)
N2C N -0.0353(3) -0.2993(3) 0.461837(190)
N3C N 0.7020(3) 0.3206(3) 0.207727(160)
N4C N 0.6348(3) 0.4134(3) 0.235967(160)
N5C N 0.4846(3) 0.0351(3) 0.053647(170)
N6C N 0.3165(3) -0.0298(3) 0.037077(180)
C53D C -0.056(2) 0.1605(16) 0.624533(1300)
H56D H -0.01930 0.19560 0.65473
H57D H -0.10650 0.14250 0.63533
H58D H -0.03740 0.18670 0.59623
O3D O -0.0409(12) 0.0980(12) 0.627133(800)
H59D H -0.07950 0.05690 0.61513
#END
