
#######################################################################
#
#                 Cambridge Crystallographic Data Centre
#                                CCDC
#
#######################################################################
#
# If this CIF has been generated from an entry in the Cambridge
# Structural Database, then it will include bibliographic, chemical,
# crystal, experimental, refinement or atomic coordinate data resulting
# from the CCDC's data processing and validation procedures.
#
#######################################################################

data_CSD_CIF_ABIMIK
_audit_creation_date 2016-11-23
_audit_creation_method CSD-ConQuest-V1
_database_code_CSD ABIMIK
_database_code_depnum_ccdc_archive 'CCDC 1453931'
_chemical_formula_sum 'C115.3 H135 Cl5.76 N12 O6.71'
_chemical_formula_moiety
;
C102 H102 N12,3.46(C3 H6 O1),2.88(C1 H2 Cl2),3.25(H2 O1)
;
_journal_coden_Cambridge 1441
_journal_volume 9
_journal_year 2016
_journal_page_first 17
_journal_name_full 'Nature Chemistry '
loop_
_publ_author_name
"A.G.Slater"
"M.A.Little"
"A.Pulido"
"S.Y.Chong"
"D.Holden"
"L.Chen"
"C.Morgan"
"X.Wu"
"G.Cheng"
"R.Clowes"
"M.E.Briggs"
"T.Hasell"
"K.E.Jelfs"
"G.M.Day"
"A.I.Cooper"
_chemical_name_systematic
;
rac-5,7,11,13,19,21,25,27,30,32,36,38-dodecaaza-6,12,20,26,31,37(1,2)-hexacycl
ohexana-1,3,9,15,17,23(1,3,5),2,16,24(1,4)-nonabenzenatetracyclo[15.11.5.5^3,1
5^.1^9,23^]nonatriacontaphane-4,7,10,13,18,21,24,27,29,32,35,38-dodecane 
acetone dichloromethane solvate hydrate
;
_chemical_name_common
;
rac-TCC2 acetone dichloromethane solvate hydrate
;
_cell_volume  11627.875
_exptl_crystal_colour 'colorless'
_exptl_crystal_density_diffrn 1.143
_exptl_crystal_description 'needle'
_diffrn_ambient_temperature 150
_diffrn_special_details
;
twin

;
_refine_special_details
;
The structure is disordered.

;
#These two values have been output from a single CSD field.
_refine_ls_R_factor_gt 0.0851
_refine_ls_wR_factor_gt 0.0851
_symmetry_cell_setting monoclinic
_symmetry_space_group_name_H-M 'C c'
_symmetry_Int_Tables_number 9
loop_
_symmetry_equiv_pos_site_id
_symmetry_equiv_pos_as_xyz
1 x,y,z
2 x,-y,1/2+z
3 1/2+x,1/2+y,z
4 1/2+x,1/2-y,1/2+z
_cell_length_a 28.157(4)
_cell_length_b 22.837(3)
_cell_length_c 18.131(2)
_cell_angle_alpha 90
_cell_angle_beta 94.162(3)
_cell_angle_gamma 90
_cell_formula_units_Z 4
loop_
_atom_type_symbol
_atom_type_radius_bond
C 0.68
H 0.23
Cl 0.99
N 0.68
O 0.68
loop_
_atom_site_label
_atom_site_type_symbol
_atom_site_fract_x
_atom_site_fract_y
_atom_site_fract_z
N1 N 0.7075(6) 0.9606(3) 0.5382(10)
N2 N 0.6511(6) 0.9286(3) 0.6556(10)
N3 N 0.6257(6) 0.6668(3) 0.7665(10)
N4 N 0.6512(6) 0.5780(3) 0.6676(10)
N5 N 0.7673(6) 0.6483(3) 0.3841(10)
N6 N 0.7692(6) 0.7616(3) 0.3172(10)
N7 N 0.3631(6) 0.9500(3) 0.0702(10)
N8 N 0.3072(6) 0.9610(3) 0.1951(10)
N9 N 0.2424(6) 0.7588(3) 0.411(1)
N10 N 0.2440(6) 0.6424(3) 0.3604(10)
N11 N 0.3866(6) 0.6796(3) -0.0217(10)
N12 N 0.3695(6) 0.5907(3) 0.0856(10)
C1 C 0.7172(6) 0.8308(3) 0.3716(10)
C2 C 0.6791(6) 0.8270(3) 0.3182(10)
H1 H 0.67960 0.79760 0.28120
C3 C 0.6405(6) 0.8649(3) 0.3174(10)
C4 C 0.3250(7) 0.5201(5) -0.0954(11)
H2 H 0.32030 0.47850 -0.10940
H3 H 0.29380 0.54010 -0.10240
C5 C 0.6401(6) 0.9071(4) 0.3736(10)
H4 H 0.61430 0.93380 0.37420
C6 C 0.6772(6) 0.9102(3) 0.4288(10)
C7 C 0.7152(6) 0.8716(3) 0.4275(10)
H5 H 0.74020 0.87330 0.46570
C8 C 0.6001(6) 0.8618(4) 0.2588(10)
C9 C 0.6055(6) 0.8330(4) 0.1916(11)
H6 H 0.63590 0.81900 0.18030
C10 C 0.5662(6) 0.8250(4) 0.1414(11)
H7 H 0.57000 0.80390 0.09710
C11 C 0.5215(6) 0.8472(4) 0.1545(11)
C12 C 0.5176(6) 0.8774(4) 0.2191(11)
H8 H 0.48760 0.89360 0.22890
C13 C 0.5557(6) 0.8853(4) 0.2706(11)
H9 H 0.55160 0.90710 0.31440
C14 C 0.4789(6) 0.8324(4) 0.1047(11)
C15 C 0.4734(6) 0.7776(4) 0.0718(10)
H10 H 0.49930 0.75080 0.07610
C16 C 0.4310(6) 0.7607(4) 0.0328(10)
C17 C 0.3949(6) 0.8008(4) 0.0238(10)
H11 H 0.36590 0.78990 -0.00260
C18 C 0.4000(6) 0.8581(4) 0.053(1)
C19 C 0.4418(6) 0.8722(4) 0.0945(11)
H12 H 0.44510 0.90990 0.11640
C20 C 0.7594(6) 0.7927(4) 0.3714(10)
H13 H 0.78050 0.79150 0.41470
C21 C 0.6747(6) 0.9541(3) 0.4876(10)
H14 H 0.64740 0.97850 0.48760
C22 C 0.4258(6) 0.6995(4) 0.0077(10)
H15 H 0.45250 0.67420 0.01360
C23 C 0.3597(6) 0.8981(4) 0.0468(10)
H16 H 0.33010 0.88480 0.02460
C24 C 0.6177(6) 0.8336(4) 0.6619(10)
C25 C 0.5772(6) 0.8441(4) 0.6144(11)
H17 H 0.57420 0.88040 0.58880
C26 C 0.5413(6) 0.8031(4) 0.6038(10)
C27 C 0.5454(6) 0.7495(4) 0.6406(10)
H18 H 0.52060 0.72130 0.63350
C28 C 0.5851(6) 0.7371(4) 0.6871(10)
C29 C 0.6212(6) 0.7787(4) 0.6968(10)
H19 H 0.64890 0.76960 0.72780
C30 C 0.4986(6) 0.8146(4) 0.5517(10)
C31 C 0.5039(6) 0.8386(4) 0.4823(11)
H20 H 0.53480 0.84820 0.46830
C32 C 0.4649(6) 0.8488(4) 0.4336(11)
H21 H 0.46950 0.86500 0.38640
C33 C 0.4194(6) 0.8358(4) 0.4518(10)
C34 C 0.4140(6) 0.8127(4) 0.5222(11)
H22 H 0.38310 0.80400 0.53690
C35 C 0.4533(6) 0.8026(5) 0.5701(11)
H23 H 0.44890 0.78670 0.61750
C36 C 0.3770(6) 0.8458(4) 0.3992(10)
C37 C 0.3776(6) 0.8912(4) 0.3465(10)
H24 H 0.40510 0.91520 0.34540
C38 C 0.3388(6) 0.9017(3) 0.2963(10)
C39 C 0.2987(6) 0.8655(3) 0.2984(10)
H25 H 0.27260 0.87070 0.26280
C40 C 0.2965(6) 0.8225(4) 0.3515(10)
C41 C 0.3366(6) 0.8131(4) 0.4012(10)
H26 H 0.33550 0.78300 0.43730
C42 C 0.6558(6) 0.8754(4) 0.6729(11)
H27 H 0.68570 0.86220 0.69400
C43 C 0.5905(6) 0.6791(4) 0.7209(10)
H28 H 0.56730 0.64990 0.70850
C44 C 0.3408(6) 0.9499(3) 0.2431(10)
H29 H 0.36850 0.97380 0.24490
C45 C 0.2530(6) 0.7874(4) 0.3543(10)
H30 H 0.23150 0.78610 0.31140
C46 C 0.6653(6) 0.6064(4) 0.5437(10)
C47 C 0.6175(6) 0.6025(4) 0.5172(11)
H31 H 0.59390 0.59330 0.55030
C48 C 0.6043(6) 0.6120(5) 0.4427(11)
C49 C 0.6393(7) 0.6231(5) 0.3962(11)
H32 H 0.63060 0.62740 0.34490
C50 C 0.6873(6) 0.6286(4) 0.4204(11)
C51 C 0.6994(6) 0.6197(4) 0.4965(11)
H33 H 0.73170 0.62300 0.51520
C52 C 0.4586(6) 0.6068(3) 0.3566(10)
C53 C 0.4718(6) 0.6401(4) 0.4189(10)
H34 H 0.44870 0.66280 0.44170
C54 C 0.5189(6) 0.6401(4) 0.448(1)
H35 H 0.52790 0.66290 0.49060
C55 C 0.5528(6) 0.6069(3) 0.4147(10)
C56 C 0.5396(6) 0.5736(3) 0.3524(10)
H36 H 0.56270 0.55090 0.32960
C57 C 0.4925(6) 0.5736(3) 0.3233(10)
H37 H 0.48350 0.55080 0.28070
C58 C 0.4087(6) 0.6100(4) 0.3207(11)
C59 C 0.3717(6) 0.6233(5) 0.3649(11)
H38 H 0.37880 0.62960 0.41630
C60 C 0.3245(6) 0.6277(4) 0.3357(11)
C61 C 0.3153(6) 0.6208(4) 0.2575(11)
H39 H 0.28370 0.62460 0.23600
C62 C 0.3519(6) 0.6086(4) 0.2126(10)
C63 C 0.3994(6) 0.6037(4) 0.2436(11)
H40 H 0.42460 0.59640 0.21280
C64 C 0.2877(6) 0.6387(4) 0.3820(11)
H41 H 0.29610 0.64370 0.43330
C65 C 0.3404(6) 0.6034(4) 0.1323(11)
H42 H 0.30840 0.61020 0.11440
C66 C 0.6783(6) 0.5986(4) 0.6237(11)
H43 H 0.70940 0.61010 0.64230
C67 C 0.7228(7) 0.6415(4) 0.3680(11)
H44 H 0.71180 0.64530 0.31740
C68 C 0.6934(6) 0.9660(4) 0.667(1)
H45 H 0.72190 0.94040 0.67660
C69 C 0.6892(6) 1.0059(5) 0.7341(10)
H46 H 0.66030 1.03050 0.72650
H47 H 0.68620 0.98180 0.77890
C70 C 0.7322(7) 1.0442(5) 0.7448(11)
H48 H 0.76090 1.01940 0.75370
H49 H 0.72940 1.06910 0.78910
C71 C 0.7381(6) 1.0832(4) 0.6780(11)
H50 H 0.76710 1.10760 0.68650
H51 H 0.71030 1.10960 0.67000
C72 C 0.7424(6) 1.0430(4) 0.6084(11)
H52 H 0.74430 1.06780 0.56390
H53 H 0.77200 1.01960 0.61480
C73 C 0.7000(6) 1.0022(4) 0.5973(10)
H54 H 0.67050 1.02550 0.58420
C74 C 0.8130(6) 0.7261(4) 0.3265(10)
H55 H 0.82970 0.73490 0.37590
C75 C 0.8455(7) 0.7393(5) 0.2681(11)
H56 H 0.85530 0.78090 0.27140
H57 H 0.82870 0.73270 0.21890
C76 C 0.8901(7) 0.6995(7) 0.2773(11)
H58 H 0.91110 0.70760 0.23710
H59 H 0.90810 0.70830 0.32500
C77 C 0.8758(7) 0.6354(5) 0.2753(11)
H60 H 0.86090 0.62580 0.22560
H61 H 0.90470 0.61090 0.28390
C78 C 0.8425(7) 0.6218(5) 0.3312(11)
H62 H 0.85880 0.62740 0.38090
H63 H 0.83310 0.58010 0.32650
C79 C 0.7972(6) 0.6601(4) 0.3245(10)
H64 H 0.77900 0.65180 0.27620
C80 C 0.6678(6) 0.5772(4) 0.7461(11)
H65 H 0.69780 0.60070 0.75290
C81 C 0.6785(7) 0.5138(5) 0.7719(12)
H66 H 0.70340 0.49630 0.74290
H67 H 0.64940 0.48940 0.76520
C82 C 0.6962(7) 0.5172(5) 0.8558(12)
H68 H 0.70540 0.47770 0.87410
H69 H 0.72450 0.54290 0.86200
C83 C 0.6576(7) 0.5410(6) 0.8999(12)
H70 H 0.66850 0.54150 0.95310
H71 H 0.62900 0.51580 0.89330
C84 C 0.6452(6) 0.6038(4) 0.8733(11)
H72 H 0.61870 0.61920 0.90070
H73 H 0.67320 0.62960 0.88400
C85 C 0.6308(6) 0.6048(4) 0.7901(10)
H74 H 0.59980 0.58400 0.78020
C86 C 0.3140(6) 1.0093(3) 0.1438(10)
H75 H 0.34350 1.03090 0.16130
C87 C 0.2723(6) 1.0511(4) 0.1437(11)
H76 H 0.24250 1.02920 0.13120
H77 H 0.27070 1.06750 0.19400
C88 C 0.2760(7) 1.1009(5) 0.0891(11)
H78 H 0.24690 1.12520 0.08820
H79 H 0.30360 1.12600 0.10470
C89 C 0.2819(7) 1.0765(6) 0.0128(11)
H80 H 0.25280 1.05470 -0.00430
H81 H 0.28570 1.10940 -0.02190
C90 C 0.3240(7) 1.0367(5) 0.0113(11)
H82 H 0.35360 1.05910 0.02400
H83 H 0.32570 1.02060 -0.03920
C91 C 0.3203(6) 0.9861(4) 0.0665(10)
H84 H 0.29220 0.96120 0.05040
C92 C 0.3849(6) 0.6178(4) -0.0408(10)
H85 H 0.41750 0.60060 -0.03230
C93 C 0.3678(7) 0.6109(5) -0.1225(11)
H86 H 0.33820 0.63370 -0.13280
H87 H 0.39230 0.62710 -0.15350
C94 C 0.3586(7) 0.5473(5) -0.1434(11)
H88 H 0.34550 0.54510 -0.19550
H89 H 0.38900 0.52540 -0.13910
C95 C 0.3432(7) 0.5240(4) -0.0144(11)
H90 H 0.31980 0.50580 0.01670
H91 H 0.37350 0.50200 -0.00680
C96 C 0.3513(6) 0.5867(4) 0.0088(11)
H92 H 0.31990 0.60730 0.00370
C97 C 0.2115(6) 0.6590(4) 0.4141(11)
H93 H 0.22790 0.65410 0.46450
C98 C 0.1672(7) 0.6192(6) 0.4079(11)
H94 H 0.17650 0.57840 0.42030
H95 H 0.15260 0.61990 0.35650
C99 C 0.1309(7) 0.6408(7) 0.4610(12)
H96 H 0.10150 0.61710 0.45330
H97 H 0.14400 0.63440 0.51250
C100 C 0.1182(7) 0.7044(8) 0.4510(12)
H98 H 0.09630 0.71620 0.48860
H99 H 0.10170 0.71040 0.40150
C101 C 0.1637(7) 0.7430(6) 0.4588(11)
H100 H 0.15500 0.78450 0.44980
H101 H 0.17880 0.73960 0.50970
C102 C 0.1987(6) 0.7232(4) 0.403(1)
H102 H 0.18350 0.72850 0.35190
O1 O 0.3436(8) 0.6378(7) 0.5736(13)
C103 C 0.3853(10) 0.5666(10) 0.6570(16)
H103 H 0.35440 0.55710 0.67550
H104 H 0.40850 0.57440 0.69880
H105 H 0.39630 0.53360 0.62820
C104 C 0.3801(9) 0.6224(10) 0.6064(16)
C105 C 0.4290(9) 0.6432(12) 0.5982(17)
H106 H 0.44580 0.61500 0.56870
H107 H 0.44590 0.64720 0.64710
H108 H 0.42790 0.68130 0.57320
O2? O 0.5020(6) 0.6060(11) 0.8419(13)
C106? C 0.4951(8) 0.7131(11) 0.8415(18)
H109? H 0.49390 0.74320 0.87980
H110? H 0.46360 0.70890 0.81530
H111? H 0.51830 0.72450 0.80640
C107? C 0.5347(7) 0.6541(15) 0.9562(10)
H112? H 0.52300 0.62140 0.98480
H113? H 0.52750 0.69110 0.98030
H114? H 0.56920 0.65050 0.95350
C108? C 0.51043(2) 0.6531(11) 0.87837(2)
O3 O 0.4700(8) 0.6671(8) 0.7640(13)
C109 C 0.5086(11) 0.7214(9) 0.8632(16)
H115 H 0.48130 0.74810 0.86160
H116 H 0.53460 0.73960 0.83820
H117 H 0.51930 0.71310 0.91470
C110 C 0.4942(8) 0.6655(8) 0.8248(13)
C111 C 0.5069(12) 0.6054(9) 0.8625(18)
H118 H 0.52100 0.61220 0.91280
H119 H 0.52980 0.58450 0.83390
H120 H 0.47790 0.58190 0.86460
O4? O 0.4332(11) 0.6621(12) 0.6853(18)
O5 O 0.4925(8) 0.6779(5) 0.1913(11)
C112 C 0.4432(9) 0.7443(7) 0.2505(14)
H121 H 0.42200 0.73860 0.20570
H122 H 0.44830 0.78620 0.25900
H123 H 0.42860 0.72710 0.29290
C113 C 0.4905(9) 0.7147(6) 0.2409(13)
C114 C 0.5324(10) 0.7271(8) 0.2946(15)
H124 H 0.55830 0.70000 0.28570
H125 H 0.52310 0.72210 0.34530
H126 H 0.54320 0.76750 0.28790
O6 O 0.5330(7) 0.9822(5) 0.4059(11)
C115 C 0.4619(8) 1.0281(8) 0.4333(14)
H127 H 0.45270 1.01970 0.38120
H128 H 0.46090 1.07050 0.44160
H129 H 0.43970 1.00860 0.46460
C116 C 0.5108(8) 1.0061(6) 0.4522(13)
C117 C 0.5321(8) 1.0167(8) 0.5264(13)
H130 H 0.51540 0.99350 0.56190
H131 H 0.52950 1.05840 0.53830
H132 H 0.56580 1.00540 0.52900
Cl1 Cl 0.5312(6) 1.1206(2) 0.297(1)
Cl2 Cl 0.4782(6) 1.0399(2) 0.1999(10)
C118 C 0.5337(8) 1.0528(6) 0.2477(13)
H133 H 0.55890 1.05480 0.21230
H134 H 0.54160 1.02040 0.28280
Cl3 Cl 0.3027(6) 0.7853(4) 0.1506(10)
Cl4 Cl 0.2266(6) 0.7204(4) 0.0795(10)
C119 C 0.2796(8) 0.7532(8) 0.0694(13)
H135 H 0.27540 0.78350 0.03040
H136 H 0.30240 0.72380 0.05310
O7? O 0.2471(19) 0.740(2) 0.182(3)
O8? O 0.3341(13) 0.7593(14) 0.183(2)
Cl5 Cl 0.4958(7) 0.4885(4) 0.5127(10)
Cl6 Cl 0.5201(6) 0.5127(4) 0.6624(10)
C120 C 0.4940(9) 0.4611(9) 0.5989(12)
H137 H 0.51170 0.42370 0.60300
H138 H 0.46060 0.45350 0.60980
Cl7 Cl 0.5838(6) 0.6648(3) 0.0531(10)
Cl8 Cl 0.6407(7) 0.6041(5) 0.1676(12)
C121 C 0.613(1) 0.6693(9) 0.1407(14)
H139 H 0.63710 0.70080 0.14100
H140 H 0.58970 0.67980 0.17690
O9? O 0.6314(17) 0.634(2) 0.130(3)
O10? O 0.6313(13) 0.5818(16) 0.084(2)
O11 O 0.7200(6) 0.7481(4) 0.1674(10)
H141 H 0.73350 0.74150 0.20990
H142 H 0.74050 0.74680 0.13520
O12 O 0.2903(6) 0.7437(4) 0.5591(10)
H143 H 0.28850 0.70850 0.57380
H144 H 0.31890 0.75580 0.56660
#END
