
#######################################################################
#
#                 Cambridge Crystallographic Data Centre
#                                CCDC
#
#######################################################################
#
# If this CIF has been generated from an entry in the Cambridge
# Structural Database, then it will include bibliographic, chemical,
# crystal, experimental, refinement or atomic coordinate data resulting
# from the CCDC's data processing and validation procedures.
#
#######################################################################

data_CSD_CIF_ABIMEG
_audit_creation_date 2016-11-23
_audit_creation_method CSD-ConQuest-V1
_database_code_CSD ABIMEG
_database_code_depnum_ccdc_archive 'CCDC 1453930'
_chemical_formula_sum 'C115.5 H129 Cl6 N12 O3.5'
_chemical_formula_moiety
;
C102 H102 N12,3.5(C3 H6 O1),3(C1 H2 Cl2)
;
_journal_coden_Cambridge 1441
_journal_volume 9
_journal_year 2016
_journal_page_first 17
_journal_name_full 'Nature Chemistry '
loop_
_publ_author_name
"A.G.Slater"
"M.A.Little"
"A.Pulido"
"S.Y.Chong"
"D.Holden"
"L.Chen"
"C.Morgan"
"X.Wu"
"G.Cheng"
"R.Clowes"
"M.E.Briggs"
"T.Hasell"
"K.E.Jelfs"
"G.M.Day"
"A.I.Cooper"
_chemical_name_systematic
;
rac-5,7,11,13,19,21,25,27,30,32,36,38-dodecaaza-6,12,20,26,31,37(1,2)-hexacycl
ohexana-1,3,9,15,17,23(1,3,5),2,16,24(1,4)-nonabenzenatetracyclo[15.11.5.5^3,1
5^.1^9,23^]nonatriacontaphane-4,7,10,13,18,21,24,27,29,32,35,38-dodecane 
acetone dichloromethane solvate
;
_chemical_name_common
;
rac-TCC2 acetone dichloromethane solvate
;
_cell_volume  11422.945
_exptl_crystal_colour 'colorless'
_exptl_crystal_density_diffrn 1.136
_exptl_crystal_description 'block'
_diffrn_ambient_temperature 100
_refine_special_details
;
C10,C11,C12,C7,C8,C9 and C10A,C11A,C12A,C7A,C8A,C9A disordered over two sites 
with occupancies 0.895:0.105; C29,C30,C31,N3 and C2B,C3B,C4B,N1B disordered 
over two sites with occupancies 0.905:0.095.
;
#These two values have been output from a single CSD field.
_refine_ls_R_factor_gt 0.0782
_refine_ls_wR_factor_gt 0.0782
_symmetry_cell_setting monoclinic
_symmetry_space_group_name_H-M 'C 2/c'
_symmetry_Int_Tables_number 15
loop_
_symmetry_equiv_pos_site_id
_symmetry_equiv_pos_as_xyz
1 x,y,z
2 -x,y,1/2-z
3 1/2+x,1/2+y,z
4 1/2-x,1/2+y,1/2-z
5 -x,-y,-z
6 x,-y,-1/2+z
7 -1/2-x,-1/2-y,-z
8 -1/2+x,-1/2-y,-1/2+z
_cell_length_a 27.9160(11)
_cell_length_b 24.1259(9)
_cell_length_c 16.9613(7)
_cell_angle_alpha 90
_cell_angle_beta 90.518(2)
_cell_angle_gamma 90
_cell_formula_units_Z 4
loop_
_atom_type_symbol
_atom_type_radius_bond
C 0.68
H 0.23
N 0.68
loop_
_atom_site_label
_atom_site_type_symbol
_atom_site_fract_x
_atom_site_fract_y
_atom_site_fract_z
N1 N 0.70104(6) 0.94480(7) 0.40027(11)
N2 N 0.64305(7) 0.92390(8) 0.53661(11)
N3 N 0.76940(12) 0.74808(12) 0.1765(2)
N4 N 0.7553(3) 0.6382(5) 0.2543(7)
N5 N 0.61854(8) 0.67295(8) 0.66338(14)
N6 N 0.6325(5) 0.5805(6) 0.5687(6)
C1 C 0.57394(10) 0.74583(12) 0.60105(16)
C2 C 0.61122(10) 0.78483(11) 0.60137(16)
H1 H 0.64080 0.77600 0.62660
C3 C 0.60547(10) 0.83602(11) 0.56542(14)
C4 C 0.56222(9) 0.84775(12) 0.52635(14)
H2 H 0.55840 0.88240 0.50040
C5 C 0.52477(9) 0.80980(12) 0.52477(13)
C6 C 0.53087(10) 0.75868(12) 0.56354(14)
H3 H 0.50530 0.73270 0.56410
C7 C 0.47917(10) 0.81822(17) 0.48042(17)
C8 C 0.4631(1) 0.87242(13) 0.46702(16)
H4 H 0.48010 0.90280 0.48920
C9 C 0.42242(9) 0.88189(12) 0.42142(16)
H5 H 0.41170 0.91880 0.41320
C10 C 0.39693(10) 0.83796(15) 0.38744(17)
C11 C 0.41212(9) 0.78413(12) 0.40338(15)
H6 H 0.39450 0.75350 0.38320
C12 C 0.45298(9) 0.77516(12) 0.44873(15)
H7 H 0.46320 0.73820 0.45820
C13 C 0.35674(8) 0.84809(10) 0.33083(14)
C14 C 0.57951(10) 0.68989(11) 0.63487(16)
H8 H 0.55260 0.66580 0.63510
C15 C 0.64606(9) 0.87536(11) 0.56464(14)
H9 H 0.67590 0.86360 0.58630
C16 C 0.71464(7) 0.86039(8) 0.28488(13)
H10 H 0.73860 0.86380 0.32470
C17 C 0.67549(7) 0.89575(8) 0.28466(13)
C18 C 0.63990(7) 0.88914(10) 0.22692(14)
H11 H 0.61290 0.91310 0.22700
C19 C 0.68293(8) 0.81397(9) 0.16880(14)
H12 H 0.68600 0.78640 0.12920
C20 C 0.71891(8) 0.81984(9) 0.22684(14)
C21 C 0.66994(7) 0.93785(8) 0.34645(13)
H13 H 0.64210 0.96060 0.34600
C22 C 0.76013(8) 0.78263(9) 0.23026(14)
H14 H 0.78090 0.78450 0.27490
C23 C 0.69194(8) 0.98690(8) 0.45996(14)
H15 H 0.66170 1.00710 0.44620
C24 C 0.73398(8) 1.02787(10) 0.46045(17)
H16 H 0.76430 1.00720 0.46770
H17 H 0.73530 1.04710 0.40890
C25 C 0.72934(10) 1.07023(12) 0.5252(2)
H18 H 0.75760 1.09510 0.52540
H19 H 0.70030 1.09310 0.51610
C26 C 0.72594(10) 1.04157(13) 0.6017(2)
H20 H 0.72230 1.06950 0.64400
H21 H 0.75610 1.02110 0.61190
C27 C 0.68331(10) 1.00050(13) 0.60507(18)
H22 H 0.68360 0.98120 0.65660
H23 H 0.65280 1.02130 0.60050
C28 C 0.68601(8) 0.95811(10) 0.53918(14)
H24 H 0.71440 0.93370 0.54880
C29 C 0.81212(13) 0.71336(13) 0.1900(2)
H25 H 0.82560 0.72220 0.24330
C30 C 0.85001(18) 0.72568(16) 0.1287(3)
H26 H 0.85990 0.76500 0.13270
H27 H 0.83650 0.71940 0.07520
C31 C 0.89337(17) 0.68838(17) 0.1415(3)
H28 H 0.90850 0.69720 0.19300
H29 H 0.91720 0.69570 0.09990
C32 C 0.87941(16) 0.62712(16) 0.1397(2)
H30 H 0.86790 0.61730 0.08610
H31 H 0.90800 0.60420 0.15160
C33 C 0.84085(13) 0.61427(13) 0.19831(18)
H32 H 0.85410 0.61850 0.25230
H33 H 0.83070 0.57520 0.19170
C34 C 0.79706(13) 0.65201(11) 0.18880(18)
H34 H 0.77960 0.64320 0.13860
C35 C 0.61980(9) 0.61523(10) 0.69096(17)
H35 H 0.58680 0.59920 0.68710
C36 C 0.63637(11) 0.61376(10) 0.77683(18)
H36 H 0.61240 0.63280 0.80980
H37 H 0.66700 0.63420 0.78200
C37 C 0.64331(10) 0.55464(10) 0.80715(19)
H38 H 0.65700 0.55570 0.86120
H39 H 0.61190 0.53560 0.80930
C38 C 0.67603(11) 0.52334(11) 0.7543(2)
H40 H 0.67920 0.48470 0.77350
H41 H 0.70820 0.54060 0.75580
C39 C 0.65723(10) 0.52291(11) 0.66973(19)
H42 H 0.67930 0.50150 0.63600
H43 H 0.62540 0.50470 0.66770
C40 C 0.65306(9) 0.58196(10) 0.63914(17)
H44 H 0.68560 0.59910 0.64460
C41 C 0.6849(4) 0.6113(5) 0.3777(5)
H45 H 0.71680 0.61660 0.39630
C42 C 0.6749(3) 0.6171(4) 0.2973(5)
C43 C 0.6277(3) 0.6102(3) 0.2707(4)
H46 H 0.62020 0.61370 0.21620
C44 C 0.5914(3) 0.5982(4) 0.3244(4)
C45 C 0.6021(3) 0.5933(4) 0.4040(4)
H47 H 0.57730 0.58660 0.44060
C46 C 0.6497(4) 0.5983(5) 0.4306(6)
C47 C 0.54180(18) 0.5962(3) 0.2958(3)
C48 C 0.50499(13) 0.62410(18) 0.3359(2)
H48 H 0.51200 0.64190 0.38460
C49 C 0.7120(3) 0.6295(4) 0.2392(6)
H49 H 0.70230 0.63110 0.18540
C50 C 0.6621(6) 0.5954(6) 0.5157(6)
H50 H 0.69370 0.60510 0.53160
C51 C 0.45866(14) 0.62604(19) 0.3056(2)
H51 H 0.43460 0.64580 0.33320
H52? H 0.78120 0.79740 0.26920
H53? H 0.86630 0.63740 0.08730
H54? H 0.90280 0.59650 0.13430
C52? C 0.4831(4) 0.8365(6) 0.4723(8)
C53? C 0.4384(5) 0.8156(6) 0.4917(8)
H55? H 0.43440 0.79530 0.53920
C54? C 0.3994(4) 0.8244(6) 0.4417(9)
H56? H 0.36880 0.81010 0.45490
C55? C 0.4052(4) 0.8541(7) 0.3722(9)
C56? C 0.4500(5) 0.8750(7) 0.3528(8)
H57? H 0.45390 0.89530 0.30530
C57? C 0.4889(4) 0.8662(6) 0.4028(9)
H58? H 0.51950 0.88050 0.38960
C58? C 0.8185(10) 0.7064(12) 0.227(2)
H59? H 0.82560 0.70660 0.28490
C59? C 0.9022(11) 0.6822(13) 0.189(2)
H60? H 0.90420 0.67640 0.24720
H61? H 0.93320 0.69530 0.16860
N7? N 0.7824(9) 0.7346(10) 0.2014(15)
C60? C 0.8630(11) 0.7149(13) 0.166(2)
H62? H 0.85270 0.70420 0.11180
H63? H 0.87260 0.75440 0.16470
N8? N 0.6386(5) 0.5848(6) 0.5462(6)
C61? C 0.6951(4) 0.6195(5) 0.3596(6)
H64? H 0.72650 0.62470 0.38050
C62? C 0.6416(2) 0.6187(3) 0.2489(5)
H65? H 0.63580 0.62350 0.19400
C63? C 0.6032(3) 0.6050(3) 0.2984(5)
C64? C 0.6581(4) 0.6061(5) 0.4108(6)
C65? C 0.55283(18) 0.5998(2) 0.2638(3)
C66? C 0.6684(5) 0.6005(6) 0.4951(6)
H66? H 0.69990 0.60930 0.51290
C67? C 0.6118(3) 0.5984(4) 0.3787(4)
H67? H 0.58620 0.58850 0.41240
C68? C 0.6875(3) 0.6254(4) 0.2782(5)
C69? C 0.51900(16) 0.5691(2) 0.3016(3)
H68? H 0.52730 0.54880 0.34770
N9? N 0.7700(3) 0.6421(5) 0.2486(8)
C70? C 0.7266(3) 0.6373(4) 0.2241(7)
H69? H 0.71970 0.64160 0.16950
C71? C 0.52806(15) 0.5677(2) 0.2277(3)
H70? H 0.55140 0.54660 0.20040
N1A N 0.29896(6) 0.94480(7) 0.09973(11)
N2A N 0.35695(7) 0.92390(8) -0.03661(11)
N3A N 0.23060(12) 0.74808(12) 0.3235(2)
N4A N 0.2447(3) 0.6382(5) 0.2457(7)
N5A N 0.38146(8) 0.67295(8) -0.16338(14)
N6A N 0.3675(5) 0.5805(6) -0.0687(6)
C1A C 0.42606(10) 0.74583(12) -0.10105(16)
C2A C 0.38878(10) 0.78483(11) -0.10137(16)
H1A H 0.35920 0.77600 -0.12660
C3A C 0.39453(10) 0.83602(11) -0.06542(14)
C4A C 0.43778(9) 0.84775(12) -0.02635(14)
H2A H 0.44160 0.88240 -0.00040
C5A C 0.47523(9) 0.80980(12) -0.02477(13)
C6A C 0.46913(10) 0.75868(12) -0.06354(14)
H3A H 0.49470 0.73270 -0.06410
C7A C 0.52083(10) 0.81822(17) 0.01958(17)
C8A C 0.5369(1) 0.87242(13) 0.03298(16)
H4A H 0.51990 0.90280 0.01080
C9A C 0.57758(9) 0.88189(12) 0.07858(16)
H5A H 0.58830 0.91880 0.08680
C10A C 0.60307(10) 0.83796(15) 0.11256(17)
C11A C 0.58788(9) 0.78413(12) 0.09662(15)
H6A H 0.60550 0.75350 0.11680
C12A C 0.54702(9) 0.77516(12) 0.05127(15)
H7A H 0.53680 0.73820 0.04180
C13A C 0.64326(8) 0.84809(10) 0.16917(14)
C14A C 0.42049(10) 0.68989(11) -0.13487(16)
H8A H 0.44740 0.66580 -0.13510
C15A C 0.35394(9) 0.87536(11) -0.06464(14)
H9A H 0.32410 0.86360 -0.08630
C16A C 0.28536(7) 0.86039(8) 0.21512(13)
H10A H 0.26140 0.86380 0.17530
C17A C 0.32451(7) 0.89575(8) 0.21534(13)
C18A C 0.36010(7) 0.88914(10) 0.27308(14)
H11A H 0.38710 0.91310 0.27300
C19A C 0.31707(8) 0.81397(9) 0.33120(14)
H12A H 0.31400 0.78640 0.37080
C20A C 0.28109(8) 0.81984(9) 0.27316(14)
C21A C 0.33006(7) 0.93785(8) 0.15355(13)
H13A H 0.35790 0.96060 0.15400
C22A C 0.23987(8) 0.78263(9) 0.26974(14)
H14A H 0.21910 0.78450 0.22510
C23A C 0.30806(8) 0.98690(8) 0.04004(14)
H15A H 0.33830 1.00710 0.05380
C24A C 0.26602(8) 1.02787(10) 0.03955(17)
H16A H 0.23570 1.00720 0.03230
H17A H 0.26470 1.04710 0.09110
C25A C 0.27066(10) 1.07023(12) -0.0252(2)
H18A H 0.24240 1.09510 -0.02540
H19A H 0.29970 1.09310 -0.01610
C26A C 0.27406(10) 1.04157(13) -0.1017(2)
H20A H 0.27770 1.06950 -0.14400
H21A H 0.24390 1.02110 -0.11190
C27A C 0.31669(10) 1.00050(13) -0.10507(18)
H22A H 0.31640 0.98120 -0.15660
H23A H 0.34720 1.02130 -0.10050
C28A C 0.31399(8) 0.95811(10) -0.03918(14)
H24A H 0.28560 0.93370 -0.04880
C29A C 0.18788(13) 0.71336(13) 0.3100(2)
H25A H 0.17440 0.72220 0.25670
C30A C 0.14999(18) 0.72568(16) 0.3713(3)
H26A H 0.14010 0.76500 0.36730
H27A H 0.16350 0.71940 0.42480
C31A C 0.10663(17) 0.68838(17) 0.3585(3)
H28A H 0.09150 0.69720 0.30700
H29A H 0.08280 0.69570 0.40010
C32A C 0.12059(16) 0.62712(16) 0.3603(2)
H30A H 0.13210 0.61730 0.41390
H31A H 0.09200 0.60420 0.34840
C33A C 0.15915(13) 0.61427(13) 0.30169(18)
H32A H 0.14590 0.61850 0.24770
H33A H 0.16930 0.57520 0.30830
C34A C 0.20294(13) 0.65201(11) 0.31120(18)
H34A H 0.22040 0.64320 0.36140
C35A C 0.38020(9) 0.61523(10) -0.19096(17)
H35A H 0.41320 0.59920 -0.18710
C36A C 0.36363(11) 0.61376(10) -0.27683(18)
H36A H 0.38760 0.63280 -0.30980
H37A H 0.33300 0.63420 -0.28200
C37A C 0.35669(10) 0.55464(10) -0.30715(19)
H38A H 0.34300 0.55570 -0.36120
H39A H 0.38810 0.53560 -0.30930
C38A C 0.32397(11) 0.52334(11) -0.2543(2)
H40A H 0.32080 0.48470 -0.27350
H41A H 0.29180 0.54060 -0.25580
C39A C 0.34277(10) 0.52291(11) -0.16973(19)
H42A H 0.32070 0.50150 -0.13600
H43A H 0.37460 0.50470 -0.16770
C40A C 0.34694(9) 0.58196(10) -0.13914(17)
H44A H 0.31440 0.59910 -0.14460
C41A C 0.3151(4) 0.6113(5) 0.1223(5)
H45A H 0.28320 0.61660 0.10370
C42A C 0.3251(3) 0.6171(4) 0.2027(5)
C43A C 0.3723(3) 0.6102(3) 0.2293(4)
H46A H 0.37980 0.61370 0.28380
C44A C 0.4086(3) 0.5982(4) 0.1756(4)
C45A C 0.3979(3) 0.5933(4) 0.0960(4)
H47A H 0.42270 0.58660 0.05940
C46A C 0.3503(4) 0.5983(5) 0.0694(6)
C47A C 0.45820(18) 0.5962(3) 0.2042(3)
C48A C 0.49501(13) 0.62410(18) 0.1641(2)
H48A H 0.48800 0.64190 0.11540
C49A C 0.2880(3) 0.6295(4) 0.2608(6)
H49A H 0.29770 0.63110 0.31460
C50A C 0.3379(6) 0.5954(6) -0.0157(6)
H50A H 0.30630 0.60510 -0.03160
C51A C 0.54134(14) 0.62604(19) 0.1944(2)
H51A H 0.56540 0.64580 0.16680
#END
