
#######################################################################
#
#                 Cambridge Crystallographic Data Centre
#                                CCDC
#
#######################################################################
#
# If this CIF has been generated from an entry in the Cambridge
# Structural Database, then it will include bibliographic, chemical,
# crystal, experimental, refinement or atomic coordinate data resulting
# from the CCDC's data processing and validation procedures.
#
#######################################################################

data_CSD_CIF_ABIMAC
_audit_creation_date 2016-11-23
_audit_creation_method CSD-ConQuest-V1
_database_code_CSD ABIMAC
_database_code_depnum_ccdc_archive 'CCDC 1453929'
_chemical_formula_sum 'C110.8 H117.8 N13.76 O1.76'
_chemical_formula_moiety
;
C102 H102 N12,1.76(C5 H9 N1 O1)
;
_journal_coden_Cambridge 1441
_journal_volume 9
_journal_year 2016
_journal_page_first 17
_journal_name_full 'Nature Chemistry '
loop_
_publ_author_name
"A.G.Slater"
"M.A.Little"
"A.Pulido"
"S.Y.Chong"
"D.Holden"
"L.Chen"
"C.Morgan"
"X.Wu"
"G.Cheng"
"R.Clowes"
"M.E.Briggs"
"T.Hasell"
"K.E.Jelfs"
"G.M.Day"
"A.I.Cooper"
_chemical_name_systematic
;
(R)-5,7,11,13,19,21,25,27,30,32,36,38-dodecaaza-6,12,20,26,31,37(1,2)-hexacycl
ohexana-1,3,9,15,17,23(1,3,5),2,16,24(1,4)-nonabenzenatetracyclo[15.11.5.5^3,1
5^.1^9,23^]nonatriacontaphane-4,7,10,13,18,21,24,27,29,32,35,38-dodecane 
1-methylpyrrolidin-2-one solvate
;
_chemical_name_common
;
TCC2-R 1-methylpyrrolidin-2-one solvate
;
_cell_volume   8722.265
_exptl_crystal_colour 'colorless'
_exptl_crystal_density_diffrn 0.954
_exptl_crystal_description 'block'
_diffrn_ambient_temperature 300
_refine_special_details
;
C10,C11,C12,C8 disordered by symmetry over two configurations with occupancy 
0.5; H60A,H60B,H62A,H62B disordered over one sites with occupancies 0.0625.
;
#These two values have been output from a single CSD field.
_refine_ls_R_factor_gt 0.075
_refine_ls_wR_factor_gt 0.075
_symmetry_cell_setting hexagonal
_symmetry_space_group_name_H-M 'P 31 2 1'
_symmetry_Int_Tables_number 152
loop_
_symmetry_equiv_pos_site_id
_symmetry_equiv_pos_as_xyz
1 x,y,z
2 -y,x-y,1/3+z
3 -x+y,-x,2/3+z
4 x-y,-y,2/3-z
5 -x,-x+y,1/3-z
6 y,x,-z
_cell_length_a 19.6140(8)
_cell_length_b 19.6140(8)
_cell_length_c 26.1798(12)
_cell_angle_alpha 90
_cell_angle_beta 90
_cell_angle_gamma 120
_cell_formula_units_Z 3
loop_
_atom_type_symbol
_atom_type_radius_bond
C 0.68
H 0.23
N 0.68
O 0.68
loop_
_atom_site_label
_atom_site_type_symbol
_atom_site_fract_x
_atom_site_fract_y
_atom_site_fract_z
C1 C 0.9320(3) 0.4433(4) 0.47633(19)
C2 C 0.8532(3) 0.4160(4) 0.4721(2)
H1 H 0.82990 0.40330 0.43990
C3 C 0.8070(3) 0.4067(4) 0.5145(2)
C4 C 0.8434(3) 0.4265(4) 0.5626(2)
H2 H 0.81340 0.42120 0.59130
C5 C 0.9219(3) 0.4531(4) 0.56803(19)
C6 C 0.9837(4) 0.4540(4) 0.4321(2)
H3 H 1.03680 0.47230 0.43790
C7 C 0.7218(3) 0.3741(4) 0.5085(2)
H4 H 0.69950 0.35420 0.47680
C8 C 0.9725(11) 0.4429(10) 0.7043(5)
H5 H 0.95370 0.40420 0.72940
C9 C 0.9612(3) 0.4749(4) 0.6192(2)
C10 C 0.932(1) 0.4268(11) 0.6577(5)
H6 H 0.88340 0.38110 0.65430
C11 C 0.6500(4) 0.1170(4) 0.5814(2)
H7 H 0.62010 0.11260 0.55270
C12 C 0.6607(3) 0.1713(4) 0.6192(2)
C13 C 0.7054(4) 0.1774(4) 0.6623(3)
H8 H 0.71280 0.21370 0.68770
C14 C 0.7387(4) 0.1301(4) 0.6676(3)
C15 C 0.7271(4) 0.0763(5) 0.6302(3)
H9 H 0.74860 0.04370 0.63420
C16 C 0.6830(4) 0.0694(4) 0.5857(2)
C17 C 0.6257(3) 0.2221(4) 0.6149(2)
H10 H 0.63680 0.25990 0.63990
C18 C 0.6698(4) 0.0146(4) 0.5447(3)
H11 H 0.64030 0.01490 0.51690
C19 C 0.7884(5) 0.1383(5) 0.7136(3)
C20 C 0.8276(5) 0.2088(5) 0.7385(3)
H12 H 0.82090 0.25040 0.72820
C21 C 0.7958(5) 0.0780(5) 0.7331(3)
H13 H 0.76550 0.02790 0.71920
C22 C 0.9242(5) 0.1482(4) 0.4314(3)
H14 H 0.88290 0.12150 0.40850
C23 C 0.9296(5) 0.1088(4) 0.4734(3)
C24 C 0.9926(6) 0.1489(4) 0.5063(3)
H15 H 0.99750 0.12280 0.53450
C25 C 1.0483(6) 0.2266(5) 0.4983(3)
C26 C 1.0414(5) 0.2655(4) 0.4571(3)
H16 H 1.07850 0.31830 0.45200
C27 C 0.9788(5) 0.2265(4) 0.4224(3)
C28 C 0.8669(5) 0.0274(4) 0.4862(3)
H17 H 0.87540 0.00120 0.51290
C29 C 0.9722(4) 0.2697(4) 0.3787(2)
H18 H 0.92850 0.24400 0.35750
C30 C 1.1087(6) 0.2711(5) 0.5388(3)
C31 C 1.1533(6) 0.2413(5) 0.5604(3)
H19 H 1.14900 0.19470 0.54840
C32 C 1.1235(5) 0.3419(5) 0.5551(3)
H20 H 1.09900 0.36570 0.53830
C33 C 1.0072(4) 0.3783(4) 0.3268(2)
H21 H 0.95320 0.34480 0.31460
C34 C 1.0637(5) 0.3953(5) 0.2829(3)
H22 H 1.11720 0.42470 0.29580
H23 H 1.05590 0.34590 0.26940
C35 C 1.0543(6) 0.4404(5) 0.2411(2)
H24 H 1.00280 0.40910 0.22560
H25 H 1.09380 0.45160 0.21510
C36 C 1.0628(5) 0.5167(5) 0.2606(3)
H26 H 1.05240 0.54330 0.23310
H27 H 1.11630 0.55070 0.27230
C37 C 1.0056(5) 0.5013(4) 0.3045(2)
H28 H 1.01420 0.55120 0.31770
H29 H 0.95200 0.47220 0.29180
C38 C 1.0159(4) 0.4550(4) 0.3474(2)
H30 H 1.06870 0.48660 0.36200
C39 C 0.9670(3) 0.4630(4) 0.52452(19)
H31 H 1.02100 0.48300 0.52770
C40 C 0.6745(4) -0.0850(4) 0.5001(3)
H32 H 0.65400 -0.06540 0.47320
C41 C 0.6093(5) -0.1686(4) 0.5150(3)
H33 H 0.62710 -0.18750 0.54340
H34 H 0.56280 -0.16700 0.52580
C42 C 0.5886(6) -0.2246(5) 0.4700(4)
H35 H 0.54950 -0.27720 0.48070
H36 H 0.56600 -0.20850 0.44290
C43 C 0.6582(6) -0.2258(4) 0.4505(4)
H37 H 0.64320 -0.26050 0.42110
H38 H 0.67790 -0.24660 0.47660
C44 C 0.7245(6) -0.1428(4) 0.4348(3)
H39 H 0.77070 -0.14530 0.42430
H40 H 0.70720 -0.12400 0.40600
C45 C 0.7452(5) -0.0863(4) 0.4796(3)
H41 H 0.76830 -0.10230 0.50690
C46 C 0.5521(3) 0.2713(3) 0.5769(2)
H42 H 0.56380 0.29910 0.60970
C47 C 0.4633(3) 0.2273(4) 0.5682(3)
H43 H 0.43750 0.18960 0.59550
H44 H 0.45140 0.19860 0.53620
C48 C 0.4319(4) 0.2848(5) 0.5666(3)
H45 H 0.37570 0.25630 0.56000
H46 H 0.44080 0.31140 0.59920
C49 C 0.4742(4) 0.3451(5) 0.5244(3)
H47 H 0.46090 0.31880 0.49150
H48 H 0.45650 0.38330 0.52440
C50 C 0.5618(4) 0.3870(4) 0.5316(3)
H49 H 0.57530 0.41750 0.56290
H50 H 0.58700 0.42330 0.50350
C51 C 0.5930(3) 0.3304(4) 0.5342(2)
H51 H 0.58220 0.30210 0.50170
N1 N 0.6777(3) 0.3716(3) 0.54362(17)
N2 N 0.5805(3) 0.2161(3) 0.5779(2)
N3 N 0.9582(3) 0.4391(3) 0.38697(17)
N4 N 1.0222(3) 0.3387(3) 0.36866(18)
N5 N 0.6947(3) -0.0335(3) 0.5433(2)
N6 N 0.8032(4) -0.0071(3) 0.4625(2)
C52 C 0.7660(8) 0.4263(8) 0.7348(5)
C53 C 0.8219(11) 0.4708(11) 0.7786(6)
H52 H 0.80470 0.44130 0.81020
H53 H 0.87520 0.48280 0.77100
C54 C 0.8163(16) 0.5389(16) 0.7807(9)
H54 H 0.86850 0.58400 0.78510
H55 H 0.78520 0.53600 0.81030
C55 C 0.7802(9) 0.5508(9) 0.7346(6)
H56 H 0.74030 0.56440 0.74300
H57 H 0.81910 0.59030 0.71210
C56 C 0.6967(9) 0.4525(9) 0.6708(5)
H58 H 0.68340 0.40110 0.65880
H59 H 0.72320 0.49040 0.64420
H60 H 0.64940 0.45270 0.68020
N7 N 0.7462(6) 0.4720(7) 0.7134(4)
O1 O 0.7417(6) 0.3597(7) 0.7224(4)
C57? C 0.025(3) 0.197(3) 0.6879(17)
H61? H 0.07230 0.19530 0.67940
H62? H -0.00100 0.16020 0.71570
N8? N 0.049(3) 0.279(3) 0.7063(18)
C58? C 0.087(5) 0.308(5) 0.741(3)
H63? H 0.10590 0.27480 0.75350
H64? H 0.13050 0.35800 0.73090
H65? H 0.05650 0.31540 0.76650
C59? C 0.00000 0.287(3) 0.66670
H66? H 0.03570 0.33440 0.64830
O2? O 0.058(4) 0.166(4) 0.713(3)
C60? C 0.049(3) 0.279(3) 0.7063(18)
H67? H 0.03090 0.28050 0.74070
H68? H 0.10430 0.31660 0.70260
C61? C 1.0541(11) 0.5669(11) 0.6784(6)
H69? H 1.09140 0.61920 0.68470
C62? C 1.0160(11) 0.5465(11) 0.6319(6)
H70? H 1.02990 0.58620 0.60790
C1D C 1.0680(3) 0.5113(4) 0.857003(190)
C2D C 1.1468(3) 0.5628(4) 0.861233(200)
H1D H 1.17010 0.57340 0.89343
C3D C 1.1930(3) 0.5997(4) 0.818833(200)
C4D C 1.1566(3) 0.5831(4) 0.770733(200)
H2D H 1.18660 0.60780 0.74203
C5D C 1.0781(3) 0.5312(4) 0.765303(190)
C6D C 1.0163(4) 0.4703(4) 0.901233(200)
H3D H 0.96320 0.43550 0.89543
C7D C 1.2782(3) 0.6523(4) 0.824833(200)
H4D H 1.30050 0.65470 0.85653
C8D C 1.0275(11) 0.4704(10) 0.629033(500)
H5D H 1.04630 0.45050 0.60393
C9D C 1.0388(3) 0.5137(4) 0.714133(200)
C10D C 1.068(1) 0.4948(11) 0.675633(500)
H6D H 1.11660 0.49770 0.67903
C11D C 1.3500(4) 0.4670(4) 0.751933(200)
H7D H 1.37990 0.49250 0.78063
C12D C 1.3393(3) 0.5106(4) 0.714133(200)
C13D C 1.2946(4) 0.4720(4) 0.671033(300)
H8D H 1.28720 0.50090 0.64563
C14D C 1.2613(4) 0.3914(4) 0.665733(300)
C15D C 1.2729(4) 0.3492(5) 0.703133(300)
H9D H 1.25140 0.29510 0.69913
C16D C 1.3170(4) 0.3864(4) 0.747633(200)
C17D C 1.3743(3) 0.5964(4) 0.718433(200)
H10D H 1.36320 0.62310 0.69343
C18D C 1.3302(4) 0.3448(4) 0.788633(300)
H11D H 1.35970 0.37460 0.81643
C19D C 1.2116(5) 0.3499(5) 0.619733(300)
C20D C 1.1724(5) 0.3812(5) 0.594833(300)
H12D H 1.17910 0.42950 0.60513
C21D C 1.2042(5) 0.2822(5) 0.600233(300)
H13D H 1.23450 0.26240 0.61413
C22D C 1.0758(5) 0.2240(4) 0.901933(300)
H14D H 1.11710 0.23860 0.92483
C23D C 1.0704(5) 0.1792(4) 0.859933(300)
C24D C 1.0074(6) 0.1563(4) 0.827033(300)
H15D H 1.00250 0.12530 0.79883
C25D C 0.9517(6) 0.1783(5) 0.835033(300)
C26D C 0.9586(5) 0.2241(4) 0.876233(300)
H16D H 0.92150 0.23980 0.88133
C27D C 1.0212(5) 0.2477(4) 0.910933(300)
C28D C 1.1331(5) 0.1605(4) 0.847133(300)
H17D H 1.12460 0.12580 0.82043
C29D C 1.0278(4) 0.2975(4) 0.954633(200)
H18D H 1.07150 0.31550 0.97583
C30D C 0.8913(6) 0.1624(5) 0.794533(300)
C31D C 0.8467(6) 0.0880(5) 0.772933(300)
H19D H 0.85100 0.04570 0.78493
C32D C 0.8765(5) 0.2184(5) 0.778233(300)
H20D H 0.90100 0.26670 0.79503
C33D C 0.9928(4) 0.3711(4) 1.006533(200)
H21D H 1.04680 0.39160 1.01873
C34D C 0.9363(5) 0.3316(5) 1.050433(300)
H22D H 0.88280 0.30750 1.03753
H23D H 0.94410 0.29000 1.06393
C35D C 0.9457(6) 0.3861(5) 1.092233(200)
H24D H 0.99720 0.40630 1.10773
H25D H 0.90620 0.35780 1.11823
C36D C 0.9372(5) 0.4539(5) 1.072733(300)
H26D H 0.94760 0.49090 1.10023
H27D H 0.88370 0.43440 1.06103
C37D C 0.9944(5) 0.4957(4) 1.028833(200)
H28D H 0.98580 0.53700 1.01563
H29D H 1.04800 0.52020 1.04153
C38D C 0.9841(4) 0.4391(4) 0.985933(200)
H30D H 0.93130 0.41790 0.97133
C39D C 1.0330(3) 0.4960(4) 0.808813(190)
H31D H 0.97900 0.46200 0.80563
C40D C 1.3255(4) 0.2405(4) 0.833233(300)
H32D H 1.34600 0.28060 0.86013
C41D C 1.3907(5) 0.2221(4) 0.818333(300)
H33D H 1.37290 0.18540 0.78993
H34D H 1.43720 0.27020 0.80753
C42D C 1.4114(6) 0.1868(5) 0.863333(400)
H35D H 1.45050 0.17330 0.85263
H36D H 1.43400 0.22550 0.89043
C43D C 1.3418(6) 0.1160(4) 0.882833(400)
H37D H 1.35680 0.09630 0.91223
H38D H 1.32210 0.07550 0.85673
C44D C 1.2755(6) 0.1327(4) 0.898533(300)
H39D H 1.22930 0.08400 0.90903
H40D H 1.29280 0.16880 0.92733
C45D C 1.2548(5) 0.1685(4) 0.853733(300)
H41D H 1.23170 0.12940 0.82643
C46D C 1.4479(3) 0.7192(3) 0.756433(200)
H42D H 1.43620 0.73530 0.72363
C47D C 1.5367(3) 0.7640(4) 0.765133(300)
H43D H 1.56250 0.75210 0.73783
H44D H 1.54860 0.74720 0.79713
C48D C 1.5681(4) 0.8529(5) 0.766733(300)
H45D H 1.62430 0.88060 0.77333
H46D H 1.55920 0.87060 0.73413
C49D C 1.5258(4) 0.8709(5) 0.808933(300)
H47D H 1.53910 0.85790 0.84183
H48D H 1.54350 0.92680 0.80893
C50D C 1.4382(4) 0.8252(4) 0.801733(300)
H49D H 1.42470 0.84220 0.77043
H50D H 1.41300 0.83630 0.82983
C51D C 1.4070(3) 0.7374(4) 0.799133(200)
H51D H 1.41780 0.71990 0.83163
N1D N 1.3223(3) 0.6939(3) 0.789713(170)
N2D N 1.4195(3) 0.6356(3) 0.755433(200)
N3D N 1.0418(3) 0.4809(3) 0.946363(170)
N4D N 0.9778(3) 0.3165(3) 0.964673(180)
N5D N 1.3053(3) 0.2718(3) 0.790033(200)
N6D N 1.1968(4) 0.1897(3) 0.870833(200)
#END
