
#######################################################################
#
#                 Cambridge Crystallographic Data Centre
#                                CCDC
#
#######################################################################
#
# If this CIF has been generated from an entry in the Cambridge
# Structural Database, then it will include bibliographic, chemical,
# crystal, experimental, refinement or atomic coordinate data resulting
# from the CCDC's data processing and validation procedures.
#
#######################################################################

data_CSD_CIF_ABIMOQ
_audit_creation_date 2016-11-23
_audit_creation_method CSD-ConQuest-V1
_database_code_CSD ABIMOQ
_database_code_depnum_ccdc_archive 'CCDC 1453932'
_chemical_formula_sum 'C124 H157 Cl11 N12 O5.5'
_chemical_formula_moiety
;
C102 H102 N12,5.5(C3 H8 O1),5.5(C1 H2 Cl2)
;
_journal_coden_Cambridge 1441
_journal_volume 9
_journal_year 2016
_journal_page_first 17
_journal_name_full 'Nature Chemistry '
loop_
_publ_author_name
"A.G.Slater"
"M.A.Little"
"A.Pulido"
"S.Y.Chong"
"D.Holden"
"L.Chen"
"C.Morgan"
"X.Wu"
"G.Cheng"
"R.Clowes"
"M.E.Briggs"
"T.Hasell"
"K.E.Jelfs"
"G.M.Day"
"A.I.Cooper"
_chemical_name_systematic
;
rac-5,7,11,13,19,21,25,27,30,32,36,38-dodecaaza-6,12,20,26,31,37(1,2)-hexacycl
ohexana-1,3,9,15,17,23(1,3,5),2,16,24(1,4)-nonabenzenatetracyclo[15.11.5.5^3,1
5^.1^9,23^]nonatriacontaphane-4,7,10,13,18,21,24,27,29,32,35,38-dodecane 
isopropanol dichloromethane solvate
;
_chemical_name_common
;
rac-TCC2  isopropanol dichloromethane solvate
;
_cell_volume   7602.170
_exptl_crystal_colour 'colorless'
_exptl_crystal_density_diffrn 1.004
_exptl_crystal_description 'needle'
_diffrn_ambient_temperature 100
_refine_special_details
;
The structure is disordered by symmetry. Disordered solvent molecules were 
not modelled and the disordered density was taken into account using the 
SQUEEZE/PLATON procedure.
;
#These two values have been output from a single CSD field.
_refine_ls_R_factor_gt 0.1745
_refine_ls_wR_factor_gt 0.1745
_symmetry_cell_setting hexagonal
_symmetry_space_group_name_H-M 'P 6/m c c'
_symmetry_Int_Tables_number 192
loop_
_symmetry_equiv_pos_site_id
_symmetry_equiv_pos_as_xyz
1 x,y,z
2 x-y,x,z
3 -y,-x,1/2-z
4 -y,x-y,z
5 -x,-x+y,1/2-z
6 x-y,-y,1/2-z
7 -x,-y,z
8 -x+y,y,1/2-z
9 x,x-y,1/2-z
10 y,-x+y,z
11 -x+y,-x,z
12 y,x,1/2-z
13 -x,-y,-z
14 -x+y,-x,-z
15 y,x,-1/2+z
16 y,-x+y,-z
17 x,x-y,-1/2+z
18 -x+y,y,-1/2+z
19 x,y,-z
20 x-y,-y,-1/2+z
21 -x,-x+y,-1/2+z
22 -y,x-y,-z
23 x-y,x,-z
24 -y,-x,-1/2+z
_cell_length_a 16.439(3)
_cell_length_b 16.439(3)
_cell_length_c 32.483(5)
_cell_angle_alpha 90
_cell_angle_beta 90
_cell_angle_gamma 120
_cell_formula_units_Z 2
loop_
_atom_type_symbol
_atom_type_radius_bond
C 0.68
H 0.23
N 0.68
loop_
_atom_site_label
_atom_site_type_symbol
_atom_site_fract_x
_atom_site_fract_y
_atom_site_fract_z
C1 C 0.6486(3) 0.9232(3) 0.46569(19)
C2 C 0.6024(3) 0.8204(3) 0.45353(17)
C3 C 0.6808(4) 0.7768(5) 0.4075(2)
C4 C 0.7545(4) 0.7578(5) 0.3930(2)
C5 C 0.7612(6) 0.7418(7) 0.3528(2)
C6 C 0.8341(6) 0.7277(8) 0.3374(2)
C7 C 0.8975(5) 0.7273(7) 0.3663(2)
C8 C 0.8899(4) 0.7412(5) 0.4067(2)
C9 C 0.8197(4) 0.7579(4) 0.4212(2)
C10 C 0.9569(4) 0.7432(4) 0.4382(2)
C11 C 0.8444(4) 0.7162(2) 0.2928(3)
C12 C 0.9499(6) 0.7625(3) 0.2341(4)
C13 C 0.7840(7) 0.6722(5) 0.2237(4)
C14 C 0.9366(7) 0.7627(4) 0.2766(4)
C15 C 0.7712(7) 0.6725(5) 0.2656(4)
N1 N 0.7021(3) 0.9825(3) 0.43119(14)
N2 N 0.6751(3) 0.7973(3) 0.44395(16)
H1? H 0.69270 0.93470 0.48900
H2? H 0.60620 1.01450 0.48810
H3? H 0.53200 0.93880 0.45660
H4? H 0.47020 0.90350 0.52410
H5? H 0.55950 0.89630 0.53930
H6? H 0.42920 0.74180 0.52180
H7? H 0.43140 0.77720 0.47560
H8? H 0.51010 0.69090 0.48020
H9? H 0.58180 0.76530 0.51300
H10? H 0.56220 0.80910 0.42870
H11? H 0.63550 0.77310 0.38830
H12? H 0.71570 0.73980 0.33420
H13? H 0.94660 0.71700 0.35730
H14? H 0.81590 0.76920 0.44970
H15? H 0.95360 0.76350 0.46530
H16? H 1.01180 0.79370 0.22320
H17? H 0.73100 0.64090 0.20610
H18? H 0.98910 0.79380 0.29450
H19? H 0.70890 0.64110 0.27610
C16? C 0.5747(5) 0.9476(4) 0.4799(2)
C17? C 0.5182(4) 0.8873(5) 0.51552(18)
C18? C 0.4707(3) 0.7844(3) 0.50000
C19? C 0.5418(3) 0.7576(3) 0.4888(2)
C1A C 0.7254(3) 0.6486(3) 0.46569(19)
C2A C 0.7820(3) 0.6024(3) 0.45353(17)
C3A C 0.9040(4) 0.6808(5) 0.4075(2)
C4A C 0.9967(4) 0.7545(5) 0.3930(2)
C5A C 1.0194(6) 0.7612(7) 0.3528(2)
C6A C 1.1064(6) 0.8341(8) 0.3374(2)
C7A C 1.1702(5) 0.8975(7) 0.3663(2)
C8A C 1.1487(4) 0.8899(5) 0.4067(2)
C9A C 1.0618(4) 0.8197(4) 0.4212(2)
C10A C 1.2137(4) 0.9569(4) 0.4382(2)
C11A C 1.1282(4) 0.8444(2) 0.2928(3)
C12A C 1.1874(6) 0.9499(3) 0.2341(4)
C13A C 1.1118(7) 0.7840(5) 0.2237(4)
C14A C 1.1739(7) 0.9366(4) 0.2766(4)
C15A C 1.0987(7) 0.7712(5) 0.2656(4)
N1A N 0.7196(3) 0.7021(3) 0.43119(14)
N2A N 0.8778(3) 0.6751(3) 0.44395(16)
C1C C 1.0768(3) 0.7254(3) 0.46569(19)
C2C C 1.1796(3) 0.7820(3) 0.45353(17)
C3C C 1.2232(4) 0.9040(5) 0.4075(2)
C4C C 1.2422(4) 0.9967(5) 0.3930(2)
C5C C 1.2582(6) 1.0194(7) 0.3528(2)
C6C C 1.2723(6) 1.1064(8) 0.3374(2)
C7C C 1.2727(5) 1.1702(7) 0.3663(2)
C8C C 1.2588(4) 1.1487(5) 0.4067(2)
C9C C 1.2421(4) 1.0618(4) 0.4212(2)
C10C C 1.2568(4) 1.2137(4) 0.4382(2)
C11C C 1.2838(4) 1.1282(2) 0.2928(3)
C12C C 1.2375(6) 1.1874(3) 0.2341(4)
C13C C 1.3278(7) 1.1118(5) 0.2237(4)
C14C C 1.2373(7) 1.1739(4) 0.2766(4)
C15C C 1.3275(7) 1.0987(5) 0.2656(4)
N1C N 1.0175(3) 0.7196(3) 0.43119(14)
N2C N 1.2027(3) 0.8778(3) 0.44395(16)
C1D C 1.3514(3) 1.2746(3) 0.03431(19)
C2D C 1.3976(3) 1.2180(3) 0.04647(17)
C3D C 1.3192(4) 1.0960(5) 0.0925(2)
C4D C 1.2455(4) 1.0033(5) 0.1070(2)
C5D C 1.2388(6) 0.9806(7) 0.1472(2)
C6D C 1.1659(6) 0.8936(8) 0.1626(2)
C7D C 1.1025(5) 0.8298(7) 0.1337(2)
C8D C 1.1101(4) 0.8513(5) 0.0933(2)
C9D C 1.1803(4) 0.9382(4) 0.0788(2)
C10D C 1.0431(4) 0.7863(4) 0.0618(2)
C11D C 1.1556(4) 0.8718(2) 0.2072(3)
C12D C 1.0501(6) 0.8126(3) 0.2659(4)
C13D C 1.2160(7) 0.8882(5) 0.2763(4)
C14D C 1.0634(7) 0.8261(4) 0.2234(4)
C15D C 1.2288(7) 0.9013(5) 0.2344(4)
N1D N 1.2979(3) 1.2804(3) 0.06881(14)
N2D N 1.3249(3) 1.1222(3) 0.05605(16)
C1G C 1.2746(3) 0.9232(3) 0.03431(19)
C2G C 1.2180(3) 0.8204(3) 0.04647(17)
C3G C 1.0960(4) 0.7768(5) 0.0925(2)
C4G C 1.0033(4) 0.7578(5) 0.1070(2)
C5G C 0.9806(6) 0.7418(7) 0.1472(2)
C6G C 0.8936(6) 0.7277(8) 0.1626(2)
C7G C 0.8298(5) 0.7273(7) 0.1337(2)
C8G C 0.8513(4) 0.7412(5) 0.0933(2)
C9G C 0.9382(4) 0.7579(4) 0.0788(2)
C10G C 0.7863(4) 0.7432(4) 0.0618(2)
C11G C 0.8718(4) 0.7162(2) 0.2072(3)
C12G C 0.8126(6) 0.7625(3) 0.2659(4)
C13G C 0.8882(7) 0.6722(5) 0.2763(4)
C14G C 0.8261(7) 0.7627(4) 0.2234(4)
C15G C 0.9013(7) 0.6725(5) 0.2344(4)
N1G N 1.2804(3) 0.9825(3) 0.06881(14)
N2G N 1.1222(3) 0.7973(3) 0.05605(16)
C1H C 0.6486(3) 0.7254(3) 0.03431(19)
C2H C 0.6024(3) 0.7820(3) 0.04647(17)
C3H C 0.6808(4) 0.9040(5) 0.0925(2)
C4H C 0.7545(4) 0.9967(5) 0.1070(2)
C5H C 0.7612(6) 1.0194(7) 0.1472(2)
C6H C 0.8341(6) 1.1064(8) 0.1626(2)
C7H C 0.8975(5) 1.1702(7) 0.1337(2)
C8H C 0.8899(4) 1.1487(5) 0.0933(2)
C9H C 0.8197(4) 1.0618(4) 0.0788(2)
C10H C 0.9569(4) 1.2137(4) 0.0618(2)
C11H C 0.8444(4) 1.1282(2) 0.2072(3)
C12H C 0.9499(6) 1.1874(3) 0.2659(4)
C13H C 0.7840(7) 1.1118(5) 0.2763(4)
C14H C 0.9366(7) 1.1739(4) 0.2234(4)
C15H C 0.7712(7) 1.0987(5) 0.2344(4)
N1H N 0.7021(3) 0.7196(3) 0.06881(14)
N2H N 0.6751(3) 0.8778(3) 0.05605(16)
C1I C 0.9232(3) 1.2746(3) 0.46569(19)
C2I C 0.8204(3) 1.2180(3) 0.45353(17)
C3I C 0.7768(4) 1.0960(5) 0.4075(2)
C4I C 0.7578(4) 1.0033(5) 0.3930(2)
C5I C 0.7418(6) 0.9806(7) 0.3528(2)
C6I C 0.7277(6) 0.8936(8) 0.3374(2)
C7I C 0.7273(5) 0.8298(7) 0.3663(2)
C8I C 0.7412(4) 0.8513(5) 0.4067(2)
C9I C 0.7579(4) 0.9382(4) 0.4212(2)
C10I C 0.7432(4) 0.7863(4) 0.4382(2)
C11I C 0.7162(4) 0.8718(2) 0.2928(3)
C12I C 0.7625(6) 0.8126(3) 0.2341(4)
C13I C 0.6722(7) 0.8882(5) 0.2237(4)
C14I C 0.7627(7) 0.8261(4) 0.2766(4)
C15I C 0.6725(7) 0.9013(5) 0.2656(4)
N1I N 0.9825(3) 1.2804(3) 0.43119(14)
N2I N 0.7973(3) 1.1222(3) 0.44395(16)
C1J C 1.2746(3) 1.3514(3) 0.46569(19)
C2J C 1.2180(3) 1.3976(3) 0.45353(17)
C3J C 1.0960(4) 1.3192(5) 0.4075(2)
C4J C 1.0033(4) 1.2455(5) 0.3930(2)
C5J C 0.9806(6) 1.2388(7) 0.3528(2)
C6J C 0.8936(6) 1.1659(8) 0.3374(2)
C7J C 0.8298(5) 1.1025(7) 0.3663(2)
C8J C 0.8513(4) 1.1101(5) 0.4067(2)
C9J C 0.9382(4) 1.1803(4) 0.4212(2)
C10J C 0.7863(4) 1.0431(4) 0.4382(2)
C11J C 0.8718(4) 1.1556(2) 0.2928(3)
C12J C 0.8126(6) 1.0501(3) 0.2341(4)
C13J C 0.8882(7) 1.2160(5) 0.2237(4)
C14J C 0.8261(7) 1.0634(4) 0.2766(4)
C15J C 0.9013(7) 1.2288(5) 0.2656(4)
N1J N 1.2804(3) 1.2979(3) 0.43119(14)
N2J N 1.1222(3) 1.3249(3) 0.44395(16)
C1K C 0.9232(3) 0.6486(3) 0.03431(19)
C2K C 0.8204(3) 0.6024(3) 0.04647(17)
C3K C 0.7768(4) 0.6808(5) 0.0925(2)
C4K C 0.7578(4) 0.7545(5) 0.1070(2)
C5K C 0.7418(6) 0.7612(7) 0.1472(2)
C6K C 0.7277(6) 0.8341(8) 0.1626(2)
C7K C 0.7273(5) 0.8975(7) 0.1337(2)
C8K C 0.7412(4) 0.8899(5) 0.0933(2)
C9K C 0.7579(4) 0.8197(4) 0.0788(2)
C10K C 0.7432(4) 0.9569(4) 0.0618(2)
C11K C 0.7162(4) 0.8444(2) 0.2072(3)
C12K C 0.7625(6) 0.9499(3) 0.2659(4)
C13K C 0.6722(7) 0.7840(5) 0.2763(4)
C14K C 0.7627(7) 0.9366(4) 0.2234(4)
C15K C 0.6725(7) 0.7712(5) 0.2344(4)
N1K N 0.9825(3) 0.7021(3) 0.06881(14)
N2K N 0.7973(3) 0.6751(3) 0.05605(16)
C1B C 1.0768(3) 1.3514(3) 0.03431(19)
C2B C 1.1796(3) 1.3976(3) 0.04647(17)
C3B C 1.2232(4) 1.3192(5) 0.0925(2)
C4B C 1.2422(4) 1.2455(5) 0.1070(2)
C5B C 1.2582(6) 1.2388(7) 0.1472(2)
C6B C 1.2723(6) 1.1659(8) 0.1626(2)
C7B C 1.2727(5) 1.1025(7) 0.1337(2)
C8B C 1.2588(4) 1.1101(5) 0.0933(2)
C9B C 1.2421(4) 1.1803(4) 0.0788(2)
C10B C 1.2568(4) 1.0431(4) 0.0618(2)
C11B C 1.2838(4) 1.1556(2) 0.2072(3)
C12B C 1.2375(6) 1.0501(3) 0.2659(4)
C13B C 1.3278(7) 1.2160(5) 0.2763(4)
C14B C 1.2373(7) 1.0634(4) 0.2234(4)
C15B C 1.3275(7) 1.2288(5) 0.2344(4)
N1B N 1.0175(3) 1.2979(3) 0.06881(14)
N2B N 1.2027(3) 1.3249(3) 0.05605(16)
C1E C 0.7254(3) 1.0768(3) 0.03431(19)
C2E C 0.7820(3) 1.1796(3) 0.04647(17)
C3E C 0.9040(4) 1.2232(5) 0.0925(2)
C4E C 0.9967(4) 1.2422(5) 0.1070(2)
C5E C 1.0194(6) 1.2582(7) 0.1472(2)
C6E C 1.1064(6) 1.2723(8) 0.1626(2)
C7E C 1.1702(5) 1.2727(7) 0.1337(2)
C8E C 1.1487(4) 1.2588(5) 0.0933(2)
C9E C 1.0618(4) 1.2421(4) 0.0788(2)
C10E C 1.2137(4) 1.2568(4) 0.0618(2)
C11E C 1.1282(4) 1.2838(2) 0.2072(3)
C12E C 1.1874(6) 1.2375(3) 0.2659(4)
C13E C 1.1118(7) 1.3278(5) 0.2763(4)
C14E C 1.1739(7) 1.2373(4) 0.2234(4)
C15E C 1.0987(7) 1.3275(5) 0.2344(4)
N1E N 0.7196(3) 1.0175(3) 0.06881(14)
N2E N 0.8778(3) 1.2027(3) 0.05605(16)
C1F C 1.3514(3) 1.0768(3) 0.46569(19)
C2F C 1.3976(3) 1.1796(3) 0.45353(17)
C3F C 1.3192(4) 1.2232(5) 0.4075(2)
C4F C 1.2455(4) 1.2422(5) 0.3930(2)
C5F C 1.2388(6) 1.2582(7) 0.3528(2)
C6F C 1.1659(6) 1.2723(8) 0.3374(2)
C7F C 1.1025(5) 1.2727(7) 0.3663(2)
C8F C 1.1101(4) 1.2588(5) 0.4067(2)
C9F C 1.1803(4) 1.2421(4) 0.4212(2)
C10F C 1.0431(4) 1.2568(4) 0.4382(2)
C11F C 1.1556(4) 1.2838(2) 0.2928(3)
C12F C 1.0501(6) 1.2375(3) 0.2341(4)
C13F C 1.2160(7) 1.3278(5) 0.2237(4)
C14F C 1.0634(7) 1.2373(4) 0.2766(4)
C15F C 1.2288(7) 1.3275(5) 0.2656(4)
N1F N 1.2979(3) 1.0175(3) 0.43119(14)
N2F N 1.3249(3) 1.2027(3) 0.44395(16)
#END
