
#######################################################################
#
#                 Cambridge Crystallographic Data Centre
#                                CCDC
#
#######################################################################
#
# If this CIF has been generated from an entry in the Cambridge
# Structural Database, then it will include bibliographic, chemical,
# crystal, experimental, refinement or atomic coordinate data resulting
# from the CCDC's data processing and validation procedures.
#
#######################################################################

data_CSD_CIF_ABIMUW
_audit_creation_date 2016-11-23
_audit_creation_method CSD-ConQuest-V1
_database_code_CSD ABIMUW
_database_code_depnum_ccdc_archive 'CCDC 1453933'
_chemical_formula_sum 'C102 H102.9 N12 O0.44'
_chemical_formula_moiety
;
C102 H102 N12,0.44(H2 O1)
;
_journal_coden_Cambridge 1441
_journal_volume 9
_journal_year 2016
_journal_page_first 17
_journal_name_full 'Nature Chemistry '
loop_
_publ_author_name
"A.G.Slater"
"M.A.Little"
"A.Pulido"
"S.Y.Chong"
"D.Holden"
"L.Chen"
"C.Morgan"
"X.Wu"
"G.Cheng"
"R.Clowes"
"M.E.Briggs"
"T.Hasell"
"K.E.Jelfs"
"G.M.Day"
"A.I.Cooper"
_chemical_name_systematic
;
rac-5,7,11,13,19,21,25,27,30,32,36,38-dodecaaza-6,12,20,26,31,37(1,2)-hexacycl
ohexana-1,3,9,15,17,23(1,3,5),2,16,24(1,4)-nonabenzenatetracyclo[15.11.5.5^3,1
5^.1^9,23^]nonatriacontaphane-4,7,10,13,18,21,24,27,29,32,35,38-dodecane 
hydrate
;
_chemical_name_common
;
rac-TCC2 hydrate
;
_cell_volume  14019.401
_exptl_crystal_colour 'colorless'
_exptl_crystal_density_diffrn 1.069
_exptl_special_details
;
The crystal was heated to 350 K prior to data collection

;
_exptl_crystal_description 'needle'
_diffrn_ambient_temperature 150
_diffrn_special_details
;
twin

;
#These two values have been output from a single CSD field.
_refine_ls_R_factor_gt 0.0623
_refine_ls_wR_factor_gt 0.0623
_symmetry_cell_setting rhombohedral
_symmetry_space_group_name_H-M 'R -3'
_symmetry_Int_Tables_number 148
loop_
_symmetry_equiv_pos_site_id
_symmetry_equiv_pos_as_xyz
1 x,y,z
2 -y,x-y,z
3 -x+y,-x,z
4 2/3+x,1/3+y,1/3+z
5 2/3-y,1/3+x-y,1/3+z
6 2/3-x+y,1/3-x,1/3+z
7 1/3+x,2/3+y,2/3+z
8 1/3-y,2/3+x-y,2/3+z
9 1/3-x+y,2/3-x,2/3+z
10 -x,-y,-z
11 y,-x+y,-z
12 x-y,x,-z
13 -2/3-x,-1/3-y,-1/3-z
14 -2/3+y,-1/3-x+y,-1/3-z
15 -2/3+x-y,-1/3+x,-1/3-z
16 -1/3-x,-2/3-y,-2/3-z
17 -1/3+y,-2/3-x+y,-2/3-z
18 -1/3+x-y,-2/3+x,-2/3-z
_cell_length_a 22.593(3)
_cell_length_b 22.593(3)
_cell_length_c 31.714(4)
_cell_angle_alpha 90
_cell_angle_beta 90
_cell_angle_gamma 120
_cell_formula_units_Z 6
loop_
_atom_type_symbol
_atom_type_radius_bond
C 0.68
H 0.23
N 0.68
O 0.68
loop_
_atom_site_label
_atom_site_type_symbol
_atom_site_fract_x
_atom_site_fract_y
_atom_site_fract_z
N1 N 0.4797(2) 0.9041(2) 0.10711(12)
N2 N 0.5631(2) 0.8464(2) 0.09989(11)
N3 N 0.4401(2) 0.9067(2) -0.27719(11)
N4 N 0.3005(2) 0.8554(2) -0.26338(12)
C1 C 0.2152(3) 0.7412(3) 0.11062(14)
H1 H 0.22620 0.74100 0.13950
C2 C 0.2706(3) 0.7704(3) 0.07875(13)
C3 C 0.2526(3) 0.7496(3) 0.03692(13)
H2 H 0.20620 0.71870 0.03010
C4 C 0.3015(3) 0.7734(3) 0.00522(14)
C5 C 0.3698(2) 0.8178(3) 0.01647(14)
H3 H 0.40420 0.83420 -0.00470
C6 C 0.3881(3) 0.8382(3) 0.05828(14)
C7 C 0.3384(3) 0.8130(3) 0.08957(13)
H4 H 0.35100 0.82490 0.11820
C8 C 0.2799(3) 0.7534(2) -0.03962(12)
C9 C 0.2117(3) 0.7271(3) -0.05144(14)
H5 H 0.17900 0.72200 -0.03080
C10 C 0.1908(3) 0.7081(3) -0.09272(14)
H6 H 0.14380 0.68860 -0.09960
C11 C 0.2368(2) 0.7170(2) -0.12410(13)
C12 C 0.3048(3) 0.7429(3) -0.11259(14)
H7 H 0.33750 0.74920 -0.13350
C13 C 0.3258(3) 0.7599(3) -0.07088(13)
H8 H 0.37220 0.77620 -0.06370
C14 C 0.2163(2) 0.7013(3) -0.16939(13)
C15 C 0.1673(3) 0.6356(3) -0.18237(13)
H9 H 0.14450 0.60050 -0.16200
C16 C 0.1518(2) 0.6215(2) -0.22512(13)
C17 C 0.1860(3) 0.6725(3) -0.25462(14)
H10 H 0.17750 0.66220 -0.28380
C18 C 0.2325(3) 0.7385(3) -0.24199(13)
C19 C 0.2487(3) 0.7518(3) -0.19942(13)
H11 H 0.28260 0.79630 -0.19090
C20 C 0.4609(3) 0.8855(3) 0.06920(14)
H12 H 0.49420 0.90220 0.04740
C21 C 0.1037(2) 0.5501(3) -0.23873(14)
H13 H 0.08010 0.51610 -0.21790
C22 C 0.2669(3) 0.7924(3) -0.27312(14)
H14 H 0.26430 0.78000 -0.30200
C23 C 0.5535(2) 0.9454(3) 0.11377(14)
H15 H 0.57630 0.96470 0.08610
C24 C 0.5706(3) 1.0038(3) 0.14416(17)
H16 H 0.54580 0.98520 0.17100
H17 H 0.55550 1.03440 0.13200
C25 C 0.6481(3) 1.0450(3) 0.15300(18)
H18 H 0.67260 1.06770 0.12670
H19 H 0.65750 1.08100 0.17410
C26 C 0.6739(3) 0.9992(3) 0.16930(17)
H20 H 0.65330 0.98080 0.19720
H21 H 0.72410 1.02630 0.17290
C27 C 0.6564(3) 0.9402(3) 0.13921(15)
H22 H 0.67190 0.90990 0.15140
H23 H 0.68060 0.95830 0.11210
C28 C 0.5797(3) 0.8994(3) 0.13131(13)
H24 H 0.55550 0.87800 0.15830
C29 C 0.3349(3) 0.9044(3) -0.29740(14)
H25 H 0.33210 0.87870 -0.32370
C30 C 0.3005(3) 0.9466(3) -0.30550(16)
H26 H 0.25210 0.91600 -0.31340
H27 H 0.30170 0.97150 -0.27950
C31 C 0.3374(3) 0.9972(3) -0.34093(16)
H28 H 0.33180 0.97180 -0.36750
H29 H 0.31640 1.02610 -0.34500
C32 C 0.4128(3) 1.0424(3) -0.33186(17)
H30 H 0.41870 1.07240 -0.30760
H31 H 0.43530 1.07190 -0.35660
C33 C 0.4469(3) 1.0001(3) -0.32203(16)
H32 H 0.44600 0.97440 -0.34750
H33 H 0.49520 1.03100 -0.31420
C34 C 0.4100(3) 0.9502(3) -0.28596(14)
H34 H 0.41320 0.97680 -0.26000
O1 O 0.33330 0.66670 -0.33330
O2 O 0.33330 0.66670 0.16670
N1A N 0.0959(2) 0.5756(2) 0.10711(12)
N2A N 0.1536(2) 0.7167(2) 0.09989(11)
N3A N 0.0933(2) 0.5334(2) -0.27719(11)
N4A N 0.1446(2) 0.4451(2) -0.26338(12)
C1A C 0.2588(3) 0.4740(3) 0.11062(14)
H1A H 0.25900 0.48520 0.13950
C2A C 0.2296(3) 0.5002(3) 0.07875(13)
C3A C 0.2504(3) 0.5030(3) 0.03692(13)
H2A H 0.28130 0.48750 0.03010
C4A C 0.2266(3) 0.5281(3) 0.00522(14)
C5A C 0.1822(2) 0.5520(3) 0.01647(14)
H3A H 0.16580 0.57000 -0.00470
C6A C 0.1618(3) 0.5499(3) 0.05828(14)
C7A C 0.1870(3) 0.5254(3) 0.08957(13)
H4A H 0.17510 0.52610 0.11820
C8A C 0.2466(3) 0.5265(2) -0.03962(12)
C9A C 0.2729(3) 0.4846(3) -0.05144(14)
H5A H 0.27800 0.45700 -0.03080
C10A C 0.2919(3) 0.4827(3) -0.09272(14)
H6A H 0.31140 0.45520 -0.09960
C11A C 0.2830(2) 0.5198(2) -0.12410(13)
C12A C 0.2571(3) 0.5619(3) -0.11259(14)
H7A H 0.25080 0.58830 -0.13350
C13A C 0.2401(3) 0.5659(3) -0.07088(13)
H8A H 0.22380 0.59600 -0.06370
C14A C 0.2987(2) 0.5150(3) -0.16939(13)
C15A C 0.3644(3) 0.5317(3) -0.18237(13)
H9A H 0.39950 0.54400 -0.16200
C16A C 0.3785(2) 0.5303(2) -0.22512(13)
C17A C 0.3275(3) 0.5135(3) -0.25462(14)
H10A H 0.33780 0.51530 -0.28380
C18A C 0.2615(3) 0.4940(3) -0.24199(13)
C19A C 0.2482(3) 0.4969(3) -0.19942(13)
H11A H 0.20370 0.48630 -0.19090
C20A C 0.1145(3) 0.5754(3) 0.06920(14)
H12A H 0.09780 0.59200 0.04740
C21A C 0.4499(2) 0.5536(3) -0.23873(14)
H13A H 0.48390 0.56400 -0.21790
C22A C 0.2076(3) 0.4745(3) -0.27312(14)
H14A H 0.22000 0.48430 -0.30200
C23A C 0.0546(2) 0.6081(3) 0.11377(14)
H15A H 0.03530 0.61160 0.08610
C24A C -0.0038(3) 0.5668(3) 0.14416(17)
H16A H 0.01480 0.56060 0.17100
H17A H -0.03440 0.52110 0.13200
C25A C -0.0450(3) 0.6031(3) 0.15300(18)
H18A H -0.06770 0.60490 0.12670
H19A H -0.08100 0.57650 0.17410
C26A C 0.0008(3) 0.6747(3) 0.16930(17)
H20A H 0.01920 0.67250 0.19720
H21A H -0.02630 0.69780 0.17290
C27A C 0.0598(3) 0.7162(3) 0.13921(15)
H22A H 0.09010 0.76200 0.15140
H23A H 0.04170 0.72230 0.11210
C28A C 0.1006(3) 0.6803(3) 0.13131(13)
H24A H 0.12200 0.67750 0.15830
C29A C 0.0956(3) 0.4305(3) -0.29740(14)
H25A H 0.12130 0.45340 -0.32370
C30A C 0.0534(3) 0.3539(3) -0.30550(16)
H26A H 0.08400 0.33610 -0.31340
H27A H 0.02850 0.33020 -0.27950
C31A C 0.0028(3) 0.3402(3) -0.34093(16)
H28A H 0.02820 0.36000 -0.36750
H29A H -0.02610 0.29030 -0.34500
C32A C -0.0424(3) 0.3704(3) -0.33186(17)
H30A H -0.07240 0.34630 -0.30760
H31A H -0.07190 0.36340 -0.35660
C33A C -0.0001(3) 0.4468(3) -0.32203(16)
H32A H 0.02560 0.47160 -0.34750
H33A H -0.03100 0.46420 -0.31420
C34A C 0.0498(3) 0.4598(3) -0.28596(14)
H34A H 0.02320 0.43640 -0.26000
N1B N 0.4244(2) 0.5203(2) 0.10711(12)
N2B N 0.2833(2) 0.4369(2) 0.09989(11)
N3B N 0.4666(2) 0.5599(2) -0.27719(11)
N4B N 0.5549(2) 0.6995(2) -0.26338(12)
C1B C 0.5260(3) 0.7848(3) 0.11062(14)
H1B H 0.51480 0.77380 0.13950
C2B C 0.4998(3) 0.7294(3) 0.07875(13)
C3B C 0.4970(3) 0.7474(3) 0.03692(13)
H2B H 0.51250 0.79380 0.03010
C4B C 0.4719(3) 0.6985(3) 0.00522(14)
C5B C 0.4480(2) 0.6302(3) 0.01647(14)
H3B H 0.43000 0.59580 -0.00470
C6B C 0.4501(3) 0.6119(3) 0.05828(14)
C7B C 0.4746(3) 0.6616(3) 0.08957(13)
H4B H 0.47390 0.64900 0.11820
C8B C 0.4735(3) 0.7201(2) -0.03962(12)
C9B C 0.5154(3) 0.7883(3) -0.05144(14)
H5B H 0.54300 0.82100 -0.03080
C10B C 0.5173(3) 0.8092(3) -0.09272(14)
H6B H 0.54480 0.85620 -0.09960
C11B C 0.4802(2) 0.7632(2) -0.12410(13)
C12B C 0.4381(3) 0.6952(3) -0.11259(14)
H7B H 0.41170 0.66250 -0.13350
C13B C 0.4341(3) 0.6742(3) -0.07088(13)
H8B H 0.40400 0.62780 -0.06370
C14B C 0.4850(2) 0.7837(3) -0.16939(13)
C15B C 0.4683(3) 0.8327(3) -0.18237(13)
H9B H 0.45600 0.85550 -0.16200
C16B C 0.4697(2) 0.8482(2) -0.22512(13)
C17B C 0.4865(3) 0.8140(3) -0.25462(14)
H10B H 0.48470 0.82250 -0.28380
C18B C 0.5060(3) 0.7675(3) -0.24199(13)
C19B C 0.5031(3) 0.7513(3) -0.19942(13)
H11B H 0.51370 0.71740 -0.19090
C20B C 0.4246(3) 0.5391(3) 0.06920(14)
H12B H 0.40800 0.50580 0.04740
C21B C 0.4464(2) 0.8963(3) -0.23873(14)
H13B H 0.43600 0.91990 -0.21790
C22B C 0.5255(3) 0.7331(3) -0.27312(14)
H14B H 0.51570 0.73570 -0.30200
C23B C 0.3919(2) 0.4465(3) 0.11377(14)
H15B H 0.38840 0.42370 0.08610
C24B C 0.4332(3) 0.4294(3) 0.14416(17)
H16B H 0.43940 0.45420 0.17100
H17B H 0.47890 0.44450 0.13200
C25B C 0.3969(3) 0.3519(3) 0.15300(18)
H18B H 0.39510 0.32740 0.12670
H19B H 0.42350 0.34250 0.17410
C26B C 0.3253(3) 0.3261(3) 0.16930(17)
H20B H 0.32750 0.34670 0.19720
H21B H 0.30220 0.27590 0.17290
C27B C 0.2838(3) 0.3436(3) 0.13921(15)
H22B H 0.23800 0.32810 0.15140
H23B H 0.27770 0.31940 0.11210
C28B C 0.3197(3) 0.4203(3) 0.13131(13)
H24B H 0.32250 0.44450 0.15830
C29B C 0.5695(3) 0.6651(3) -0.29740(14)
H25B H 0.54660 0.66790 -0.32370
C30B C 0.6461(3) 0.6995(3) -0.30550(16)
H26B H 0.66390 0.74790 -0.31340
H27B H 0.66980 0.69830 -0.27950
C31B C 0.6598(3) 0.6626(3) -0.34093(16)
H28B H 0.64000 0.66820 -0.36750
H29B H 0.70970 0.68360 -0.34500
C32B C 0.6296(3) 0.5872(3) -0.33186(17)
H30B H 0.65370 0.58130 -0.30760
H31B H 0.63660 0.56470 -0.35660
C33B C 0.5532(3) 0.5531(3) -0.32203(16)
H32B H 0.52840 0.55400 -0.34750
H33B H 0.53580 0.50480 -0.31420
C34B C 0.5402(3) 0.5900(3) -0.28596(14)
H34B H 0.56360 0.58680 -0.26000
#END
