
#######################################################################
#
#                 Cambridge Crystallographic Data Centre
#                                CCDC
#
#######################################################################
#
# If this CIF has been generated from an entry in the Cambridge
# Structural Database, then it will include bibliographic, chemical,
# crystal, experimental, refinement or atomic coordinate data resulting
# from the CCDC's data processing and validation procedures.
#
#######################################################################

data_CSD_CIF_ABINUX
_audit_creation_date 2016-11-23
_audit_creation_method CSD-ConQuest-V1
_database_code_CSD ABINUX
_database_code_depnum_ccdc_archive 'CCDC 1453937'
_chemical_formula_sum 'C114 H102 N12'
_chemical_formula_moiety
;
C114 H102 N12
;
_journal_coden_Cambridge 1441
_journal_volume 9
_journal_year 2016
_journal_page_first 17
_journal_name_full 'Nature Chemistry '
loop_
_publ_author_name
"A.G.Slater"
"M.A.Little"
"A.Pulido"
"S.Y.Chong"
"D.Holden"
"L.Chen"
"C.Morgan"
"X.Wu"
"G.Cheng"
"R.Clowes"
"M.E.Briggs"
"T.Hasell"
"K.E.Jelfs"
"G.M.Day"
"A.I.Cooper"
_chemical_name_systematic
;
rac-3,5,15,17,21,23,33,35,43,45,48,50-dodecaaza-4,16,22,34,44,49(1,2)-hexacycl
ohexana-1,7,13,19,25,31(1,3,5),10,28,39(1,4)-nonabenzenatetracyclo[17.17.5.5^7
,31^.5^13,25^]henpentacontaphane-2,5,14,17,20,23,32,35,42,45,47,50-dodecaene-8
,11,26,29,37,40-hexayne
;
_chemical_name_common
;
rac-TCC3
;
_cell_volume  18173.324
_exptl_crystal_colour 'colorless'
_exptl_crystal_density_diffrn 0.899
_exptl_special_details
;
Solvated crystal was heated to 350 K under dry nitrogen

;
_exptl_crystal_description 'needle'
_diffrn_ambient_temperature 350
_refine_special_details
;
C8,C8A,C9,C9A disordered by symmetry over two configurations with occupancy 
0.5.
;
#These two values have been output from a single CSD field.
_refine_ls_R_factor_gt 0.1447
_refine_ls_wR_factor_gt 0.1447
_symmetry_cell_setting rhombohedral
_symmetry_space_group_name_H-M 'R -3 c'
_symmetry_Int_Tables_number 167
loop_
_symmetry_equiv_pos_site_id
_symmetry_equiv_pos_as_xyz
1 x,y,z
2 -y,x-y,z
3 -x+y,-x,z
4 x-y,-y,1/2-z
5 -x,-x+y,1/2-z
6 y,x,1/2-z
7 2/3+x,1/3+y,1/3+z
8 2/3-y,1/3+x-y,1/3+z
9 2/3-x+y,1/3-x,1/3+z
10 2/3+x-y,1/3-y,5/6-z
11 2/3-x,1/3-x+y,5/6-z
12 2/3+y,1/3+x,5/6-z
13 1/3+x,2/3+y,2/3+z
14 1/3-y,2/3+x-y,2/3+z
15 1/3-x+y,2/3-x,2/3+z
16 1/3+x-y,2/3-y,1/6-z
17 1/3-x,2/3-x+y,1/6-z
18 1/3+y,2/3+x,1/6-z
19 -x,-y,-z
20 y,-x+y,-z
21 x-y,x,-z
22 -x+y,y,-1/2+z
23 x,x-y,-1/2+z
24 -y,-x,-1/2+z
25 -2/3-x,-1/3-y,-1/3-z
26 -2/3+y,-1/3-x+y,-1/3-z
27 -2/3+x-y,-1/3+x,-1/3-z
28 -2/3-x+y,-1/3+y,-5/6+z
29 -2/3+x,-1/3+x-y,-5/6+z
30 -2/3-y,-1/3-x,-5/6+z
31 -1/3-x,-2/3-y,-2/3-z
32 -1/3+y,-2/3-x+y,-2/3-z
33 -1/3+x-y,-2/3+x,-2/3-z
34 -1/3-x+y,-2/3+y,-1/6+z
35 -1/3+x,-2/3+x-y,-1/6+z
36 -1/3-y,-2/3-x,-1/6+z
_cell_length_a 22.26(4)
_cell_length_b 22.26(4)
_cell_length_c 42.35(8)
_cell_angle_alpha 90
_cell_angle_beta 90
_cell_angle_gamma 120
_cell_formula_units_Z 6
loop_
_atom_type_symbol
_atom_type_radius_bond
C 0.68
H 0.23
N 0.68
loop_
_atom_site_label
_atom_site_type_symbol
_atom_site_fract_x
_atom_site_fract_y
_atom_site_fract_z
N1 N 0.5235(4) 0.6116(4) 0.62668(14)
N2 N 0.5867(4) 0.7617(4) 0.61537(13)
C1 C 0.5040(5) 0.5996(5) 0.59740(17)
H1 H 0.53760 0.61570 0.58170
C2 C 0.4288(5) 0.5604(5) 0.58807(17)
C3 C 0.4138(6) 0.5560(5) 0.55557(17)
H2 H 0.44950 0.57650 0.54090
C4 C 0.3431(6) 0.5197(5) 0.54550(16)
C5 C 0.3309(5) 0.5193(5) 0.51122(17)
C6 C 0.3290(5) 0.5219(5) 0.48333(17)
C7 C 0.3314(4) 0.5248(3) 0.44940(16)
C8 C 0.3887(7) 0.5261(5) 0.4344(4)
H3 H 0.42410 0.52640 0.44630
C9 C 0.2752(6) 0.4690(6) 0.4337(4)
H4 H 0.23860 0.43330 0.44460
C10 C 0.5437(5) 0.7846(5) 0.62122(17)
H5 H 0.53390 0.78640 0.64240
C11 C 0.5087(5) 0.8080(5) 0.59878(15)
C12 C 0.4719(5) 0.8419(5) 0.60842(16)
H6 H 0.46860 0.84730 0.63000
C13 C 0.5111(5) 0.7979(5) 0.56575(17)
H7 H 0.53290 0.77460 0.55790
C14 C 0.6140(5) 0.7353(6) 0.63992(17)
H8 H 0.58900 0.73220 0.65940
C15 C 0.6942(6) 0.7867(5) 0.6468(2)
H9 H 0.72020 0.79420 0.62740
H10 H 0.70050 0.83120 0.65360
C16 C 0.7239(6) 0.7587(8) 0.6726(2)
H11 H 0.70430 0.75990 0.69280
H12 H 0.77370 0.78950 0.67390
C17 C 0.7090(6) 0.6830(7) 0.6664(2)
H13 H 0.72230 0.66640 0.68480
H14 H 0.73660 0.68310 0.64860
C18 C 0.6290(5) 0.6324(5) 0.6591(2)
H15 H 0.62210 0.58750 0.65280
H16 H 0.60240 0.62590 0.67820
C19 C 0.6017(5) 0.6599(6) 0.63303(18)
H17 H 0.62660 0.66240 0.61360
C20? C 0.2782(8) 0.5244(2) 0.4323(5)
H18? H 0.24100 0.52350 0.44270
C21? C 0.3859(3) 0.5779(3) 0.4328(4)
H19? H 0.42190 0.61370 0.44410
N1A N 0.3884(4) 0.9119(4) 0.62668(14)
N2A N 0.2383(4) 0.8250(4) 0.61537(13)
C1A C 0.4004(5) 0.9044(5) 0.59740(17)
H1A H 0.38430 0.92190 0.58170
C2A C 0.4396(5) 0.8684(5) 0.58807(17)
C3A C 0.4440(6) 0.8578(5) 0.55557(17)
H2A H 0.42350 0.87300 0.54090
C4A C 0.4803(6) 0.8234(5) 0.54550(16)
C5A C 0.4807(5) 0.8116(5) 0.51122(17)
C6A C 0.4781(5) 0.8071(5) 0.48333(17)
C7A C 0.4752(4) 0.8066(3) 0.44940(16)
C8A C 0.4739(7) 0.8626(5) 0.4344(4)
H3A H 0.47360 0.89770 0.44630
C9A C 0.5310(6) 0.8062(6) 0.4337(4)
H4A H 0.56670 0.80530 0.44460
C10A C 0.2154(5) 0.7591(5) 0.62122(17)
H5A H 0.21360 0.74750 0.64240
C11A C 0.1920(5) 0.7007(5) 0.59878(15)
C12A C 0.1581(5) 0.6300(5) 0.60842(16)
H6A H 0.15270 0.62130 0.63000
C13A C 0.2021(5) 0.7132(5) 0.56575(17)
H7A H 0.22540 0.75830 0.55790
C14A C 0.2647(5) 0.8787(6) 0.63992(17)
H8A H 0.26780 0.85680 0.65940
C15A C 0.2133(6) 0.9075(5) 0.6468(2)
H9A H 0.20580 0.92600 0.62740
H10A H 0.16880 0.86930 0.65360
C16A C 0.2413(6) 0.9652(8) 0.6726(2)
H11A H 0.24010 0.94440 0.69280
H12A H 0.21050 0.98420 0.67390
C17A C 0.3170(6) 1.0260(7) 0.6664(2)
H13A H 0.33360 1.05590 0.68480
H14A H 0.31690 1.05350 0.64860
C18A C 0.3676(5) 0.9966(5) 0.6591(2)
H15A H 0.41250 1.03460 0.65280
H16A H 0.37410 0.97650 0.67820
C19A C 0.3401(5) 0.9418(6) 0.63303(18)
H17A H 0.33760 0.96420 0.61360
N1B N 0.0881(4) 0.4765(4) 0.62668(14)
N2B N 0.1750(4) 0.4133(4) 0.61537(13)
C1B C 0.0956(5) 0.4960(5) 0.59740(17)
H1B H 0.07810 0.46240 0.58170
C2B C 0.1316(5) 0.5712(5) 0.58807(17)
C3B C 0.1422(6) 0.5862(5) 0.55557(17)
H2B H 0.12700 0.55050 0.54090
C4B C 0.1766(6) 0.6569(5) 0.54550(16)
C5B C 0.1884(5) 0.6691(5) 0.51122(17)
C6B C 0.1929(5) 0.6710(5) 0.48333(17)
C7B C 0.1934(4) 0.6686(3) 0.44940(16)
C8B C 0.1374(7) 0.6113(5) 0.4344(4)
H3B H 0.10230 0.57590 0.44630
C9B C 0.1938(6) 0.7248(6) 0.4337(4)
H4B H 0.19470 0.76140 0.44460
C10B C 0.2409(5) 0.4563(5) 0.62122(17)
H5B H 0.25250 0.46610 0.64240
C11B C 0.2993(5) 0.4913(5) 0.59878(15)
C12B C 0.3700(5) 0.5281(5) 0.60842(16)
H6B H 0.37870 0.53140 0.63000
C13B C 0.2868(5) 0.4889(5) 0.56575(17)
H7B H 0.24170 0.46710 0.55790
C14B C 0.1213(5) 0.3860(6) 0.63992(17)
H8B H 0.14320 0.41100 0.65940
C15B C 0.0925(6) 0.3058(5) 0.6468(2)
H9B H 0.07400 0.27980 0.62740
H10B H 0.13070 0.29950 0.65360
C16B C 0.0348(6) 0.2761(8) 0.6726(2)
H11B H 0.05560 0.29570 0.69280
H12B H 0.01580 0.22630 0.67390
C17B C -0.0260(6) 0.2910(7) 0.6664(2)
H13B H -0.05590 0.27770 0.68480
H14B H -0.05350 0.26340 0.64860
C18B C 0.0034(5) 0.3710(5) 0.6591(2)
H15B H -0.03460 0.37790 0.65280
H16B H 0.02350 0.39760 0.67820
C19B C 0.0582(5) 0.3983(6) 0.63303(18)
H17B H 0.03580 0.37340 0.61360
N1I N 0.578567(400) 0.721733(400) 0.206653(140)
N2I N 0.491667(400) 0.571633(400) 0.217963(130)
C1I C 0.571067(500) 0.733733(500) 0.235933(170)
H1I H 0.58857 0.71763 0.25163
C2I C 0.535067(500) 0.772933(500) 0.245263(170)
C3I C 0.524467(600) 0.777333(500) 0.277763(170)
H2I H 0.53967 0.75683 0.29243
C4I C 0.490067(600) 0.813633(500) 0.287833(160)
C5I C 0.478267(500) 0.814033(500) 0.322113(170)
C6I C 0.473767(500) 0.811433(500) 0.350003(170)
C7I C 0.473267(400) 0.808533(300) 0.383933(160)
C8I C 0.529267(700) 0.807233(500) 0.398933(400)
H3I H 0.56437 0.80693 0.38703
C9I C 0.472867(600) 0.864333(600) 0.399633(400)
H4I H 0.47197 0.90003 0.38873
C10I C 0.425767(500) 0.548733(500) 0.212113(170)
H5I H 0.41417 0.54693 0.19093
C11I C 0.367367(500) 0.525333(500) 0.234553(150)
C12I C 0.296667(500) 0.491433(500) 0.224913(160)
H6I H 0.28797 0.48603 0.20333
C13I C 0.379867(500) 0.535433(500) 0.267583(170)
H7I H 0.42497 0.55873 0.27543
C14I C 0.545367(500) 0.598033(600) 0.193413(170)
H8I H 0.52347 0.60113 0.17393
C15I C 0.574167(600) 0.546633(500) 0.186533(200)
H9I H 0.59267 0.53913 0.20593
H10I H 0.53597 0.50213 0.17973
C16I C 0.631867(600) 0.574633(800) 0.160733(200)
H11I H 0.61107 0.57343 0.14053
H12I H 0.65087 0.54383 0.15943
C17I C 0.692667(600) 0.650333(700) 0.166933(200)
H13I H 0.72257 0.66693 0.14853
H14I H 0.72017 0.65023 0.18473
C18I C 0.663267(500) 0.700933(500) 0.174233(200)
H15I H 0.70127 0.74583 0.18053
H16I H 0.64317 0.70743 0.15513
C19I C 0.608467(500) 0.673433(600) 0.200303(180)
H17I H 0.63087 0.67093 0.21973
N1J N 0.143167(400) 0.421433(400) 0.206653(140)
N2J N 0.079967(400) 0.508333(400) 0.217963(130)
C1J C 0.162667(500) 0.428933(500) 0.235933(170)
H1J H 0.12907 0.41143 0.25163
C2J C 0.237867(500) 0.464933(500) 0.245263(170)
C3J C 0.252867(600) 0.475533(500) 0.277763(170)
H2J H 0.21717 0.46033 0.29243
C4J C 0.323567(600) 0.509933(500) 0.287833(160)
C5J C 0.335767(500) 0.521733(500) 0.322113(170)
C6J C 0.337667(500) 0.526233(500) 0.350003(170)
C7J C 0.335267(400) 0.526733(300) 0.383933(160)
C8J C 0.277967(700) 0.470733(500) 0.398933(400)
H3J H 0.24257 0.43563 0.38703
C9J C 0.391467(600) 0.527133(600) 0.399633(400)
H4J H 0.42807 0.52803 0.38873
C10J C 0.122967(500) 0.574233(500) 0.212113(170)
H5J H 0.13277 0.58583 0.19093
C11J C 0.157967(500) 0.632633(500) 0.234553(150)
C12J C 0.194767(500) 0.703333(500) 0.224913(160)
H6J H 0.19807 0.71203 0.20333
C13J C 0.155567(500) 0.620133(500) 0.267583(170)
H7J H 0.13377 0.57503 0.27543
C14J C 0.052667(500) 0.454633(600) 0.193413(170)
H8J H 0.07767 0.47653 0.17393
C15J C -0.027533(600) 0.425833(500) 0.186533(200)
H9J H -0.05353 0.40733 0.20593
H10J H -0.03383 0.46403 0.17973
C16J C -0.057233(600) 0.368133(800) 0.160733(200)
H11J H -0.03763 0.38893 0.14053
H12J H -0.10703 0.34913 0.15943
C17J C -0.042333(600) 0.307333(700) 0.166933(200)
H13J H -0.05563 0.27743 0.14853
H14J H -0.06993 0.27983 0.18473
C18J C 0.037667(500) 0.336733(500) 0.174233(200)
H15J H 0.04457 0.29873 0.18053
H16J H 0.06427 0.35683 0.15513
C19J C 0.064967(500) 0.391533(600) 0.200303(180)
H17J H 0.04007 0.36913 0.21973
N1K N 0.278267(400) 0.856833(400) 0.206653(140)
N2K N 0.428367(400) 0.920033(400) 0.217963(130)
C1K C 0.266267(500) 0.837333(500) 0.235933(170)
H1K H 0.28237 0.87093 0.25163
C2K C 0.227067(500) 0.762133(500) 0.245263(170)
C3K C 0.222667(600) 0.747133(500) 0.277763(170)
H2K H 0.24317 0.78283 0.29243
C4K C 0.186367(600) 0.676433(500) 0.287833(160)
C5K C 0.185967(500) 0.664233(500) 0.322113(170)
C6K C 0.188567(500) 0.662333(500) 0.350003(170)
C7K C 0.191467(400) 0.664733(300) 0.383933(160)
C8K C 0.192767(700) 0.722033(500) 0.398933(400)
H3K H 0.19307 0.75743 0.38703
C9K C 0.135667(600) 0.608533(600) 0.399633(400)
H4K H 0.09997 0.57193 0.38873
C10K C 0.451267(500) 0.877033(500) 0.212113(170)
H5K H 0.45307 0.86723 0.19093
C11K C 0.474667(500) 0.842033(500) 0.234553(150)
C12K C 0.508567(500) 0.805233(500) 0.224913(160)
H6K H 0.51397 0.80193 0.20333
C13K C 0.464567(500) 0.844433(500) 0.267583(170)
H7K H 0.44127 0.86623 0.27543
C14K C 0.401967(500) 0.947333(600) 0.193413(170)
H8K H 0.39887 0.92233 0.17393
C15K C 0.453367(600) 1.027533(500) 0.186533(200)
H9K H 0.46087 1.05353 0.20593
H10K H 0.49787 1.03383 0.17973
C16K C 0.425367(600) 1.057233(800) 0.160733(200)
H11K H 0.42657 1.03763 0.14053
H12K H 0.45617 1.10703 0.15943
C17K C 0.349667(600) 1.042333(700) 0.166933(200)
H13K H 0.33307 1.05563 0.14853
H14K H 0.34977 1.06993 0.18473
C18K C 0.299067(500) 0.962333(500) 0.174233(200)
H15K H 0.25417 0.95543 0.18053
H16K H 0.29257 0.93573 0.15513
C19K C 0.326567(500) 0.935033(600) 0.200303(180)
H17K H 0.32907 0.95993 0.21973
#END
