
#######################################################################
#
#                 Cambridge Crystallographic Data Centre
#                                CCDC
#
#######################################################################
#
# If this CIF has been generated from an entry in the Cambridge
# Structural Database, then it will include bibliographic, chemical,
# crystal, experimental, refinement or atomic coordinate data resulting
# from the CCDC's data processing and validation procedures.
#
#######################################################################

data_CSD_CIF_ABINAD
_audit_creation_date 2016-11-23
_audit_creation_method CSD-ConQuest-V1
_database_code_CSD ABINAD
_database_code_depnum_ccdc_archive 'CCDC 1453934'
_chemical_formula_sum 'C102 H102 N12'
_chemical_formula_moiety
;
C102 H102 N12
;
_journal_coden_Cambridge 1441
_journal_volume 9
_journal_year 2016
_journal_page_first 17
_journal_name_full 'Nature Chemistry '
loop_
_publ_author_name
"A.G.Slater"
"M.A.Little"
"A.Pulido"
"S.Y.Chong"
"D.Holden"
"L.Chen"
"C.Morgan"
"X.Wu"
"G.Cheng"
"R.Clowes"
"M.E.Briggs"
"T.Hasell"
"K.E.Jelfs"
"G.M.Day"
"A.I.Cooper"
_chemical_name_systematic
;
rac-5,7,11,13,19,21,25,27,30,32,36,38-dodecaaza-6,12,20,26,31,37(1,2)-hexacycl
ohexana-1,3,9,15,17,23(1,3,5),2,16,24(1,4)-nonabenzenatetracyclo[15.11.5.5^3,1
5^.1^9,23^]nonatriacontaphane-4,7,10,13,18,21,24,27,29,32,35,38-dodecane
;
_chemical_name_common
;
rac-TCC2
;
_cell_volume  14233.430
_exptl_crystal_colour 'colorless'
_exptl_crystal_density_diffrn 1.047
_exptl_special_details
;
Solvated crystal was heated from 150 K to 350 K under dry nitrogen at 50 K/hr

;
_exptl_crystal_description 'needle'
_diffrn_ambient_temperature 350
_diffrn_special_details
;
twin

;
#These two values have been output from a single CSD field.
_refine_ls_R_factor_gt 0.0597
_refine_ls_wR_factor_gt 0.0597
_symmetry_cell_setting rhombohedral
_symmetry_space_group_name_H-M 'R -3'
_symmetry_Int_Tables_number 148
loop_
_symmetry_equiv_pos_site_id
_symmetry_equiv_pos_as_xyz
1 x,y,z
2 -y,x-y,z
3 -x+y,-x,z
4 2/3+x,1/3+y,1/3+z
5 2/3-y,1/3+x-y,1/3+z
6 2/3-x+y,1/3-x,1/3+z
7 1/3+x,2/3+y,2/3+z
8 1/3-y,2/3+x-y,2/3+z
9 1/3-x+y,2/3-x,2/3+z
10 -x,-y,-z
11 y,-x+y,-z
12 x-y,x,-z
13 -2/3-x,-1/3-y,-1/3-z
14 -2/3+y,-1/3-x+y,-1/3-z
15 -2/3+x-y,-1/3+x,-1/3-z
16 -1/3-x,-2/3-y,-2/3-z
17 -1/3+y,-2/3-x+y,-2/3-z
18 -1/3+x-y,-2/3+x,-2/3-z
_cell_length_a 22.729(5)
_cell_length_b 22.729(5)
_cell_length_c 31.814(7)
_cell_angle_alpha 90
_cell_angle_beta 90
_cell_angle_gamma 120
_cell_formula_units_Z 6
loop_
_atom_type_symbol
_atom_type_radius_bond
C 0.68
H 0.23
N 0.68
loop_
_atom_site_label
_atom_site_type_symbol
_atom_site_fract_x
_atom_site_fract_y
_atom_site_fract_z
N1 N 0.5735(3) 0.4769(3) 0.39445(16)
N2 N 0.7145(3) 0.5609(3) 0.40094(15)
N3 N 0.5332(3) 0.4377(3) 0.77581(16)
N4 N 0.4451(3) 0.2981(3) 0.76309(16)
C1 C 0.8120(4) 0.4751(4) 0.41134(19)
H1 H 0.82350 0.47430 0.38340
C2 C 0.7692(4) 0.4998(4) 0.42222(18)
C3 C 0.7497(4) 0.4983(3) 0.46387(17)
H2 H 0.72000 0.51390 0.47060
C4 C 0.7735(3) 0.4741(3) 0.49528(18)
C5 C 0.8171(3) 0.4499(3) 0.48410(18)
H3 H 0.83290 0.43230 0.50480
C6 C 0.8371(4) 0.4516(3) 0.44254(19)
C7 C 0.7540(3) 0.4753(3) 0.53994(16)
C8 C 0.7263(4) 0.5148(4) 0.55174(19)
H4 H 0.72010 0.54070 0.53150
C9 C 0.7075(5) 0.5168(4) 0.59292(19)
H5 H 0.68780 0.54310 0.59930
C10 C 0.7169(3) 0.4819(4) 0.62423(17)
C11 C 0.7437(4) 0.4414(4) 0.61252(19)
H6 H 0.75060 0.41620 0.63290
C12 C 0.7604(4) 0.4377(4) 0.57101(18)
H7 H 0.77650 0.40850 0.56420
C13 C 0.7010(3) 0.4859(3) 0.66920(17)
C14 C 0.6356(3) 0.4682(4) 0.68198(18)
H8 H 0.60150 0.45600 0.66210
C15 C 0.6211(3) 0.4688(3) 0.72444(18)
C16 C 0.6710(4) 0.4850(4) 0.75391(19)
H9 H 0.66030 0.48190 0.78230
C17 C 0.7374(4) 0.5060(4) 0.74162(18)
C18 C 0.7505(4) 0.5041(3) 0.69924(16)
H10 H 0.79420 0.51550 0.69090
C19 C 0.7390(4) 0.5249(4) 0.39022(19)
H11 H 0.73840 0.51360 0.36210
C20 C 0.8843(4) 0.4264(4) 0.4317(2)
H12 H 0.90030 0.41010 0.45310
C21 C 0.5498(4) 0.4441(4) 0.73791(19)
H13 H 0.51660 0.43310 0.71750
C22 C 0.4746(4) 0.2656(4) 0.77263(19)
H14 H 0.48450 0.26340 0.80080
C23 C 0.6772(4) 0.5772(4) 0.36993(18)
H15 H 0.67420 0.55360 0.34350
C24 C 0.7126(4) 0.6524(4) 0.3621(2)
H16 H 0.75670 0.66720 0.34950
H17 H 0.71970 0.67610 0.38860
C25 C 0.6709(5) 0.6705(5) 0.3330(3)
H18 H 0.69350 0.71940 0.32960
H19 H 0.66770 0.65050 0.30550
C26 C 0.6012(5) 0.6452(5) 0.3502(3)
H20 H 0.57490 0.65500 0.33030
H21 H 0.60440 0.66900 0.37610
C27 C 0.5643(5) 0.5682(4) 0.3588(3)
H22 H 0.52050 0.55430 0.37170
H23 H 0.55630 0.54390 0.33250
C28 C 0.6062(4) 0.5505(4) 0.3877(2)
H24 H 0.61030 0.57230 0.41500
C29 C 0.4599(4) 0.4069(4) 0.7846(2)
H25 H 0.43690 0.40940 0.75920
C30 C 0.4470(4) 0.4441(4) 0.8202(2)
H26 H 0.46340 0.49090 0.81210
H27 H 0.47150 0.44400 0.84510
C31 C 0.3709(5) 0.4093(5) 0.8299(3)
H28 H 0.36380 0.43190 0.85370
H29 H 0.34730 0.41400 0.80590
C32 C 0.3417(4) 0.3357(5) 0.8399(3)
H30 H 0.29300 0.31500 0.84380
H31 H 0.36110 0.33110 0.86590
C33 C 0.3558(4) 0.2988(4) 0.8050(2)
H32 H 0.33890 0.25180 0.81310
H33 H 0.33240 0.29900 0.77960
C34 C 0.4309(4) 0.3327(4) 0.79664(18)
H34 H 0.45360 0.33050 0.82230
N1A N 0.5231(3) 0.0966(3) 0.39445(16)
N2A N 0.4391(3) 0.1536(3) 0.40094(15)
N3A N 0.5623(3) 0.0955(3) 0.77581(16)
N4A N 0.7019(3) 0.1470(3) 0.76309(16)
C1A C 0.5249(4) 0.3369(4) 0.41134(19)
H1A H 0.52570 0.34920 0.38340
C2A C 0.5002(4) 0.2694(4) 0.42222(18)
C3A C 0.5017(4) 0.2514(3) 0.46387(17)
H2A H 0.48610 0.20610 0.47060
C4A C 0.5259(3) 0.2994(3) 0.49528(18)
C5A C 0.5501(3) 0.3672(3) 0.48410(18)
H3A H 0.56770 0.40060 0.50480
C6A C 0.5484(4) 0.3855(3) 0.44254(19)
C7A C 0.5247(3) 0.2787(3) 0.53994(16)
C8A C 0.4852(4) 0.2115(4) 0.55174(19)
H4A H 0.45930 0.17940 0.53150
C9A C 0.4832(5) 0.1907(4) 0.59292(19)
H5A H 0.45690 0.14470 0.59930
C10A C 0.5181(3) 0.2350(4) 0.62423(17)
C11A C 0.5586(4) 0.3023(4) 0.61252(19)
H6A H 0.58380 0.33440 0.63290
C12A C 0.5623(4) 0.3227(4) 0.57101(18)
H7A H 0.59150 0.36800 0.56420
C13A C 0.5141(3) 0.2151(3) 0.66920(17)
C14A C 0.5318(3) 0.1674(4) 0.68198(18)
H8A H 0.54400 0.14550 0.66210
C15A C 0.5312(3) 0.1523(3) 0.72444(18)
C16A C 0.5150(4) 0.1860(4) 0.75391(19)
H9A H 0.51810 0.17840 0.78230
C17A C 0.4940(4) 0.2314(4) 0.74162(18)
C18A C 0.4959(4) 0.2464(3) 0.69924(16)
H10A H 0.48450 0.27870 0.69090
C19A C 0.4751(4) 0.2141(4) 0.39022(19)
H11A H 0.48640 0.22480 0.36210
C20A C 0.5736(4) 0.4579(4) 0.4317(2)
H12A H 0.58990 0.49020 0.45310
C21A C 0.5559(4) 0.1057(4) 0.73791(19)
H13A H 0.56690 0.08350 0.71750
C22A C 0.7344(4) 0.2090(4) 0.77263(19)
H14A H 0.73660 0.22110 0.80080
C23A C 0.4228(4) 0.1000(4) 0.36993(18)
H15A H 0.44640 0.12060 0.34350
C24A C 0.3476(4) 0.0602(4) 0.3621(2)
H16A H 0.33280 0.08950 0.34950
H17A H 0.32390 0.04360 0.38860
C25A C 0.3295(5) 0.0004(5) 0.3330(3)
H18A H 0.28060 -0.02590 0.32960
H19A H 0.34950 0.01720 0.30550
C26A C 0.3548(5) -0.0440(5) 0.3502(3)
H20A H 0.34500 -0.08010 0.33030
H21A H 0.33100 -0.06460 0.37610
C27A C 0.4318(5) -0.0039(4) 0.3588(3)
H22A H 0.44570 -0.03380 0.37170
H23A H 0.45610 0.01240 0.33250
C28A C 0.4495(4) 0.0557(4) 0.3877(2)
H24A H 0.42770 0.03800 0.41500
C29A C 0.5931(4) 0.0530(4) 0.7846(2)
H25A H 0.59060 0.02750 0.75920
C30A C 0.5559(4) 0.0029(4) 0.8202(2)
H26A H 0.50910 -0.02750 0.81210
H27A H 0.55600 0.02750 0.84510
C31A C 0.5907(5) -0.0384(5) 0.8299(3)
H28A H 0.56810 -0.06810 0.85370
H29A H 0.58600 -0.06670 0.80590
C32A C 0.6643(4) 0.0060(5) 0.8399(3)
H30A H 0.68500 -0.02200 0.84380
H31A H 0.66890 0.03000 0.86590
C33A C 0.7012(4) 0.0570(4) 0.8050(2)
H32A H 0.74820 0.08710 0.81310
H33A H 0.70100 0.03340 0.77960
C34A C 0.6673(4) 0.0982(4) 0.79664(18)
H34A H 0.66950 0.12310 0.82230
N1B N 0.9034(3) 0.4265(3) 0.39445(16)
N2B N 0.8464(3) 0.2855(3) 0.40094(15)
N3B N 0.9045(3) 0.4668(3) 0.77581(16)
N4B N 0.8530(3) 0.5549(3) 0.76309(16)
C1B C 0.6631(4) 0.1880(4) 0.41134(19)
H1B H 0.65080 0.17650 0.38340
C2B C 0.7306(4) 0.2308(4) 0.42222(18)
C3B C 0.7486(4) 0.2503(3) 0.46387(17)
H2B H 0.79390 0.28000 0.47060
C4B C 0.7006(3) 0.2265(3) 0.49528(18)
C5B C 0.6328(3) 0.1829(3) 0.48410(18)
H3B H 0.59940 0.16710 0.50480
C6B C 0.6145(4) 0.1629(3) 0.44254(19)
C7B C 0.7213(3) 0.2460(3) 0.53994(16)
C8B C 0.7885(4) 0.2737(4) 0.55174(19)
H4B H 0.82060 0.27990 0.53150
C9B C 0.8093(5) 0.2925(4) 0.59292(19)
H5B H 0.85530 0.31220 0.59930
C10B C 0.7650(3) 0.2831(4) 0.62423(17)
C11B C 0.6977(4) 0.2563(4) 0.61252(19)
H6B H 0.66560 0.24940 0.63290
C12B C 0.6773(4) 0.2396(4) 0.57101(18)
H7B H 0.63200 0.22350 0.56420
C13B C 0.7849(3) 0.2990(3) 0.66920(17)
C14B C 0.8326(3) 0.3644(4) 0.68198(18)
H8B H 0.85450 0.39850 0.66210
C15B C 0.8477(3) 0.3789(3) 0.72444(18)
C16B C 0.8140(4) 0.3290(4) 0.75391(19)
H9B H 0.82160 0.33970 0.78230
C17B C 0.7686(4) 0.2626(4) 0.74162(18)
C18B C 0.7536(4) 0.2495(3) 0.69924(16)
H10B H 0.72130 0.20580 0.69090
C19B C 0.7859(4) 0.2610(4) 0.39022(19)
H11B H 0.77520 0.26160 0.36210
C20B C 0.5421(4) 0.1157(4) 0.4317(2)
H12B H 0.50980 0.09970 0.45310
C21B C 0.8943(4) 0.4502(4) 0.73791(19)
H13B H 0.91650 0.48340 0.71750
C22B C 0.7910(4) 0.5254(4) 0.77263(19)
H14B H 0.77890 0.51550 0.80080
C23B C 0.9000(4) 0.3228(4) 0.36993(18)
H15B H 0.87940 0.32580 0.34350
C24B C 0.9398(4) 0.2874(4) 0.3621(2)
H16B H 0.91050 0.24330 0.34950
H17B H 0.95640 0.28030 0.38860
C25B C 0.9996(5) 0.3291(5) 0.3330(3)
H18B H 1.02590 0.30650 0.32960
H19B H 0.98280 0.33230 0.30550
C26B C 1.0440(5) 0.3988(5) 0.3502(3)
H20B H 1.08010 0.42510 0.33030
H21B H 1.06460 0.39560 0.37610
C27B C 1.0039(5) 0.4357(4) 0.3588(3)
H22B H 1.03380 0.47950 0.37170
H23B H 0.98760 0.44370 0.33250
C28B C 0.9443(4) 0.3938(4) 0.3877(2)
H24B H 0.96200 0.38970 0.41500
C29B C 0.9470(4) 0.5401(4) 0.7846(2)
H25B H 0.97250 0.56310 0.75920
C30B C 0.9971(4) 0.5530(4) 0.8202(2)
H26B H 1.02750 0.53660 0.81210
H27B H 0.97250 0.52850 0.84510
C31B C 1.0384(5) 0.6291(5) 0.8299(3)
H28B H 1.06810 0.63620 0.85370
H29B H 1.06670 0.65270 0.80590
C32B C 0.9940(4) 0.6583(5) 0.8399(3)
H30B H 1.02200 0.70700 0.84380
H31B H 0.97000 0.63890 0.86590
C33B C 0.9430(4) 0.6442(4) 0.8050(2)
H32B H 0.91290 0.66110 0.81310
H33B H 0.96660 0.66760 0.77960
C34B C 0.9018(4) 0.5691(4) 0.79664(18)
H34B H 0.87690 0.54640 0.82230
#END
