
#######################################################################
#
#                 Cambridge Crystallographic Data Centre
#                                CCDC
#
#######################################################################
#
# If this CIF has been generated from an entry in the Cambridge
# Structural Database, then it will include bibliographic, chemical,
# crystal, experimental, refinement or atomic coordinate data resulting
# from the CCDC's data processing and validation procedures.
#
#######################################################################

data_CSD_CIF_ABINEH
_audit_creation_date 2016-11-23
_audit_creation_method CSD-ConQuest-V1
_database_code_CSD ABINEH
_database_code_depnum_ccdc_archive 'CCDC 1453935'
_chemical_formula_sum 'C301 H374 Cl34 N24 O34'
_chemical_formula_moiety
;
C102 H102 N12,C114 H102 N12,17(C1 H2 Cl2),17(C4 H8 O2)
;
_journal_coden_Cambridge 1441
_journal_volume 9
_journal_year 2016
_journal_page_first 17
_journal_name_full 'Nature Chemistry '
loop_
_publ_author_name
"A.G.Slater"
"M.A.Little"
"A.Pulido"
"S.Y.Chong"
"D.Holden"
"L.Chen"
"C.Morgan"
"X.Wu"
"G.Cheng"
"R.Clowes"
"M.E.Briggs"
"T.Hasell"
"K.E.Jelfs"
"G.M.Day"
"A.I.Cooper"
_chemical_name_systematic
;
(S)-5,7,11,13,19,21,25,27,30,32,36,38-dodecaaza-6,12,20,26,31,37(1,2)-hexacycl
ohexana-1,3,9,15,17,23(1,3,5),2,16,24(1,4)-nonabenzenatetracyclo[15.11.5.5^3,1
5^.1^9,23^]nonatriacontaphane-4,7,10,13,18,21,24,27,29,32,35,38-dodecane 
(R)-3,5,15,17,21,23,33,35,43,45,48,50-dodecaaza-4,16,22,34,44,49(1,2)-hexacycl
ohexana-1,7,13,19,25,31(1,3,5),10,28,39(1,4)-nonabenzenatetracyclo[17.17.5.5^7
,31^.5^13,25^]henpentacontaphane-2,5,14,17,20,23,32,35,42,45,47,50-dodecaene-8
,11,26,29,37,40-hexayne dichloromethane 1,4-dioxane solvate
;
_chemical_name_common
;
TCC2-S TCC3-R dichloromethane 1,4-dioxane solvate
;
_cell_volume   8857.444
_exptl_crystal_colour 'colorless'
_exptl_crystal_density_diffrn 1.139
_exptl_crystal_description 'needle'
_diffrn_ambient_temperature 100
_refine_special_details
;
The structure is disordered. Disordered solvent molecules were not modelled 
and the disordered density was taken into account using the SQUEEZE/PLATON 
procedure.
;
#These two values have been output from a single CSD field.
_refine_ls_R_factor_gt 0.1129
_refine_ls_wR_factor_gt 0.1129
_symmetry_cell_setting hexagonal
_symmetry_space_group_name_H-M 'P 3'
_symmetry_Int_Tables_number 143
loop_
_symmetry_equiv_pos_site_id
_symmetry_equiv_pos_as_xyz
1 x,y,z
2 -y,x-y,z
3 -x+y,-x,z
_cell_length_a 16.532(3)
_cell_length_b 16.532(3)
_cell_length_c 37.422(6)
_cell_angle_alpha 90
_cell_angle_beta 90
_cell_angle_gamma 120
_cell_formula_units_Z 1
loop_
_atom_type_symbol
_atom_type_radius_bond
C 0.68
H 0.23
N 0.68
loop_
_atom_site_label
_atom_site_type_symbol
_atom_site_fract_x
_atom_site_fract_y
_atom_site_fract_z
N1 N 0.6605(5) 0.7936(6) 0.6081(2)
C1 C 0.3789(9) 0.4590(8) 0.6106(3)
H1 H 0.38000 0.48440 0.58770
N2 N 0.6308(7) 0.9473(7) 0.6179(3)
C2 C 0.4472(9) 0.5194(9) 0.6393(3)
N3 N 0.6277(6) 0.6825(6) 0.9316(2)
C3 C 0.5201(8) 0.6038(8) 0.6270(3)
H2 H 0.52700 0.61690 0.60210
N4 N 0.6583(6) 0.8682(7) 0.9417(3)
C4 C 0.5848(8) 0.6710(8) 0.6516(3)
C5 C 0.5790(8) 0.6456(9) 0.6882(3)
H3 H 0.62470 0.68630 0.70480
C6 C 0.5041(10) 0.5585(10) 0.6994(3)
C7 C 0.4392(10) 0.499(1) 0.6738(3)
H4 H 0.38740 0.44180 0.68160
C8 C 0.6590(8) 0.7646(8) 0.6413(3)
H5 H 0.70510 0.80390 0.65810
C9 C 0.4525(7) 0.5044(11) 0.81134(18)
C10 C 0.5431(7) 0.5455(12) 0.7982(2)
H6 H 0.59380 0.56110 0.81400
C11 C 0.5596(6) 0.5638(12) 0.7618(2)
H7 H 0.62160 0.59190 0.75280
C12 C 0.4855(7) 0.5409(11) 0.73867(19)
C13 C 0.3949(6) 0.4998(12) 0.7519(2)
H8 H 0.34420 0.48420 0.73600
C14 C 0.3784(6) 0.4815(12) 0.7882(2)
H9 H 0.31640 0.45340 0.79720
C15 C 0.4472(9) 0.4988(9) 0.8517(3)
C16 C 0.5035(9) 0.5597(9) 0.8749(3)
H10 H 0.56010 0.61100 0.86650
C17 C 0.4852(10) 0.5536(8) 0.9115(3)
C18 C 0.3956(8) 0.4838(8) 0.9233(3)
H11 H 0.37950 0.48190 0.94770
C19 C 0.3282(8) 0.4158(8) 0.8990(3)
C20 C 0.3556(9) 0.4282(10) 0.8633(3)
H12 H 0.31200 0.38850 0.84590
C21 C 0.5405(9) 0.6200(8) 0.9386(3)
H13 H 0.51420 0.61880 0.96130
C22 C 0.2341(9) 0.3474(9) 0.9110(3)
H14 H 0.19050 0.30600 0.89390
C23 C 0.7312(7) 0.8855(7) 0.6009(3)
H15 H 0.76830 0.91470 0.62300
C24 C 0.7960(8) 0.8885(8) 0.5709(4)
H16 H 0.82700 0.85300 0.57800
H17 H 0.75960 0.86020 0.54890
C25 C 0.8573(17) 0.9746(17) 0.5654(7)
H18 H 0.90650 0.97720 0.54950
H19 H 0.88710 1.00370 0.58840
C26 C 0.8137(11) 1.0372(10) 0.5469(6)
H20 H 0.86390 1.09980 0.53940
H21 H 0.77330 1.00450 0.52610
C27 C 0.7578(9) 1.0432(8) 0.5778(4)
H22 H 0.72750 1.07930 0.57060
H23 H 0.79950 1.07510 0.59830
C28 C 0.6798(8) 0.9386(8) 0.5889(3)
H24 H 0.63680 0.90590 0.56850
C29 C 0.6821(8) 0.7423(8) 0.9609(3)
H25 H 0.63770 0.72990 0.98110
C30 C 0.7239(7) 0.8387(8) 0.9526(3)
H26 H 0.76140 0.84640 0.93060
C31 C 0.7534(10) 0.7156(10) 0.9740(4)
H27 H 0.79450 0.72050 0.95390
C32 C 0.7962(9) 0.9049(9) 0.9799(4)
H28 H 0.82380 0.96980 0.97100
C33 C 0.8653(16) 0.8870(16) 0.9865(7)
H29 H 0.91180 0.93460 1.00290
C34 C 0.8154(10) 0.7798(10) 1.0056(5)
H30 H 0.86290 0.76350 1.01310
H31 H 0.89710 0.88760 0.96400
H32 H 0.76370 0.90090 1.00260
H33 H 0.77670 0.77560 1.02650
C35 C 0.1467(6) 0.3666(7) 0.13085(14)
C36 C 0.0801(5) 0.3889(7) 0.11967(15)
H34 H 0.03520 0.38660 0.13610
C37 C 0.0791(5) 0.4148(7) 0.08440(17)
C38 C 0.1448(6) 0.4183(7) 0.06030(14)
C39 C 0.2114(5) 0.3960(6) 0.07149(17)
C40 C 0.2124(5) 0.3701(7) 0.10676(19)
H35 H 0.25790 0.35480 0.11440
C41 C 0.1482(9) 0.3551(13) 0.1680(3)
C42 C 0.1608(15) 0.3470(17) 0.2001(4)
C43 C 0.1780(7) 0.3398(11) 0.31135(16)
C44 C 0.1006(6) 0.3380(9) 0.29598(19)
H36 H 0.05380 0.33790 0.31070
C45 C 0.0917(7) 0.3363(9) 0.2590(2)
H37 H 0.03880 0.33510 0.24850
C46 C 0.1602(7) 0.3365(9) 0.23742(16)
C47 C 0.2376(7) 0.3383(9) 0.2528(2)
H38 H 0.28440 0.33840 0.23800
C48 C 0.2465(7) 0.3399(10) 0.2897(2)
H39 H 0.29950 0.34110 0.30030
C49 C 0.1884(13) 0.351(2) 0.3484(3)
C50 C 0.2067(11) 0.3561(12) 0.3814(3)
C51 C 0.2193(6) 0.3697(8) 0.41866(13)
C52 C 0.1574(5) 0.3735(7) 0.44285(17)
H40 H 0.09670 0.35880 0.43530
C53 C 0.1844(5) 0.3987(7) 0.47815(15)
C54 C 0.2732(5) 0.4202(7) 0.48926(13)
H41 H 0.29160 0.43750 0.51340
C55 C 0.3350(4) 0.4165(7) 0.46507(18)
C56 C 0.3080(5) 0.3912(8) 0.42976(16)
H42 H 0.35030 0.38860 0.41320
N5 N 0.4596(9) 0.4724(9) 0.5077(3)
C57 C 0.4335(11) 0.4437(14) 0.4777(4)
H43 H 0.47490 0.43800 0.46170
C58 C 0.5571(8) 0.4982(8) 0.5169(3)
H44 H 0.58630 0.48940 0.49490
C59 C 0.6089(8) 0.5910(8) 0.5265(3)
H45 H 0.57480 0.60120 0.54650
C60 C 0.7037(8) 0.6193(9) 0.5398(3)
C61 C 0.5548(9) 0.4288(9) 0.5458(4)
C62 C 0.6493(4) 0.4528(4) 0.55967(19)
C63 C 0.7049(10) 0.5604(10) 0.5700(5)
H46 H 0.51590 0.42780 0.56610
H47 H 0.52460 0.36520 0.53550
H48 H 0.73400 0.68520 0.54770
H49 H 0.74110 0.61600 0.51980
H50 H 0.67620 0.57090 0.59150
H51 H 0.77030 0.57900 0.57590
H52 H 0.68400 0.43980 0.54110
H53 H 0.64260 0.41430 0.58090
H54 H 0.14410 0.43600 0.03620
C64 C 0.2809(8) 0.4022(7) 0.0444(3)
N6 N 0.3488(8) 0.3841(8) 0.0523(3)
H55 H 0.27630 0.41980 0.02070
C65 C 0.4070(8) 0.3916(9) 0.0227(3)
H56 H 0.39960 0.42800 0.00300
C66 C 0.3769(10) 0.2949(9) 0.0104(3)
C67 C 0.4454(9) 0.297(1) -0.0188(5)
C68 C 0.5736(9) 0.4481(9) 0.0030(4)
C69 C 0.5096(8) 0.4420(7) 0.0359(3)
C70 C 0.5443(4) 0.3479(4) -0.00775(19)
H57 H 0.42790 0.23200 -0.02490
H58 H 0.43820 0.32660 -0.04060
H59 H 0.58400 0.34870 -0.02770
H60 H 0.55340 0.31530 0.01270
H61 H 0.56450 0.48140 -0.01730
H62 H 0.64030 0.48230 0.00990
H63 H 0.51970 0.41340 0.05780
N7 N 0.5248(8) 0.5373(8) 0.0418(3)
C71 C 0.5600(11) 0.5709(10) 0.0743(4)
H64 H 0.56840 0.53220 0.09080
H65 H 0.31290 0.26600 0.00050
H66 H 0.37590 0.25660 0.03090
H67 H 0.57410 0.71990 0.52750
N8 N 0.6198(6) 0.6574(6) 0.4971(3)
C72 C 0.5960(9) 0.7186(9) 0.5042(3)
N9? N 0.4636(7) 0.4725(7) 0.6073(2)
C73? C 0.1190(9) 0.4057(9) 0.6117(3)
H68? H 0.14340 0.42550 0.58830
N10? N 0.6139(6) 0.6499(6) 0.6174(2)
C74? C 0.1814(10) 0.3999(11) 0.6389(3)
N11? N 0.3465(6) 0.3849(7) 0.9305(2)
C75? C 0.2727(8) 0.4221(8) 0.6269(3)
H69? H 0.28970 0.43700 0.60250
N12? N 0.5346(7) 0.5399(6) 0.9420(2)
C76? C 0.3371(8) 0.4216(9) 0.6515(3)
C77? C 0.3163(9) 0.4063(9) 0.6867(3)
H70? H 0.36010 0.40570 0.70310
C78? C 0.2265(11) 0.3906(15) 0.6993(3)
C79? C 0.1598(9) 0.3839(10) 0.6726(3)
H71? H 0.09850 0.36740 0.68000
C80? C 0.4264(8) 0.4386(10) 0.6405(3)
H72? H 0.46240 0.42580 0.65690
C81? C 0.1731(7) 0.3719(14) 0.81231(18)
C82? C 0.2636(7) 0.4094(14) 0.7993(2)
H73? H 0.31500 0.43540 0.81540
C83? C 0.2789(7) 0.4089(14) 0.7628(2)
H74? H 0.34080 0.43450 0.75390
C84? C 0.2037(8) 0.3709(14) 0.73931(19)
C85? C 0.1132(7) 0.3334(14) 0.7523(2)
H75? H 0.06180 0.30740 0.73620
C86? C 0.0979(6) 0.3339(14) 0.7888(2)
H76? H 0.03600 0.30830 0.79770
C87? C 0.1629(6) 0.3834(10) 0.8508(3)
C88? C 0.0927(11) 0.3999(13) 0.8618(3)
H77? H 0.05120 0.40070 0.84440
C89? C 0.0799(9) 0.4159(11) 0.8984(3)
C90? C 0.1491(8) 0.4171(10) 0.9237(3)
H78? H 0.14400 0.42750 0.94840
C91? C 0.2160(9) 0.4045(11) 0.9132(3)
C92? C 0.2289(10) 0.3893(12) 0.8768(3)
H79? H 0.28080 0.38330 0.86980
C93? C 0.2897(8) 0.4112(8) 0.9389(3)
H80? H 0.29330 0.43620 0.96200
C94? C 0.0109(8) 0.4416(9) 0.9095(3)
H81? H -0.03150 0.44090 0.89220
C95? C 0.5554(7) 0.4933(7) 0.6001(3)
H82? H 0.58310 0.48280 0.62220
C96? C 0.5528(8) 0.4262(8) 0.5693(3)
H83? H 0.51890 0.36050 0.57770
H84? H 0.51970 0.43160 0.54820
H85? H 0.64870 0.41060 0.54080
H86? H 0.68190 0.44680 0.58080
C97? C 0.7034(10) 0.5585(10) 0.5456(5)
H87? H 0.76850 0.57710 0.53930
H88? H 0.67210 0.56480 0.52410
C98? C 0.7022(8) 0.6176(8) 0.5742(4)
H89? H 0.73160 0.68230 0.56500
H90? H 0.74250 0.61740 0.59370
C99? C 0.6077(8) 0.5935(8) 0.5905(3)
H91? H 0.57120 0.60240 0.57110
C100? C 0.4086(8) 0.3939(9) 0.9621(3)
H92? H 0.39820 0.42770 0.98210
C101? C 0.3776(9) 0.2946(8) 0.9731(3)
H93? H 0.38460 0.25970 0.95300
H94? H 0.31120 0.26210 0.98050
C102? C 0.4452(11) 0.3008(9) 1.0071(4)
H95? H 0.44070 0.33810 1.02690
H96? H 0.42660 0.23760 1.01620
C103? C 0.5747(10) 0.4464(10) 0.9802(4)
H97? H 0.63980 0.47620 0.97140
H98? H 0.57320 0.48300 1.00080
C104? C 0.5110(7) 0.4481(7) 0.9501(3)
H99? H 0.51880 0.41800 0.92830
C105? C 0.1120(8) 0.2062(8) 0.0038(4)
H100? H 0.14150 0.24310 -0.01800
H101? H 0.14740 0.17560 0.01160
C106? C 0.0126(15) 0.1357(15) -0.0029(6)
H102? H -0.01850 0.10620 0.01990
H103? H 0.00880 0.08630 -0.01890
C107? C -0.0393(10) 0.1865(11) -0.0212(6)
H104? H -0.00410 0.22520 -0.04190
H105? H -0.10400 0.14090 -0.02850
C108? C -0.0371(9) 0.2454(10) 0.0101(4)
H106? H -0.07050 0.27880 0.00300
H107? H -0.07230 0.20320 0.03010
H108? H 0.58750 0.34950 0.01090
H109? H 0.54680 0.31130 -0.02820
N13? N 0.6280(7) 0.9506(7) 0.4963(3)
C109? C 0.7321(7) 0.8895(8) 0.5164(3)
H110? H 0.77100 0.91990 0.49470
C110? C 0.6832(7) 0.9424(8) 0.5282(3)
H111? H 0.64000 0.90930 0.54850
N14? N 0.6550(7) 0.8629(10) 1.0432(3)
N15? N 0.6291(7) 0.6783(10) 1.0519(3)
N16? N 0.2092(8) 0.8651(11) 1.5073(2)
C111? C 0.5222(6) 0.9670(8) 1.13171(14)
C112? C 0.5868(5) 0.9429(7) 1.11961(15)
H112? H 0.63240 0.94450 1.13550
C113? C 0.5848(5) 0.9164(6) 1.08422(17)
C114? C 0.5181(6) 0.9140(8) 1.06094(13)
H113? H 0.51670 0.89580 1.03680
C115? C 0.4535(5) 0.9381(7) 1.07304(16)
C116? C 0.4555(6) 0.9646(8) 1.10842(18)
H114? H 0.41140 0.98120 1.11670
C117? C 0.5136(8) 0.9773(13) 1.1693(3)
C118? C 0.5096(13) 0.9861(18) 1.1985(4)
C119? C 0.4929(7) 1.0005(10) 1.31149(16)
C120? C 0.5682(6) 0.9984(9) 1.2960(2)
H115? H 0.61500 0.99820 1.31070
C121? C 0.5751(7) 0.9967(10) 1.2590(2)
H116? H 0.62660 0.99520 1.24840
C122? C 0.5068(7) 0.9972(10) 1.23754(16)
C123? C 0.4314(6) 0.9992(8) 1.25304(19)
H117? H 0.38470 0.99950 1.23840
C124? C 0.4245(6) 1.0009(8) 1.29002(19)
H118? H 0.37300 1.00240 1.30060
C125? C 0.4807(10) 0.9878(16) 1.3505(3)
C126? C 0.4648(11) 0.9764(14) 1.3820(3)
C127? C 0.4453(6) 0.9620(8) 1.41802(13)
C128? C 0.5079(5) 0.9595(8) 1.44216(17)
H119? H 0.56820 0.97340 1.43440
C129? C 0.4822(5) 0.9365(7) 1.47771(16)
C130? C 0.3940(5) 0.9162(8) 1.48911(14)
H120? H 0.37650 0.90060 1.51340
C131? C 0.3314(5) 0.9188(8) 1.46497(18)
C132? C 0.3571(5) 0.9417(7) 1.42942(16)
H121? H 0.31430 0.94340 1.41290
C133? C 0.6635(10) 0.8937(14) 1.0740(4)
H122? H 0.71230 0.90250 1.08970
C134? C 0.7296(7) 0.8392(10) 1.0343(3)
H123? H 0.76840 0.84820 1.05610
C135? C 0.6852(7) 0.7415(11) 1.0232(3)
H124? H 0.64210 0.73270 1.00290
C136? C 0.5452(9) 0.6111(13) 1.0460(3)
H125? H 0.52150 0.60340 1.02240
C137? C 0.2269(9) 0.8868(13) 1.4758(3)
H126? H 0.18200 0.88450 1.45940
C138? C 0.5429(8) 0.9306(12) 1.5048(3)
H127? H 0.52080 0.91230 1.52850
H128? H 0.72000 0.64980 0.98210
C139? C 0.7513(8) 1.0409(8) 0.5383(3)
H129? H 0.71780 1.07390 0.54550
H130? H 0.79240 1.07450 0.51780
C140? C 0.8663(11) 0.9902(12) 0.5562(5)
H131? H 0.91200 0.99080 0.57340
H132? H 0.90060 1.02500 0.53460
C141? C 0.8151(11) 1.0364(11) 0.5728(5)
H133? H 0.77440 0.99840 0.59270
C142? C 0.7932(8) 0.8872(9) 0.5460(5)
H134? H 0.82570 0.85390 0.53780
H135? H 0.75460 0.85400 0.56700
H136? H 0.85970 1.09980 0.58170
N1A N 0.2064(5) 0.8669(6) 0.6081(2)
C1A C 0.5410(9) 0.9199(8) 0.6106(3)
H1A H 0.51560 0.89560 0.58770
N2A N 0.0527(7) 0.6835(7) 0.6179(3)
C2A C 0.4806(9) 0.9278(9) 0.6393(3)
N3A N 0.3175(6) 0.9452(6) 0.9316(2)
C3A C 0.3962(8) 0.9163(8) 0.6270(3)
H2A H 0.38310 0.91010 0.60210
N4A N 0.1318(6) 0.7901(7) 0.9417(3)
C4A C 0.3290(8) 0.9138(8) 0.6516(3)
C5A C 0.3544(8) 0.9334(9) 0.6882(3)
H3A H 0.31370 0.93840 0.70480
C6A C 0.4415(10) 0.9456(10) 0.6994(3)
C7A C 0.501(1) 0.9402(10) 0.6738(3)
H4A H 0.55820 0.94560 0.68160
C8A C 0.2354(8) 0.8944(8) 0.6413(3)
H5A H 0.19610 0.90120 0.65810
C9A C 0.4956(7) 0.9481(11) 0.81134(18)
C10A C 0.4545(7) 0.9976(12) 0.7982(2)
H6A H 0.43890 1.03270 0.81400
C11A C 0.4362(6) 0.9958(12) 0.7618(2)
H7A H 0.40810 1.02970 0.75280
C12A C 0.4591(7) 0.9446(11) 0.73867(19)
C13A C 0.5002(6) 0.8951(12) 0.7519(2)
H8A H 0.51580 0.86000 0.73600
C14A C 0.5185(6) 0.8969(12) 0.7882(2)
H9A H 0.54660 0.86300 0.79720
C15A C 0.5012(9) 0.9484(9) 0.8517(3)
C16A C 0.4403(9) 0.9438(9) 0.8749(3)
H10A H 0.38900 0.94910 0.86650
C17A C 0.4464(10) 0.9316(8) 0.9115(3)
C18A C 0.5162(8) 0.9118(8) 0.9233(3)
H11A H 0.51810 0.89760 0.94770
C19A C 0.5842(8) 0.9124(8) 0.8990(3)
C20A C 0.5718(9) 0.9274(10) 0.8633(3)
H12A H 0.61150 0.92350 0.84590
C21A C 0.3800(9) 0.9205(8) 0.9386(3)
H13A H 0.38120 0.89540 0.96130
C22A C 0.6526(9) 0.8867(9) 0.9110(3)
H14A H 0.69400 0.88450 0.89390
C23A C 0.1145(7) 0.8457(7) 0.6009(3)
H15A H 0.08530 0.85360 0.62300
C24A C 0.1115(8) 0.9075(8) 0.5709(4)
H16A H 0.14700 0.97400 0.57800
H17A H 0.13980 0.89940 0.54890
C25A C 0.0254(17) 0.8827(17) 0.5654(7)
H18A H 0.02280 0.92930 0.54950
H19A H -0.00370 0.88340 0.58840
C26A C -0.0372(11) 0.7765(10) 0.5469(6)
H20A H -0.09980 0.76410 0.53940
H21A H -0.00450 0.76880 0.52610
C27A C -0.0432(9) 0.7146(8) 0.5778(4)
H22A H -0.07930 0.64820 0.57060
H23A H -0.07510 0.72440 0.59830
C28A C 0.0614(8) 0.7412(8) 0.5889(3)
H24A H 0.09410 0.73090 0.56850
C29A C 0.2577(8) 0.9398(8) 0.9609(3)
H25A H 0.27010 0.90780 0.98110
C30A C 0.1613(7) 0.8852(8) 0.9526(3)
H26A H 0.15360 0.91500 0.93060
C31A C 0.2844(10) 1.0378(10) 0.9740(4)
H27A H 0.27950 1.07400 0.95390
C32A C 0.0951(9) 0.8913(9) 0.9799(4)
H28A H 0.03020 0.85400 0.97100
C33A C 0.1130(16) 0.9783(16) 0.9865(7)
H29A H 0.06540 0.97720 1.00290
C34A C 0.2202(10) 1.0356(10) 1.0056(5)
H30A H 0.23650 1.09940 1.01310
H31A H 0.11240 1.00950 0.96400
H32A H 0.09910 0.86280 1.00260
H33A H 0.22440 1.00110 1.02650
N1B N 0.1331(5) 0.3395(6) 0.6081(2)
C1B C 0.0801(9) 0.6211(8) 0.6106(3)
H1B H 0.10440 0.62000 0.58770
N2B N 0.3165(7) 0.3692(7) 0.6179(3)
C2B C 0.0722(9) 0.5528(9) 0.6393(3)
N3B N 0.0548(6) 0.3723(6) 0.9316(2)
C3B C 0.0837(8) 0.4799(8) 0.6270(3)
H2B H 0.08990 0.47300 0.60210
N4B N 0.2099(6) 0.3417(7) 0.9417(3)
C4B C 0.0862(8) 0.4152(8) 0.6516(3)
C5B C 0.0666(8) 0.4210(9) 0.6882(3)
H3B H 0.06160 0.37530 0.70480
C6B C 0.0544(10) 0.4959(10) 0.6994(3)
C7B C 0.0598(10) 0.5608(10) 0.6738(3)
H4B H 0.05440 0.61260 0.68160
C8B C 0.1056(8) 0.3410(8) 0.6413(3)
H5B H 0.09880 0.29490 0.65810
C9B C 0.0519(7) 0.5475(11) 0.81134(18)
C10B C 0.0024(7) 0.4569(12) 0.7982(2)
H6B H -0.03270 0.40620 0.81400
C11B C 0.0042(6) 0.4404(12) 0.7618(2)
H7B H -0.02970 0.37840 0.75280
C12B C 0.0554(7) 0.5145(11) 0.73867(19)
C13B C 0.1049(6) 0.6051(12) 0.7519(2)
H8B H 0.14000 0.65580 0.73600
C14B C 0.1031(6) 0.6216(12) 0.7882(2)
H9B H 0.13700 0.68360 0.79720
C15B C 0.0516(9) 0.5528(9) 0.8517(3)
C16B C 0.0562(9) 0.4965(9) 0.8749(3)
H10B H 0.05090 0.43990 0.86650
C17B C 0.0684(10) 0.5148(8) 0.9115(3)
C18B C 0.0882(8) 0.6044(8) 0.9233(3)
H11B H 0.10240 0.62050 0.94770
C19B C 0.0876(8) 0.6718(8) 0.8990(3)
C20B C 0.0726(9) 0.6444(10) 0.8633(3)
H12B H 0.07650 0.68800 0.84590
C21B C 0.0795(9) 0.4595(8) 0.9386(3)
H13B H 0.10460 0.48580 0.96130
C22B C 0.1133(9) 0.7659(9) 0.9110(3)
H14B H 0.11550 0.80950 0.89390
C23B C 0.1543(7) 0.2688(7) 0.6009(3)
H15B H 0.14640 0.23170 0.62300
C24B C 0.0925(8) 0.2040(8) 0.5709(4)
H16B H 0.02600 0.17300 0.57800
H17B H 0.10060 0.24040 0.54890
C25B C 0.1173(17) 0.1427(17) 0.5654(7)
H18B H 0.07070 0.09350 0.54950
H19B H 0.11660 0.11290 0.58840
C26B C 0.2235(11) 0.1863(10) 0.5469(6)
H20B H 0.23590 0.13610 0.53940
H21B H 0.23120 0.22670 0.52610
C27B C 0.2854(9) 0.2422(8) 0.5778(4)
H22B H 0.35180 0.27250 0.57060
H23B H 0.27560 0.20050 0.59830
C28B C 0.2588(8) 0.3202(8) 0.5889(3)
H24B H 0.26910 0.36320 0.56850
C29B C 0.0602(8) 0.3179(8) 0.9609(3)
H25B H 0.09220 0.36230 0.98110
C30B C 0.1148(7) 0.2761(8) 0.9526(3)
H26B H 0.08500 0.23860 0.93060
C31B C -0.0378(10) 0.2466(10) 0.9740(4)
H27B H -0.07400 0.20550 0.95390
C32B C 0.1087(9) 0.2038(9) 0.9799(4)
H28B H 0.14600 0.17620 0.97100
C33B C 0.0217(16) 0.1347(16) 0.9865(7)
H29B H 0.02280 0.08820 1.00290
C34B C -0.0356(10) 0.1846(10) 1.0056(5)
H30B H -0.09940 0.13710 1.01310
H31B H -0.00950 0.10290 0.96400
H32B H 0.13720 0.23630 1.00260
H33B H -0.00110 0.22330 1.02650
C35A C 0.6334(6) 0.7801(7) 0.13085(14)
C36A C 0.6111(5) 0.6912(7) 0.11967(15)
H34A H 0.61340 0.64860 0.13610
C37A C 0.5852(5) 0.6643(7) 0.08440(17)
C38A C 0.5817(6) 0.7265(7) 0.06030(14)
C39A C 0.6040(5) 0.8154(6) 0.07149(17)
C40A C 0.6299(5) 0.8423(7) 0.10676(19)
H35A H 0.64520 0.90310 0.11440
C41A C 0.6449(9) 0.7931(13) 0.1680(3)
C42A C 0.6530(15) 0.8138(17) 0.2001(4)
C43A C 0.6602(7) 0.8382(11) 0.31135(16)
C44A C 0.6620(6) 0.7626(9) 0.29598(19)
H36A H 0.66210 0.71590 0.31070
C45A C 0.6637(7) 0.7554(9) 0.2590(2)
H37A H 0.66490 0.70370 0.24850
C46A C 0.6635(7) 0.8237(9) 0.23742(16)
C47A C 0.6617(7) 0.8993(9) 0.2528(2)
H38A H 0.66160 0.94600 0.23800
C48A C 0.6601(7) 0.9066(10) 0.2897(2)
H39A H 0.65890 0.95840 0.30030
C49A C 0.6490(13) 0.8374(20) 0.3484(3)
C50A C 0.6439(11) 0.8506(12) 0.3814(3)
C51A C 0.6303(6) 0.8496(8) 0.41866(13)
C52A C 0.6265(5) 0.7839(7) 0.44285(17)
H40A H 0.64120 0.73790 0.43530
C53A C 0.6013(5) 0.7857(7) 0.47815(15)
C54A C 0.5798(5) 0.8530(7) 0.48926(13)
H41A H 0.56250 0.85410 0.51340
C55A C 0.5835(4) 0.9185(7) 0.46507(18)
C56A C 0.6088(5) 0.9168(8) 0.42976(16)
H42A H 0.61140 0.96170 0.41320
N5A N 0.5276(9) 0.9872(9) 0.5077(3)
C57A C 0.5563(11) 0.9898(14) 0.4777(4)
H43A H 0.56200 1.03690 0.46170
C58A C 0.5018(8) 1.0589(8) 0.5169(3)
H44A H 0.51060 1.09690 0.49490
C59A C 0.4090(8) 1.0179(8) 0.5265(3)
H45A H 0.39880 0.97360 0.54650
C60A C 0.3807(8) 1.0844(9) 0.5398(3)
C61A C 0.5712(9) 1.1260(9) 0.5458(4)
C62A C 0.5472(4) 1.1965(4) 0.55967(19)
C63A C 0.4396(10) 1.1445(10) 0.5700(5)
H46A H 0.57220 1.08810 0.56610
H47A H 0.63480 1.15940 0.53550
H48A H 0.31480 1.04880 0.54770
H49A H 0.38400 1.12510 0.51980
H50A H 0.42910 1.10530 0.59150
H51A H 0.42100 1.19130 0.57590
H52A H 0.56020 1.24420 0.54110
H53A H 0.58570 1.22830 0.58090
H54A H 0.56400 0.70810 0.03620
C64A C 0.5978(8) 0.8787(7) 0.0444(3)
N6A N 0.6159(8) 0.9647(8) 0.0523(3)
H55A H 0.58020 0.85650 0.02070
C65A C 0.6084(8) 1.0154(9) 0.0227(3)
H56A H 0.57200 0.97160 0.00300
C66A C 0.7051(10) 1.0820(9) 0.0104(3)
C67A C 0.7030(9) 1.1484(10) -0.0188(5)
C68A C 0.5519(9) 1.1255(9) 0.0030(4)
C69A C 0.5580(8) 1.0676(7) 0.0359(3)
C70A C 0.6521(4) 1.1964(4) -0.00775(19)
H57A H 0.76800 1.19590 -0.02490
H58A H 0.67340 1.11160 -0.04060
H59A H 0.65130 1.23530 -0.02770
H60A H 0.68470 1.23810 0.01270
H61A H 0.51860 1.08310 -0.01730
H62A H 0.51770 1.15800 0.00990
H63A H 0.58660 1.10630 0.05780
N7A N 0.4627(8) 0.9875(8) 0.0418(3)
C71A C 0.4291(11) 0.9891(10) 0.0743(4)
H64A H 0.46780 1.03620 0.09080
H65A H 0.73400 1.04690 0.00050
H66A H 0.74340 1.11930 0.03090
H67A H 0.28010 0.85420 0.52750
N8A N 0.3426(6) 0.9624(6) 0.4971(3)
C72A C 0.2814(9) 0.8774(9) 0.5042(3)
C35B C 0.2199(6) 0.8533(7) 0.13085(14)
C36B C 0.3088(5) 0.9199(7) 0.11967(15)
H34B H 0.35140 0.96480 0.13610
C37B C 0.3357(5) 0.9209(7) 0.08440(17)
C38B C 0.2735(6) 0.8552(7) 0.06030(14)
C39B C 0.1846(5) 0.7886(6) 0.07149(17)
C40B C 0.1577(5) 0.7876(7) 0.10676(19)
H35B H 0.09690 0.74210 0.11440
C41B C 0.2069(9) 0.8518(13) 0.1680(3)
C42B C 0.1862(15) 0.8392(17) 0.2001(4)
C43B C 0.1618(7) 0.8220(11) 0.31135(16)
C44B C 0.2374(6) 0.8994(9) 0.29598(19)
H36B H 0.28410 0.94620 0.31070
C45B C 0.2446(7) 0.9083(9) 0.2590(2)
H37B H 0.29630 0.96120 0.24850
C46B C 0.1763(7) 0.8398(9) 0.23742(16)
C47B C 0.1007(7) 0.7624(9) 0.2528(2)
H38B H 0.05400 0.71560 0.23800
C48B C 0.0934(7) 0.7535(10) 0.2897(2)
H39B H 0.04160 0.70050 0.30030
C49B C 0.1626(13) 0.8116(20) 0.3484(3)
C50B C 0.1494(11) 0.7933(12) 0.3814(3)
C51B C 0.1504(6) 0.7807(8) 0.41866(13)
C52B C 0.2161(5) 0.8426(7) 0.44285(17)
H40B H 0.26210 0.90330 0.43530
C53B C 0.2143(5) 0.8156(7) 0.47815(15)
C54B C 0.1470(5) 0.7268(7) 0.48926(13)
H41B H 0.14590 0.70840 0.51340
C55B C 0.0815(4) 0.6650(7) 0.46507(18)
C56B C 0.0832(5) 0.6920(8) 0.42976(16)
H42B H 0.03830 0.64970 0.41320
N5B N 0.0128(9) 0.5404(9) 0.5077(3)
C57B C 0.0102(11) 0.5665(14) 0.4777(4)
H43B H -0.03690 0.52510 0.46170
C58B C -0.0589(8) 0.4429(8) 0.5169(3)
H44B H -0.09690 0.41370 0.49490
C59B C -0.0179(8) 0.3911(8) 0.5265(3)
H45B H 0.02640 0.42520 0.54650
C60B C -0.0844(8) 0.2963(9) 0.5398(3)
C61B C -0.1260(9) 0.4452(9) 0.5458(4)
C62B C -0.1965(4) 0.3507(4) 0.55967(19)
C63B C -0.1445(10) 0.2951(10) 0.5700(5)
H46B H -0.08810 0.48410 0.56610
H47B H -0.15940 0.47540 0.53550
H48B H -0.04880 0.26600 0.54770
H49B H -0.12510 0.25890 0.51980
H50B H -0.10530 0.32380 0.59150
H51B H -0.19130 0.22970 0.57590
H52B H -0.24420 0.31600 0.54110
H53B H -0.22830 0.35740 0.58090
H54B H 0.29190 0.85590 0.03620
C64B C 0.1213(8) 0.7191(7) 0.0444(3)
N6B N 0.0353(8) 0.6512(8) 0.0523(3)
H55B H 0.14350 0.72370 0.02070
C65B C -0.0154(8) 0.5930(9) 0.0227(3)
H56B H 0.02840 0.60040 0.00300
C66B C -0.082(1) 0.6231(9) 0.0104(3)
C67B C -0.1484(9) 0.5546(10) -0.0188(5)
C68B C -0.1255(9) 0.4264(9) 0.0030(4)
C69B C -0.0676(8) 0.4904(7) 0.0359(3)
C70B C -0.1964(4) 0.4557(4) -0.00775(19)
H57B H -0.19590 0.57210 -0.02490
H58B H -0.11160 0.56180 -0.04060
H59B H -0.23530 0.41600 -0.02770
H60B H -0.23810 0.44660 0.01270
H61B H -0.08310 0.43550 -0.01730
H62B H -0.15800 0.35970 0.00990
H63B H -0.10630 0.48030 0.05780
N7B N 0.0125(8) 0.4752(8) 0.0418(3)
C71B C 0.0109(11) 0.440(1) 0.0743(4)
H64B H -0.03620 0.43160 0.09080
H65B H -0.04690 0.68710 0.00050
H66B H -0.11930 0.62410 0.03090
H67B H 0.14580 0.42590 0.52750
N8B N 0.0376(6) 0.3802(6) 0.4971(3)
C72B C 0.1226(9) 0.4040(9) 0.5042(3)
#END
