
#######################################################################
#
#                 Cambridge Crystallographic Data Centre
#                                CCDC
#
#######################################################################
#
# If this CIF has been generated from an entry in the Cambridge
# Structural Database, then it will include bibliographic, chemical,
# crystal, experimental, refinement or atomic coordinate data resulting
# from the CCDC's data processing and validation procedures.
#
#######################################################################

data_CSD_CIF_ABINIL
_audit_creation_date 2016-11-23
_audit_creation_method CSD-ConQuest-V1
_database_code_CSD ABINIL
_database_code_depnum_ccdc_archive 'CCDC 1453936'
_chemical_formula_sum 'C125.5 H143.8 N12 O9.38'
_chemical_formula_moiety
;
C114 H102 N12,2.88(C4 H10 O1),6.5(H2 O1)
;
_journal_coden_Cambridge 1441
_journal_volume 9
_journal_year 2016
_journal_page_first 17
_journal_name_full 'Nature Chemistry '
loop_
_publ_author_name
"A.G.Slater"
"M.A.Little"
"A.Pulido"
"S.Y.Chong"
"D.Holden"
"L.Chen"
"C.Morgan"
"X.Wu"
"G.Cheng"
"R.Clowes"
"M.E.Briggs"
"T.Hasell"
"K.E.Jelfs"
"G.M.Day"
"A.I.Cooper"
_chemical_name_systematic
;
rac-3,5,15,17,21,23,33,35,43,45,48,50-dodecaaza-4,16,22,34,44,49(1,2)-hexacycl
ohexana-1,7,13,19,25,31(1,3,5),10,28,39(1,4)-nonabenzenatetracyclo[17.17.5.5^7
,31^.5^13,25^]henpentacontaphane-2,5,14,17,20,23,32,35,42,45,47,50-dodecaene-8
,11,26,29,37,40-hexayne diethyl ether solvate hydrate
;
_chemical_name_common
;
rac-TCC3 diethyl ether solvate hydrate
;
_cell_volume  36989.100
_exptl_crystal_colour 'colorless'
_exptl_crystal_density_diffrn 1.061
_exptl_crystal_description 'needle'
_diffrn_ambient_temperature 100
_diffrn_special_details
;
twin

;
_refine_special_details
;
The structure is disordered.

;
#These two values have been output from a single CSD field.
_refine_ls_R_factor_gt 0.112
_refine_ls_wR_factor_gt 0.112
_symmetry_cell_setting rhombohedral
_symmetry_space_group_name_H-M 'R -3'
_symmetry_Int_Tables_number 148
loop_
_symmetry_equiv_pos_site_id
_symmetry_equiv_pos_as_xyz
1 x,y,z
2 -y,x-y,z
3 -x+y,-x,z
4 2/3+x,1/3+y,1/3+z
5 2/3-y,1/3+x-y,1/3+z
6 2/3-x+y,1/3-x,1/3+z
7 1/3+x,2/3+y,2/3+z
8 1/3-y,2/3+x-y,2/3+z
9 1/3-x+y,2/3-x,2/3+z
10 -x,-y,-z
11 y,-x+y,-z
12 x-y,x,-z
13 -2/3-x,-1/3-y,-1/3-z
14 -2/3+y,-1/3-x+y,-1/3-z
15 -2/3+x-y,-1/3+x,-1/3-z
16 -1/3-x,-2/3-y,-2/3-z
17 -1/3+y,-2/3-x+y,-2/3-z
18 -1/3+x-y,-2/3+x,-2/3-z
_cell_length_a 22.553(4)
_cell_length_b 22.553(4)
_cell_length_c 83.972(18)
_cell_angle_alpha 90
_cell_angle_beta 90
_cell_angle_gamma 120
_cell_formula_units_Z 12
loop_
_atom_type_symbol
_atom_type_radius_bond
C 0.68
H 0.23
N 0.68
O 0.68
loop_
_atom_site_label
_atom_site_type_symbol
_atom_site_fract_x
_atom_site_fract_y
_atom_site_fract_z
C1 C 0.5430(3) 0.7958(3) 0.62650(6)
C2 C 0.5209(3) 0.7412(3) 0.63678(6)
H1 H 0.51360 0.74820 0.64760
C3 C 0.5085(3) 0.6764(3) 0.63237(5)
C4 C 0.5221(3) 0.6677(3) 0.61711(5)
H2 H 0.51610 0.62460 0.61390
C5 C 0.5452(3) 0.7213(3) 0.60573(6)
C6 C 0.5545(3) 0.7832(3) 0.61058(6)
H3 H 0.56920 0.81910 0.60300
C7 C 0.5545(3) 0.7097(3) 0.58906(6)
C8 C 0.5592(3) 0.7019(3) 0.57526(6)
C9 C 0.5595(3) 0.6918(3) 0.55833(5)
C10 C 0.5340(5) 0.6260(3) 0.55188(7)
H4 H 0.52200 0.58850 0.55880
C11 C 0.5261(5) 0.6147(3) 0.53597(6)
H5 H 0.50800 0.56940 0.53200
C12 C 0.5434(3) 0.6667(3) 0.52575(6)
C13 C 0.5728(4) 0.7326(3) 0.53120(6)
H6 H 0.58740 0.76970 0.52390
C14 C 0.5810(3) 0.7446(3) 0.54752(6)
H7 H 0.60190 0.79040 0.55130
C15 C 0.5311(3) 0.6542(3) 0.50873(6)
C16 C 0.5174(4) 0.6444(3) 0.49469(6)
C17 C 0.4998(3) 0.6326(3) 0.47827(6)
C18 C 0.4507(4) 0.5651(4) 0.47317(5)
H8 H 0.43240 0.52790 0.48050
C19 C 0.4302(3) 0.5550(3) 0.45715(6)
C20 C 0.4565(3) 0.6082(3) 0.44649(6)
H9 H 0.44150 0.60010 0.43570
C21 C 0.5057(4) 0.6746(3) 0.45136(6)
C22 C 0.5267(3) 0.6855(3) 0.46745(6)
H10 H 0.55990 0.73020 0.47090
C23 C 0.5524(3) 0.8606(3) 0.63087(6)
H11 H 0.56300 0.89400 0.62280
C24 C 0.4843(3) 0.6215(3) 0.64393(6)
H12 H 0.47910 0.63110 0.65470
C25 C 0.5351(4) 0.7295(3) 0.43968(6)
H13 H 0.52180 0.71920 0.42880
C26 C 0.3770(3) 0.4843(3) 0.45222(6)
H14 H 0.35910 0.44930 0.46010
C27 C 0.3041(3) 0.3986(3) 0.43568(6)
H15 H 0.29730 0.37240 0.44580
C28 C 0.3269(4) 0.3670(3) 0.42252(6)
H16 H 0.33300 0.39200 0.41240
H17 H 0.37150 0.37140 0.42540
C29 C 0.2749(5) 0.2931(4) 0.42024(8)
H18 H 0.27040 0.26730 0.43010
H19 H 0.28960 0.27350 0.41160
C30 C 0.2053(4) 0.2868(4) 0.41596(8)
H20 H 0.20900 0.30770 0.40540
H21 H 0.17010 0.23770 0.41520
C31 C 0.1822(4) 0.3216(4) 0.42818(7)
H22 H 0.14030 0.32060 0.42430
H23 H 0.17090 0.29590 0.43830
C32 C 0.2365(3) 0.3942(3) 0.43109(7)
H24 H 0.24340 0.42150 0.42120
C33 C 0.4495(3) 0.5102(3) 0.65324(5)
H25 H 0.43810 0.52840 0.66290
C34 C 0.5100(3) 0.5002(4) 0.65691(6)
H26 H 0.54950 0.54420 0.66040
H27 H 0.52350 0.48520 0.64720
C35 C 0.4911(3) 0.4462(3) 0.67009(7)
H28 H 0.53000 0.43830 0.67200
H29 H 0.48150 0.46290 0.68010
C36 C 0.4280(3) 0.3790(3) 0.66513(7)
H30 H 0.43870 0.36040 0.65560
H31 H 0.41480 0.34500 0.67380
C37 C 0.3697(3) 0.3911(3) 0.66156(7)
H32 H 0.35750 0.40730 0.67130
H33 H 0.32920 0.34740 0.65830
C38 C 0.3880(3) 0.4435(3) 0.64847(6)
H34 H 0.39880 0.42630 0.63850
N1 N 0.4696(3) 0.5605(2) 0.64028(4)
N2 N 0.3290(2) 0.4531(3) 0.64552(5)
N3 N 0.3551(2) 0.4688(2) 0.43834(4)
N4 N 0.2131(3) 0.4208(3) 0.44364(5)
C39 C 0.1787(4) 0.1730(4) 0.71488(7)
C40 C 0.1872(4) 0.1191(4) 0.72010(6)
H35 H 0.17230 0.09950 0.73040
C41 C 0.2193(4) 0.0943(4) 0.70934(7)
C42 C 0.2368(4) 0.1195(4) 0.69407(6)
H36 H 0.25840 0.10280 0.68710
C43 C 0.2220(4) 0.1710(4) 0.68876(7)
C44 C 0.1962(4) 0.1990(4) 0.69875(6)
H37 H 0.18940 0.23530 0.69530
C45 C 0.2357(4) 0.1922(4) 0.67239(6)
C46 C 0.2382(4) 0.2038(4) 0.65800(7)
C47 C 0.2365(4) 0.2122(4) 0.64127(7)
C48 C 0.2423(4) 0.1655(4) 0.63130(6)
H38 H 0.25060 0.13150 0.63570
C49 C 0.2359(4) 0.1689(4) 0.61501(6)
H39 H 0.24070 0.13790 0.60820
C50 C 0.2222(3) 0.2188(4) 0.60835(6)
C51 C 0.2193(3) 0.2654(3) 0.61828(6)
H40 H 0.21270 0.30050 0.61390
C52 C 0.2262(3) 0.2620(3) 0.63504(6)
H41 H 0.22350 0.29430 0.64180
C53 C 0.2081(4) 0.2180(4) 0.59116(6)
C54 C 0.1946(4) 0.2147(4) 0.57788(6)
C55 C 0.1737(4) 0.2058(4) 0.56122(7)
C56 C 0.1990(4) 0.1771(4) 0.55017(6)
H42 H 0.23250 0.16570 0.55340
C57 C 0.1755(4) 0.1655(3) 0.53465(6)
C58 C 0.1297(3) 0.1836(3) 0.52996(6)
H43 H 0.11510 0.17660 0.51920
C59 C 0.1028(4) 0.2124(3) 0.54040(5)
C60 C 0.1255(4) 0.2231(3) 0.55621(6)
H44 H 0.10780 0.24230 0.56360
C61 C 0.1496(3) 0.2017(4) 0.72624(6)
H45 H 0.14090 0.18470 0.73680
C62 C 0.2310(4) 0.0379(3) 0.71473(7)
H46 H 0.25510 0.02370 0.70790
C63 C 0.0520(3) 0.2296(3) 0.53553(6)
H47 H 0.03700 0.25050 0.54310
C64 C 0.2026(3) 0.1350(3) 0.52336(7)
H48 H 0.18570 0.12720 0.51280
C65 C 0.1130(3) 0.2740(3) 0.73549(6)
H49 H 0.10550 0.24490 0.74510
C66 C 0.1668(4) 0.3463(3) 0.73915(7)
H50 H 0.17700 0.37460 0.72940
H51 H 0.20940 0.34740 0.74250
C67 C 0.1428(4) 0.3770(4) 0.75255(8)
H52 H 0.13810 0.35180 0.76260
H53 H 0.17850 0.42530 0.75430
C68 C 0.0756(4) 0.3740(3) 0.74904(8)
H54 H 0.06080 0.38960 0.75850
H55 H 0.08160 0.40480 0.74000
C69 C 0.0223(4) 0.3022(3) 0.74494(6)
H56 H -0.02040 0.30150 0.74190
H57 H 0.01230 0.27290 0.75450
C70 C 0.0448(3) 0.2726(3) 0.73130(6)
H58 H 0.05230 0.30090 0.72150
C71 C 0.2733(3) 0.0949(3) 0.51401(6)
H59 H 0.24680 0.08970 0.50410
C72 C 0.3482(3) 0.1450(3) 0.51109(7)
H60 H 0.37390 0.15170 0.52110
H61 H 0.35350 0.18980 0.50800
C73 C 0.3796(3) 0.1210(4) 0.49797(8)
H62 H 0.35730 0.11810 0.48760
H63 H 0.42910 0.15420 0.49690
C74 C 0.3689(3) 0.0513(3) 0.50251(7)
H64 H 0.39540 0.05560 0.51230
H65 H 0.38610 0.03410 0.49390
C75 C 0.2924(3) -0.0007(3) 0.50551(5)
H66 H 0.26600 -0.00740 0.49560
H67 H 0.28710 -0.04530 0.50870
C76 C 0.2646(3) 0.0254(3) 0.51863(6)
H68 H 0.29120 0.03120 0.52860
N5 N -0.0080(3) 0.2024(2) 0.72797(5)
N6 N 0.1355(3) 0.2484(3) 0.72258(5)
N7 N 0.2468(3) 0.1186(3) 0.52687(4)
N8 N 0.1925(2) -0.0259(2) 0.52157(5)
C77 C 0.7138(5) 0.7061(5) 0.62543(8)
H69 H 0.66990 0.69120 0.63070
H70 H 0.70620 0.68000 0.61560
H71 H 0.74380 0.69830 0.63250
C78 C 0.7477(5) 0.7828(5) 0.62146(10)
H72 H 0.71570 0.78960 0.61470
H73 H 0.75320 0.80790 0.63150
C79 C 0.8384(9) 0.8802(7) 0.6078(2)
H74 H 0.80630 0.88110 0.59990
H75 H 0.84270 0.91150 0.61660
C80 C 0.9019(8) 0.9059(7) 0.6006(2)
H76 H 0.91750 0.95240 0.59680
H77 H 0.93490 0.90700 0.60840
H78 H 0.89840 0.87650 0.59170
O1 O 0.8085(4) 0.8120(4) 0.61416(8)
C81 C 0.3320(8) 0.5630(8) 0.56672(16)
H79 H 0.32860 0.60470 0.56670
H80 H 0.29320 0.52680 0.57260
H81 H 0.37490 0.57240 0.57180
C82 C 0.3308(8) 0.5402(7) 0.54984(17)
H82 H 0.28790 0.53230 0.54470
H83 H 0.36940 0.57780 0.54400
C83 C 0.3524(9) 0.4418(8) 0.53880(17)
H84 H 0.40200 0.47180 0.53680
H85 H 0.32950 0.43860 0.52850
C84 C 0.3438(8) 0.3754(7) 0.54121(17)
H86 H 0.36200 0.36290 0.53200
H87 H 0.36850 0.37560 0.55080
H88 H 0.29500 0.34200 0.54250
O2 O 0.3354(6) 0.4785(5) 0.54808(12)
O3 O 0.8938(4) 0.9034(4) 0.64593(9)
O4 O 0.8766(6) 0.9169(4) 0.67995(7)
O5 O 0.9877(7) 0.9454(7) 0.67377(15)
O6 O 0.3347(16) 0.5773(16) 0.5234(4)
O7 O 0.66670 0.33330 0.4663(7)
O8 O 0.00000 0.00000 0.5218(3)
O9 O 0.33330 0.66670 0.6451(4)
O10 O 0.9233(9) 0.8992(9) 0.57430(18)
O11 O 0.33330 0.66670 0.5056(17)
O12 O 0.3641(11) 0.5831(11) 0.5937(2)
C85? C 0.66670 0.33330 0.5334(2)
C86? C 0.66670 0.33330 0.5508(2)
H89? H 0.66690 0.37690 0.55240
H90? H 0.61810 0.29800 0.55240
C87? C 0.66670 0.33330 0.5810(3)
H91? H 0.63570 0.28570 0.58450
H92? H 0.63790 0.35470 0.57960
C88? C 0.7142(15) 0.370(2) 0.5948(3)
H93? H 0.76190 0.39000 0.59120
H94? H 0.70560 0.33700 0.60340
H95? H 0.70610 0.40610 0.59870
O13? O 0.6907(13) 0.3292(19) 0.5654(2)
H96? H 0.62930 0.33970 0.52950
O14? O 0.00000 0.00000 0.5079(5)
O15? O -0.0466(16) -0.0493(16) 0.5085(3)
O16? O 0.3301(15) 0.5764(16) 0.5053(3)
O17? O 0.3199(6) 0.3049(6) 0.54171(14)
O18? O 0.33330 0.66670 0.6588(4)
O19? O 0.3361(16) 0.6366(13) 0.6132(2)
O20? O 0.9096(13) 0.9041(13) 0.6630(3)
O21? O 0.9719(9) 0.9631(8) 0.55525(15)
C1A C 0.2042(3) 0.7472(3) 0.62650(6)
C2A C 0.2588(3) 0.7797(3) 0.63678(6)
H1A H 0.25180 0.76540 0.64760
C3A C 0.3236(3) 0.8321(3) 0.63237(5)
C4A C 0.3323(3) 0.8544(3) 0.61711(5)
H2A H 0.37540 0.89150 0.61390
C5A C 0.2787(3) 0.8239(3) 0.60573(6)
C6A C 0.2168(3) 0.7713(3) 0.61058(6)
H3A H 0.18090 0.75010 0.60300
C7A C 0.2903(3) 0.8448(3) 0.58906(6)
C8A C 0.2981(3) 0.8573(3) 0.57526(6)
C9A C 0.3082(3) 0.8677(3) 0.55833(5)
C10A C 0.3740(5) 0.9080(3) 0.55188(7)
H4A H 0.41150 0.93350 0.55880
C11A C 0.3853(5) 0.9114(3) 0.53597(6)
H5A H 0.43060 0.93860 0.53200
C12A C 0.3333(3) 0.8767(3) 0.52575(6)
C13A C 0.2674(4) 0.8402(3) 0.53120(6)
H6A H 0.23030 0.81770 0.52390
C14A C 0.2554(3) 0.8364(3) 0.54752(6)
H7A H 0.20960 0.81150 0.55130
C15A C 0.3458(3) 0.8769(3) 0.50873(6)
C16A C 0.3556(4) 0.8730(3) 0.49469(6)
C17A C 0.3674(3) 0.8672(3) 0.47827(6)
C18A C 0.4349(4) 0.8856(4) 0.47317(5)
H8A H 0.47210 0.90450 0.48050
C19A C 0.4450(3) 0.8752(3) 0.45715(6)
C20A C 0.3918(3) 0.8483(3) 0.44649(6)
H9A H 0.39990 0.84140 0.43570
C21A C 0.3254(4) 0.8311(3) 0.45136(6)
C22A C 0.3145(3) 0.8412(3) 0.46745(6)
H10A H 0.26980 0.82970 0.47090
C23A C 0.1394(3) 0.6918(3) 0.63087(6)
H11A H 0.10600 0.66900 0.62280
C24A C 0.3785(3) 0.8628(3) 0.64393(6)
H12A H 0.36890 0.84800 0.65470
C25A C 0.2705(4) 0.8056(3) 0.43968(6)
H13A H 0.28080 0.80260 0.42880
C26A C 0.5157(3) 0.8927(3) 0.45222(6)
H14A H 0.55070 0.90980 0.46010
C27A C 0.6014(3) 0.9055(3) 0.43568(6)
H15A H 0.62760 0.92490 0.44580
C28A C 0.6330(4) 0.9599(3) 0.42252(6)
H16A H 0.60800 0.94100 0.41240
H17A H 0.62860 1.00010 0.42540
C29A C 0.7069(5) 0.9818(4) 0.42024(8)
H18A H 0.73270 1.00310 0.43010
H19A H 0.72650 1.01610 0.41160
C30A C 0.7132(4) 0.9185(4) 0.41596(8)
H20A H 0.69230 0.90130 0.40540
H21A H 0.76230 0.93240 0.41520
C31A C 0.6784(4) 0.8606(4) 0.42818(7)
H22A H 0.67940 0.81970 0.42430
H23A H 0.70410 0.87500 0.43830
C32A C 0.6058(3) 0.8423(3) 0.43109(7)
H24A H 0.57850 0.82190 0.42120
C33A C 0.4898(3) 0.9393(3) 0.65324(5)
H25A H 0.47160 0.90970 0.66290
C34A C 0.4998(3) 1.0098(4) 0.65691(6)
H26A H 0.45580 1.00530 0.66040
H27A H 0.51480 1.03830 0.64720
C35A C 0.5538(3) 1.0449(3) 0.67009(7)
H28A H 0.56170 1.09170 0.67200
H29A H 0.53710 1.01860 0.68010
C36A C 0.6210(3) 1.0490(3) 0.66513(7)
H30A H 0.63960 1.07830 0.65560
H31A H 0.65500 1.06980 0.67380
C37A C 0.6089(3) 0.9786(3) 0.66156(7)
H32A H 0.59270 0.95020 0.67130
H33A H 0.65260 0.98180 0.65830
C38A C 0.5565(3) 0.9445(3) 0.64847(6)
H34A H 0.57370 0.97250 0.63850
N1A N 0.4395(3) 0.9091(2) 0.64028(4)
N2A N 0.5469(2) 0.8759(3) 0.64552(5)
N3A N 0.5312(2) 0.8863(2) 0.43834(4)
N4A N 0.5792(3) 0.7923(3) 0.44364(5)
C1B C 0.2528(3) 0.4570(3) 0.62650(6)
C2B C 0.2203(3) 0.4791(3) 0.63678(6)
H1B H 0.23460 0.48640 0.64760
C3B C 0.1679(3) 0.4915(3) 0.63237(5)
C4B C 0.1456(3) 0.4779(3) 0.61711(5)
H2B H 0.10850 0.48390 0.61390
C5B C 0.1761(3) 0.4548(3) 0.60573(6)
C6B C 0.2287(3) 0.4455(3) 0.61058(6)
H3B H 0.24990 0.43080 0.60300
C7B C 0.1552(3) 0.4455(3) 0.58906(6)
C8B C 0.1427(3) 0.4408(3) 0.57526(6)
C9B C 0.1323(3) 0.4405(3) 0.55833(5)
C10B C 0.0920(5) 0.4660(3) 0.55188(7)
H4B H 0.06650 0.47800 0.55880
C11B C 0.0886(5) 0.4739(3) 0.53597(6)
H5B H 0.06140 0.49200 0.53200
C12B C 0.1233(3) 0.4566(3) 0.52575(6)
C13B C 0.1598(4) 0.4272(3) 0.53120(6)
H6B H 0.18230 0.41260 0.52390
C14B C 0.1636(3) 0.4190(3) 0.54752(6)
H7B H 0.18850 0.39810 0.55130
C15B C 0.1231(3) 0.4689(3) 0.50873(6)
C16B C 0.1270(4) 0.4826(3) 0.49469(6)
C17B C 0.1328(3) 0.5002(3) 0.47827(6)
C18B C 0.1144(4) 0.5493(4) 0.47317(5)
H8B H 0.09550 0.56760 0.48050
C19B C 0.1248(3) 0.5698(3) 0.45715(6)
C20B C 0.1517(3) 0.5435(3) 0.44649(6)
H9B H 0.15860 0.55850 0.43570
C21B C 0.1689(4) 0.4943(3) 0.45136(6)
C22B C 0.1588(3) 0.4733(3) 0.46745(6)
H10B H 0.17030 0.44010 0.47090
C23B C 0.3082(3) 0.4476(3) 0.63087(6)
H11B H 0.33100 0.43700 0.62280
C24B C 0.1372(3) 0.5157(3) 0.64393(6)
H12B H 0.15200 0.52090 0.65470
C25B C 0.1944(4) 0.4649(3) 0.43968(6)
H13B H 0.19740 0.47820 0.42880
C26B C 0.1073(3) 0.6230(3) 0.45222(6)
H14B H 0.09020 0.64090 0.46010
C27B C 0.0945(3) 0.6959(3) 0.43568(6)
H15B H 0.07510 0.70270 0.44580
C28B C 0.0401(4) 0.6731(3) 0.42252(6)
H16B H 0.05900 0.66700 0.41240
H17B H -0.00010 0.62850 0.42540
C29B C 0.0182(5) 0.7251(4) 0.42024(8)
H18B H -0.00310 0.72960 0.43010
H19B H -0.01610 0.71040 0.41160
C30B C 0.0815(4) 0.7947(4) 0.41596(8)
H20B H 0.09870 0.79100 0.40540
H21B H 0.06760 0.82990 0.41520
C31B C 0.1394(4) 0.8178(4) 0.42818(7)
H22B H 0.18030 0.85970 0.42430
H23B H 0.12500 0.82910 0.43830
C32B C 0.1577(3) 0.7635(3) 0.43109(7)
H24B H 0.17810 0.75660 0.42120
C33B C 0.0607(3) 0.5505(3) 0.65324(5)
H25B H 0.09030 0.56190 0.66290
C34B C -0.0098(3) 0.4900(4) 0.65691(6)
H26B H -0.00530 0.45050 0.66040
H27B H -0.03830 0.47650 0.64720
C35B C -0.0449(3) 0.5089(3) 0.67009(7)
H28B H -0.09170 0.47000 0.67200
H29B H -0.01860 0.51850 0.68010
C36B C -0.0490(3) 0.5720(3) 0.66513(7)
H30B H -0.07830 0.56130 0.65560
H31B H -0.06980 0.58520 0.67380
C37B C 0.0214(3) 0.6303(3) 0.66156(7)
H32B H 0.04980 0.64250 0.67130
H33B H 0.01820 0.67080 0.65830
C38B C 0.0555(3) 0.6120(3) 0.64847(6)
H34B H 0.02750 0.60120 0.63850
N1B N 0.0909(3) 0.5304(2) 0.64028(4)
N2B N 0.1241(2) 0.6710(3) 0.64552(5)
N3B N 0.1137(2) 0.6449(2) 0.43834(4)
N4B N 0.2077(3) 0.7869(3) 0.44364(5)
C39A C -0.1730(4) 0.0057(4) 0.71488(7)
C40A C -0.1191(4) 0.0681(4) 0.72010(6)
H35A H -0.09950 0.07280 0.73040
C41A C -0.0943(4) 0.1250(4) 0.70934(7)
C42A C -0.1195(4) 0.1173(4) 0.69407(6)
H36A H -0.10280 0.15560 0.68710
C43A C -0.1710(4) 0.0510(4) 0.68876(7)
C44A C -0.1990(4) -0.0028(4) 0.69875(6)
H37A H -0.23530 -0.04590 0.69530
C45A C -0.1922(4) 0.0435(4) 0.67239(6)
C46A C -0.2038(4) 0.0344(4) 0.65800(7)
C47A C -0.2122(4) 0.0243(4) 0.64127(7)
C48A C -0.1655(4) 0.0768(4) 0.63130(6)
H38A H -0.13150 0.11910 0.63570
C49A C -0.1689(4) 0.0670(4) 0.61501(6)
H39A H -0.13790 0.10280 0.60820
C50A C -0.2188(3) 0.0034(4) 0.60835(6)
C51A C -0.2654(3) -0.0461(3) 0.61828(6)
H40A H -0.30050 -0.08780 0.61390
C52A C -0.2620(3) -0.0358(3) 0.63504(6)
H41A H -0.29430 -0.07080 0.64180
C53A C -0.2180(4) -0.0099(4) 0.59116(6)
C54A C -0.2147(4) -0.0201(4) 0.57788(6)
C55A C -0.2058(4) -0.0321(4) 0.56122(7)
C56A C -0.1771(4) 0.0219(4) 0.55017(6)
H42A H -0.16570 0.06680 0.55340
C57A C -0.1655(4) 0.0100(3) 0.53465(6)
C58A C -0.1836(3) -0.0539(3) 0.52996(6)
H43A H -0.17660 -0.06150 0.51920
C59A C -0.2124(4) -0.1096(3) 0.54040(5)
C60A C -0.2231(4) -0.0976(3) 0.55621(6)
H44A H -0.24230 -0.13450 0.56360
C61A C -0.2017(3) -0.0521(4) 0.72624(6)
H45A H -0.18470 -0.04380 0.73680
C62A C -0.0379(4) 0.1931(3) 0.71473(7)
H46A H -0.02370 0.23140 0.70790
C63A C -0.2296(3) -0.1776(3) 0.53553(6)
H47A H -0.25050 -0.21350 0.54310
C64A C -0.1350(3) 0.0676(3) 0.52336(7)
H48A H -0.12720 0.05850 0.51280
C65A C -0.2740(3) -0.1610(3) 0.73549(6)
H49A H -0.24490 -0.13940 0.74510
C66A C -0.3463(4) -0.1795(3) 0.73915(7)
H50A H -0.37460 -0.19760 0.72940
H51A H -0.34740 -0.13800 0.74250
C67A C -0.3770(4) -0.2342(4) 0.75255(8)
H52A H -0.35180 -0.21370 0.76260
H53A H -0.42530 -0.24680 0.75430
C68A C -0.3740(4) -0.2984(3) 0.74904(8)
H54A H -0.38960 -0.32880 0.75850
H55A H -0.40480 -0.32320 0.74000
C69A C -0.3022(4) -0.2799(3) 0.74494(6)
H56A H -0.30150 -0.32190 0.74190
H57A H -0.27290 -0.26060 0.75450
C70A C -0.2726(3) -0.2278(3) 0.73130(6)
H58A H -0.30090 -0.24860 0.72150
C71A C -0.0949(3) 0.1784(3) 0.51401(6)
H59A H -0.08970 0.15710 0.50410
C72A C -0.1450(3) 0.2032(3) 0.51109(7)
H60A H -0.15170 0.22220 0.52110
H61A H -0.18980 0.16370 0.50800
C73A C -0.1210(3) 0.2586(4) 0.49797(8)
H62A H -0.11810 0.23920 0.48760
H63A H -0.15420 0.27490 0.49690
C74A C -0.0513(3) 0.3176(3) 0.50251(7)
H64A H -0.05560 0.33980 0.51230
H65A H -0.03410 0.35200 0.49390
C75A C 0.0007(3) 0.2931(3) 0.50551(5)
H66A H 0.00740 0.27340 0.49560
H67A H 0.04530 0.33240 0.50870
C76A C -0.0254(3) 0.2392(3) 0.51863(6)
H68A H -0.03120 0.26000 0.52860
N5A N -0.2024(3) -0.2104(2) 0.72797(5)
N6A N -0.2484(3) -0.1129(3) 0.72258(5)
N7A N -0.1186(3) 0.1282(3) 0.52687(4)
N8A N 0.0259(2) 0.2184(2) 0.52157(5)
C39B C -0.0057(4) -0.1787(4) 0.71488(7)
C40B C -0.0681(4) -0.1872(4) 0.72010(6)
H35B H -0.07280 -0.17230 0.73040
C41B C -0.1250(4) -0.2193(4) 0.70934(7)
C42B C -0.1173(4) -0.2368(4) 0.69407(6)
H36B H -0.15560 -0.25840 0.68710
C43B C -0.0510(4) -0.2220(4) 0.68876(7)
C44B C 0.0028(4) -0.1962(4) 0.69875(6)
H37B H 0.04590 -0.18940 0.69530
C45B C -0.0435(4) -0.2357(4) 0.67239(6)
C46B C -0.0344(4) -0.2382(4) 0.65800(7)
C47B C -0.0243(4) -0.2365(4) 0.64127(7)
C48B C -0.0768(4) -0.2423(4) 0.63130(6)
H38B H -0.11910 -0.25060 0.63570
C49B C -0.0670(4) -0.2359(4) 0.61501(6)
H39B H -0.10280 -0.24070 0.60820
C50B C -0.0034(3) -0.2222(4) 0.60835(6)
C51B C 0.0461(3) -0.2193(3) 0.61828(6)
H40B H 0.08780 -0.21270 0.61390
C52B C 0.0358(3) -0.2262(3) 0.63504(6)
H41B H 0.07080 -0.22350 0.64180
C53B C 0.0099(4) -0.2081(4) 0.59116(6)
C54B C 0.0201(4) -0.1946(4) 0.57788(6)
C55B C 0.0321(4) -0.1737(4) 0.56122(7)
C56B C -0.0219(4) -0.1990(4) 0.55017(6)
H42B H -0.06680 -0.23250 0.55340
C57B C -0.0100(4) -0.1755(3) 0.53465(6)
C58B C 0.0539(3) -0.1297(3) 0.52996(6)
H43B H 0.06150 -0.11510 0.51920
C59B C 0.1096(4) -0.1028(3) 0.54040(5)
C60B C 0.0976(4) -0.1255(3) 0.55621(6)
H44B H 0.13450 -0.10780 0.56360
C61B C 0.0521(3) -0.1496(4) 0.72624(6)
H45B H 0.04380 -0.14090 0.73680
C62B C -0.1931(4) -0.2310(3) 0.71473(7)
H46B H -0.23140 -0.25510 0.70790
C63B C 0.1776(3) -0.0520(3) 0.53553(6)
H47B H 0.21350 -0.03700 0.54310
C64B C -0.0676(3) -0.2026(3) 0.52336(7)
H48B H -0.05850 -0.18570 0.51280
C65B C 0.1610(3) -0.1130(3) 0.73549(6)
H49B H 0.13940 -0.10550 0.74510
C66B C 0.1795(4) -0.1668(3) 0.73915(7)
H50B H 0.19760 -0.17700 0.72940
H51B H 0.13800 -0.20940 0.74250
C67B C 0.2342(4) -0.1428(4) 0.75255(8)
H52B H 0.21370 -0.13810 0.76260
H53B H 0.24680 -0.17850 0.75430
C68B C 0.2984(4) -0.0756(3) 0.74904(8)
H54B H 0.32880 -0.06080 0.75850
H55B H 0.32320 -0.08160 0.74000
C69B C 0.2799(4) -0.0223(3) 0.74494(6)
H56B H 0.32190 0.02040 0.74190
H57B H 0.26060 -0.01230 0.75450
C70B C 0.2278(3) -0.0448(3) 0.73130(6)
H58B H 0.24860 -0.05230 0.72150
C71B C -0.1784(3) -0.2733(3) 0.51401(6)
H59B H -0.15710 -0.24680 0.50410
C72B C -0.2032(3) -0.3482(3) 0.51109(7)
H60B H -0.22220 -0.37390 0.52110
H61B H -0.16370 -0.35350 0.50800
C73B C -0.2586(3) -0.3796(4) 0.49797(8)
H62B H -0.23920 -0.35730 0.48760
H63B H -0.27490 -0.42910 0.49690
C74B C -0.3176(3) -0.3689(3) 0.50251(7)
H64B H -0.33980 -0.39540 0.51230
H65B H -0.35200 -0.38610 0.49390
C75B C -0.2931(3) -0.2924(3) 0.50551(5)
H66B H -0.27340 -0.26600 0.49560
H67B H -0.33240 -0.28710 0.50870
C76B C -0.2392(3) -0.2646(3) 0.51863(6)
H68B H -0.26000 -0.29120 0.52860
N5B N 0.2104(3) 0.0080(2) 0.72797(5)
N6B N 0.1129(3) -0.1355(3) 0.72258(5)
N7B N -0.1282(3) -0.2468(3) 0.52687(4)
N8B N -0.2184(2) -0.1925(2) 0.52157(5)
#END
