
#######################################################################
#
#                 Cambridge Crystallographic Data Centre
#                                CCDC
#
#######################################################################
#
# If this CIF has been generated from an entry in the Cambridge
# Structural Database, then it will include bibliographic, chemical,
# crystal, experimental, refinement or atomic coordinate data resulting
# from the CCDC's data processing and validation procedures.
#
#######################################################################

data_CSD_CIF_ABIPEJ
_audit_creation_date 2016-11-23
_audit_creation_method CSD-ConQuest-V1
_database_code_CSD ABIPEJ
_database_code_depnum_ccdc_archive 'CCDC 1453939'
_chemical_formula_sum 'C114 H107 N12 O2.5'
_chemical_formula_moiety
;
C114 H102 N12,2.5(H2 O1)
;
_journal_coden_Cambridge 1441
_journal_volume 9
_journal_year 2016
_journal_page_first 17
_journal_name_full 'Nature Chemistry '
loop_
_publ_author_name
"A.G.Slater"
"M.A.Little"
"A.Pulido"
"S.Y.Chong"
"D.Holden"
"L.Chen"
"C.Morgan"
"X.Wu"
"G.Cheng"
"R.Clowes"
"M.E.Briggs"
"T.Hasell"
"K.E.Jelfs"
"G.M.Day"
"A.I.Cooper"
_chemical_name_systematic
;
rac-3,5,15,17,21,23,33,35,43,45,48,50-dodecaaza-4,16,22,34,44,49(1,2)-hexacycl
ohexana-1,7,13,19,25,31(1,3,5),10,28,39(1,4)-nonabenzenatetracyclo[17.17.5.5^7
,31^.5^13,25^]henpentacontaphane-2,5,14,17,20,23,32,35,42,45,47,50-dodecaene-8
,11,26,29,37,40-hexayne hydrate
;
_chemical_name_common
;
rac-TCC3 hydrate
;
_cell_volume  18217.483
_exptl_crystal_colour 'colorless'
_exptl_crystal_density_diffrn 0.922
_exptl_crystal_description 'needle'
_diffrn_ambient_temperature 300
_refine_special_details
;
O1 and O2 and O3 and O5 and O4 and O6 disordered over six sites with 
occupancies 0.25:0.25:0.25:0.25:0.125:0.125.
;
#These two values have been output from a single CSD field.
_refine_ls_R_factor_gt 0.0578
_refine_ls_wR_factor_gt 0.0578
_symmetry_cell_setting rhombohedral
_symmetry_space_group_name_H-M 'R -3 c'
_symmetry_Int_Tables_number 167
loop_
_symmetry_equiv_pos_site_id
_symmetry_equiv_pos_as_xyz
1 x,y,z
2 -y,x-y,z
3 -x+y,-x,z
4 x-y,-y,1/2-z
5 -x,-x+y,1/2-z
6 y,x,1/2-z
7 2/3+x,1/3+y,1/3+z
8 2/3-y,1/3+x-y,1/3+z
9 2/3-x+y,1/3-x,1/3+z
10 2/3+x-y,1/3-y,5/6-z
11 2/3-x,1/3-x+y,5/6-z
12 2/3+y,1/3+x,5/6-z
13 1/3+x,2/3+y,2/3+z
14 1/3-y,2/3+x-y,2/3+z
15 1/3-x+y,2/3-x,2/3+z
16 1/3+x-y,2/3-y,1/6-z
17 1/3-x,2/3-x+y,1/6-z
18 1/3+y,2/3+x,1/6-z
19 -x,-y,-z
20 y,-x+y,-z
21 x-y,x,-z
22 -x+y,y,-1/2+z
23 x,x-y,-1/2+z
24 -y,-x,-1/2+z
25 -2/3-x,-1/3-y,-1/3-z
26 -2/3+y,-1/3-x+y,-1/3-z
27 -2/3+x-y,-1/3+x,-1/3-z
28 -2/3-x+y,-1/3+y,-5/6+z
29 -2/3+x,-1/3+x-y,-5/6+z
30 -2/3-y,-1/3-x,-5/6+z
31 -1/3-x,-2/3-y,-2/3-z
32 -1/3+y,-2/3-x+y,-2/3-z
33 -1/3+x-y,-2/3+x,-2/3-z
34 -1/3-x+y,-2/3+y,-1/6+z
35 -1/3+x,-2/3+x-y,-1/6+z
36 -1/3-y,-2/3-x,-1/6+z
_cell_length_a 22.347(5)
_cell_length_b 22.347(5)
_cell_length_c 42.123(10)
_cell_angle_alpha 90
_cell_angle_beta 90
_cell_angle_gamma 120
_cell_formula_units_Z 6
loop_
_atom_type_symbol
_atom_type_radius_bond
C 0.68
H 0.23
N 0.68
O 0.68
loop_
_atom_site_label
_atom_site_type_symbol
_atom_site_fract_x
_atom_site_fract_y
_atom_site_fract_z
C1 C 0.67905(10) 0.5081(1) 0.40167(4)
C2 C 0.69001(11) 0.52709(12) 0.43367(4)
H1 H 0.73400 0.55960 0.44060
C3 C 0.63581(11) 0.49787(12) 0.45524(4)
C4 C 0.56937(11) 0.45014(12) 0.44451(4)
H2 H 0.53290 0.43100 0.45890
C5 C 0.55719(10) 0.43094(11) 0.41285(4)
C6 C 0.61258(10) 0.45957(10) 0.39181(4)
H3 H 0.60510 0.44600 0.37060
C7 C 0.64665(12) 0.51299(12) 0.48859(5)
C8 C 0.65254(12) 0.52108(13) 0.51650(5)
C9 C 0.65965(12) 0.52841(12) 0.55038(4)
C10 C 0.72287(14) 0.5638(2) 0.56453(5)
H4 H 0.76220 0.58660 0.55190
C11 C 0.60367(14) 0.50344(19) 0.56955(5)
H5 H 0.55980 0.48310 0.56060
C12 C 0.73592(10) 0.53796(10) 0.37850(4)
H6 H 0.72620 0.52240 0.35760
C13 C 0.84781(10) 0.60901(9) 0.35965(4)
H7 H 0.82650 0.58190 0.34040
C14 C 0.87148(12) 0.68477(11) 0.35299(5)
H8 H 0.83200 0.68890 0.34650
H9 H 0.89000 0.71130 0.37230
C15 C 0.92630(14) 0.71457(12) 0.32716(6)
H10 H 0.90620 0.69170 0.30720
H11 H 0.94200 0.76340 0.32460
C16 C 0.98757(12) 0.70551(11) 0.33502(6)
H12 H 1.01180 0.73370 0.35330
H13 H 1.01940 0.72090 0.31720
C17 C 0.96391(11) 0.63018(10) 0.34221(5)
H14 H 1.00340 0.62600 0.34850
H15 H 0.94440 0.60280 0.32320
C18 C 0.91017(9) 0.60214(9) 0.36858(4)
H16 H 0.93090 0.62880 0.38800
C19 C 0.89370(11) 0.51354(10) 0.40263(4)
H17 H 0.91100 0.54830 0.41790
N1 N 0.79713(8) 0.58349(8) 0.38527(3)
N2 N 0.88865(8) 0.52953(7) 0.37462(3)
O1 O 0.66670 0.33330 0.4285(7)
O2? O 0.66670 0.33330 0.3452(12)
O3? O 0.66670 0.33330 0.3828(8)
O4? O 0.66670 0.33330 0.5230(18)
O5? O 0.66670 0.33330 0.560(2)
O6? O 0.66670 0.33330 0.4770(14)
C1A C 0.4919(1) 0.17095(10) 0.40167(4)
C2A C 0.47291(11) 0.16292(12) 0.43367(4)
H1A H 0.44040 0.17440 0.44060
C3A C 0.50213(11) 0.13794(12) 0.45524(4)
C4A C 0.54986(11) 0.11923(12) 0.44451(4)
H2A H 0.56900 0.10190 0.45890
C5A C 0.56906(10) 0.12625(11) 0.41285(4)
C6A C 0.54043(10) 0.15301(10) 0.39181(4)
H3A H 0.55400 0.15910 0.37060
C7A C 0.48701(12) 0.13366(12) 0.48859(5)
C8A C 0.47892(12) 0.13146(13) 0.51650(5)
C9A C 0.47159(12) 0.13124(12) 0.55038(4)
C10A C 0.43620(14) 0.15907(20) 0.56453(5)
H4A H 0.41340 0.17560 0.55190
C11A C 0.49656(14) 0.10023(19) 0.56955(5)
H5A H 0.51690 0.07670 0.56060
C12A C 0.46204(10) 0.19796(10) 0.37850(4)
H6A H 0.47760 0.20380 0.35760
C13A C 0.39099(10) 0.23880(9) 0.35965(4)
H7A H 0.41810 0.24460 0.34040
C14A C 0.31523(12) 0.18671(11) 0.35299(5)
H8A H 0.31110 0.14310 0.34650
H9A H 0.28870 0.17870 0.37230
C15A C 0.28543(14) 0.21173(12) 0.32716(6)
H10A H 0.30830 0.21450 0.30720
H11A H 0.23660 0.17860 0.32460
C16A C 0.29449(12) 0.28206(11) 0.33502(6)
H12A H 0.26630 0.27810 0.35330
H13A H 0.27910 0.29850 0.31720
C17A C 0.36982(11) 0.33373(10) 0.34221(5)
H14A H 0.37400 0.37740 0.34850
H15A H 0.39720 0.34160 0.32320
C18A C 0.39786(9) 0.30803(9) 0.36858(4)
H16A H 0.37120 0.30210 0.38800
C19A C 0.48646(11) 0.38016(10) 0.40263(4)
H17A H 0.45170 0.36270 0.41790
N1A N 0.41651(8) 0.21364(8) 0.38527(3)
N2A N 0.47047(8) 0.35912(7) 0.37462(3)
C1B C 0.82905(10) 0.32095(10) 0.40167(4)
C2B C 0.83708(11) 0.30999(12) 0.43367(4)
H1B H 0.82560 0.26600 0.44060
C3B C 0.86206(11) 0.36419(12) 0.45524(4)
C4B C 0.88077(11) 0.43063(12) 0.44451(4)
H2B H 0.89810 0.46710 0.45890
C5B C 0.87375(10) 0.44281(11) 0.41285(4)
C6B C 0.84699(10) 0.38742(10) 0.39181(4)
H3B H 0.84090 0.39490 0.37060
C7B C 0.86634(12) 0.35335(12) 0.48859(5)
C8B C 0.86854(12) 0.34746(13) 0.51650(5)
C9B C 0.86876(12) 0.34035(12) 0.55038(4)
C10B C 0.84093(14) 0.27713(20) 0.56453(5)
H4B H 0.82440 0.23780 0.55190
C11B C 0.89977(14) 0.39633(19) 0.56955(5)
H5B H 0.92330 0.44020 0.56060
C12B C 0.80204(10) 0.26408(10) 0.37850(4)
H6B H 0.79620 0.27380 0.35760
C13B C 0.7612(1) 0.15219(9) 0.35965(4)
H7B H 0.75540 0.17350 0.34040
C14B C 0.81329(12) 0.12852(11) 0.35299(5)
H8B H 0.85690 0.16800 0.34650
H9B H 0.82130 0.11000 0.37230
C15B C 0.78827(14) 0.07370(12) 0.32716(6)
H10B H 0.78550 0.09380 0.30720
H11B H 0.82140 0.05800 0.32460
C16B C 0.71794(12) 0.01243(11) 0.33502(6)
H12B H 0.72190 -0.01180 0.35330
H13B H 0.70150 -0.01940 0.31720
C17B C 0.66627(11) 0.03609(10) 0.34221(5)
H14B H 0.62260 -0.00340 0.34850
H15B H 0.65840 0.05560 0.32320
C18B C 0.69197(9) 0.08983(9) 0.36858(4)
H16B H 0.69790 0.06910 0.38800
C19B C 0.61984(11) 0.1063(1) 0.40263(4)
H17B H 0.63730 0.08900 0.41790
N1B N 0.78636(8) 0.20287(8) 0.38527(3)
N2B N 0.64088(8) 0.11135(7) 0.37462(3)
C1P C 0.654283(100) 0.495717(100) 0.764997(40)
C2P C 0.643323(110) 0.503747(120) 0.732997(40)
H1P H 0.59933 0.49227 0.72607
C3P C 0.697523(110) 0.528727(120) 0.711427(40)
C4P C 0.763963(110) 0.547437(120) 0.722157(40)
H2P H 0.80043 0.56477 0.70777
C5P C 0.776143(100) 0.540417(110) 0.753817(40)
C6P C 0.720753(100) 0.513657(100) 0.774857(40)
H3P H 0.72823 0.50757 0.79607
C7P C 0.686683(120) 0.533007(120) 0.678077(50)
C8P C 0.680793(120) 0.535207(130) 0.650167(50)
C9P C 0.673683(120) 0.535427(120) 0.616287(40)
C10P C 0.610463(140) 0.507597(200) 0.602137(50)
H4P H 0.57113 0.49107 0.61477
C11P C 0.729663(140) 0.566437(190) 0.597117(50)
H5P H 0.77353 0.58997 0.60607
C12P C 0.597413(100) 0.468707(100) 0.788167(40)
H6P H 0.60713 0.46287 0.80907
C13P C 0.485523(100) 0.427867(90) 0.807017(40)
H7P H 0.50683 0.42207 0.82627
C14P C 0.461853(120) 0.479957(110) 0.813677(50)
H8P H 0.50133 0.52357 0.82017
H9P H 0.44333 0.48797 0.79437
C15P C 0.407033(140) 0.454937(120) 0.839507(60)
H10P H 0.42713 0.45217 0.85947
H11P H 0.39133 0.48807 0.84207
C16P C 0.345763(120) 0.384607(110) 0.831647(60)
H12P H 0.32153 0.38857 0.81337
H13P H 0.31393 0.36817 0.84947
C17P C 0.369423(110) 0.332937(100) 0.824457(50)
H14P H 0.32993 0.28927 0.81817
H15P H 0.38893 0.32507 0.84347
C18P C 0.423163(90) 0.358637(90) 0.798087(40)
H16P H 0.40243 0.36457 0.77867
C19P C 0.439633(110) 0.286507(100) 0.764037(40)
H17P H 0.42233 0.30397 0.74877
N1P N 0.536203(80) 0.453027(80) 0.781397(30)
N2P N 0.444683(80) 0.307547(70) 0.792047(30)
C1Q C 0.841433(100) 0.345717(100) 0.764997(40)
C2Q C 0.860423(110) 0.356677(120) 0.732997(40)
H1Q H 0.89293 0.40067 0.72607
C3Q C 0.831203(110) 0.302477(120) 0.711427(40)
C4Q C 0.783473(110) 0.236037(120) 0.722157(40)
H2Q H 0.76433 0.19957 0.70777
C5Q C 0.764273(100) 0.223857(110) 0.753817(40)
C6Q C 0.792903(100) 0.279247(100) 0.774857(40)
H3Q H 0.77933 0.27177 0.79607
C7Q C 0.846323(120) 0.313317(120) 0.678077(50)
C8Q C 0.854413(120) 0.319207(130) 0.650167(50)
C9Q C 0.861743(120) 0.326317(120) 0.616287(40)
C10Q C 0.897133(140) 0.389537(200) 0.602137(50)
H4Q H 0.91993 0.42887 0.61477
C11Q C 0.836773(140) 0.270337(190) 0.597117(50)
H5Q H 0.81643 0.22647 0.60607
C12Q C 0.871293(100) 0.402587(100) 0.788167(40)
H6Q H 0.85573 0.39287 0.80907
C13Q C 0.942343(100) 0.514477(90) 0.807017(40)
H7Q H 0.91523 0.49317 0.82627
C14Q C 1.018103(120) 0.538147(110) 0.813677(50)
H8Q H 1.02223 0.49867 0.82017
H9Q H 1.04463 0.55667 0.79437
C15Q C 1.047903(140) 0.592967(120) 0.839507(60)
H10Q H 1.02503 0.57287 0.85947
H11Q H 1.09673 0.60867 0.84207
C16Q C 1.038843(120) 0.654237(110) 0.831647(60)
H12Q H 1.06703 0.67847 0.81337
H13Q H 1.05423 0.68607 0.84947
C17Q C 0.963513(110) 0.630577(100) 0.824457(50)
H14Q H 0.95933 0.67007 0.81817
H15Q H 0.93613 0.61107 0.84347
C18Q C 0.935473(90) 0.576837(90) 0.798087(40)
H16Q H 0.96213 0.59757 0.77867
C19Q C 0.846873(110) 0.560367(100) 0.764037(40)
H17Q H 0.88163 0.57767 0.74877
N1Q N 0.916823(80) 0.463797(80) 0.781397(30)
N2Q N 0.862863(80) 0.555317(70) 0.792047(30)
C1O C 0.504283(100) 0.158567(100) 0.764997(40)
C2O C 0.496253(110) 0.139577(120) 0.732997(40)
H1O H 0.50773 0.10707 0.72607
C3O C 0.471273(110) 0.168797(120) 0.711427(40)
C4O C 0.452563(110) 0.216527(120) 0.722157(40)
H2O H 0.43523 0.23567 0.70777
C5O C 0.459583(100) 0.235727(110) 0.753817(40)
C6O C 0.486343(100) 0.207097(100) 0.774857(40)
H3O H 0.49243 0.22067 0.79607
C7O C 0.466993(120) 0.153677(120) 0.678077(50)
C8O C 0.464793(120) 0.145587(130) 0.650167(50)
C9O C 0.464573(120) 0.138257(120) 0.616287(40)
C10O C 0.492403(140) 0.102867(200) 0.602137(50)
H4O H 0.50893 0.08007 0.61477
C11O C 0.433563(140) 0.163227(190) 0.597117(50)
H5O H 0.41003 0.18357 0.60607
C12O C 0.531293(100) 0.128707(100) 0.788167(40)
H6O H 0.53713 0.14427 0.80907
C13O C 0.572133(100) 0.057657(90) 0.807017(40)
H7O H 0.57793 0.08477 0.82627
C14O C 0.520043(120) -0.018103(110) 0.813677(50)
H8O H 0.47643 -0.02223 0.82017
H9O H 0.51203 -0.04463 0.79437
C15O C 0.545063(140) -0.047903(120) 0.839507(60)
H10O H 0.54783 -0.02503 0.85947
H11O H 0.51193 -0.09673 0.84207
C16O C 0.615393(120) -0.038843(110) 0.831647(60)
H12O H 0.61143 -0.06703 0.81337
H13O H 0.63183 -0.05423 0.84947
C17O C 0.667063(110) 0.036487(100) 0.824457(50)
H14O H 0.71073 0.04067 0.81817
H15O H 0.67493 0.06387 0.84347
C18O C 0.641363(90) 0.064527(90) 0.798087(40)
H16O H 0.63543 0.03787 0.77867
C19O C 0.713493(110) 0.153127(100) 0.764037(40)
H17O H 0.69603 0.11837 0.74877
N1O N 0.546973(80) 0.083177(80) 0.781397(30)
N2O N 0.692453(80) 0.137137(70) 0.792047(30)
#END
