
#######################################################################
#
#                 Cambridge Crystallographic Data Centre
#                                CCDC
#
#######################################################################
#
# If this CIF has been generated from an entry in the Cambridge
# Structural Database, then it will include bibliographic, chemical,
# crystal, experimental, refinement or atomic coordinate data resulting
# from the CCDC's data processing and validation procedures.
#
#######################################################################

data_CSD_CIF_ABIPAF
_audit_creation_date 2016-11-23
_audit_creation_method CSD-ConQuest-V1
_database_code_CSD ABIPAF
_database_code_depnum_ccdc_archive 'CCDC 1453938'
_chemical_formula_sum 'C114 H102 N38'
_chemical_formula_moiety
;
C114 H102 N12,13(N2)
;
_journal_coden_Cambridge 1441
_journal_volume 9
_journal_year 2016
_journal_page_first 17
_journal_name_full 'Nature Chemistry '
loop_
_publ_author_name
"A.G.Slater"
"M.A.Little"
"A.Pulido"
"S.Y.Chong"
"D.Holden"
"L.Chen"
"C.Morgan"
"X.Wu"
"G.Cheng"
"R.Clowes"
"M.E.Briggs"
"T.Hasell"
"K.E.Jelfs"
"G.M.Day"
"A.I.Cooper"
_chemical_name_systematic
;
rac-3,5,15,17,21,23,33,35,43,45,48,50-dodecaaza-4,16,22,34,44,49(1,2)-hexacycl
ohexana-1,7,13,19,25,31(1,3,5),10,28,39(1,4)-nonabenzenatetracyclo[17.17.5.5^7
,31^.5^13,25^]henpentacontaphane-2,5,14,17,20,23,32,35,42,45,47,50-dodecaene-8
,11,26,29,37,40-hexayne tridecakis(dinitrogen)
;
_chemical_name_common
;
rac-TCC3 tridecakis(dinitrogen)
;
_cell_volume  18360.205
_exptl_crystal_colour 'colorless'
_exptl_crystal_density_diffrn 1.088
_exptl_special_details
;
Solvated crystal was heated to 350 K under dry nitrogen for analysis, then 
heated to 400 K before cooling to 100 K prior to data collection
;
_exptl_crystal_description 'needle'
_diffrn_ambient_temperature 100
_refine_special_details
;
Disordered dinitrogen molecules were not modelled and the disordered density 
was taken into account using the SQUEEZE/PLATON procedure.
;
#These two values have been output from a single CSD field.
_refine_ls_R_factor_gt 0.0595
_refine_ls_wR_factor_gt 0.0595
_symmetry_cell_setting rhombohedral
_symmetry_space_group_name_H-M 'R -3 c'
_symmetry_Int_Tables_number 167
loop_
_symmetry_equiv_pos_site_id
_symmetry_equiv_pos_as_xyz
1 x,y,z
2 -y,x-y,z
3 -x+y,-x,z
4 x-y,-y,1/2-z
5 -x,-x+y,1/2-z
6 y,x,1/2-z
7 2/3+x,1/3+y,1/3+z
8 2/3-y,1/3+x-y,1/3+z
9 2/3-x+y,1/3-x,1/3+z
10 2/3+x-y,1/3-y,5/6-z
11 2/3-x,1/3-x+y,5/6-z
12 2/3+y,1/3+x,5/6-z
13 1/3+x,2/3+y,2/3+z
14 1/3-y,2/3+x-y,2/3+z
15 1/3-x+y,2/3-x,2/3+z
16 1/3+x-y,2/3-y,1/6-z
17 1/3-x,2/3-x+y,1/6-z
18 1/3+y,2/3+x,1/6-z
19 -x,-y,-z
20 y,-x+y,-z
21 x-y,x,-z
22 -x+y,y,-1/2+z
23 x,x-y,-1/2+z
24 -y,-x,-1/2+z
25 -2/3-x,-1/3-y,-1/3-z
26 -2/3+y,-1/3-x+y,-1/3-z
27 -2/3+x-y,-1/3+x,-1/3-z
28 -2/3-x+y,-1/3+y,-5/6+z
29 -2/3+x,-1/3+x-y,-5/6+z
30 -2/3-y,-1/3-x,-5/6+z
31 -1/3-x,-2/3-y,-2/3-z
32 -1/3+y,-2/3-x+y,-2/3-z
33 -1/3+x-y,-2/3+x,-2/3-z
34 -1/3-x+y,-2/3+y,-1/6+z
35 -1/3+x,-2/3+x-y,-1/6+z
36 -1/3-y,-2/3-x,-1/6+z
_cell_length_a 22.420(3)
_cell_length_b 22.420(3)
_cell_length_c 42.177(5)
_cell_angle_alpha 90
_cell_angle_beta 90
_cell_angle_gamma 120
_cell_formula_units_Z 6
loop_
_atom_type_symbol
_atom_type_radius_bond
C 0.68
H 0.23
N 0.68
loop_
_atom_site_label
_atom_site_type_symbol
_atom_site_fract_x
_atom_site_fract_y
_atom_site_fract_z
N1 N 0.2080(2) 0.41897(18) 0.61389(6)
N2 N 0.11397(16) 0.46970(16) 0.62394(7)
C1 C 0.3977(2) 0.4881(2) 0.42939(9)
H1 H 0.44280 0.50880 0.43810
C2 C 0.3415(2) 0.4620(2) 0.44953(8)
C3 C 0.2773(2) 0.4285(3) 0.43645(9)
H2 H 0.23790 0.40830 0.44980
C4 C 0.3505(2) 0.4717(2) 0.48350(9)
C5 C 0.3578(2) 0.4823(2) 0.51116(9)
C6 C 0.3680(2) 0.4990(2) 0.54444(8)
C7 C 0.4345(2) 0.5477(2) 0.55470(8)
H3 H 0.47160 0.56660 0.54000
C8 C 0.4461(2) 0.5684(2) 0.58633(8)
C9 C 0.3911(2) 0.5404(2) 0.60687(9)
H4 H 0.39860 0.55500 0.62840
C10 C 0.3252(2) 0.4921(2) 0.59746(8)
C11 C 0.3149(2) 0.4720(2) 0.56570(8)
H5 H 0.27000 0.43880 0.55870
C12 C 0.2693(2) 0.4639(2) 0.62056(8)
H6 H 0.27940 0.48030 0.64180
C13 C 0.1575(2) 0.3935(2) 0.63951(8)
H7 H 0.17870 0.42190 0.65890
C14 C 0.1363(2) 0.3187(2) 0.64663(9)
H8 H 0.17700 0.31610 0.65370
H9 H 0.11820 0.29090 0.62710
C15 C 0.0809(2) 0.2893(2) 0.67255(10)
H10 H 0.06630 0.24030 0.67600
H11 H 0.10070 0.31430 0.69260
C16 C 0.0195(2) 0.2953(2) 0.66405(9)
H12 H -0.01350 0.27880 0.68190
H13 H -0.00380 0.26600 0.64540
C17 C 0.0407(2) 0.3696(2) 0.65653(8)
H14 H 0.05990 0.39800 0.67580
H15 H -0.00030 0.37220 0.65000
C18 C 0.0942(2) 0.3982(2) 0.63022(8)
H16 H 0.07380 0.37050 0.61050
C19 C 0.1047(2) 0.4842(2) 0.59601(8)
H17 H 0.08550 0.44840 0.58070
N1A N 0.58103(20) 0.78903(18) 0.61389(6)
N2A N 0.53030(16) 0.64427(16) 0.62394(7)
C1A C 0.5119(2) 0.9096(2) 0.42939(9)
H1A H 0.49120 0.93400 0.43810
C2A C 0.5380(2) 0.8795(2) 0.44953(8)
C3A C 0.5715(2) 0.8488(3) 0.43645(9)
H2A H 0.59170 0.82960 0.44980
C4A C 0.5283(2) 0.8788(2) 0.48350(9)
C5A C 0.5177(2) 0.8755(2) 0.51116(9)
C6A C 0.5010(2) 0.8690(2) 0.54444(8)
C7A C 0.4523(2) 0.8868(2) 0.55470(8)
H3A H 0.43340 0.90500 0.54000
C8A C 0.4316(2) 0.8777(2) 0.58633(8)
C9A C 0.4596(2) 0.8507(2) 0.60687(9)
H4A H 0.44500 0.84360 0.62840
C10A C 0.5079(2) 0.8331(2) 0.59746(8)
C11A C 0.5280(2) 0.8429(2) 0.56570(8)
H5A H 0.56120 0.83120 0.55870
C12A C 0.5361(2) 0.8054(2) 0.62056(8)
H6A H 0.51970 0.79910 0.64180
C13A C 0.6065(2) 0.7640(2) 0.63951(8)
H7A H 0.57810 0.75680 0.65890
C14A C 0.6813(2) 0.8176(2) 0.64663(9)
H8A H 0.68390 0.86090 0.65370
H9A H 0.70910 0.82730 0.62710
C15A C 0.7107(2) 0.7916(2) 0.67255(10)
H10A H 0.75970 0.82600 0.67600
H11A H 0.68570 0.78640 0.69260
C16A C 0.7047(2) 0.7242(2) 0.66405(9)
H12A H 0.72120 0.70770 0.68190
H13A H 0.73400 0.73020 0.64540
C17A C 0.6304(2) 0.6711(2) 0.65653(8)
H14A H 0.60200 0.66190 0.67580
H15A H 0.62780 0.62750 0.65000
C18A C 0.6018(2) 0.6960(2) 0.63022(8)
H16A H 0.62950 0.70330 0.61050
C19A C 0.5158(2) 0.6205(2) 0.59601(8)
H17A H 0.55160 0.63710 0.58070
N1B N 0.21097(20) 0.79200(18) 0.61389(6)
N2B N 0.35573(16) 0.88603(16) 0.62394(7)
C1B C 0.0904(2) 0.6023(2) 0.42939(9)
H1B H 0.06600 0.55720 0.43810
C2B C 0.1205(2) 0.6585(2) 0.44953(8)
C3B C 0.1512(2) 0.7227(3) 0.43645(9)
H2B H 0.17040 0.76210 0.44980
C4B C 0.1212(2) 0.6495(2) 0.48350(9)
C5B C 0.1245(2) 0.6422(2) 0.51116(9)
C6B C 0.1310(2) 0.6320(2) 0.54444(8)
C7B C 0.1132(2) 0.5655(2) 0.55470(8)
H3B H 0.09500 0.52840 0.54000
C8B C 0.1223(2) 0.5539(2) 0.58633(8)
C9B C 0.1493(2) 0.6089(2) 0.60687(9)
H4B H 0.15640 0.60140 0.62840
C10B C 0.1669(2) 0.6748(2) 0.59746(8)
C11B C 0.1571(2) 0.6851(2) 0.56570(8)
H5B H 0.16880 0.73000 0.55870
C12B C 0.1946(2) 0.7307(2) 0.62056(8)
H6B H 0.20090 0.72060 0.64180
C13B C 0.2360(2) 0.8425(2) 0.63951(8)
H7B H 0.24320 0.82130 0.65890
C14B C 0.1824(2) 0.8637(2) 0.64663(9)
H8B H 0.13910 0.82300 0.65370
H9B H 0.17270 0.88180 0.62710
C15B C 0.2084(2) 0.9191(2) 0.67255(10)
H10B H 0.17400 0.93370 0.67600
H11B H 0.21360 0.89930 0.69260
C16B C 0.2758(2) 0.9805(2) 0.66405(9)
H12B H 0.29230 1.01350 0.68190
H13B H 0.26980 1.00380 0.64540
C17B C 0.3289(2) 0.9593(2) 0.65653(8)
H14B H 0.33810 0.94010 0.67580
H15B H 0.37250 1.00030 0.65000
C18B C 0.3040(2) 0.9058(2) 0.63022(8)
H16B H 0.29670 0.92620 0.61050
C19B C 0.3795(2) 0.8953(2) 0.59601(8)
H17B H 0.36290 0.91450 0.58070
N1J N 0.458667(200) 0.544303(180) 0.219443(60)
N2J N 0.552697(160) 0.689063(160) 0.209393(70)
C1J C 0.268967(200) 0.423733(200) 0.403943(90)
H1J H 0.22387 0.39933 0.39523
C2J C 0.325167(200) 0.453833(200) 0.383803(80)
C3J C 0.389367(200) 0.484533(300) 0.396883(90)
H2J H 0.42877 0.50373 0.38353
C4J C 0.316167(200) 0.454533(200) 0.349833(90)
C5J C 0.308867(200) 0.457833(200) 0.322173(90)
C6J C 0.298667(200) 0.464333(200) 0.288893(80)
C7J C 0.232167(200) 0.446533(200) 0.278633(80)
H3J H 0.19507 0.42833 0.29333
C8J C 0.220567(200) 0.455633(200) 0.247003(80)
C9J C 0.275567(200) 0.482633(200) 0.226463(90)
H4J H 0.26807 0.48973 0.20493
C10J C 0.341467(200) 0.500233(200) 0.235873(80)
C11J C 0.351767(200) 0.490433(200) 0.267633(80)
H5J H 0.39667 0.50213 0.27463
C12J C 0.397367(200) 0.527933(200) 0.212773(80)
H6J H 0.38727 0.53423 0.19153
C13J C 0.509167(200) 0.569333(200) 0.193823(80)
H7J H 0.48797 0.57653 0.17443
C14J C 0.530367(200) 0.515733(200) 0.186703(90)
H8J H 0.48967 0.47243 0.17963
H9J H 0.54847 0.50603 0.20623
C15J C 0.585767(200) 0.541733(200) 0.160783(100)
H10J H 0.60037 0.50733 0.15733
H11J H 0.56597 0.54693 0.14073
C16J C 0.647167(200) 0.609133(200) 0.169283(90)
H12J H 0.68017 0.62563 0.15143
H13J H 0.67047 0.60313 0.18793
C17J C 0.625967(200) 0.662233(200) 0.176803(80)
H14J H 0.60677 0.67143 0.15753
H15J H 0.66697 0.70583 0.18333
C18J C 0.572467(200) 0.637333(200) 0.203113(80)
H16J H 0.59287 0.63003 0.22283
C19J C 0.561967(200) 0.712833(200) 0.237323(80)
H17J H 0.58117 0.69623 0.25263
N1K N 0.085637(200) 0.541333(180) 0.219443(60)
N2K N 0.136367(160) 0.447303(160) 0.209393(70)
C1K C 0.154767(200) 0.731033(200) 0.403943(90)
H1K H 0.17547 0.77613 0.39523
C2K C 0.128667(200) 0.674833(200) 0.383803(80)
C3K C 0.095167(200) 0.610633(300) 0.396883(90)
H2K H 0.07497 0.57123 0.38353
C4K C 0.138367(200) 0.683833(200) 0.349833(90)
C5K C 0.148967(200) 0.691133(200) 0.322173(90)
C6K C 0.165667(200) 0.701333(200) 0.288893(80)
C7K C 0.214367(200) 0.767833(200) 0.278633(80)
H3K H 0.23327 0.80493 0.29333
C8K C 0.235067(200) 0.779433(200) 0.247003(80)
C9K C 0.207067(200) 0.724433(200) 0.226463(90)
H4K H 0.22167 0.73193 0.20493
C10K C 0.158767(200) 0.658533(200) 0.235873(80)
C11K C 0.138667(200) 0.648233(200) 0.267633(80)
H5K H 0.10547 0.60333 0.27463
C12K C 0.130567(200) 0.602633(200) 0.212773(80)
H6K H 0.14697 0.61273 0.19153
C13K C 0.060167(200) 0.490833(200) 0.193823(80)
H7K H 0.08857 0.51203 0.17443
C14K C -0.014633(200) 0.469633(200) 0.186703(90)
H8K H -0.01723 0.51033 0.17963
H9K H -0.04243 0.45153 0.20623
C15K C -0.044033(200) 0.414233(200) 0.160783(100)
H10K H -0.09303 0.39963 0.15733
H11K H -0.01903 0.43403 0.14073
C16K C -0.038033(200) 0.352833(200) 0.169283(90)
H12K H -0.05453 0.31983 0.15143
H13K H -0.06733 0.32953 0.18793
C17K C 0.036267(200) 0.374033(200) 0.176803(80)
H14K H 0.06467 0.39323 0.15753
H15K H 0.03887 0.33303 0.18333
C18K C 0.064867(200) 0.427533(200) 0.203113(80)
H16K H 0.03717 0.40713 0.22283
C19K C 0.150867(200) 0.438033(200) 0.237323(80)
H17K H 0.11507 0.41883 0.25263
N1I N 0.455697(200) 0.914363(180) 0.219443(60)
N2I N 0.310937(160) 0.863633(160) 0.209393(70)
C1I C 0.576267(200) 0.845233(200) 0.403943(90)
H1I H 0.60067 0.82453 0.39523
C2I C 0.546167(200) 0.871333(200) 0.383803(80)
C3I C 0.515467(200) 0.904833(300) 0.396883(90)
H2I H 0.49627 0.92503 0.38353
C4I C 0.545467(200) 0.861633(200) 0.349833(90)
C5I C 0.542167(200) 0.851033(200) 0.322173(90)
C6I C 0.535667(200) 0.834333(200) 0.288893(80)
C7I C 0.553467(200) 0.785633(200) 0.278633(80)
H3I H 0.57167 0.76673 0.29333
C8I C 0.544367(200) 0.764933(200) 0.247003(80)
C9I C 0.517367(200) 0.792933(200) 0.226463(90)
H4I H 0.51027 0.77833 0.20493
C10I C 0.499767(200) 0.841233(200) 0.235873(80)
C11I C 0.509567(200) 0.861333(200) 0.267633(80)
H5I H 0.49787 0.89453 0.27463
C12I C 0.472067(200) 0.869433(200) 0.212773(80)
H6I H 0.46577 0.85303 0.19153
C13I C 0.430667(200) 0.939833(200) 0.193823(80)
H7I H 0.42347 0.91143 0.17443
C14I C 0.484267(200) 1.014633(200) 0.186703(90)
H8I H 0.52757 1.01723 0.17963
H9I H 0.49397 1.04243 0.20623
C15I C 0.458267(200) 1.044033(200) 0.160783(100)
H10I H 0.49267 1.09303 0.15733
H11I H 0.45307 1.01903 0.14073
C16I C 0.390867(200) 1.038033(200) 0.169283(90)
H12I H 0.37437 1.05453 0.15143
H13I H 0.39687 1.06733 0.18793
C17I C 0.337767(200) 0.963733(200) 0.176803(80)
H14I H 0.32857 0.93533 0.15753
H15I H 0.29417 0.96113 0.18333
C18I C 0.362667(200) 0.935133(200) 0.203113(80)
H16I H 0.36997 0.96283 0.22283
C19I C 0.287167(200) 0.849133(200) 0.237323(80)
H17I H 0.30377 0.88493 0.25263
#END
