
#######################################################################
#
#                 Cambridge Crystallographic Data Centre
#                                CCDC
#
#######################################################################
#
# If this CIF has been generated from an entry in the Cambridge
# Structural Database, then it will include bibliographic, chemical,
# crystal, experimental, refinement or atomic coordinate data resulting
# from the CCDC's data processing and validation procedures.
#
#######################################################################

data_CSD_CIF_ABIQEK
_audit_creation_date 2016-11-23
_audit_creation_method CSD-ConQuest-V1
_database_code_CSD ABIQEK
_database_code_depnum_ccdc_archive 'CCDC 1491073'
_chemical_formula_sum 'C234 H258 N36'
_chemical_formula_moiety
;
2(C72 H84 N12),C90 H90 N12
;
_journal_coden_Cambridge 1441
_journal_volume 9
_journal_year 2016
_journal_page_first 17
_journal_name_full 'Nature Chemistry '
loop_
_publ_author_name
"A.G.Slater"
"M.A.Little"
"A.Pulido"
"S.Y.Chong"
"D.Holden"
"L.Chen"
"C.Morgan"
"X.Wu"
"G.Cheng"
"R.Clowes"
"M.E.Briggs"
"T.Hasell"
"K.E.Jelfs"
"G.M.Day"
"A.I.Cooper"
_chemical_name_systematic
;
bis(5,12,20,27,35,42,50,57,62,69,74,81-dodecaazatridecacyclo[29.29.10.10^16,46
^.1^3,59^.1^14,18^.1^29,33^.1^44,48^.0^6,11^.0^21,26^.0^36,41^.0^51,56^.0^63,6
8^.0^75,80^]tetraoctaconta-1,3(71),4,12,14(84),15,17,19,27,29(83),30,32,34,42,
44(72),45,47,49,57,59,61,69,73,81-tetracosaene) 
6,13,17,24,31,38,43,50,54,61,66,73-dodecaaza-1,4,15,26,29,40-hexa(benzene-1,3,
5-triyl)decacyclo[27.23.10.10^4,26^.2^15,40^.0^7,12^.0^18,23^.0^32,37^.0^44,49
^.0^55,60^.0^67,72^]tetraheptaconta-5,13,16,24,30,38,42,50,53,61,65,73-dodecae
ne-2,27,63-triyne
;
_cell_volume  15394.832
_exptl_crystal_colour 'colorless'
_exptl_crystal_density_diffrn 0.771
_exptl_crystal_description 'hexagonal'
_exptl_crystal_preparation 'dichloromethane/diethyl ether'
_diffrn_ambient_temperature 400
#These two values have been output from a single CSD field.
_refine_ls_R_factor_gt 0.0398
_refine_ls_wR_factor_gt 0.0398
_symmetry_cell_setting hexagonal
_symmetry_space_group_name_H-M 'P 63 2 2'
_symmetry_Int_Tables_number 182
loop_
_symmetry_equiv_pos_site_id
_symmetry_equiv_pos_as_xyz
1 x,y,z
2 x-y,x,1/2+z
3 -y,x-y,z
4 -x,-y,1/2+z
5 -x+y,-x,z
6 y,-x+y,1/2+z
7 x-y,-y,-z
8 -x,-x+y,-z
9 y,x,-z
10 -y,-x,1/2-z
11 -x+y,y,1/2-z
12 x,x-y,1/2-z
_cell_length_a 17.496(4)
_cell_length_b 17.496(4)
_cell_length_c 58.072(13)
_cell_angle_alpha 90
_cell_angle_beta 90
_cell_angle_gamma 120
_cell_formula_units_Z 2
loop_
_atom_type_symbol
_atom_type_radius_bond
C 0.68
H 0.23
N 0.68
loop_
_atom_site_label
_atom_site_type_symbol
_atom_site_fract_x
_atom_site_fract_y
_atom_site_fract_z
N1 N 0.21979(14) 0.42320(14) 0.45625(4)
N2 N 0.14052(16) 0.32161(17) 0.49782(5)
N3 N 0.37898(18) 0.41994(17) 0.58691(4)
N4 N 0.54978(17) 0.57794(17) 0.59037(5)
C1 C 0.24451(17) 0.64073(16) 0.45797(5)
H1 H 0.18490 0.62360 0.45790
C2 C 0.26960(16) 0.57764(16) 0.45804(5)
C3 C 0.20167(16) 0.48288(17) 0.45779(5)
H2 H 0.14260 0.46750 0.45880
C4 C 0.14829(16) 0.33163(16) 0.45588(5)
H3 H 0.09140 0.32980 0.45610
C5 C 0.1562(2) 0.2890(2) 0.43388(5)
H4 H 0.21570 0.29880 0.43260
H5 H 0.14580 0.31680 0.42070
C6 C 0.0909(3) 0.1900(2) 0.43321(7)
H6 H 0.03110 0.17990 0.43270
H7 H 0.10070 0.16480 0.41940
C7 C 0.1016(3) 0.1459(2) 0.45397(9)
H8 H 0.16020 0.15290 0.45410
H9 H 0.05880 0.08330 0.45350
C8 C 0.0883(3) 0.1861(2) 0.47544(7)
H10 H 0.09410 0.15650 0.48890
H11 H 0.02920 0.17790 0.47540
C9 C 0.15565(18) 0.28443(18) 0.47679(5)
H12 H 0.21510 0.29210 0.47730
C10 C 0.1969(2) 0.3454(2) 0.51323(6)
H13 H 0.24730 0.34200 0.51010
C11 C 0.1905(2) 0.37861(19) 0.53605(5)
C12 C 0.12209(19) 0.3939(2) 0.54199(6)
H14 H 0.07930 0.38490 0.53110
C13 C 0.11702(19) 0.4224(2) 0.56386(6)
C14 C 0.18203(19) 0.4364(2) 0.57998(5)
H15 H 0.17910 0.45590 0.59470
C15 C 0.2502(2) 0.4219(2) 0.57456(5)
C16 C 0.2537(2) 0.3929(2) 0.55245(6)
H16 H 0.29960 0.38290 0.54860
C17 C 0.04424(19) 0.4376(2) 0.57013(7)
H17 H 0.00810 0.43800 0.55840
C18 C 0.3187(2) 0.4353(2) 0.59134(5)
H18 H 0.31670 0.45610 0.60590
C19 C 0.44344(19) 0.43287(19) 0.60453(5)
H19 H 0.43550 0.46270 0.61780
C20 C 0.4286(2) 0.3424(2) 0.61196(6)
H20 H 0.37080 0.30890 0.61900
H21 H 0.42970 0.31030 0.59850
C21 C 0.4982(3) 0.3505(3) 0.62888(7)
H22 H 0.49410 0.37820 0.64290
H23 H 0.48830 0.29230 0.63270
C22 C 0.5886(3) 0.4050(3) 0.61855(8)
H24 H 0.59400 0.37480 0.60520
H25 H 0.63280 0.41160 0.62970
C23 C 0.6049(2) 0.4954(2) 0.61151(7)
H26 H 0.66260 0.52810 0.60440
H27 H 0.60500 0.52750 0.62510
C24 C 0.5353(2) 0.4895(2) 0.59482(5)
H28 H 0.54020 0.46370 0.58030
N5 N 0.2249(2) 0.3612(2) 0.65639(6)
N6 N 0.6200(2) 0.6951(2) 0.66446(5)
C25 C 0.0748(3) 0.3230(2) 0.64597(6)
H29 H 0.09640 0.35770 0.63180
C26 C -0.0179(3) 0.2471(3) 0.64200(8)
H30 H -0.05610 0.27020 0.63770
H31 H -0.04040 0.21370 0.65610
C27 C -0.0189(4) 0.1868(3) 0.62308(9)
H32 H -0.07830 0.13730 0.62130
H33 H -0.00150 0.21890 0.60860
C28 C 0.0429(4) 0.1531(3) 0.62864(9)
H34 H 0.04370 0.11770 0.61590
H35 H 0.02150 0.11550 0.64210
C29 C 0.1370(3) 0.2285(3) 0.63319(8)
H36 H 0.16130 0.26270 0.61920
H37 H 0.17410 0.20440 0.63770
C30 C 0.1357(3) 0.2881(2) 0.65237(6)
H38 H 0.11390 0.25340 0.66660
C31 C 0.2504(3) 0.3767(3) 0.67699(7)
H39 H 0.21240 0.33920 0.68830
C32 C 0.3352(3) 0.4492(3) 0.68427(6)
C33 C 0.3980(3) 0.5090(3) 0.66905(6)
H40 H 0.38510 0.50310 0.65340
C34 C 0.4783(2) 0.5764(3) 0.67633(6)
C35 C 0.4968(3) 0.5869(3) 0.69967(7)
H41 H 0.55050 0.63290 0.70480
C36 C 0.4362(3) 0.5298(3) 0.71535(6)
C37 C 0.3557(3) 0.4605(3) 0.70755(7)
H42 H 0.31520 0.42130 0.71810
C38 C 0.4522(3) 0.5408(3) 0.74003(6)
C39 C 0.5428(3) 0.6374(3) 0.65948(6)
H43 H 0.52510 0.63270 0.64420
N1B N 0.57680(14) 0.79659(14) 0.45625(4)
N2B N 0.67839(16) 0.81891(17) 0.49782(5)
N3B N 0.58006(18) 0.95904(17) 0.58691(4)
N4B N 0.42206(17) 0.97184(17) 0.59037(5)
C1B C 0.35927(17) 0.60378(16) 0.45797(5)
H1B H 0.37640 0.56130 0.45790
C2B C 0.42236(16) 0.69196(16) 0.45804(5)
C3B C 0.51712(16) 0.71879(17) 0.45779(5)
H2B H 0.53250 0.67510 0.45880
C4B C 0.66837(16) 0.81666(16) 0.45588(5)
H3B H 0.67020 0.76160 0.45610
C5B C 0.7110(2) 0.8672(2) 0.43388(5)
H4B H 0.70120 0.91690 0.43260
H5B H 0.68320 0.82900 0.42070
C6B C 0.8100(3) 0.9009(2) 0.43321(7)
H6B H 0.82010 0.85120 0.43270
H7B H 0.83520 0.93590 0.41940
C7B C 0.8541(3) 0.9557(2) 0.45397(9)
H8B H 0.84710 1.00730 0.45410
H9B H 0.91670 0.97550 0.45350
C8B C 0.8139(3) 0.9022(2) 0.47544(7)
H10B H 0.84350 0.93760 0.48890
H11B H 0.82210 0.85130 0.47540
C9B C 0.71557(18) 0.87122(18) 0.47679(5)
H12B H 0.70790 0.92300 0.47730
C10B C 0.6546(2) 0.8515(2) 0.51323(6)
H13B H 0.65800 0.90530 0.51010
C11B C 0.62139(20) 0.81189(19) 0.53605(5)
C12B C 0.60610(19) 0.72819(20) 0.54199(6)
H14B H 0.61510 0.69440 0.53110
C13B C 0.57760(19) 0.69462(20) 0.56386(6)
C14B C 0.56360(19) 0.74563(20) 0.57998(5)
H15B H 0.54410 0.72320 0.59470
C15B C 0.5781(2) 0.8283(2) 0.57456(5)
C16B C 0.6071(2) 0.8608(2) 0.55245(6)
H16B H 0.61710 0.91670 0.54860
C17B C 0.56240(19) 0.60664(20) 0.57013(7)
H17B H 0.56200 0.57010 0.55840
C18B C 0.5647(2) 0.8834(2) 0.59134(5)
H18B H 0.54390 0.86060 0.60590
C19B C 0.56713(19) 1.01057(19) 0.60453(5)
H19B H 0.53730 0.97280 0.61780
C20B C 0.6576(2) 1.0862(2) 0.61196(6)
H20B H 0.69110 1.06190 0.61900
H21B H 0.68970 1.11940 0.59850
C21B C 0.6495(3) 1.1477(3) 0.62888(7)
H22B H 0.62180 1.11590 0.64290
H23B H 0.70770 1.19600 0.63270
C22B C 0.5950(3) 1.1836(3) 0.61855(8)
H24B H 0.62520 1.21920 0.60520
H25B H 0.58840 1.22120 0.62970
C23B C 0.5046(2) 1.1095(2) 0.61151(7)
H26B H 0.47190 1.13450 0.60440
H27B H 0.47250 1.07750 0.62510
C24B C 0.5105(2) 1.0458(2) 0.59482(5)
H28B H 0.53630 1.07650 0.58030
N1D N 0.20341(14) 0.78021(14) 0.45625(4)
N2D N 0.18109(16) 0.85948(17) 0.49782(5)
N3D N 0.04096(18) 0.62102(17) 0.58691(4)
N4D N 0.02816(17) 0.45022(17) 0.59037(5)
C1D C 0.39622(17) 0.75549(16) 0.45797(5)
H1D H 0.43870 0.81510 0.45790
C2D C 0.30804(16) 0.73040(16) 0.45804(5)
C3D C 0.28121(16) 0.79833(17) 0.45779(5)
H2D H 0.32490 0.85740 0.45880
C4D C 0.18334(16) 0.85171(16) 0.45588(5)
H3D H 0.23840 0.90860 0.45610
C5D C 0.1328(2) 0.8438(2) 0.43388(5)
H4D H 0.08310 0.78430 0.43260
H5D H 0.17100 0.85420 0.42070
C6D C 0.0991(3) 0.9091(2) 0.43321(7)
H6D H 0.14880 0.96890 0.43270
H7D H 0.06410 0.89930 0.41940
C7D C 0.0443(3) 0.8984(2) 0.45397(9)
H8D H -0.00730 0.83980 0.45410
H9D H 0.02450 0.94120 0.45350
C8D C 0.0978(3) 0.9117(2) 0.47544(7)
H10D H 0.06240 0.90590 0.48890
H11D H 0.14870 0.97080 0.47540
C9D C 0.12878(18) 0.84435(18) 0.47679(5)
H12D H 0.07700 0.78490 0.47730
C10D C 0.1485(2) 0.8031(2) 0.51323(6)
H13D H 0.09470 0.75270 0.51010
C11D C 0.18811(20) 0.80950(19) 0.53605(5)
C12D C 0.27181(19) 0.87791(20) 0.54199(6)
H14D H 0.30560 0.92070 0.53110
C13D C 0.30538(19) 0.88298(20) 0.56386(6)
C14D C 0.25437(19) 0.81797(20) 0.57998(5)
H15D H 0.27680 0.82090 0.59470
C15D C 0.1717(2) 0.7498(2) 0.57456(5)
C16D C 0.1392(2) 0.7463(2) 0.55245(6)
H16D H 0.08330 0.70040 0.54860
C17D C 0.39336(19) 0.95576(20) 0.57013(7)
H17D H 0.42990 0.99190 0.55840
C18D C 0.1166(2) 0.6813(2) 0.59134(5)
H18D H 0.13940 0.68330 0.60590
C19D C -0.01057(19) 0.55656(19) 0.60453(5)
H19D H 0.02720 0.56450 0.61780
C20D C -0.0862(2) 0.5714(2) 0.61196(6)
H20D H -0.06190 0.62920 0.61900
H21D H -0.11940 0.57030 0.59850
C21D C -0.1477(3) 0.5018(3) 0.62888(7)
H22D H -0.11590 0.50590 0.64290
H23D H -0.19600 0.51170 0.63270
C22D C -0.1836(3) 0.4114(3) 0.61855(8)
H24D H -0.21920 0.40600 0.60520
H25D H -0.22120 0.36720 0.62970
C23D C -0.1095(2) 0.3951(2) 0.61151(7)
H26D H -0.13450 0.33740 0.60440
H27D H -0.07750 0.39500 0.62510
C24D C -0.0458(2) 0.4647(2) 0.59482(5)
H28D H -0.07650 0.45980 0.58030
N5B N 0.6388(2) 0.8637(2) 0.65639(6)
N6B N 0.3049(2) 0.9249(2) 0.66446(5)
C25B C 0.6770(3) 0.7518(2) 0.64597(6)
H29B H 0.64230 0.73870 0.63180
C26B C 0.7529(3) 0.7350(3) 0.64200(8)
H30B H 0.72980 0.67370 0.63770
H31B H 0.78630 0.74590 0.65610
C27B C 0.8132(4) 0.7943(3) 0.62308(9)
H32B H 0.86270 0.78440 0.62130
H33B H 0.78110 0.77960 0.60860
C28B C 0.8469(4) 0.8898(3) 0.62864(9)
H34B H 0.88230 0.92600 0.61590
H35B H 0.88450 0.90600 0.64210
C29B C 0.7715(3) 0.9085(3) 0.63319(8)
H36B H 0.73730 0.89860 0.61920
H37B H 0.79560 0.96970 0.63770
C30B C 0.7119(3) 0.8476(2) 0.65237(6)
H38B H 0.74660 0.86050 0.66660
C31B C 0.6233(3) 0.8737(3) 0.67699(7)
H39B H 0.66080 0.87320 0.68830
C32B C 0.5508(3) 0.8860(3) 0.68427(6)
C33B C 0.4910(3) 0.8890(3) 0.66905(6)
H40B H 0.49690 0.88200 0.65340
C34B C 0.4236(2) 0.9019(3) 0.67633(6)
C35B C 0.4131(3) 0.9099(3) 0.69967(7)
H41B H 0.36710 0.91760 0.70480
C36B C 0.4702(3) 0.9064(3) 0.71535(6)
C37B C 0.5395(3) 0.8952(3) 0.70755(7)
H42B H 0.57870 0.89390 0.71810
C38B C 0.4592(3) 0.9114(3) 0.74003(6)
C39B C 0.3626(3) 0.9054(3) 0.65948(6)
H43B H 0.36730 0.89240 0.64420
N5D N 0.1363(2) 0.7751(2) 0.65639(6)
N6D N 0.0751(2) 0.3800(2) 0.66446(5)
C25D C 0.2482(3) 0.9252(2) 0.64597(6)
H29D H 0.26130 0.90360 0.63180
C26D C 0.2650(3) 1.0179(3) 0.64200(8)
H30D H 0.32630 1.05610 0.63770
H31D H 0.25410 1.04040 0.65610
C27D C 0.2057(4) 1.0189(3) 0.62308(9)
H32D H 0.21560 1.07830 0.62130
H33D H 0.22040 1.00150 0.60860
C28D C 0.1102(4) 0.9571(3) 0.62864(9)
H34D H 0.07400 0.95630 0.61590
H35D H 0.09400 0.97850 0.64210
C29D C 0.0915(3) 0.8630(3) 0.63319(8)
H36D H 0.10140 0.83870 0.61920
H37D H 0.03030 0.82590 0.63770
C30D C 0.1524(3) 0.8643(2) 0.65237(6)
H38D H 0.13950 0.88610 0.66660
C31D C 0.1263(3) 0.7496(3) 0.67699(7)
H39D H 0.12680 0.78760 0.68830
C32D C 0.1140(3) 0.6648(3) 0.68427(6)
C33D C 0.1110(3) 0.6020(3) 0.66905(6)
H40D H 0.11800 0.61490 0.65340
C34D C 0.0981(2) 0.5217(3) 0.67633(6)
C35D C 0.0901(3) 0.5032(3) 0.69967(7)
H41D H 0.08240 0.44950 0.70480
C36D C 0.0936(3) 0.5638(3) 0.71535(6)
C37D C 0.1048(3) 0.6443(3) 0.70755(7)
H42D H 0.10610 0.68480 0.71810
C38D C 0.0886(3) 0.5478(3) 0.74003(6)
C39D C 0.0946(3) 0.4572(3) 0.65948(6)
H43D H 0.10760 0.47490 0.64420
N5I N 0.6388(2) 0.7751(2) 0.84361(6)
N6I N 0.3049(2) 0.3800(2) 0.83554(5)
C25I C 0.6770(3) 0.9252(2) 0.85403(6)
H29I H 0.64230 0.90360 0.86820
C26I C 0.7529(3) 1.0179(3) 0.85800(8)
H30I H 0.72980 1.05610 0.86230
H31I H 0.78630 1.04040 0.84390
C27I C 0.8132(4) 1.0189(3) 0.87692(9)
H32I H 0.86270 1.07830 0.87870
H33I H 0.78110 1.00150 0.89140
C28I C 0.8469(4) 0.9571(3) 0.87136(9)
H34I H 0.88230 0.95630 0.88410
H35I H 0.88450 0.97850 0.85790
C29I C 0.7715(3) 0.8630(3) 0.86681(8)
H36I H 0.73730 0.83870 0.88080
H37I H 0.79560 0.82590 0.86230
C30I C 0.7119(3) 0.8643(2) 0.84763(6)
H38I H 0.74660 0.88610 0.83340
C31I C 0.6233(3) 0.7496(3) 0.82301(7)
H39I H 0.66080 0.78760 0.81170
C32I C 0.5508(3) 0.6648(3) 0.81573(6)
C33I C 0.4910(3) 0.6020(3) 0.83095(6)
H40I H 0.49690 0.61490 0.84660
C34I C 0.4236(2) 0.5217(3) 0.82367(6)
C35I C 0.4131(3) 0.5032(3) 0.80033(7)
H41I H 0.36710 0.44950 0.79520
C36I C 0.4702(3) 0.5638(3) 0.78465(6)
C37I C 0.5395(3) 0.6443(3) 0.79245(7)
H42I H 0.57870 0.68480 0.78190
C38I C 0.4592(3) 0.5478(3) 0.75997(6)
C39I C 0.3626(3) 0.4572(3) 0.84052(6)
H43I H 0.36730 0.47490 0.85580
N5J N 0.1363(2) 0.3612(2) 0.84361(6)
N6J N 0.0751(2) 0.6951(2) 0.83554(5)
C25J C 0.2482(3) 0.3230(2) 0.85403(6)
H29J H 0.26130 0.35770 0.86820
C26J C 0.2650(3) 0.2471(3) 0.85800(8)
H30J H 0.32630 0.27020 0.86230
H31J H 0.25410 0.21370 0.84390
C27J C 0.2057(4) 0.1868(3) 0.87692(9)
H32J H 0.21560 0.13730 0.87870
H33J H 0.22040 0.21890 0.89140
C28J C 0.1102(4) 0.1531(3) 0.87136(9)
H34J H 0.07400 0.11770 0.88410
H35J H 0.09400 0.11550 0.85790
C29J C 0.0915(3) 0.2285(3) 0.86681(8)
H36J H 0.10140 0.26270 0.88080
H37J H 0.03030 0.20440 0.86230
C30J C 0.1524(3) 0.2881(2) 0.84763(6)
H38J H 0.13950 0.25340 0.83340
C31J C 0.1263(3) 0.3767(3) 0.82301(7)
H39J H 0.12680 0.33920 0.81170
C32J C 0.1140(3) 0.4492(3) 0.81573(6)
C33J C 0.1110(3) 0.5090(3) 0.83095(6)
H40J H 0.11800 0.50310 0.84660
C34J C 0.0981(2) 0.5764(3) 0.82367(6)
C35J C 0.0901(3) 0.5869(3) 0.80033(7)
H41J H 0.08240 0.63290 0.79520
C36J C 0.0936(3) 0.5298(3) 0.78465(6)
C37J C 0.1048(3) 0.4605(3) 0.79245(7)
H42J H 0.10610 0.42130 0.78190
C38J C 0.0886(3) 0.5408(3) 0.75997(6)
C39J C 0.0946(3) 0.6374(3) 0.84052(6)
H43J H 0.10760 0.63270 0.85580
N5K N 0.2249(2) 0.8637(2) 0.84361(6)
N6K N 0.6200(2) 0.9249(2) 0.83554(5)
C25K C 0.0748(3) 0.7518(2) 0.85403(6)
H29K H 0.09640 0.73870 0.86820
C26K C -0.0179(3) 0.7350(3) 0.85800(8)
H30K H -0.05610 0.67370 0.86230
H31K H -0.04040 0.74590 0.84390
C27K C -0.0189(4) 0.7943(3) 0.87692(9)
H32K H -0.07830 0.78440 0.87870
H33K H -0.00150 0.77960 0.89140
C28K C 0.0429(4) 0.8898(3) 0.87136(9)
H34K H 0.04370 0.92600 0.88410
H35K H 0.02150 0.90600 0.85790
C29K C 0.1370(3) 0.9085(3) 0.86681(8)
H36K H 0.16130 0.89860 0.88080
H37K H 0.17410 0.96970 0.86230
C30K C 0.1357(3) 0.8476(2) 0.84763(6)
H38K H 0.11390 0.86050 0.83340
C31K C 0.2504(3) 0.8737(3) 0.82301(7)
H39K H 0.21240 0.87320 0.81170
C32K C 0.3352(3) 0.8860(3) 0.81573(6)
C33K C 0.3980(3) 0.8890(3) 0.83095(6)
H40K H 0.38510 0.88200 0.84660
C34K C 0.4783(2) 0.9019(3) 0.82367(6)
C35K C 0.4968(3) 0.9099(3) 0.80033(7)
H41K H 0.55050 0.91760 0.79520
C36K C 0.4362(3) 0.9064(3) 0.78465(6)
C37K C 0.3557(3) 0.8952(3) 0.79245(7)
H42K H 0.31520 0.89390 0.78190
C38K C 0.4522(3) 0.9114(3) 0.75997(6)
C39K C 0.5428(3) 0.9054(3) 0.84052(6)
H43K H 0.52510 0.89240 0.85580
#END
