
#######################################################################
#
#                 Cambridge Crystallographic Data Centre
#                                CCDC
#
#######################################################################
#
# If this CIF has been generated from an entry in the Cambridge
# Structural Database, then it will include bibliographic, chemical,
# crystal, experimental, refinement or atomic coordinate data resulting
# from the CCDC's data processing and validation procedures.
#
#######################################################################

data_CSD_CIF_ABIQIO
_audit_creation_date 2016-11-23
_audit_creation_method CSD-ConQuest-V1
_database_code_CSD ABIQIO
_database_code_depnum_ccdc_archive 'CCDC 1491074'
_chemical_formula_sum 'C287.2 H385.8 Cl21.3 N36 O10.65'
_chemical_formula_moiety
;
2(C72 H84 N12),C90 H90 N12,10.65(C4 H10 O1),10.65(C1 H2 Cl2)
;
_journal_coden_Cambridge 1441
_journal_volume 9
_journal_year 2016
_journal_page_first 17
_journal_name_full 'Nature Chemistry '
loop_
_publ_author_name
"A.G.Slater"
"M.A.Little"
"A.Pulido"
"S.Y.Chong"
"D.Holden"
"L.Chen"
"C.Morgan"
"X.Wu"
"G.Cheng"
"R.Clowes"
"M.E.Briggs"
"T.Hasell"
"K.E.Jelfs"
"G.M.Day"
"A.I.Cooper"
_chemical_name_systematic
;
bis(5,12,20,27,35,42,50,57,62,69,74,81-dodecaazatridecacyclo[29.29.10.10^16,46
^.1^3,59^.1^14,18^.1^29,33^.1^44,48^.0^6,11^.0^21,26^.0^36,41^.0^51,56^.0^63,6
8^.0^75,80^]tetraoctaconta-1,3(71),4,12,14(84),15,17,19,27,29(83),30,32,34,42,
44(72),45,47,49,57,59,61,69,73,81-tetracosaene) 
6,13,17,24,31,38,43,50,54,61,66,73-dodecaaza-1,4,15,26,29,40-hexa(benzene-1,3,
5-triyl)decacyclo[27.23.10.10^4,26^.2^15,40^.0^7,12^.0^18,23^.0^32,37^.0^44,49
^.0^55,60^.0^67,72^]tetraheptaconta-5,13,16,24,30,38,42,50,53,61,65,73-dodecae
ne-2,27,63-triyne diethyl ether dichloromethane solvate
;
_cell_volume  15048.637
_exptl_crystal_colour 'colorless'
_exptl_crystal_density_diffrn 1.163
_exptl_crystal_description 'hexagonal'
_exptl_crystal_preparation 'dichloromethane / diethyl ether'
_diffrn_ambient_temperature 150
_refine_special_details
;
The SQUEEZE/PLATON program has been used.

;
#These two values have been output from a single CSD field.
_refine_ls_R_factor_gt 0.0477
_refine_ls_wR_factor_gt 0.0477
_symmetry_cell_setting hexagonal
_symmetry_space_group_name_H-M 'P 63 2 2'
_symmetry_Int_Tables_number 182
loop_
_symmetry_equiv_pos_site_id
_symmetry_equiv_pos_as_xyz
1 x,y,z
2 x-y,x,1/2+z
3 -y,x-y,z
4 -x,-y,1/2+z
5 -x+y,-x,z
6 y,-x+y,1/2+z
7 x-y,-y,-z
8 -x,-x+y,-z
9 y,x,-z
10 -y,-x,1/2-z
11 -x+y,y,1/2-z
12 x,x-y,1/2-z
_cell_length_a 17.397(2)
_cell_length_b 17.397(2)
_cell_length_c 57.414(7)
_cell_angle_alpha 90
_cell_angle_beta 90
_cell_angle_gamma 120
_cell_formula_units_Z 2
loop_
_atom_type_symbol
_atom_type_radius_bond
C 0.68
H 0.23
N 0.68
loop_
_atom_site_label
_atom_site_type_symbol
_atom_site_fract_x
_atom_site_fract_y
_atom_site_fract_z
N1 N 0.37769(14) 0.41608(15) 0.58878(3)
N2 N 0.22125(13) 0.42147(12) 0.45551(3)
N3 N 0.55040(15) 0.57628(13) 0.59359(4)
C1 C 0.17826(16) 0.43197(18) 0.58280(5)
H1 H 0.17600 0.45200 0.59800
C2 C 0.11365(17) 0.41943(18) 0.56643(4)
C3 C 0.27012(15) 0.57601(16) 0.45453(4)
C4 C 0.24619(17) 0.41515(19) 0.57682(4)
C5 C 0.11841(18) 0.39192(19) 0.54381(5)
H2 H 0.07500 0.38410 0.53260
C6 C 0.15587(18) 0.28425(18) 0.47739(4)
H3 H 0.21700 0.29270 0.47840
N4 N 0.13939(13) 0.32294(16) 0.49825(4)
C7 C 0.18634(18) 0.37612(18) 0.53785(4)
C8 C 0.31567(17) 0.42922(19) 0.59405(5)
H4 H 0.31280 0.44850 0.60930
C9 C 0.53573(17) 0.48634(16) 0.59726(5)
H5 H 0.54250 0.46190 0.58210
C10 C 0.14931(15) 0.32993(16) 0.45534(4)
H6 H 0.09100 0.32820 0.45500
C11 C 0.42754(16) 0.33533(18) 0.61318(5)
H7 H 0.36750 0.29920 0.61990
H8 H 0.43080 0.30510 0.59890
C12 C 0.1574(2) 0.28247(17) 0.43411(5)
H9 H 0.21900 0.29350 0.43320
H10 H 0.14670 0.30830 0.42000
C13 C 0.19315(17) 0.34280(19) 0.51476(4)
H11 H 0.24320 0.33570 0.51220
C14 C 0.24373(16) 0.63932(15) 0.45435(4)
H12 H 0.18220 0.62060 0.45410
C15 C 0.44247(16) 0.42672(17) 0.60680(4)
H13 H 0.43340 0.45500 0.62090
C16 C 0.60481(19) 0.49095(18) 0.61472(6)
H14 H 0.66490 0.52660 0.60800
H15 H 0.60220 0.52090 0.62910
C17 C 0.25078(17) 0.38909(19) 0.55438(4)
H16 H 0.29830 0.37990 0.55010
C18 C 0.20187(16) 0.48168(16) 0.45528(4)
H17 H 0.14110 0.46590 0.45560
C19 C 0.03991(16) 0.43643(17) 0.57259(5)
H18 H 0.00280 0.43740 0.56060
C20 C 0.49569(19) 0.3416(2) 0.63048(6)
H19 H 0.48560 0.28140 0.63390
H20 H 0.48970 0.36770 0.64520
C21 C 0.0935(3) 0.1822(2) 0.43403(6)
H21 H 0.03160 0.17020 0.43330
H22 H 0.10450 0.15560 0.42010
C22 C 0.58847(19) 0.39885(19) 0.62072(6)
H23 H 0.59560 0.37060 0.60660
H24 H 0.63280 0.40380 0.63230
C23 C 0.0900(3) 0.1866(2) 0.47657(6)
H25 H 0.02920 0.17760 0.47590
H26 H 0.09500 0.15820 0.49100
C24 C 0.1056(3) 0.1418(2) 0.45509(7)
H27 H 0.16640 0.15070 0.45550
H28 H 0.06280 0.07720 0.45520
N5 N 0.22850(17) 0.35985(15) 0.65659(4)
C25 C 0.1385(2) 0.28544(18) 0.65219(5)
H29 H 0.11570 0.24970 0.66680
N6 N 0.62615(16) 0.69900(17) 0.66402(4)
C26 C 0.4065(2) 0.5056(2) 0.66883(5)
H30 H 0.38950 0.50480 0.65310
C27 C 0.4880(2) 0.5717(2) 0.67579(5)
C28 C 0.2588(2) 0.3656(2) 0.67673(5)
H31 H 0.22390 0.32140 0.68790
C29 C 0.5100(2) 0.5731(2) 0.69937(5)
H32 H 0.56590 0.61930 0.70460
C30 C 0.5486(2) 0.6363(2) 0.65888(5)
H33 H 0.52910 0.63140 0.64320
C31 C 0.8497(2) 0.8997(2) 0.62769(6)
H34 H 0.88880 0.91520 0.64150
H35 H 0.88520 0.93890 0.61470
C32 C 0.3472(2) 0.4391(2) 0.68373(5)
C33 C 0.8169(2) 0.8033(3) 0.62102(6)
H36 H 0.86820 0.79440 0.61860
H37 H 0.78310 0.78930 0.60630
C34 C 0.7575(2) 0.7414(2) 0.64024(6)
H38 H 0.79310 0.75190 0.65460
H39 H 0.73450 0.67900 0.63540
C35 C 0.6794(2) 0.7559(2) 0.64547(5)
H40 H 0.64190 0.74210 0.63120
C36 C 0.3716(3) 0.4429(3) 0.70729(5)
H41 H 0.33170 0.39930 0.71790
C37 C 0.1418(2) 0.22622(19) 0.63308(5)
H42 H 0.16800 0.26190 0.61880
H43 H 0.18010 0.20230 0.63810
C38 C 0.4547(3) 0.5111(3) 0.71528(6)
C39 C 0.4723(3) 0.5197(3) 0.73950(5)
N1B N 0.58392(14) 0.96161(15) 0.58878(3)
N2B N 0.57853(13) 0.79978(12) 0.45551(3)
N3B N 0.42372(15) 0.97412(13) 0.59359(4)
C1B C 0.56803(16) 0.74629(18) 0.58280(5)
H1B H 0.54800 0.72400 0.59800
C2B C 0.58057(17) 0.69422(18) 0.56643(4)
C3B C 0.42399(15) 0.69411(16) 0.45453(4)
C4B C 0.58485(17) 0.83104(19) 0.57682(4)
C5B C 0.60808(18) 0.72649(19) 0.54381(5)
H2B H 0.61590 0.69090 0.53260
C6B C 0.71575(18) 0.87162(18) 0.47739(4)
H3B H 0.70730 0.92430 0.47840
N4B N 0.67706(13) 0.81645(16) 0.49825(4)
C7B C 0.62388(18) 0.81022(18) 0.53785(4)
C8B C 0.57078(17) 0.88645(19) 0.59405(5)
H4B H 0.55150 0.86430 0.60930
C9B C 0.51366(17) 1.04939(16) 0.59726(5)
H5B H 0.53810 1.08060 0.58210
C10B C 0.67007(15) 0.81938(16) 0.45534(4)
H6B H 0.67180 0.76280 0.45500
C11B C 0.66467(16) 1.09221(18) 0.61318(5)
H7B H 0.70080 1.06830 0.61990
H8B H 0.69490 1.12570 0.59890
C12B C 0.71753(20) 0.87493(17) 0.43411(5)
H9B H 0.70650 0.92550 0.43320
H10B H 0.69170 0.83840 0.42000
C13B C 0.65720(17) 0.85035(19) 0.51476(4)
H11B H 0.66430 0.90750 0.51220
C14B C 0.36068(16) 0.60441(15) 0.45435(4)
H12B H 0.37940 0.56160 0.45410
C15B C 0.57328(16) 1.01575(17) 0.60680(4)
H13B H 0.54500 0.97840 0.62090
C16B C 0.50905(19) 1.11386(18) 0.61472(6)
H14B H 0.47340 1.13830 0.60800
H15B H 0.47910 1.08130 0.62910
C17B C 0.61091(17) 0.86169(19) 0.55438(4)
H16B H 0.62010 0.91840 0.55010
C18B C 0.51832(16) 0.72019(16) 0.45528(4)
H17B H 0.53410 0.67520 0.45560
C19B C 0.56357(16) 0.60348(17) 0.57259(5)
H18B H 0.56260 0.56540 0.56060
C20B C 0.65840(19) 1.15409(20) 0.63048(6)
H19B H 0.71860 1.20420 0.63390
H20B H 0.63230 1.12200 0.64520
C21B C 0.8178(3) 0.9113(2) 0.43403(6)
H21B H 0.82980 0.86140 0.43330
H22B H 0.84440 0.94890 0.42010
C22B C 0.60115(19) 1.18962(19) 0.62072(6)
H23B H 0.62940 1.22500 0.60660
H24B H 0.59620 1.22900 0.63230
C23B C 0.8134(3) 0.9034(2) 0.47657(6)
H25B H 0.82240 0.85160 0.47590
H26B H 0.84180 0.93680 0.49100
C24B C 0.8582(3) 0.9638(2) 0.45509(7)
H27B H 0.84930 1.01570 0.45550
H28B H 0.92280 0.98560 0.45520
N1D N 0.03839(14) 0.62231(15) 0.58878(3)
N2D N 0.20022(13) 0.77875(12) 0.45551(3)
N3D N 0.02588(15) 0.44960(13) 0.59359(4)
C1D C 0.25371(16) 0.82174(18) 0.58280(5)
H1D H 0.27600 0.82400 0.59800
C2D C 0.30578(17) 0.88635(18) 0.56643(4)
C3D C 0.30589(15) 0.72988(16) 0.45453(4)
C4D C 0.16896(17) 0.75381(19) 0.57682(4)
C5D C 0.27351(18) 0.88159(19) 0.54381(5)
H2D H 0.30910 0.92500 0.53260
C6D C 0.12838(18) 0.84413(18) 0.47739(4)
H3D H 0.07570 0.78300 0.47840
N4D N 0.18355(13) 0.86061(16) 0.49825(4)
C7D C 0.18978(18) 0.81366(18) 0.53785(4)
C8D C 0.11355(17) 0.68433(19) 0.59405(5)
H4D H 0.13570 0.68720 0.60930
C9D C -0.04939(17) 0.46427(16) 0.59726(5)
H5D H -0.08060 0.45750 0.58210
C10D C 0.18062(15) 0.85069(16) 0.45534(4)
H6D H 0.23720 0.90900 0.45500
C11D C -0.09221(16) 0.57246(18) 0.61318(5)
H7D H -0.06830 0.63250 0.61990
H8D H -0.12570 0.56920 0.59890
C12D C 0.12507(20) 0.84260(17) 0.43411(5)
H9D H 0.07450 0.78100 0.43320
H10D H 0.16160 0.85330 0.42000
C13D C 0.14965(17) 0.80685(19) 0.51476(4)
H11D H 0.09250 0.75680 0.51220
C14D C 0.39559(16) 0.75627(15) 0.45435(4)
H12D H 0.43840 0.81780 0.45410
C15D C -0.01575(16) 0.55753(17) 0.60680(4)
H13D H 0.02160 0.56660 0.62090
C16D C -0.11386(19) 0.39519(18) 0.61472(6)
H14D H -0.13830 0.33510 0.60800
H15D H -0.08130 0.39780 0.62910
C17D C 0.13831(17) 0.74922(19) 0.55438(4)
H16D H 0.08160 0.70170 0.55010
C18D C 0.27981(16) 0.79813(16) 0.45528(4)
H17D H 0.32480 0.85890 0.45560
C19D C 0.39652(16) 0.96009(17) 0.57259(5)
H18D H 0.43460 0.99720 0.56060
C20D C -0.15409(19) 0.50431(20) 0.63048(6)
H19D H -0.20420 0.51440 0.63390
H20D H -0.12200 0.51030 0.64520
C21D C 0.0887(3) 0.9065(2) 0.43403(6)
H21D H 0.13860 0.96840 0.43330
H22D H 0.05110 0.89550 0.42010
C22D C -0.18962(19) 0.41153(19) 0.62072(6)
H23D H -0.22500 0.40440 0.60660
H24D H -0.22900 0.36720 0.63230
C23D C 0.0966(3) 0.9100(2) 0.47657(6)
H25D H 0.14840 0.97080 0.47590
H26D H 0.06320 0.90500 0.49100
C24D C 0.0362(3) 0.8944(2) 0.45509(7)
H27D H -0.01570 0.83360 0.45550
H28D H 0.01440 0.93720 0.45520
N5B N 0.64015(17) 0.86865(15) 0.65659(4)
C25B C 0.71456(20) 0.85306(18) 0.65219(5)
H29B H 0.75030 0.86600 0.66680
N6B N 0.30100(16) 0.92715(17) 0.66402(4)
C26B C 0.4944(2) 0.9009(2) 0.66883(5)
H30B H 0.49520 0.88470 0.65310
C27B C 0.4283(2) 0.9163(2) 0.67579(5)
C28B C 0.6344(2) 0.8932(2) 0.67673(5)
H31B H 0.67860 0.90250 0.68790
C29B C 0.4269(2) 0.9369(2) 0.69937(5)
H32B H 0.38070 0.94660 0.70460
C30B C 0.3637(2) 0.9123(2) 0.65888(5)
H33B H 0.36860 0.89770 0.64320
C31B C 0.1003(2) 0.9500(2) 0.62769(6)
H34B H 0.08480 0.97360 0.64150
H35B H 0.06110 0.94630 0.61470
C32B C 0.5609(2) 0.9081(2) 0.68373(5)
C33B C 0.1967(2) 1.0136(3) 0.62102(6)
H36B H 0.20560 1.07380 0.61860
H37B H 0.21070 0.99380 0.60630
C34B C 0.2586(2) 1.0161(2) 0.64024(6)
H38B H 0.24810 1.04120 0.65460
H39B H 0.32100 1.05550 0.63540
C35B C 0.2441(2) 0.9235(2) 0.64547(5)
H40B H 0.25790 0.89980 0.63120
C36B C 0.5571(3) 0.9287(3) 0.70729(5)
H41B H 0.60070 0.93240 0.71790
C37B C 0.77378(20) 0.91558(19) 0.63308(5)
H42B H 0.73810 0.90610 0.61880
H43B H 0.79770 0.97780 0.63810
C38B C 0.4889(3) 0.9436(3) 0.71528(6)
C39B C 0.4803(3) 0.9526(3) 0.73950(5)
N5D N 0.13135(17) 0.77150(15) 0.65659(4)
C25D C 0.14694(20) 0.86150(18) 0.65219(5)
H29D H 0.13400 0.88430 0.66680
N6D N 0.07285(16) 0.37385(17) 0.66402(4)
C26D C 0.0991(2) 0.5935(2) 0.66883(5)
H30D H 0.11530 0.61050 0.65310
C27D C 0.0837(2) 0.5120(2) 0.67579(5)
C28D C 0.1068(2) 0.7412(2) 0.67673(5)
H31D H 0.09750 0.77610 0.68790
C29D C 0.0631(2) 0.4900(2) 0.69937(5)
H32D H 0.05340 0.43410 0.70460
C30D C 0.0877(2) 0.4514(2) 0.65888(5)
H33D H 0.10230 0.47090 0.64320
C31D C 0.0500(2) 0.1503(2) 0.62769(6)
H34D H 0.02640 0.11120 0.64150
H35D H 0.05370 0.11480 0.61470
C32D C 0.0919(2) 0.6528(2) 0.68373(5)
C33D C -0.0136(2) 0.1831(3) 0.62102(6)
H36D H -0.07380 0.13180 0.61860
H37D H 0.00620 0.21690 0.60630
C34D C -0.0161(2) 0.2425(2) 0.64024(6)
H38D H -0.04120 0.20690 0.65460
H39D H -0.05550 0.26550 0.63540
C35D C 0.0765(2) 0.3206(2) 0.64547(5)
H40D H 0.10020 0.35810 0.63120
C36D C 0.0713(3) 0.6284(3) 0.70729(5)
H41D H 0.06760 0.66830 0.71790
C37D C 0.08442(20) 0.85820(19) 0.63308(5)
H42D H 0.09390 0.83200 0.61880
H43D H 0.02220 0.81990 0.63810
C38D C 0.0564(3) 0.5453(3) 0.71528(6)
C39D C 0.0474(3) 0.5277(3) 0.73950(5)
N5I N 0.64015(17) 0.77150(15) 0.84341(4)
C25I C 0.71456(20) 0.86150(18) 0.84781(5)
H29I H 0.75030 0.88430 0.83320
N6I N 0.30100(16) 0.37385(17) 0.83598(4)
C26I C 0.4944(2) 0.5935(2) 0.83117(5)
H30I H 0.49520 0.61050 0.84690
C27I C 0.4283(2) 0.5120(2) 0.82421(5)
C28I C 0.6344(2) 0.7412(2) 0.82327(5)
H31I H 0.67860 0.77610 0.81210
C29I C 0.4269(2) 0.4900(2) 0.80063(5)
H32I H 0.38070 0.43410 0.79540
C30I C 0.3637(2) 0.4514(2) 0.84112(5)
H33I H 0.36860 0.47090 0.85680
C31I C 0.1003(2) 0.1503(2) 0.87231(6)
H34I H 0.08480 0.11120 0.85850
H35I H 0.06110 0.11480 0.88530
C32I C 0.5609(2) 0.6528(2) 0.81627(5)
C33I C 0.1967(2) 0.1831(3) 0.87898(6)
H36I H 0.20560 0.13180 0.88140
H37I H 0.21070 0.21690 0.89370
C34I C 0.2586(2) 0.2425(2) 0.85976(6)
H38I H 0.24810 0.20690 0.84540
H39I H 0.32100 0.26550 0.86460
C35I C 0.2441(2) 0.3206(2) 0.85453(5)
H40I H 0.25790 0.35810 0.86880
C36I C 0.5571(3) 0.6284(3) 0.79271(5)
H41I H 0.60070 0.66830 0.78210
C37I C 0.77378(20) 0.85820(19) 0.86692(5)
H42I H 0.73810 0.83200 0.88120
H43I H 0.79770 0.81990 0.86190
C38I C 0.4889(3) 0.5453(3) 0.78472(6)
C39I C 0.4803(3) 0.5277(3) 0.76050(5)
N5J N 0.13135(17) 0.35985(15) 0.84341(4)
C25J C 0.14694(20) 0.28544(18) 0.84781(5)
H29J H 0.13400 0.24970 0.83320
N6J N 0.07285(16) 0.69900(17) 0.83598(4)
C26J C 0.0991(2) 0.5056(2) 0.83117(5)
H30J H 0.11530 0.50480 0.84690
C27J C 0.0837(2) 0.5717(2) 0.82421(5)
C28J C 0.1068(2) 0.3656(2) 0.82327(5)
H31J H 0.09750 0.32140 0.81210
C29J C 0.0631(2) 0.5731(2) 0.80063(5)
H32J H 0.05340 0.61930 0.79540
C30J C 0.0877(2) 0.6363(2) 0.84112(5)
H33J H 0.10230 0.63140 0.85680
C31J C 0.0500(2) 0.8997(2) 0.87231(6)
H34J H 0.02640 0.91520 0.85850
H35J H 0.05370 0.93890 0.88530
C32J C 0.0919(2) 0.4391(2) 0.81627(5)
C33J C -0.0136(2) 0.8033(3) 0.87898(6)
H36J H -0.07380 0.79440 0.88140
H37J H 0.00620 0.78930 0.89370
C34J C -0.0161(2) 0.7414(2) 0.85976(6)
H38J H -0.04120 0.75190 0.84540
H39J H -0.05550 0.67900 0.86460
C35J C 0.0765(2) 0.7559(2) 0.85453(5)
H40J H 0.10020 0.74210 0.86880
C36J C 0.0713(3) 0.4429(3) 0.79271(5)
H41J H 0.06760 0.39930 0.78210
C37J C 0.08442(20) 0.22622(19) 0.86692(5)
H42J H 0.09390 0.26190 0.88120
H43J H 0.02220 0.20230 0.86190
C38J C 0.0564(3) 0.5111(3) 0.78472(6)
C39J C 0.0474(3) 0.5197(3) 0.76050(5)
N5K N 0.22850(17) 0.86865(15) 0.84341(4)
C25K C 0.1385(2) 0.85306(18) 0.84781(5)
H29K H 0.11570 0.86600 0.83320
N6K N 0.62615(16) 0.92715(17) 0.83598(4)
C26K C 0.4065(2) 0.9009(2) 0.83117(5)
H30K H 0.38950 0.88470 0.84690
C27K C 0.4880(2) 0.9163(2) 0.82421(5)
C28K C 0.2588(2) 0.8932(2) 0.82327(5)
H31K H 0.22390 0.90250 0.81210
C29K C 0.5100(2) 0.9369(2) 0.80063(5)
H32K H 0.56590 0.94660 0.79540
C30K C 0.5486(2) 0.9123(2) 0.84112(5)
H33K H 0.52910 0.89770 0.85680
C31K C 0.8497(2) 0.9500(2) 0.87231(6)
H34K H 0.88880 0.97360 0.85850
H35K H 0.88520 0.94630 0.88530
C32K C 0.3472(2) 0.9081(2) 0.81627(5)
C33K C 0.8169(2) 1.0136(3) 0.87898(6)
H36K H 0.86820 1.07380 0.88140
H37K H 0.78310 0.99380 0.89370
C34K C 0.7575(2) 1.0161(2) 0.85976(6)
H38K H 0.79310 1.04120 0.84540
H39K H 0.73450 1.05550 0.86460
C35K C 0.6794(2) 0.9235(2) 0.85453(5)
H40K H 0.64190 0.89980 0.86880
C36K C 0.3716(3) 0.9287(3) 0.79271(5)
H41K H 0.33170 0.93240 0.78210
C37K C 0.1418(2) 0.91558(19) 0.86692(5)
H42K H 0.16800 0.90610 0.88120
H43K H 0.18010 0.97780 0.86190
C38K C 0.4547(3) 0.9436(3) 0.78472(6)
C39K C 0.4723(3) 0.9526(3) 0.76050(5)
#END
