
#######################################################################
#
#                 Cambridge Crystallographic Data Centre
#                                CCDC
#
#######################################################################
#
# If this CIF has been generated from an entry in the Cambridge
# Structural Database, then it will include bibliographic, chemical,
# crystal, experimental, refinement or atomic coordinate data resulting
# from the CCDC's data processing and validation procedures.
#
#######################################################################

data_CSD_CIF_CAFJEB
_audit_creation_date 2017-01-04
_audit_creation_method CSD-ConQuest-V1
_database_code_CSD CAFJEB
_database_code_depnum_ccdc_archive 'CCDC 1448648'
_chemical_formula_sum 'C49.2 H83.7 N29 O35.4 P1.3'
_chemical_formula_moiety
;
C42 H42 N28 O14,C6 H14 N1 O5 1+,0.6(C2 H6 O1),H2 O4 P1 1-,10.6(H2 O1),0.3(H3 
O4 P1)
;
_journal_coden_Cambridge 1220
_journal_volume 22
_journal_year 2016
_journal_page_first 15791
_journal_name_full 'Chem.-Eur.J. '
loop_
_publ_author_name
"Jianping Wang"
"Yoonjung Jang"
"J.K.Khedkar"
"Jin Young Koo"
"Yonghwi Kim"
"Chang Jun Lee"
"Young Min Rhee"
"K.Kim"
_chemical_name_systematic
;
2,4,5-trihydroxy-6-(hydroxymethyl)tetrahydro-2H-pyran-3-aminium 
cucurbit[7]uril dihydrogen phosphate phosphoric acid ethanol solvate hydrate
;
_chemical_name_common
;
glucosaminium cucurbit[7]uril dihydrogen phosphate phosphoric acid ethanol 
solvate hydrate
;
_cell_volume  15970.445
_exptl_crystal_colour 'colorless'
_exptl_crystal_density_diffrn 1.385
_exptl_special_details
;
Absolute configuration

;
_exptl_crystal_description 'block'
_diffrn_ambient_temperature 100
_refine_special_details
;
C1S,C2S,O1S and O15W,O6W disordered over two sites with occupancies 
0.584:0.42,0.416; O12W and O11W disordered over two sites with occupancies 
0.55:0.45; O7W and O13W disordered over two sites with occupancies 0.65:0.35.
;
#These two values have been output from a single CSD field.
_refine_ls_R_factor_gt 0.0843
_refine_ls_wR_factor_gt 0.0843
_symmetry_cell_setting tetragonal
_symmetry_space_group_name_H-M 'I 41'
_symmetry_Int_Tables_number 80
loop_
_symmetry_equiv_pos_site_id
_symmetry_equiv_pos_as_xyz
1 x,y,z
2 1/2-x,1/2-y,1/2+z
3 -y,1/2+x,1/4+z
4 1/2+y,-x,3/4+z
5 1/2+x,1/2+y,1/2+z
6 -x,-y,z
7 1/2-y,x,3/4+z
8 y,1/2-x,1/4+z
_cell_length_a 27.8982(11)
_cell_length_b 27.8982(11)
_cell_length_c 20.5194(8)
_cell_angle_alpha 90
_cell_angle_beta 90
_cell_angle_gamma 90
_cell_formula_units_Z 8
loop_
_atom_type_symbol
_atom_type_radius_bond
C 0.68
H 0.23
N 0.68
O 0.68
P 1.05
loop_
_atom_site_label
_atom_site_type_symbol
_atom_site_fract_x
_atom_site_fract_y
_atom_site_fract_z
O1 O 0.95415(11) 0.44899(12) 0.25191(17)
O2 O 0.90774(11) 0.41294(11) 0.09038(16)
O3 O 0.82821(14) 0.46927(13) -0.00882(19)
O4 O 0.76120(14) 0.58860(13) 0.0407(2)
O5 O 0.76730(13) 0.66686(12) 0.1770(2)
O6 O 0.84223(12) 0.63792(12) 0.31928(19)
O7 O 0.93240(11) 0.55373(12) 0.36048(18)
O8 O 0.79565(11) 0.33267(12) 0.38468(17)
O9 O 0.74873(12) 0.30400(13) 0.21822(18)
O10 O 0.65914(13) 0.35456(13) 0.11120(17)
O11 O 0.60785(12) 0.46465(13) 0.1632(2)
O12 O 0.61678(12) 0.54501(12) 0.3198(2)
O13 O 0.68488(13) 0.53986(12) 0.47247(18)
O14 O 0.76763(12) 0.44348(12) 0.48464(18)
N1 N 0.92942(13) 0.41886(14) 0.3516(2)
N2 N 0.92513(13) 0.37199(14) 0.2636(2)
N3 N 0.89435(13) 0.34901(13) 0.1584(2)
N4 N 0.85410(14) 0.35203(14) 0.06581(19)
N5 N 0.79600(16) 0.39417(15) -0.0008(2)
N6 N 0.74650(17) 0.45633(16) -0.0087(2)
N7 N 0.70537(18) 0.52977(16) 0.0194(2)
N8 N 0.68297(16) 0.59439(15) 0.0755(2)
N9 N 0.68844(15) 0.64436(15) 0.1725(2)
N10 N 0.71857(15) 0.66237(15) 0.2684(2)
N11 N 0.76774(14) 0.65257(14) 0.3643(2)
N12 N 0.82244(14) 0.61622(13) 0.4251(2)
N13 N 0.88091(15) 0.55414(14) 0.4482(2)
N14 N 0.91690(13) 0.48712(13) 0.4221(2)
N15 N 0.86718(13) 0.37153(14) 0.4042(2)
N16 N 0.86135(13) 0.32620(13) 0.3159(2)
N17 N 0.83162(13) 0.30269(13) 0.2101(2)
N18 N 0.78811(14) 0.31070(13) 0.11981(19)
N19 N 0.73045(16) 0.35152(15) 0.05379(19)
N20 N 0.67799(16) 0.40883(16) 0.0310(2)
N21 N 0.63845(16) 0.48275(17) 0.0617(2)
N22 N 0.62531(15) 0.54283(16) 0.1317(2)
N23 N 0.63167(14) 0.59206(15) 0.2287(3)
N24 N 0.65716(13) 0.61740(14) 0.3262(2)
N25 N 0.70436(14) 0.61170(14) 0.4239(2)
N26 N 0.75888(14) 0.57589(15) 0.4852(2)
N27 N 0.81476(15) 0.51001(15) 0.4985(2)
N28 N 0.84941(13) 0.44241(14) 0.4678(2)
C1 C 0.93832(14) 0.41639(16) 0.2858(2)
C2 C 0.93558(16) 0.35502(17) 0.1991(2)
H1 H 0.95770 0.37790 0.17780
H2 H 0.95240 0.32390 0.20250
C3 C 0.88738(16) 0.37496(16) 0.1038(2)
C4 C 0.84012(18) 0.36779(19) 0.0020(2)
H3 H 0.83720 0.33930 -0.02650
H4 H 0.86600 0.38820 -0.01590
C5 C 0.7936(2) 0.44227(19) -0.0061(2)
C6 C 0.7326(2) 0.5038(2) -0.0300(3)
H5 H 0.71300 0.50100 -0.07000
H6 H 0.76180 0.52230 -0.04100
C7 C 0.72006(19) 0.57214(18) 0.0443(3)
C8 C 0.6843(2) 0.64212(19) 0.1022(3)
H7 H 0.65470 0.65910 0.08900
H8 H 0.71180 0.65940 0.08270
C9 C 0.72891(17) 0.65859(16) 0.2030(3)
C10 C 0.75098(16) 0.68513(17) 0.3143(3)
H9 H 0.77890 0.69810 0.29040
H10 H 0.73430 0.71240 0.33530
C11 C 0.81336(17) 0.63563(15) 0.3648(3)
C12 C 0.87054(18) 0.60507(17) 0.4480(3)
H11 H 0.89410 0.62160 0.41980
H12 H 0.87440 0.61770 0.49280
C13 C 0.91228(15) 0.53304(17) 0.4051(3)
C14 C 0.95146(17) 0.45544(18) 0.3905(3)
H13 H 0.97280 0.47490 0.36250
H14 H 0.97150 0.44000 0.42440
C15 C 0.83687(16) 0.34284(15) 0.3691(2)
C16 C 0.84203(17) 0.28818(16) 0.2756(2)
H15 H 0.86530 0.26140 0.27440
H16 H 0.81220 0.27600 0.29590
C17 C 0.78589(16) 0.30565(15) 0.1854(2)
C18 C 0.74656(18) 0.30616(18) 0.0792(2)
H17 H 0.72030 0.29140 0.10470
H18 H 0.75410 0.28450 0.04240
C19 C 0.68620(18) 0.37101(19) 0.0694(2)
C20 C 0.63414(19) 0.43611(19) 0.0338(3)
H19 H 0.62140 0.43950 -0.01100
H20 H 0.61030 0.41770 0.05930
C21 C 0.62291(17) 0.49377(19) 0.1224(3)
C22 C 0.60049(19) 0.5669(2) 0.1841(3)
H21 H 0.57750 0.59010 0.16520
H22 H 0.58180 0.54290 0.20890
C23 C 0.63330(15) 0.58224(17) 0.2922(3)
C24 C 0.65757(17) 0.62179(19) 0.3955(3)
H23 H 0.63370 0.59940 0.41420
H24 H 0.64780 0.65470 0.40760
C25 C 0.71243(18) 0.57244(17) 0.4619(2)
C26 C 0.77933(19) 0.54114(19) 0.5286(3)
H25 H 0.75320 0.52110 0.54660
H26 H 0.79450 0.55820 0.56550
C27 C 0.80691(18) 0.46324(18) 0.4839(2)
C28 C 0.85525(17) 0.39038(16) 0.4680(2)
H27 H 0.88090 0.38160 0.49910
H28 H 0.82510 0.37540 0.48320
C29 C 0.91534(16) 0.37248(16) 0.3779(2)
H29 H 0.93940 0.35990 0.40970
C30 C 0.91113(15) 0.34019(15) 0.3168(2)
H30 H 0.93280 0.31170 0.31970
C31 C 0.86694(17) 0.30448(16) 0.1588(2)
H31 H 0.88820 0.27560 0.15890
C32 C 0.83717(17) 0.30808(16) 0.0960(2)
H32 H 0.84220 0.27970 0.06710
C33 C 0.7486(2) 0.37200(18) -0.0060(2)
H33 H 0.74710 0.34860 -0.04290
C34 C 0.71543(19) 0.41473(18) -0.0172(2)
H34 H 0.70180 0.41400 -0.06230
C35 C 0.6536(2) 0.5245(2) 0.0268(3)
H35 H 0.63710 0.52680 -0.01630
C36 C 0.63887(19) 0.5665(2) 0.0717(3)
H36 H 0.61180 0.58560 0.05290
C37 C 0.64823(18) 0.64034(18) 0.2163(3)
H37 H 0.62120 0.66130 0.20180
C38 C 0.66782(18) 0.65692(17) 0.2824(3)
H38 H 0.65280 0.68760 0.29720
C39 C 0.74341(17) 0.64621(16) 0.4263(2)
H39 H 0.73310 0.67750 0.44560
C40 C 0.78140(17) 0.62106(16) 0.4682(3)
H40 H 0.78950 0.64030 0.50780
C41 C 0.86626(18) 0.52175(17) 0.4994(3)
H41 H 0.87690 0.53320 0.54330
C42 C 0.88996(16) 0.47407(17) 0.4808(2)
H42 H 0.91120 0.46150 0.51620
O15 O 0.80736(13) 0.42866(14) 0.1419(2)
H43 H 0.78190 0.41860 0.12490
O16 O 0.71735(13) 0.45067(15) 0.1896(2)
H44 H 0.69400 0.44510 0.21420
O17 O 0.67594(14) 0.46852(13) 0.3072(2)
H45 H 0.65250 0.48700 0.31240
O18 O 0.79649(13) 0.51561(13) 0.30232(18)
O19 O 0.82421(15) 0.56677(13) 0.2206(2)
H46 H 0.81970 0.59070 0.24470
N29 N 0.88120(16) 0.49563(15) 0.1660(2)
H47 H 0.90810 0.50440 0.18800
H48 H 0.87160 0.52010 0.13980
H49 H 0.88760 0.46930 0.14120
C43 C 0.84259(18) 0.48418(19) 0.2132(3)
H50 H 0.85350 0.45640 0.24010
C44 C 0.79755(18) 0.46970(18) 0.1785(3)
H51 H 0.78750 0.49610 0.14850
C45 C 0.75822(18) 0.46059(18) 0.2274(3)
H52 H 0.76650 0.43150 0.25360
C46 C 0.75126(19) 0.50309(18) 0.2735(3)
H53 H 0.73830 0.53110 0.24870
C47 C 0.7190(2) 0.49177(19) 0.3293(3)
H54 H 0.73600 0.47060 0.36040
H55 H 0.71060 0.52170 0.35240
C48 C 0.83406(19) 0.52657(19) 0.2590(3)
H56 H 0.86390 0.53260 0.28470
P1 P 0.31517(19) 0.27361(18) -0.0690(3)
O20 O 0.2968(5) 0.2415(6) -0.0193(9)
O21 O 0.3430(4) 0.3152(4) -0.0401(5)
O22 O 0.2796(7) 0.3030(9) -0.1005(8)
O23 O 0.3435(5) 0.2454(5) -0.1208(7)
P2 P 0.4145(3) 0.48666(16) -0.1714(2)
O24 O 0.4643(5) 0.4773(4) -0.2015(6)
O25 O 0.4179(8) 0.5217(6) -0.1165(7)
O26 O 0.3858(7) 0.5115(7) -0.2281(6)
O27 O 0.3904(8) 0.4404(7) -0.1540(11)
O28 O 0.5947(4) 0.2802(3) 0.1007(4)
C49 C 0.6071(6) 0.2410(5) 0.0500(5)
H57 H 0.57910 0.21950 0.04590
H58 H 0.61170 0.25680 0.00730
C50 C 0.6497(8) 0.2112(6) 0.0633(13)
H59 H 0.65350 0.18750 0.02840
H60 H 0.64560 0.19470 0.10510
H61 H 0.67820 0.23170 0.06510
O29 O 0.85182(14) 0.55033(13) 0.0593(2)
O30 O 0.50000 0.50000 0.0262(6)
O31 O 0.47331(12) 0.14165(14) -0.1587(2)
O32 O 1.00000 0.50000 1.0549(5)
O33 O 0.4660(2) 0.5631(3) 0.2329(4)
O34 O 0.811(2) 0.464(3) -0.359(3)
O35 O 0.4927(8) 0.6146(9) 0.1230(8)
O36 O 0.4311(6) 0.2142(4) -0.0882(6)
O37 O 0.6904(4) 0.2579(5) -0.0532(8)
O38 O 0.9544(4) 0.5580(3) 0.1925(7)
O39 O 0.8750(8) 0.4207(14) -0.3582(12)
O40 O 0.3982(9) 0.3676(9) -0.1024(18)
O41 O 0.2210(14) 0.4148(10) -0.1403(9)
O42? O 0.6668(6) 0.1581(11) 0.1309(11)
O43? O 0.7493(8) 0.4645(11) -0.3414(12)
O44? O 0.9755(3) 0.5420(3) 0.1527(5)
#END
