
#######################################################################
#
#                 Cambridge Crystallographic Data Centre
#                                CCDC
#
#######################################################################
#
# If this CIF has been generated from an entry in the Cambridge
# Structural Database, then it will include bibliographic, chemical,
# crystal, experimental, refinement or atomic coordinate data resulting
# from the CCDC's data processing and validation procedures.
#
#######################################################################

data_CSD_CIF_CAFJAX
_audit_creation_date 2017-01-04
_audit_creation_method CSD-ConQuest-V1
_database_code_CSD CAFJAX
_database_code_depnum_ccdc_archive 'CCDC 1448647'
_chemical_formula_sum 'C49.9 H85.3 N29 O37.75 P2.2'
_chemical_formula_moiety
;
C42 H42 N28 O14,C6 H14 N1 O5 1+,0.95(C2 H6 O1),H2 O4 P1 1-,9(H2 O1),1.2(H3 O4 
P1)
;
_journal_coden_Cambridge 1220
_journal_volume 22
_journal_year 2016
_journal_page_first 15791
_journal_name_full 'Chem.-Eur.J. '
loop_
_publ_author_name
"Jianping Wang"
"Yoonjung Jang"
"J.K.Khedkar"
"Jin Young Koo"
"Yonghwi Kim"
"Chang Jun Lee"
"Young Min Rhee"
"K.Kim"
_chemical_name_systematic
;
2,4,5-trihydroxy-6-(hydroxymethyl)oxan-3-aminium cucurbit[7]uril dihydrogen 
phosphate phosphoric acid ethanol solvate nonahydrate
;
_chemical_name_common
;
Galactosaminium cucurbit[7]uril dihydrogen phosphate phosphoric acid ethanol 
solvate nonahydrate
;
_cell_volume  16066.845
_exptl_crystal_colour 'colorless'
_exptl_crystal_density_diffrn 1.442
_exptl_special_details
;
Absolute configuration

;
_exptl_crystal_description 'block'
_diffrn_ambient_temperature 100
_refine_special_details
;
O1P,O2P,O3P,O4P,O5WA,P1 and O5WB disordered over two sites with occupancies 
0.698:0.302; O5P,O6P,O7P,O8P,P2 and O11W disordered over two sites with 
occupancies 0.565:0.435; O6W and O13P,O14P,O15P,O16P,P4 disordered over two 
sites with occupancies 0.556:0.444; O9W and O10W disordered over two sites 
with occupancies 0.50:0.50.
;
#These two values have been output from a single CSD field.
_refine_ls_R_factor_gt 0.1016
_refine_ls_wR_factor_gt 0.1016
_symmetry_cell_setting tetragonal
_symmetry_space_group_name_H-M 'I 41'
_symmetry_Int_Tables_number 80
loop_
_symmetry_equiv_pos_site_id
_symmetry_equiv_pos_as_xyz
1 x,y,z
2 1/2-x,1/2-y,1/2+z
3 -y,1/2+x,1/4+z
4 1/2+y,-x,3/4+z
5 1/2+x,1/2+y,1/2+z
6 -x,-y,z
7 1/2-y,x,3/4+z
8 y,1/2-x,1/4+z
_cell_length_a 27.8088(7)
_cell_length_b 27.8088(7)
_cell_length_c 20.7762(6)
_cell_angle_alpha 90
_cell_angle_beta 90
_cell_angle_gamma 90
_cell_formula_units_Z 8
loop_
_atom_type_symbol
_atom_type_radius_bond
C 0.68
H 0.23
N 0.68
O 0.68
P 1.05
loop_
_atom_site_label
_atom_site_type_symbol
_atom_site_fract_x
_atom_site_fract_y
_atom_site_fract_z
O1 O 0.20497(11) 0.66956(11) 0.16911(16)
O2 O 0.23209(12) 0.55838(13) 0.26878(19)
O3 O 0.31468(13) 0.46210(13) 0.2582(2)
O4 O 0.38207(14) 0.45555(14) 0.1062(3)
O5 O 0.39474(15) 0.53406(18) -0.0493(3)
O6 O 0.34159(15) 0.64238(18) -0.09792(19)
O7 O 0.25367(12) 0.69659(14) 0.00455(18)
O8 O 0.04653(11) 0.55172(12) 0.0376(2)
O9 O 0.06718(11) 0.44704(12) 0.1475(2)
O10 O 0.15524(13) 0.36132(13) 0.1111(2)
O11 O 0.23149(13) 0.33279(12) -0.0322(2)
O12 O 0.23930(15) 0.41087(14) -0.1686(3)
O13 O 0.17412(17) 0.52913(15) -0.2211(2)
O14 O 0.09347(12) 0.58673(11) -0.12279(17)
N1 N 0.13999(12) 0.67407(13) 0.1001(2)
N2 N 0.13315(13) 0.63049(13) 0.1875(2)
N3 N 0.15019(14) 0.55974(14) 0.2531(2)
N4 N 0.18474(14) 0.49159(15) 0.2826(2)
N5 N 0.24037(15) 0.42557(15) 0.2722(3)
N6 N 0.29510(13) 0.38994(14) 0.2109(2)
N7 N 0.34252(14) 0.38310(15) 0.1140(3)
N8 N 0.36806(16) 0.40762(19) 0.0182(3)
N9 N 0.37637(17) 0.45550(19) -0.0798(3)
N10 N 0.36464(17) 0.51488(19) -0.1483(3)
N11 N 0.32363(17) 0.58828(18) -0.1784(2)
N12 N 0.27347(16) 0.64801(16) -0.1587(2)
N13 N 0.21464(14) 0.68704(14) -0.0922(2)
N14 N 0.17057(13) 0.69707(13) -0.0050(2)
N15 N 0.07607(14) 0.62868(14) 0.0487(2)
N16 N 0.07144(12) 0.58233(13) 0.1349(2)
N17 N 0.08327(13) 0.51501(13) 0.2057(2)
N18 N 0.11843(14) 0.44706(14) 0.2347(2)
N19 N 0.17718(13) 0.38438(13) 0.2129(2)
N20 N 0.23118(13) 0.34795(15) 0.1529(2)
N21 N 0.28030(14) 0.33715(16) 0.0591(3)
N22 N 0.31163(16) 0.35489(17) -0.0374(3)
N23 N 0.31758(17) 0.40450(17) -0.1333(3)
N24 N 0.29705(19) 0.46887(18) -0.1903(3)
N25 N 0.25583(19) 0.54176(17) -0.2221(2)
N26 N 0.20725(18) 0.60429(16) -0.2113(2)
N27 N 0.14804(15) 0.64682(15) -0.1455(2)
N28 N 0.10747(14) 0.64980(14) -0.0550(2)
C1 C 0.16379(16) 0.65851(15) 0.1537(2)
C2 C 0.14465(18) 0.61156(16) 0.2503(2)
H1 H 0.11890 0.62110 0.28060
H2 H 0.17490 0.62660 0.26530
C3 C 0.19249(17) 0.53828(18) 0.2676(2)
C4 C 0.21964(19) 0.46187(19) 0.3143(3)
H3 H 0.20420 0.44570 0.35140
H4 H 0.24580 0.48250 0.33120
C5 C 0.28669(17) 0.42841(17) 0.2471(3)
C6 C 0.34152(16) 0.37910(19) 0.1824(3)
H5 H 0.36580 0.40120 0.20070
H6 H 0.35080 0.34590 0.19460
C7 C 0.36617(17) 0.4190(2) 0.0798(4)
C8 C 0.4002(2) 0.4321(3) -0.0247(4)
H7 H 0.42400 0.40870 -0.04130
H8 H 0.41800 0.45680 -0.00010
C9 C 0.38002(18) 0.5046(2) -0.0887(3)
C10 C 0.3686(2) 0.5620(2) -0.1763(3)
H9 H 0.38120 0.55880 -0.22060
H10 H 0.39230 0.58090 -0.15120
C11 C 0.3159(2) 0.6275(2) -0.1407(2)
C12 C 0.25656(19) 0.6925(2) -0.1324(3)
H11 H 0.24880 0.71470 -0.16820
H12 H 0.28260 0.70730 -0.10680
C13 C 0.21655(16) 0.69377(14) -0.0273(2)
C14 C 0.15926(16) 0.71272(15) 0.0600(2)
H13 H 0.13550 0.73910 0.05790
H14 H 0.18880 0.72560 0.08040
C15 C 0.08940(14) 0.66019(15) 0.1002(3)
H15 H 0.06780 0.68890 0.10250
C16 C 0.08526(15) 0.62923(15) 0.1602(2)
H16 H 0.06070 0.64210 0.19080
C17 C 0.10965(16) 0.52792(17) 0.2641(3)
H17 H 0.08780 0.54050 0.29840
C18 C 0.13331(17) 0.47940(18) 0.2840(3)
H18 H 0.12260 0.46860 0.32760
C19 C 0.21788(16) 0.38015(17) 0.2553(3)
H19 H 0.21000 0.36070 0.29440
C20 C 0.25548(16) 0.35466(15) 0.2125(3)
H20 H 0.26600 0.32340 0.23160
C21 C 0.33222(17) 0.34283(19) 0.0703(3)
H21 H 0.34740 0.31220 0.08550
C22 C 0.35132(18) 0.3580(2) 0.0065(3)
H22 H 0.37840 0.33680 -0.00750
C23 C 0.3623(2) 0.4315(2) -0.1378(3)
H23 H 0.38900 0.41140 -0.15560
C24 C 0.3490(2) 0.4730(2) -0.1835(3)
H24 H 0.36580 0.47010 -0.22590
C25 C 0.2881(2) 0.5833(2) -0.2283(3)
H25 H 0.30310 0.58460 -0.27210
C26 C 0.25416(19) 0.6266(2) -0.2168(2)
H26 H 0.25520 0.64970 -0.25360
C27 C 0.16579(18) 0.69082(17) -0.1168(3)
H27 H 0.16150 0.71920 -0.14580
C28 C 0.13540(17) 0.69465(15) -0.0556(2)
H28 H 0.11420 0.72370 -0.05610
C29 C 0.06321(15) 0.58434(15) 0.0704(3)
C30 C 0.04930(16) 0.54636(18) 0.1742(3)
H29 H 0.02760 0.52670 0.14700
H30 H 0.02940 0.56240 0.20730
C31 C 0.08734(14) 0.46754(16) 0.1914(3)
C32 C 0.12864(17) 0.39572(17) 0.2358(3)
H31 H 0.10490 0.37880 0.20850
H32 H 0.12500 0.38370 0.28040
C33 C 0.18465(17) 0.36446(15) 0.1547(3)
C34 C 0.24798(19) 0.31471(19) 0.1032(3)
H33 H 0.26440 0.28720 0.12400
H34 H 0.21990 0.30210 0.07930
C35 C 0.27029(18) 0.34022(16) -0.0063(3)
C36 C 0.3147(2) 0.3570(2) -0.1060(3)
H35 H 0.28610 0.34070 -0.12420
H36 H 0.34330 0.33860 -0.11980
C37 C 0.2810(2) 0.4272(2) -0.1643(3)
C38 C 0.2716(2) 0.4937(2) -0.2404(3)
H37 H 0.24310 0.47440 -0.25280
H38 H 0.29270 0.49620 -0.27870
C39 C 0.2094(2) 0.5565(2) -0.2172(3)
C40 C 0.1621(2) 0.63115(19) -0.2096(3)
H39 H 0.16520 0.65980 -0.23760
H40 H 0.13630 0.61070 -0.22760
C41 C 0.11487(16) 0.62415(16) -0.1094(2)
C42 C 0.06557(17) 0.64497(19) -0.0161(3)
H41 H 0.04340 0.62180 -0.03670
H42 H 0.04900 0.67640 -0.01380
O15 O 0.2004(2) 0.5599(3) -0.0836(3)
H43 H 0.22710 0.57380 -0.08700
O16 O 0.2368(3) 0.5792(2) 0.0319(4)
H44 H 0.26380 0.59200 0.03770
O17 O 0.3190(2) 0.53358(19) 0.0976(4)
H45 H 0.34230 0.51430 0.09580
O18 O 0.19965(19) 0.48546(19) 0.0899(2)
O19 O 0.1715(2) 0.43248(16) 0.0123(3)
H46 H 0.17570 0.40960 0.03800
N29 N 0.11824(18) 0.50365(17) -0.0485(3)
H47 H 0.09030 0.49840 -0.02670
H48 H 0.12590 0.47700 -0.07180
H49 H 0.11450 0.52920 -0.07540
C43 C 0.1574(2) 0.5139(2) -0.0020(3)
H50 H 0.14890 0.54390 0.02200
C44 C 0.2039(3) 0.5226(3) -0.0374(4)
H51 H 0.21290 0.49230 -0.06030
C45 C 0.2427(3) 0.5340(3) 0.0108(5)
H52 H 0.27400 0.53310 -0.01280
C46 C 0.2451(2) 0.4950(2) 0.0635(3)
H53 H 0.25780 0.46480 0.04380
C47 C 0.2776(3) 0.5091(3) 0.1200(4)
H54 H 0.25960 0.53000 0.15010
H55 H 0.28750 0.47980 0.14370
C48 C 0.1628(3) 0.4736(2) 0.0461(3)
H56 H 0.13200 0.46980 0.07020
P1 P 0.18235(18) 0.22839(19) 0.2230(3)
O20 O 0.1536(4) 0.1885(4) 0.2513(5)
O21 O 0.2008(5) 0.2620(5) 0.2720(7)
O22 O 0.1519(5) 0.2550(4) 0.1713(6)
O23 O 0.2244(5) 0.2075(7) 0.1839(9)
P2 P -0.0162(2) 0.5863(3) 0.3642(2)
O24 O 0.0157(5) 0.5957(8) 0.4217(5)
O25 O 0.0062(8) 0.6092(6) 0.3031(6)
O26 O -0.0253(6) 0.5338(4) 0.3496(11)
O27 O -0.0659(5) 0.6115(8) 0.3738(11)
O28? O -0.0026(8) 0.6211(17) 0.3551(15)
P3 P 0.2402(3) -0.1120(3) 0.0856(3)
O29 O 0.2761(4) -0.1009(5) 0.1430(4)
O30 O 0.2113(7) -0.1606(7) 0.1006(10)
O31 O 0.2026(10) -0.0700(8) 0.0785(19)
O32 O 0.2697(10) -0.1196(14) 0.0220(8)
P4? P 0.3525(4) -0.1004(7) -0.0709(4)
O33? O 0.3977(6) -0.1183(11) -0.0950(8)
O34? O 0.310(1) -0.1400(12) -0.0807(19)
O35? O 0.3503(5) -0.0902(8) 0.0029(5)
O36? O 0.3330(14) -0.0533(11) -0.1024(11)
O37 O 0.298(2) -0.0863(12) -0.129(4)
O38 O 0.2110(4) 0.0592(5) -0.0506(5)
H57 H 0.18350 0.06890 -0.04000
C49 C 0.2536(8) -0.0202(8) -0.0383(15)
H58 H 0.26300 -0.04360 -0.00530
H59 H 0.28240 -0.00810 -0.06010
H60 H 0.23250 -0.03580 -0.06980
C50 C 0.2266(4) 0.0222(5) -0.0062(6)
H61 H 0.19810 0.00940 0.01670
H62 H 0.24800 0.03700 0.02640
O39 O 0.02736(13) 0.35880(14) 0.1247(2)
O40 O 0.14733(17) 0.44920(14) -0.1547(2)
O41 O 0.50000 0.50000 -0.1844(19)
O42 O 0.4680(3) 0.5666(4) 0.0177(6)
O43 O 0.0259(4) 0.4551(3) -0.0588(6)
O44? O 0.0450(3) 0.4404(4) -0.0204(7)
O45 O 0.50000 0.50000 0.0924(7)
O46 O 0.2594(7) -0.1943(5) -0.0213(13)
O47 O 0.2622(12) 0.113(3) 0.173(3)
O48? O 0.2209(3) 0.1213(7) 0.1493(10)
O49 O -0.1310(9) 0.5897(8) 0.458(2)
#END
