
#######################################################################
#
#                 Cambridge Crystallographic Data Centre
#                                CCDC
#
#######################################################################
#
# If this CIF has been generated from an entry in the Cambridge
# Structural Database, then it will include bibliographic, chemical,
# crystal, experimental, refinement or atomic coordinate data resulting
# from the CCDC's data processing and validation procedures.
#
#######################################################################

data_CSD_CIF_CANHOR
_audit_creation_date 2017-01-06
_audit_creation_method CSD-ConQuest-V1
_database_code_CSD CANHOR
_database_code_depnum_ccdc_archive 'CCDC 1511860'
_chemical_formula_sum 'C166 H216 N6 O21'
_chemical_formula_moiety
;
C106 H96 N6 O6,15(C4 H8 O1)
;
_journal_coden_Cambridge 179
_journal_volume 56
_journal_year 2017
_journal_page_first 1244
_journal_name_full 'Angew.Chem.,Int.Ed. '
loop_
_publ_author_name
"D.Beaudoin"
"F.Rominger"
"M.Mastalerz"
_chemical_name_systematic
;
4^6^,5^4^,11^6^,12^4^,17^6^,18^4^-hexahydroxy-1^12b^,8^12b^-dimethyl-1^4b^,1^8
b^,1^12b^,8^4b^,8^8b^,8^12b^-hexapropyl-2,7,9,14,15,20-hexaaza-1,8(2,6,10)-bis
(4b,8b,12b,12d-tetrahydrodibenzo[2,3:4,5]pentaleno[1,6-ab]indena)-4,5,11,12,17
,18(1,3)-hexabenzenacycloicosaphane-2,6,9,13,15,19-hexaene tetrahydrofuran 
solvate
;
_cell_volume  29653.781
_exptl_crystal_colour 'yellow'
_exptl_crystal_density_diffrn 1.179
_exptl_crystal_description 'long, flat'
_exptl_crystal_preparation 'tetrahydrofuran'
_diffrn_ambient_temperature 100
#These two values have been output from a single CSD field.
_refine_ls_R_factor_gt 0.0995
_refine_ls_wR_factor_gt 0.0995
_symmetry_cell_setting monoclinic
_symmetry_space_group_name_H-M 'C 2/c'
_symmetry_Int_Tables_number 15
loop_
_symmetry_equiv_pos_site_id
_symmetry_equiv_pos_as_xyz
1 x,y,z
2 -x,y,1/2-z
3 1/2+x,1/2+y,z
4 1/2-x,1/2+y,1/2-z
5 -x,-y,-z
6 x,-y,-1/2+z
7 -1/2-x,-1/2-y,-z
8 -1/2+x,-1/2-y,-1/2+z
_cell_length_a 44.854(3)
_cell_length_b 16.5714(6)
_cell_length_c 41.878(2)
_cell_angle_alpha 90
_cell_angle_beta 107.702(4)
_cell_angle_gamma 90
_cell_formula_units_Z 8
loop_
_atom_type_symbol
_atom_type_radius_bond
C 0.68
H 0.23
N 0.68
O 0.68
loop_
_atom_site_label
_atom_site_type_symbol
_atom_site_fract_x
_atom_site_fract_y
_atom_site_fract_z
C1 C 0.0958(2) 0.4659(5) 0.34495(19)
C2 C 0.1009(2) 0.3161(5) 0.3591(2)
C3 C 0.09119(18) 0.3612(5) 0.29898(19)
C4 C 0.0819(2) 0.3792(4) 0.33224(18)
C5 C 0.0459(2) 0.3752(6) 0.3249(3)
H1 H 0.03590 0.41590 0.30810
H2 H 0.03830 0.32140 0.31640
H3 H 0.04060 0.38560 0.34560
C6 C 0.1226(2) 0.4481(5) 0.3764(2)
C7 C 0.1234(2) 0.3691(5) 0.3854(2)
C8 C 0.1447(2) 0.3403(6) 0.4147(2)
H4 H 0.14440 0.28570 0.42160
C9 C 0.1659(2) 0.3945(6) 0.4332(2)
C10 C 0.1661(2) 0.4745(6) 0.4245(2)
H5 H 0.18130 0.51000 0.43810
C11 C 0.1438(2) 0.5034(6) 0.3959(2)
H6 H 0.14320 0.55880 0.38980
N1 N 0.1851(2) 0.3617(6) 0.4650(2)
C12 C 0.1205(2) 0.2695(5) 0.3416(2)
C13 C 0.11627(19) 0.2965(5) 0.3096(2)
C14 C 0.13285(19) 0.2614(5) 0.2900(2)
H7 H 0.12860 0.27620 0.26710
C15 C 0.15514(19) 0.2059(5) 0.3040(2)
C16 C 0.1598(2) 0.1768(5) 0.3363(2)
H8 H 0.17470 0.13540 0.34520
C17 C 0.1423(2) 0.2099(5) 0.3553(2)
H9 H 0.14520 0.19180 0.37760
N2 N 0.17283(18) 0.1723(4) 0.28389(17)
C18 C 0.10567(19) 0.4390(5) 0.2927(2)
C19 C 0.1075(2) 0.4989(5) 0.3166(2)
C20 C 0.11971(19) 0.5743(5) 0.3144(2)
H10 H 0.12040 0.61430 0.33080
C21 C 0.13075(19) 0.5904(5) 0.2880(2)
C22 C 0.1295(2) 0.5314(5) 0.2640(2)
H11 H 0.13730 0.54300 0.24580
C23 C 0.11708(19) 0.4565(5) 0.2664(2)
H12 H 0.11640 0.41680 0.24980
N3 N 0.14331(18) 0.6679(4) 0.28470(16)
C24 C 0.0738(2) 0.5314(6) 0.3530(2)
H13 H 0.08410 0.58460 0.35400
H14 H 0.05420 0.53320 0.33400
C25 C 0.0653(3) 0.5213(8) 0.3838(3)
H15 H 0.08440 0.51200 0.40280
H16 H 0.05160 0.47340 0.38170
C26 C 0.0482(4) 0.5961(9) 0.3908(4)
H17 H 0.04270 0.58800 0.41150
H18 H 0.06180 0.64340 0.39330
H19 H 0.02900 0.60480 0.37210
C27 C 0.0819(2) 0.2550(6) 0.3741(3)
H20 H 0.06510 0.23140 0.35530
H21 H 0.09610 0.21050 0.38500
C28 C 0.0674(3) 0.2891(7) 0.3990(3)
H22 H 0.04810 0.31920 0.38700
H23 H 0.08210 0.32750 0.41390
C29 C 0.0593(3) 0.2231(8) 0.4199(3)
H24 H 0.04980 0.24700 0.43600
H25 H 0.04440 0.18560 0.40520
H26 H 0.07830 0.19390 0.43210
C30 C 0.0649(2) 0.3338(5) 0.2665(2)
H27 H 0.04670 0.37000 0.26360
H28 H 0.07280 0.34270 0.24710
C31 C 0.0533(2) 0.2490(6) 0.2647(2)
H29 H 0.04300 0.24020 0.28220
H30 H 0.07120 0.21130 0.26890
C32 C 0.0299(2) 0.2319(8) 0.2299(3)
H31 H 0.02250 0.17610 0.22900
H32 H 0.01210 0.26890 0.22580
H33 H 0.04020 0.24000 0.21260
C33 C 0.47254(18) 0.4247(5) 0.42331(17)
C34 C 0.46035(18) 0.5641(5) 0.44066(18)
C35 C 0.46262(18) 0.5403(5) 0.38146(17)
C36 C 0.47905(19) 0.5175(4) 0.41976(16)
C37 C 0.51432(19) 0.5389(6) 0.4321(2)
H34 H 0.51700 0.59690 0.42930
H35 H 0.52300 0.52450 0.45580
H36 H 0.52530 0.50880 0.41890
C38 C 0.45395(19) 0.4230(5) 0.44805(18)
C39 C 0.44852(19) 0.4981(5) 0.45916(19)
C40 C 0.4331(2) 0.5068(5) 0.4829(2)
H37 H 0.43040 0.55890 0.49110
C41 C 0.4217(2) 0.4399(6) 0.4946(2)
C42 C 0.4269(2) 0.3628(6) 0.4835(2)
H38 H 0.41940 0.31640 0.49190
C43 C 0.44305(19) 0.3546(5) 0.4605(2)
H39 H 0.44680 0.30240 0.45320
N4 N 0.40628(18) 0.4506(4) 0.51983(16)
C44 C 0.4339(2) 0.6050(5) 0.4148(2)
C45 C 0.43584(18) 0.5952(5) 0.38275(19)
C46 C 0.4143(2) 0.6349(5) 0.3564(2)
H40 H 0.41650 0.63270 0.33450
C47 C 0.3902(2) 0.6765(5) 0.3615(2)
C48 C 0.3873(2) 0.6843(5) 0.3941(2)
H41 H 0.37080 0.71490 0.39790
C49 C 0.4092(2) 0.6462(5) 0.4199(2)
H42 H 0.40720 0.64840 0.44180
N5 N 0.36969(18) 0.7209(4) 0.33444(15)
C50 C 0.4482(2) 0.4621(5) 0.36596(18)
C51 C 0.45319(19) 0.3984(5) 0.38837(18)
C52 C 0.43964(19) 0.3231(5) 0.37950(19)
H43 H 0.44330 0.28030 0.39530
C53 C 0.4207(2) 0.3126(5) 0.3471(2)
C54 C 0.4165(2) 0.3737(5) 0.3234(2)
H44 H 0.40400 0.36480 0.30090
C55 C 0.43079(19) 0.4472(5) 0.33268(19)
H45 H 0.42880 0.48820 0.31630
N6 N 0.40517(17) 0.2361(4) 0.33947(16)
C56 C 0.50200(19) 0.3686(5) 0.4365(2)
H46 H 0.51690 0.39600 0.45590
H47 H 0.49510 0.31860 0.44520
C57 C 0.5198(2) 0.3441(6) 0.4129(2)
H48 H 0.52420 0.39260 0.40130
H49 H 0.50670 0.30710 0.39570
C58 C 0.5507(2) 0.3022(6) 0.4315(3)
H50 H 0.56170 0.28700 0.41550
H51 H 0.56380 0.33900 0.44830
H52 H 0.54630 0.25360 0.44270
C59 C 0.4783(2) 0.6324(5) 0.4659(2)
H53 H 0.46610 0.64430 0.48150
H54 H 0.49870 0.61020 0.47950
C60 C 0.4843(3) 0.7109(5) 0.4508(2)
H55 H 0.50010 0.70180 0.43910
H56 H 0.46470 0.72870 0.43400
C61 C 0.4956(3) 0.7765(5) 0.4762(2)
H57 H 0.49900 0.82590 0.46490
H58 H 0.47980 0.78680 0.48760
H59 H 0.51520 0.75990 0.49270
C62 C 0.48256(19) 0.5798(6) 0.3608(2)
H60 H 0.46790 0.60290 0.34010
H61 H 0.49420 0.62560 0.37400
C63 C 0.5058(2) 0.5281(6) 0.3504(2)
H62 H 0.52270 0.51170 0.37070
H63 H 0.49510 0.47850 0.33950
C64 C 0.5199(3) 0.5702(7) 0.3268(3)
H64 H 0.53470 0.53400 0.32100
H65 H 0.50330 0.58550 0.30640
H66 H 0.53090 0.61870 0.33760
C65 C 0.2124(3) 0.3818(7) 0.4734(2)
H67 H 0.22050 0.41440 0.45930
C66 C 0.2333(2) 0.3534(7) 0.5073(2)
C67 C 0.2237(2) 0.3064(7) 0.5292(2)
C68 C 0.2439(2) 0.2898(8) 0.5611(2)
H68 H 0.23660 0.25970 0.57650
C69 C 0.2746(2) 0.3169(7) 0.5705(2)
H69 H 0.28830 0.30500 0.59220
C70 C 0.2851(2) 0.3614(6) 0.5481(2)
C71 C 0.2639(2) 0.3785(7) 0.5169(2)
H70 H 0.27090 0.40930 0.50150
O1 O 0.19363(18) 0.2790(7) 0.52257(17)
H71 H 0.18510 0.27670 0.50170
C72 C 0.2025(2) 0.1654(5) 0.2957(2)
H72 H 0.21240 0.18370 0.31790
C73 C 0.22174(19) 0.1313(5) 0.27697(19)
C74 C 0.2091(2) 0.0981(5) 0.24463(19)
C75 C 0.22872(19) 0.0662(5) 0.22858(19)
H73 H 0.22010 0.04650 0.20640
C76 C 0.2610(2) 0.0618(5) 0.24380(19)
H74 H 0.27410 0.03720 0.23250
C77 C 0.27384(18) 0.0941(5) 0.27604(19)
C78 C 0.25414(19) 0.1308(5) 0.2914(2)
H75 H 0.26300 0.15660 0.31240
O2 O 0.17776(13) 0.0977(4) 0.23016(13)
H76 H 0.16920 0.12440 0.24200
C79 C 0.1715(2) 0.6709(5) 0.28512(19)
H77 H 0.18400 0.62370 0.29090
C80 C 0.18580(19) 0.7452(5) 0.27691(18)
C81 C 0.1672(2) 0.8126(5) 0.26384(19)
C82 C 0.1808(2) 0.8781(6) 0.2527(2)
H78 H 0.16830 0.92300 0.24270
C83 C 0.2124(2) 0.8777(5) 0.2563(2)
H79 H 0.22140 0.92380 0.24940
C84 C 0.23152(18) 0.8116(5) 0.26965(19)
C85 C 0.21759(19) 0.7460(5) 0.28025(19)
H80 H 0.23010 0.70080 0.29000
O3 O 0.13585(14) 0.8150(4) 0.25917(15)
H81 H 0.13030 0.77240 0.26660
C86 C 0.3807(2) 0.4135(6) 0.5164(2)
H82 H 0.37230 0.37980 0.49750
C87 C 0.3640(2) 0.4221(5) 0.54141(19)
C88 C 0.3759(2) 0.4673(6) 0.5705(2)
C89 C 0.3596(2) 0.4739(6) 0.5939(2)
H83 H 0.36860 0.50060 0.61460
C90 C 0.3299(2) 0.4403(5) 0.5860(2)
H84 H 0.31790 0.44790 0.60100
C91 C 0.3173(2) 0.3961(5) 0.5569(2)
C92 C 0.3344(2) 0.3880(5) 0.5343(2)
H85 H 0.32590 0.35900 0.51400
O4 O 0.40489(16) 0.5030(4) 0.57810(14)
H86 H 0.41390 0.48820 0.56420
C93 C 0.3407(2) 0.7252(5) 0.3309(2)
H87 H 0.33260 0.69750 0.34630
C94 C 0.3191(2) 0.7718(5) 0.3035(2)
C95 C 0.3297(2) 0.8098(5) 0.2794(2)
C96 C 0.3088(2) 0.8502(5) 0.2527(2)
H88 H 0.31630 0.87870 0.23690
C97 C 0.2776(2) 0.8483(5) 0.2494(2)
H89 H 0.26340 0.87320 0.23030
C98 C 0.26579(19) 0.8115(5) 0.2728(2)
C99 C 0.28733(19) 0.7732(5) 0.29953(19)
H90 H 0.27990 0.74690 0.31580
O5 O 0.36073(14) 0.8138(4) 0.28285(14)
H91 H 0.37030 0.77780 0.29620
C100 C 0.3764(2) 0.2333(5) 0.3240(2)
H92 H 0.36540 0.28260 0.31760
C101 C 0.35906(19) 0.1583(5) 0.31550(19)
C102 C 0.3731(2) 0.0839(6) 0.3264(2)
C103 C 0.3556(2) 0.0144(6) 0.3185(2)
H93 H 0.36550 -0.03660 0.32380
C104 C 0.3238(2) 0.0181(5) 0.3031(2)
H94 H 0.31180 -0.03020 0.29980
C105 C 0.30885(18) 0.0912(5) 0.29214(19)
C106 C 0.32673(19) 0.1605(5) 0.29986(18)
H95 H 0.31670 0.21140 0.29440
O6 O 0.40422(14) 0.0784(4) 0.34283(16)
H96 H 0.41170 0.12500 0.34760
O7 O 0.2440(3) 0.4139(10) 0.3388(4)
C107 C 0.2183(2) 0.4641(6) 0.3238(2)
H97 H 0.21070 0.45390 0.29940
H98 H 0.22470 0.52130 0.32740
C108 C 0.1939(3) 0.4484(8) 0.3380(3)
H99 H 0.17430 0.43440 0.32020
H100 H 0.18990 0.49670 0.35000
C109 C 0.2037(3) 0.3822(7) 0.3609(3)
H101 H 0.19090 0.33370 0.35220
H102 H 0.20130 0.39610 0.38300
C110 C 0.2368(3) 0.3667(12) 0.3641(5)
H103 H 0.25030 0.38280 0.38670
H104 H 0.24020 0.30870 0.36080
O8 O 0.3200(3) 0.5151(11) 0.3599(3)
C111 C 0.3262(3) 0.4942(12) 0.3939(3)
H105 H 0.31030 0.45510 0.39640
H106 H 0.32510 0.54280 0.40720
C112 C 0.3572(3) 0.4587(8) 0.4061(3)
H107 H 0.35640 0.40640 0.41720
H108 H 0.37170 0.49520 0.42230
C113 C 0.3675(3) 0.4471(8) 0.3761(3)
H109 H 0.37240 0.38960 0.37370
H110 H 0.38640 0.47960 0.37790
C114 C 0.3410(3) 0.4738(10) 0.3468(3)
H111 H 0.34870 0.50990 0.33220
H112 H 0.33060 0.42670 0.33350
O9 O 0.07329(17) 0.0648(5) 0.23189(17)
C115 C 0.0620(3) 0.0244(11) 0.2556(3)
H113 H 0.05500 -0.03090 0.24790
H114 H 0.04420 0.05420 0.25950
C116 C 0.0899(3) 0.0219(13) 0.2877(3)
H115 H 0.09080 0.07140 0.30120
H116 H 0.08870 -0.02580 0.30150
C117 C 0.1161(2) 0.0171(7) 0.2757(3)
H117 H 0.12060 -0.03970 0.27140
H118 H 0.13490 0.04070 0.29200
C118 C 0.1066(2) 0.0648(7) 0.2439(3)
H119 H 0.11460 0.12080 0.24810
H120 H 0.11530 0.04010 0.22710
O10 O 0.2142(2) 0.0304(5) 0.35919(18)
C119 C 0.2038(3) -0.0355(8) 0.3382(3)
H121 H 0.20030 -0.02000 0.31450
H122 H 0.18380 -0.05620 0.34060
C120 C 0.2287(4) -0.0977(8) 0.3488(4)
H123 H 0.22700 -0.12910 0.36820
H124 H 0.22830 -0.13510 0.33020
C121 C 0.2567(4) -0.0469(10) 0.3576(5)
H125 H 0.26250 -0.03130 0.33750
H126 H 0.27470 -0.07490 0.37350
C122 C 0.2471(3) 0.0243(9) 0.3735(3)
H127 H 0.25280 0.01700 0.39800
H128 H 0.25750 0.07360 0.36880
O11 O 0.4581(2) 0.1630(5) 0.4327(2)
C123 C 0.4435(3) 0.0986(8) 0.4436(4)
H129 H 0.42500 0.08010 0.42520
H130 H 0.43640 0.11530 0.46280
C124 C 0.4671(4) 0.0326(9) 0.4537(5)
H131 H 0.47400 0.02580 0.47840
H132 H 0.45820 -0.01910 0.44330
C125 C 0.4931(3) 0.0563(8) 0.4423(4)
H133 H 0.49940 0.01180 0.43000
H134 H 0.51130 0.07270 0.46140
C126 C 0.4804(3) 0.1263(8) 0.4196(4)
H135 H 0.49730 0.16470 0.41970
H136 H 0.47040 0.10760 0.39640
O12 O 0.3467(4) 0.9020(11) 0.3918(4)
C127 C 0.3421(4) 0.8446(11) 0.4152(5)
H137 H 0.34010 0.78970 0.40550
H138 H 0.32260 0.85720 0.42070
C128 C 0.3690(4) 0.8482(11) 0.4455(4)
H139 H 0.36370 0.87910 0.46320
H140 H 0.37550 0.79310 0.45400
C129 C 0.3940(4) 0.8882(10) 0.4360(4)
H141 H 0.41170 0.85080 0.43850
H142 H 0.40160 0.93580 0.45050
C130 C 0.3803(4) 0.9134(13) 0.4002(4)
H143 H 0.38530 0.97070 0.39730
H144 H 0.38890 0.87990 0.38550
O13 O 0.0829(4) 0.3438(8) 0.4904(3)
C131 C 0.0706(4) 0.4203(11) 0.4737(4)
H145 H 0.06010 0.41030 0.44960
H146 H 0.05500 0.44270 0.48360
C132 C 0.0957(5) 0.4778(10) 0.4775(5)
H147 H 0.09740 0.49360 0.45530
H148 H 0.09190 0.52690 0.48920
C133 C 0.1238(4) 0.4380(11) 0.4969(5)
H149 H 0.12990 0.45620 0.52060
H150 H 0.14130 0.44910 0.48770
C134 C 0.1156(4) 0.3489(10) 0.4944(5)
H151 H 0.12030 0.32450 0.47480
H152 H 0.12790 0.32010 0.51490
#END
