
#######################################################################
#
#                 Cambridge Crystallographic Data Centre
#                                CCDC
#
#######################################################################
#
# If this CIF has been generated from an entry in the Cambridge
# Structural Database, then it will include bibliographic, chemical,
# crystal, experimental, refinement or atomic coordinate data resulting
# from the CCDC's data processing and validation procedures.
#
#######################################################################

data_CSD_CIF_CAXFIT
_audit_creation_date 2017-05-26
_audit_creation_method CSD-ConQuest-V1
_database_code_CSD CAXFIT
_database_code_depnum_ccdc_archive 'CCDC 1546304'
_chemical_formula_sum 'C126 H156 N24'
_chemical_formula_moiety
;
C78 H108 N12,C48 H48 N12
;
_journal_coden_Cambridge 1350
_journal_volume 19
_journal_year 2017
_journal_page_first 4933
_journal_name_full 'CrystEngComm '
loop_
_publ_author_name
"S.Tothadi"
"M.A.Little"
"T.Hasell"
"M.E.Briggs"
"Samantha Y.Chong"
"Ming Liu"
"A.I.Cooper"
_chemical_name_systematic
;
5,8,16,19,27,30,38,41,46,49,54,57-dodecaazaheptacyclo[21.21.6.6^12,34^.1^3,43^
.1^10,14^.1^21,25^.1^32,36^]hexaconta-1,3(51),4,8,10(60),11,13,15,19,21(59),22
,24,26,30,32(52),33,35,37,41,43,45,49,53,57-tetracosaene 
4,11,17,24,30,37,43,50,55,62,69,76-dodecaaza-1,14,27,40(1,3,5)-tetrabenzenapen
tadecacyclo[25.25.12.1214,40.14,11.117,24.130,37.143,50.155,62.169,76.05,10.01
8,23.031,36.044,49.056,61.070,75]dooctacontane (non-preferred name)
;
_cell_volume  14861.534
_exptl_crystal_colour 'colorless'
_exptl_crystal_density_diffrn 0.897
_exptl_crystal_description 'prism'
_diffrn_ambient_temperature 400
#These two values have been output from a single CSD field.
_refine_ls_R_factor_gt 0.0491
_refine_ls_wR_factor_gt 0.0491
_symmetry_cell_setting cubic
_symmetry_space_group_name_H-M 'F 2 3'
_symmetry_Int_Tables_number 196
loop_
_symmetry_equiv_pos_site_id
_symmetry_equiv_pos_as_xyz
1 x,y,z
2 z,x,y
3 y,z,x
4 -y,-z,x
5 z,-x,-y
6 -y,z,-x
7 -z,-x,y
8 -z,x,-y
9 y,-z,-x
10 -x,-y,z
11 x,-y,-z
12 -x,y,-z
13 x,1/2+y,1/2+z
14 z,1/2+x,1/2+y
15 y,1/2+z,1/2+x
16 -y,1/2-z,1/2+x
17 z,1/2-x,1/2-y
18 -y,1/2+z,1/2-x
19 -z,1/2-x,1/2+y
20 -z,1/2+x,1/2-y
21 y,1/2-z,1/2-x
22 -x,1/2-y,1/2+z
23 x,1/2-y,1/2-z
24 -x,1/2+y,1/2-z
25 1/2+x,y,1/2+z
26 1/2+z,x,1/2+y
27 1/2+y,z,1/2+x
28 1/2-y,-z,1/2+x
29 1/2+z,-x,1/2-y
30 1/2-y,z,1/2-x
31 1/2-z,-x,1/2+y
32 1/2-z,x,1/2-y
33 1/2+y,-z,1/2-x
34 1/2-x,-y,1/2+z
35 1/2+x,-y,1/2-z
36 1/2-x,y,1/2-z
37 1/2+x,1/2+y,z
38 1/2+z,1/2+x,y
39 1/2+y,1/2+z,x
40 1/2-y,1/2-z,x
41 1/2+z,1/2-x,-y
42 1/2-y,1/2+z,-x
43 1/2-z,1/2-x,y
44 1/2-z,1/2+x,-y
45 1/2+y,1/2-z,-x
46 1/2-x,1/2-y,z
47 1/2+x,1/2-y,-z
48 1/2-x,1/2+y,-z
_cell_length_a 24.586(3)
_cell_length_b 24.586(3)
_cell_length_c 24.586(3)
_cell_angle_alpha 90
_cell_angle_beta 90
_cell_angle_gamma 90
_cell_formula_units_Z 4
loop_
_atom_type_symbol
_atom_type_radius_bond
C 0.68
H 0.23
N 0.68
loop_
_atom_site_label
_atom_site_type_symbol
_atom_site_fract_x
_atom_site_fract_y
_atom_site_fract_z
N1 N 0.4638(3) 0.2821(2) 0.5322(3)
C1 C 0.4371(4) 0.3598(4) 0.6138(5)
H1 H 0.46670 0.33680 0.61900
C2 C 0.4026(5) 0.3505(4) 0.5712(5)
C3 C 0.4085(4) 0.3027(4) 0.5329(5)
H2 H 0.38400 0.27380 0.54410
H3 H 0.39830 0.31380 0.49650
C4 C 0.50000 0.3173(5) 0.50000
H4 H 0.52130 0.34030 0.52390
C5 C 0.4704(2) 0.2293(2) 0.5070(4)
H5 H 0.44920 0.22850 0.47330
C6 C 0.4546(5) 0.1807(3) 0.5417(4)
H6 H 0.41590 0.18100 0.54940
H7 H 0.47440 0.18080 0.57580
C7 C 0.4701(4) 0.1306(3) 0.5070(8)
H8 H 0.46140 0.09770 0.52690
H9 H 0.44890 0.13070 0.47370
N2 N 0.2969(2) 0.2133(2) 0.4755(2)
C8 C 0.2612(3) 0.2218(2) 0.5217(2)
H10 H 0.28130 0.21560 0.55510
H11 H 0.23150 0.19580 0.52030
C9 C 0.2853(3) 0.1760(3) 0.4430(3)
H12 H 0.25450 0.15520 0.44980
C10 C 0.3179(3) 0.1633(3) 0.3944(3)
C11 C 0.3631(3) 0.1947(3) 0.3812(3)
H13 H 0.37230 0.22440 0.40280
H14? H 0.52130 0.34030 0.52390
N1G N 0.4678(3) 0.4638(2) 0.7179(3)
C1G C 0.3862(4) 0.4371(4) 0.6402(5)
H1G H 0.38100 0.46670 0.66320
C2G C 0.4288(5) 0.4026(4) 0.6495(5)
C3G C 0.4671(4) 0.4085(4) 0.6973(5)
H2G H 0.45590 0.38400 0.72620
H3G H 0.50350 0.39830 0.68620
C4D C 0.50000 0.5000(5) 0.68270
H4G H 0.47610 0.52130 0.65970
C5G C 0.4930(2) 0.4704(2) 0.7707(4)
H5G H 0.52670 0.44920 0.77150
C6G C 0.4583(5) 0.4546(3) 0.8193(4)
H6G H 0.45060 0.41590 0.81900
H7G H 0.42420 0.47440 0.81920
C7G C 0.4930(4) 0.4701(3) 0.8694(8)
H8G H 0.47310 0.46140 0.90230
H9G H 0.52630 0.44890 0.86930
N1H N 0.2821(3) 0.4678(2) 0.5362(3)
C1H C 0.3598(4) 0.3862(4) 0.5629(5)
H1H H 0.33680 0.38100 0.53330
C2H C 0.3505(5) 0.4288(4) 0.5974(5)
C3H C 0.3027(4) 0.4671(4) 0.5915(5)
H2H H 0.27380 0.45590 0.61600
H3H H 0.31380 0.50350 0.60170
C4B C 0.31730 0.5000(5) 0.50000
H4H H 0.34030 0.47610 0.47870
C5H C 0.2293(2) 0.4930(2) 0.5296(4)
H5H H 0.22850 0.52670 0.55080
C6H C 0.1807(5) 0.4583(3) 0.5454(4)
H6H H 0.18100 0.45060 0.58410
H7H H 0.18080 0.42420 0.52560
C7H C 0.1306(4) 0.4930(3) 0.5299(8)
H8H H 0.09770 0.47310 0.53860
H9H H 0.13070 0.52630 0.55110
N1K N 0.5362(3) 0.2821(2) 0.4678(3)
C1K C 0.5629(4) 0.3598(4) 0.3862(5)
H1K H 0.53330 0.33680 0.38100
C2K C 0.5974(5) 0.3505(4) 0.4288(5)
C3K C 0.5915(4) 0.3027(4) 0.4671(5)
H2K H 0.61600 0.27380 0.45590
H3K H 0.60170 0.31380 0.50350
H4K H 0.47870 0.34030 0.47610
C5K C 0.5296(2) 0.2293(2) 0.4930(4)
H5K H 0.55080 0.22850 0.52670
C6K C 0.5454(5) 0.1807(3) 0.4583(4)
H6K H 0.58410 0.18100 0.45060
H7K H 0.52560 0.18080 0.42420
C7K C 0.5299(4) 0.1306(3) 0.4930(8)
H8K H 0.53860 0.09770 0.47310
H9K H 0.55110 0.13070 0.52630
N1A N 0.5322(3) 0.4638(2) 0.2821(3)
C1A C 0.6138(4) 0.4371(4) 0.3598(5)
H1A H 0.61900 0.46670 0.33680
C2A C 0.5712(5) 0.4026(4) 0.3505(5)
C3A C 0.5329(4) 0.4085(4) 0.3027(5)
H2A H 0.54410 0.38400 0.27380
H3A H 0.49650 0.39830 0.31380
C4A C 0.50000 0.5000(5) 0.31730
H4A H 0.52390 0.52130 0.34030
C5A C 0.5070(2) 0.4704(2) 0.2293(4)
H5A H 0.47330 0.44920 0.22850
C6A C 0.5417(5) 0.4546(3) 0.1807(4)
H6A H 0.54940 0.41590 0.18100
H7A H 0.57580 0.47440 0.18080
C7A C 0.5070(4) 0.4701(3) 0.1306(8)
H8A H 0.52690 0.46140 0.09770
H9A H 0.47370 0.44890 0.13070
N1B N 0.2821(3) 0.5322(2) 0.4638(3)
C1B C 0.3598(4) 0.6138(4) 0.4371(5)
H1B H 0.33680 0.61900 0.46670
C2B C 0.3505(5) 0.5712(4) 0.4026(5)
C3B C 0.3027(4) 0.5329(4) 0.4085(5)
H2B H 0.27380 0.54410 0.38400
H3B H 0.31380 0.49650 0.39830
H4B H 0.34030 0.52390 0.52130
C5B C 0.2293(2) 0.5070(2) 0.4704(4)
H5B H 0.22850 0.47330 0.44920
C6B C 0.1807(5) 0.5417(3) 0.4546(4)
H6B H 0.18100 0.54940 0.41590
H7B H 0.18080 0.57580 0.47440
C7B C 0.1306(4) 0.5070(3) 0.4701(8)
H8B H 0.09770 0.52690 0.46140
H9B H 0.13070 0.47370 0.44890
N1C N 0.7179(3) 0.4678(2) 0.4638(3)
C1C C 0.6402(4) 0.3862(4) 0.4371(5)
H1C H 0.66320 0.38100 0.46670
C2C C 0.6495(5) 0.4288(4) 0.4026(5)
C3C C 0.6973(4) 0.4671(4) 0.4085(5)
H2C H 0.72620 0.45590 0.38400
H3C H 0.68620 0.50350 0.39830
C4C C 0.68270 0.5000(5) 0.50000
H4C H 0.65970 0.47610 0.52130
C5C C 0.7707(2) 0.4930(2) 0.4704(4)
H5C H 0.77150 0.52670 0.44920
C6C C 0.8193(5) 0.4583(3) 0.4546(4)
H6C H 0.81900 0.45060 0.41590
H7C H 0.81920 0.42420 0.47440
C7C C 0.8694(4) 0.4930(3) 0.4701(8)
H8C H 0.90230 0.47310 0.46140
H9C H 0.86930 0.52630 0.44890
N1D N 0.5322(3) 0.5362(2) 0.7179(3)
C1D C 0.6138(4) 0.5629(4) 0.6402(5)
H1D H 0.61900 0.53330 0.66320
C2D C 0.5712(5) 0.5974(4) 0.6495(5)
C3D C 0.5329(4) 0.5915(4) 0.6973(5)
H2D H 0.54410 0.61600 0.72620
H3D H 0.49650 0.60170 0.68620
H4D H 0.52390 0.47870 0.65970
C5D C 0.5070(2) 0.5296(2) 0.7707(4)
H5D H 0.47330 0.55080 0.77150
C6D C 0.5417(5) 0.5454(3) 0.8193(4)
H6D H 0.54940 0.58410 0.81900
H7D H 0.57580 0.52560 0.81920
C7D C 0.5070(4) 0.5299(3) 0.8694(8)
H8D H 0.52690 0.53860 0.90230
H9D H 0.47370 0.55110 0.86930
N1E N 0.7179(3) 0.5322(2) 0.5362(3)
C1E C 0.6402(4) 0.6138(4) 0.5629(5)
H1E H 0.66320 0.61900 0.53330
C2E C 0.6495(5) 0.5712(4) 0.5974(5)
C3E C 0.6973(4) 0.5329(4) 0.5915(5)
H2E H 0.72620 0.54410 0.61600
H3E H 0.68620 0.49650 0.60170
H4E H 0.65970 0.52390 0.47870
C5E C 0.7707(2) 0.5070(2) 0.5296(4)
H5E H 0.77150 0.47330 0.55080
C6E C 0.8193(5) 0.5417(3) 0.5454(4)
H6E H 0.81900 0.54940 0.58410
H7E H 0.81920 0.57580 0.52560
C7E C 0.8694(4) 0.5070(3) 0.5299(8)
H8E H 0.90230 0.52690 0.53860
H9E H 0.86930 0.47370 0.55110
N1F N 0.4678(3) 0.5362(2) 0.2821(3)
C1F C 0.3862(4) 0.5629(4) 0.3598(5)
H1F H 0.38100 0.53330 0.33680
C2F C 0.4288(5) 0.5974(4) 0.3505(5)
C3F C 0.4671(4) 0.5915(4) 0.3027(5)
H2F H 0.45590 0.61600 0.27380
H3F H 0.50350 0.60170 0.31380
H4F H 0.47610 0.47870 0.34030
C5F C 0.4930(2) 0.5296(2) 0.2293(4)
H5F H 0.52670 0.55080 0.22850
C6F C 0.4583(5) 0.5454(3) 0.1807(4)
H6F H 0.45060 0.58410 0.18100
H7F H 0.42420 0.52560 0.18080
C7F C 0.4930(4) 0.5299(3) 0.1306(8)
H8F H 0.47310 0.53860 0.09770
H9F H 0.52630 0.55110 0.13070
N1I N 0.5362(3) 0.7179(2) 0.5322(3)
C1I C 0.5629(4) 0.6402(4) 0.6138(5)
H1I H 0.53330 0.66320 0.61900
C2I C 0.5974(5) 0.6495(4) 0.5712(5)
C3I C 0.5915(4) 0.6973(4) 0.5329(5)
H2I H 0.61600 0.72620 0.54410
H3I H 0.60170 0.68620 0.49650
C4I C 0.50000 0.6827(5) 0.50000
H4I H 0.47870 0.65970 0.52390
C5I C 0.5296(2) 0.7707(2) 0.5070(4)
H5I H 0.55080 0.77150 0.47330
C6I C 0.5454(5) 0.8193(3) 0.5417(4)
H6I H 0.58410 0.81900 0.54940
H7I H 0.52560 0.81920 0.57580
C7I C 0.5299(4) 0.8694(3) 0.5070(8)
H8I H 0.53860 0.90230 0.52690
H9I H 0.55110 0.86930 0.47370
N1J N 0.4638(3) 0.7179(2) 0.4678(3)
C1J C 0.4371(4) 0.6402(4) 0.3862(5)
H1J H 0.46670 0.66320 0.38100
C2J C 0.4026(5) 0.6495(4) 0.4288(5)
C3J C 0.4085(4) 0.6973(4) 0.4671(5)
H2J H 0.38400 0.72620 0.45590
H3J H 0.39830 0.68620 0.50350
H4J H 0.52130 0.65970 0.47610
C5J C 0.4704(2) 0.7707(2) 0.4930(4)
H5J H 0.44920 0.77150 0.52670
C6J C 0.4546(5) 0.8193(3) 0.4583(4)
H6J H 0.41590 0.81900 0.45060
H7J H 0.47440 0.81920 0.42420
C7J C 0.4701(4) 0.8694(3) 0.4930(8)
H8J H 0.46140 0.90230 0.47310
H9J H 0.44890 0.86930 0.52630
N2P N 0.4755(2) 0.2031(2) 0.2867(2)
C8P C 0.5217(3) 0.2388(2) 0.2782(2)
H10P H 0.55510 0.21870 0.28440
H11P H 0.52030 0.26850 0.30420
C9P C 0.4430(3) 0.2147(3) 0.3240(3)
H12P H 0.44980 0.24550 0.34480
C10P C 0.3944(3) 0.1821(3) 0.3367(3)
C11P C 0.3812(3) 0.1369(3) 0.3053(3)
H13P H 0.40280 0.12770 0.27560
N2MA N 0.2867(2) 0.0245(2) 0.2969(2)
C8MA C 0.2782(3) -0.0217(2) 0.2612(2)
H10MA H 0.28440 -0.05510 0.28130
H11MA H 0.30420 -0.02030 0.23150
C9MA C 0.3240(3) 0.0570(3) 0.2853(3)
H12MA H 0.34480 0.05020 0.25450
C10MA C 0.3367(3) 0.1056(3) 0.3179(3)
C11MA C 0.3053(3) 0.1188(3) 0.3631(3)
H13MA H 0.27560 0.09720 0.37230
N2SA N 0.2031(2) 0.2867(2) 0.4755(2)
C8SA C 0.2388(3) 0.2782(2) 0.5217(2)
H10SA H 0.21870 0.28440 0.55510
H11SA H 0.26850 0.30420 0.52030
C9SA C 0.2147(3) 0.3240(3) 0.4430(3)
H12SA H 0.24550 0.34480 0.44980
C10SA C 0.1821(3) 0.3367(3) 0.3944(3)
C11SA C 0.1369(3) 0.3053(3) 0.3812(3)
H13SA H 0.12770 0.27560 0.40280
N2A N 0.4755(2) 0.2969(2) 0.2133(2)
C8A C 0.5217(3) 0.2612(2) 0.2218(2)
H10A H 0.55510 0.28130 0.21560
H11A H 0.52030 0.23150 0.19580
C9A C 0.4430(3) 0.2853(3) 0.1760(3)
H12A H 0.44980 0.25450 0.15520
C10A C 0.3944(3) 0.3179(3) 0.1633(3)
C11A C 0.3812(3) 0.3631(3) 0.1947(3)
H13A H 0.40280 0.37230 0.22440
N2B N 0.2133(2) 0.4755(2) 0.2969(2)
C8B C 0.2218(3) 0.5217(2) 0.2612(2)
H10B H 0.21560 0.55510 0.28130
H11B H 0.19580 0.52030 0.23150
C9B C 0.1760(3) 0.4430(3) 0.2853(3)
H12B H 0.15520 0.44980 0.25450
C10B C 0.1633(3) 0.3944(3) 0.3179(3)
C11B C 0.1947(3) 0.3812(3) 0.3631(3)
H13B H 0.22440 0.40280 0.37230
N2T N 0.2133(2) 0.0245(2) 0.2031(2)
C8T C 0.2218(3) -0.0217(2) 0.2388(2)
H10T H 0.21560 -0.05510 0.21870
H11T H 0.19580 -0.02030 0.26850
C9T C 0.1760(3) 0.0570(3) 0.2147(3)
H12T H 0.15520 0.05020 0.24550
C10T C 0.1633(3) 0.1056(3) 0.1821(3)
C11T C 0.1947(3) 0.1188(3) 0.1369(3)
H13T H 0.22440 0.09720 0.12770
N2CA N 0.2867(2) 0.4755(2) 0.2031(2)
C8CA C 0.2782(3) 0.5217(2) 0.2388(2)
H10CA H 0.28440 0.55510 0.21870
H11CA H 0.30420 0.52030 0.26850
C9CA C 0.3240(3) 0.4430(3) 0.2147(3)
H12CA H 0.34480 0.44980 0.24550
C10CA C 0.3367(3) 0.3944(3) 0.1821(3)
C11CA C 0.3053(3) 0.3812(3) 0.1369(3)
H13CA H 0.27560 0.40280 0.12770
N2EA N 0.0245(2) 0.2969(2) 0.2867(2)
C8EA C -0.0217(3) 0.2612(2) 0.2782(2)
H10EA H -0.05510 0.28130 0.28440
H11EA H -0.02030 0.23150 0.30420
C9EA C 0.0570(3) 0.2853(3) 0.3240(3)
H12EA H 0.05020 0.25450 0.34480
C10EA C 0.1056(3) 0.3179(3) 0.3367(3)
C11EA C 0.1188(3) 0.3631(3) 0.3053(3)
H13EA H 0.09720 0.37230 0.27560
N2PA N 0.0245(2) 0.2031(2) 0.2133(2)
C8PA C -0.0217(3) 0.2388(2) 0.2218(2)
H10PA H -0.05510 0.21870 0.21560
H11PA H -0.02030 0.26850 0.19580
C9PA C 0.0570(3) 0.2147(3) 0.1760(3)
H12PA H 0.05020 0.24550 0.15520
C10PA C 0.1056(3) 0.1821(3) 0.1633(3)
C11PA C 0.1188(3) 0.1369(3) 0.1947(3)
H13PA H 0.09720 0.12770 0.22440
N2V N 0.2969(2) 0.2867(2) 0.0245(2)
C8V C 0.2612(3) 0.2782(2) -0.0217(2)
H10V H 0.28130 0.28440 -0.05510
H11V H 0.23150 0.30420 -0.02030
C9V C 0.2853(3) 0.3240(3) 0.0570(3)
H12V H 0.25450 0.34480 0.05020
C10V C 0.3179(3) 0.3367(3) 0.1056(3)
C11V C 0.3631(3) 0.3053(3) 0.1188(3)
H13V H 0.37230 0.27560 0.09720
N2IA N 0.2031(2) 0.2133(2) 0.0245(2)
C8IA C 0.2388(3) 0.2218(2) -0.0217(2)
H10IA H 0.21870 0.21560 -0.05510
H11IA H 0.26850 0.19580 -0.02030
C9IA C 0.2147(3) 0.1760(3) 0.0570(3)
H12IA H 0.24550 0.15520 0.05020
C10IA C 0.1821(3) 0.1633(3) 0.1056(3)
C11IA C 0.1369(3) 0.1947(3) 0.1188(3)
H13IA H 0.12770 0.22440 0.09720
#END
