
#######################################################################
#
#                 Cambridge Crystallographic Data Centre
#                                CCDC
#
#######################################################################
#
# If this CIF has been generated from an entry in the Cambridge
# Structural Database, then it will include bibliographic, chemical,
# crystal, experimental, refinement or atomic coordinate data resulting
# from the CCDC's data processing and validation procedures.
#
#######################################################################

data_CSD_CIF_CAXFOZ
_audit_creation_date 2017-05-26
_audit_creation_method CSD-ConQuest-V1
_database_code_CSD CAXFOZ
_database_code_depnum_ccdc_archive 'CCDC 1546305'
_chemical_formula_sum 'C72 H88 N12 O2'
_chemical_formula_moiety
;
C72 H84 N12,2(H2 O1)
;
_journal_coden_Cambridge 1350
_journal_volume 19
_journal_year 2017
_journal_page_first 4933
_journal_name_full 'CrystEngComm '
loop_
_publ_author_name
"S.Tothadi"
"M.A.Little"
"T.Hasell"
"M.E.Briggs"
"Samantha Y.Chong"
"Ming Liu"
"A.I.Cooper"
_chemical_name_systematic
;
5,12,20,27,35,42,50,57,62,69,74,81-dodecaazatridecacyclo[29.29.10.10^16,46^.1^
3,59^.1^14,18^.1^29,33^.1^44,48^.0^6,11^.0^21,26^.0^36,41^.0^51,56^.0^63,68^.0
^75,80^]tetraoctaconta-1,3(71),4,12,14(84),15,17,19,27,29(83),30,32,34,42,44(7
2),45,47,49,57,59,61,69,73,81-tetracosaene dihydrate
;
_cell_volume  14123.702
_exptl_crystal_colour 'colorless'
_exptl_crystal_density_diffrn 1.086
_exptl_crystal_description 'prism'
_diffrn_ambient_temperature 100
_diffrn_special_details
;
twin

;
_refine_special_details
;
C10,C11,C12A,C13B,C8,C9,N2,O2 and C15,C16,C17,C18A,C18B,C19,C20,N3,O12 and O4 
disordered over three sites with occupancies 
0.5,0.5,0.25,0.25,0.5,0.5,0.5,0.25:0.5,0.5,0.5,0.25,0.25,0.25,0.25,0.5,0.25:0.
25; C6,C7 and C6,C7 disordered over two sites with occupancies 0.5:0.5; C6,C7 
disordered by symmetry over two configurations with occupancy 0.5; O3 
disordered by symmetry over three configurations with occupancy 0.3333.
;
#These two values have been output from a single CSD field.
_refine_ls_R_factor_gt 0.0941
_refine_ls_wR_factor_gt 0.0941
_symmetry_cell_setting cubic
_symmetry_space_group_name_H-M 'F 2 3'
_symmetry_Int_Tables_number 196
loop_
_symmetry_equiv_pos_site_id
_symmetry_equiv_pos_as_xyz
1 x,y,z
2 -x,-y,z
3 -x,y,-z
4 x,-y,-z
5 z,x,y
6 z,-x,-y
7 -z,-x,y
8 -z,x,-y
9 y,z,x
10 -y,z,-x
11 y,-z,-x
12 -y,-z,x
13 x,1/2+y,1/2+z
14 -x,1/2-y,1/2+z
15 -x,1/2+y,1/2-z
16 x,1/2-y,1/2-z
17 z,1/2+x,1/2+y
18 z,1/2-x,1/2-y
19 -z,1/2-x,1/2+y
20 -z,1/2+x,1/2-y
21 y,1/2+z,1/2+x
22 -y,1/2+z,1/2-x
23 y,1/2-z,1/2-x
24 -y,1/2-z,1/2+x
25 1/2+x,y,1/2+z
26 1/2-x,-y,1/2+z
27 1/2-x,y,1/2-z
28 1/2+x,-y,1/2-z
29 1/2+z,x,1/2+y
30 1/2+z,-x,1/2-y
31 1/2-z,-x,1/2+y
32 1/2-z,x,1/2-y
33 1/2+y,z,1/2+x
34 1/2-y,z,1/2-x
35 1/2+y,-z,1/2-x
36 1/2-y,-z,1/2+x
37 1/2+x,1/2+y,z
38 1/2-x,1/2-y,z
39 1/2-x,1/2+y,-z
40 1/2+x,1/2-y,-z
41 1/2+z,1/2+x,y
42 1/2+z,1/2-x,-y
43 1/2-z,1/2-x,y
44 1/2-z,1/2+x,-y
45 1/2+y,1/2+z,x
46 1/2-y,1/2+z,-x
47 1/2+y,1/2-z,-x
48 1/2-y,1/2-z,x
_cell_length_a 24.1722(10)
_cell_length_b 24.1722(10)
_cell_length_c 24.1722(10)
_cell_angle_alpha 90
_cell_angle_beta 90
_cell_angle_gamma 90
_cell_formula_units_Z 8
loop_
_atom_type_symbol
_atom_type_radius_bond
C 0.68
H 0.23
N 0.68
O 0.68
loop_
_atom_site_label
_atom_site_type_symbol
_atom_site_fract_x
_atom_site_fract_y
_atom_site_fract_z
N1 N 0.7300(2) 0.5382(3) 0.5475(2)
C1 C 0.7763(3) 0.5292(3) 0.5106(3)
H1 H 0.771(3) 0.552(3) 0.473(3)
C2 C 0.6943(3) 0.5743(3) 0.5335(3)
H2 H 0.69940 0.59390 0.49990
C3 C 0.6325(3) 0.5546(3) 0.6130(3)
H3 H 0.65480 0.52350 0.62210
C4 C 0.6456(3) 0.5866(3) 0.5675(3)
C5 C 0.8327(3) 0.5353(4) 0.5406(4)
H4 H 0.83360 0.57150 0.55960
H5 H 0.83550 0.50620 0.56930
C6 C 0.8824(9) 0.5311(10) 0.5030(11)
H6 H 0.91660 0.54510 0.52080
H7 H 0.87650 0.55020 0.46730
N2 N 0.7983(4) 0.7111(5) 0.4817(4)
C7 C 0.8187(5) 0.6628(5) 0.3968(5)
C8 C 0.7831(5) 0.6777(5) 0.4446(5)
H8 H 0.74750 0.66140 0.44740
C9 C 0.8047(5) 0.6175(4) 0.3649(5)
H9 H 0.77310 0.59600 0.37410
C10 C 0.7598(5) 0.7198(5) 0.5279(5)
H10 H 0.72740 0.69430 0.52440
H11 H 0.79810 0.67010 0.58270
H12 H 0.82440 0.73010 0.57950
C11 C 0.7687(12) 0.7213(12) 0.6282(13)
C12 C 0.7888(11) 0.7100(9) 0.5818(6)
O1 O 0.873(3) 0.873(3) 0.373(3)
O2 O 0.5713(10) 0.5713(10) 0.4287(10)
O3 O 0.5485(18) 0.5485(18) 0.4515(18)
O4 O 0.75000 0.25000 0.75000
H13? H 0.83170 0.51920 0.57830
H14? H 0.84470 0.57440 0.54260
C13? C 0.8709(8) 0.50000 0.50000
H15? H 0.89490 0.52510 0.47820
H16? H 0.89490 0.52510 0.47820
N3? N 0.7890(6) 0.7960(6) 0.4792(5)
C14? C 0.8380(6) 0.8162(6) 0.3956(6)
C15? C 0.8048(7) 0.8621(6) 0.3819(6)
H17? H 0.77340 0.87010 0.40410
C16? C 0.8247(6) 0.7814(6) 0.4451(7)
H18? H 0.84400 0.74760 0.45060
C17? C 0.7757(12) 0.7565(14) 0.5294(12)
C18? C 0.8056(18) 0.7039(18) 0.544(2)
C19? C 0.7726(13) 0.7937(13) 0.5836(12)
C20? C 0.7757(12) 0.7565(14) 0.5294(12)
O5? O 0.795(2) 0.763(2) 0.512(2)
O6? O 0.841(5) 0.659(5) 0.341(5)
C21? C 0.75000 0.75000 0.6247(19)
O7? O 0.87210 0.64010 0.38390
C22? C 0.7888(11) 0.7100(9) 0.5818(6)
N1C N 0.7300(2) 0.4618(3) 0.4525(2)
C1C C 0.7763(3) 0.4708(3) 0.4894(3)
H1C H 0.771(3) 0.448(3) 0.527(3)
C2C C 0.6943(3) 0.4257(3) 0.4665(3)
H2C H 0.69940 0.40610 0.50010
C3C C 0.6325(3) 0.4454(3) 0.3870(3)
H3C H 0.65480 0.47650 0.37790
C4C C 0.6456(3) 0.4134(3) 0.4325(3)
C5C C 0.8327(3) 0.4647(4) 0.4594(4)
H4C H 0.83360 0.42850 0.44040
H5C H 0.83550 0.49380 0.43070
C6C C 0.8824(9) 0.4689(10) 0.4970(11)
H6C H 0.91660 0.45490 0.47920
H7C H 0.87650 0.44980 0.53270
N1D N 0.5475(2) 0.7300(3) 0.5382(2)
C1D C 0.5106(3) 0.7763(3) 0.5292(3)
H1D H 0.473(3) 0.771(3) 0.552(3)
C2D C 0.5335(3) 0.6943(3) 0.5743(3)
H2D H 0.49990 0.69940 0.59390
C3D C 0.6130(3) 0.6325(3) 0.5546(3)
H3D H 0.62210 0.65480 0.52350
C4D C 0.5675(3) 0.6456(3) 0.5866(3)
C5D C 0.5406(3) 0.8327(4) 0.5353(4)
H4D H 0.55960 0.83360 0.57150
H5D H 0.56930 0.83550 0.50620
C6D C 0.5030(9) 0.8824(10) 0.5311(11)
H6D H 0.52080 0.91660 0.54510
H7D H 0.46730 0.87650 0.55020
N1H N 0.5382(2) 0.5475(3) 0.7300(2)
C1H C 0.5292(3) 0.5106(3) 0.7763(3)
H1H H 0.552(3) 0.473(3) 0.771(3)
C2H C 0.5743(3) 0.5335(3) 0.6943(3)
H2H H 0.59390 0.49990 0.69940
C3H C 0.5546(3) 0.6130(3) 0.6325(3)
H3H H 0.52350 0.62210 0.65480
C4H C 0.5866(3) 0.5675(3) 0.6456(3)
C5H C 0.5353(3) 0.5406(4) 0.8327(4)
H4H H 0.57150 0.55960 0.83360
H5H H 0.50620 0.56930 0.83550
C6H C 0.5311(9) 0.503(1) 0.8824(11)
H6H H 0.54510 0.52080 0.91660
H7H H 0.55020 0.46730 0.87650
N1E N 0.5475(2) 0.2700(3) 0.4618(2)
C1E C 0.5106(3) 0.2237(3) 0.4708(3)
H1E H 0.473(3) 0.229(3) 0.448(3)
C2E C 0.5335(3) 0.3057(3) 0.4257(3)
H2E H 0.49990 0.30060 0.40610
C3E C 0.6130(3) 0.3675(3) 0.4454(3)
H3E H 0.62210 0.34520 0.47650
C4E C 0.5675(3) 0.3544(3) 0.4134(3)
C5E C 0.5406(3) 0.1673(4) 0.4647(4)
H4E H 0.55960 0.16640 0.42850
H5E H 0.56930 0.16450 0.49380
C6E C 0.5030(9) 0.1176(10) 0.4689(11)
H6E H 0.52080 0.08340 0.45490
H7E H 0.46730 0.12350 0.44980
N1F N 0.4525(2) 0.2700(3) 0.5382(2)
C1F C 0.4894(3) 0.2237(3) 0.5292(3)
H1F H 0.527(3) 0.229(3) 0.552(3)
C2F C 0.4665(3) 0.3057(3) 0.5743(3)
H2F H 0.50010 0.30060 0.59390
C3F C 0.3870(3) 0.3675(3) 0.5546(3)
H3F H 0.37790 0.34520 0.52350
C4F C 0.4325(3) 0.3544(3) 0.5866(3)
C5F C 0.4594(3) 0.1673(4) 0.5353(4)
H4F H 0.44040 0.16640 0.57150
H5F H 0.43070 0.16450 0.50620
C6F C 0.4970(9) 0.1176(10) 0.5311(11)
H6F H 0.47920 0.08340 0.54510
H7F H 0.53270 0.12350 0.55020
N1G N 0.4525(2) 0.7300(3) 0.4618(2)
C1G C 0.4894(3) 0.7763(3) 0.4708(3)
H1G H 0.527(3) 0.771(3) 0.448(3)
C2G C 0.4665(3) 0.6943(3) 0.4257(3)
H2G H 0.50010 0.69940 0.40610
C3G C 0.3870(3) 0.6325(3) 0.4454(3)
H3G H 0.37790 0.65480 0.47650
C4G C 0.4325(3) 0.6456(3) 0.4134(3)
C5G C 0.4594(3) 0.8327(4) 0.4647(4)
H4G H 0.44040 0.83360 0.42850
H5G H 0.43070 0.83550 0.49380
C6G C 0.4970(9) 0.8824(10) 0.4689(11)
H6G H 0.47920 0.91660 0.45490
H7G H 0.53270 0.87650 0.44980
N1I N 0.4618(2) 0.5475(3) 0.2700(2)
C1I C 0.4708(3) 0.5106(3) 0.2237(3)
H1I H 0.448(3) 0.473(3) 0.229(3)
C2I C 0.4257(3) 0.5335(3) 0.3057(3)
H2I H 0.40610 0.49990 0.30060
C3I C 0.4454(3) 0.6130(3) 0.3675(3)
H3I H 0.47650 0.62210 0.34520
C4I C 0.4134(3) 0.5675(3) 0.3544(3)
C5I C 0.4647(3) 0.5406(4) 0.1673(4)
H4I H 0.42850 0.55960 0.16640
H5I H 0.49380 0.56930 0.16450
C6I C 0.4689(9) 0.503(1) 0.1176(11)
H6I H 0.45490 0.52080 0.08340
H7I H 0.44980 0.46730 0.12350
N1J N 0.5382(2) 0.4525(3) 0.2700(2)
C1J C 0.5292(3) 0.4894(3) 0.2237(3)
H1J H 0.552(3) 0.527(3) 0.229(3)
C2J C 0.5743(3) 0.4665(3) 0.3057(3)
H2J H 0.59390 0.50010 0.30060
C3J C 0.5546(3) 0.3870(3) 0.3675(3)
H3J H 0.52350 0.37790 0.34520
C4J C 0.5866(3) 0.4325(3) 0.3544(3)
C5J C 0.5353(3) 0.4594(4) 0.1673(4)
H4J H 0.57150 0.44040 0.16640
H5J H 0.50620 0.43070 0.16450
C6J C 0.5311(9) 0.497(1) 0.1176(11)
H6J H 0.54510 0.47920 0.08340
H7J H 0.55020 0.53270 0.12350
N1K N 0.4618(2) 0.4525(3) 0.7300(2)
C1K C 0.4708(3) 0.4894(3) 0.7763(3)
H1K H 0.448(3) 0.527(3) 0.771(3)
C2K C 0.4257(3) 0.4665(3) 0.6943(3)
H2K H 0.40610 0.50010 0.69940
C3K C 0.4454(3) 0.3870(3) 0.6325(3)
H3K H 0.47650 0.37790 0.65480
C4K C 0.4134(3) 0.4325(3) 0.6456(3)
C5K C 0.4647(3) 0.4594(4) 0.8327(4)
H4K H 0.42850 0.44040 0.83360
H5K H 0.49380 0.43070 0.83550
C6K C 0.4689(9) 0.497(1) 0.8824(11)
H6K H 0.45490 0.47920 0.91660
H7K H 0.44980 0.53270 0.87650
N1A N 0.2700(2) 0.4618(3) 0.5475(2)
C1A C 0.2237(3) 0.4708(3) 0.5106(3)
H1A H 0.229(3) 0.448(3) 0.473(3)
C2A C 0.3057(3) 0.4257(3) 0.5335(3)
H2A H 0.30060 0.40610 0.49990
C3A C 0.3675(3) 0.4454(3) 0.6130(3)
H3A H 0.34520 0.47650 0.62210
C4A C 0.3544(3) 0.4134(3) 0.5675(3)
C5A C 0.1673(3) 0.4647(4) 0.5406(4)
H4A H 0.16640 0.42850 0.55960
H5A H 0.16450 0.49380 0.56930
C6A C 0.1176(9) 0.4689(10) 0.5030(11)
H6A H 0.08340 0.45490 0.52080
H7A H 0.12350 0.44980 0.46730
N1B N 0.2700(2) 0.5382(3) 0.4525(2)
C1B C 0.2237(3) 0.5292(3) 0.4894(3)
H1B H 0.229(3) 0.552(3) 0.527(3)
C2B C 0.3057(3) 0.5743(3) 0.4665(3)
H2B H 0.30060 0.59390 0.50010
C3B C 0.3675(3) 0.5546(3) 0.3870(3)
H3B H 0.34520 0.52350 0.37790
C4B C 0.3544(3) 0.5866(3) 0.4325(3)
C5B C 0.1673(3) 0.5353(4) 0.4594(4)
H4B H 0.16640 0.57150 0.44040
H5B H 0.16450 0.50620 0.43070
C6B C 0.1176(9) 0.5311(10) 0.4970(11)
H6B H 0.08340 0.54510 0.47920
H7B H 0.12350 0.55020 0.53270
N2IA N 0.7889(4) 0.5183(5) 0.2983(4)
C7IA C 0.8372(5) 0.6032(5) 0.3187(5)
C8IA C 0.8223(5) 0.5554(5) 0.2831(5)
H8IA H 0.83860 0.55260 0.24750
C9IA C 0.8825(5) 0.6351(4) 0.3047(5)
H9IA H 0.90400 0.62590 0.27310
C10IA C 0.7802(5) 0.4721(5) 0.2598(5)
H10IA H 0.80570 0.47560 0.22740
H11IA H 0.82990 0.41730 0.29810
H12IA H 0.76990 0.42050 0.32440
C11IA C 0.7787(12) 0.3718(12) 0.2687(13)
C12IA C 0.7900(11) 0.4182(9) 0.2888(6)
N2KA N 0.7017(4) 0.7889(5) 0.4817(4)
C7KA C 0.6813(5) 0.8372(5) 0.3968(5)
C8KA C 0.7169(5) 0.8223(5) 0.4446(5)
H8KA H 0.75250 0.83860 0.44740
C9KA C 0.6953(5) 0.8825(4) 0.3649(5)
H9KA H 0.72690 0.90400 0.37410
C10KA C 0.7402(5) 0.7802(5) 0.5279(5)
H10KA H 0.77260 0.80570 0.52440
H11KA H 0.70190 0.82990 0.58270
H12KA H 0.67560 0.76990 0.57950
C11KA C 0.7313(12) 0.7787(12) 0.6282(13)
C12KA C 0.7112(11) 0.7900(9) 0.5818(6)
N2OA N 0.9817(4) 0.7017(5) 0.2889(4)
C7OA C 0.8968(5) 0.6813(5) 0.3372(5)
C8OA C 0.9446(5) 0.7169(5) 0.3223(5)
H8OA H 0.94740 0.75250 0.33860
C9OA C 0.8649(5) 0.6953(4) 0.3825(5)
H9OA H 0.87410 0.72690 0.40400
C10OA C 1.0279(5) 0.7402(5) 0.2802(5)
H10OA H 1.02440 0.77260 0.30570
H11OA H 1.08270 0.70190 0.32990
H12OA H 1.07950 0.67560 0.26990
C11OA C 1.1282(12) 0.7313(12) 0.2787(13)
C12OA C 1.0818(11) 0.7112(9) 0.2900(6)
N2G N 0.5183(4) 0.7983(5) 0.2889(4)
C7G C 0.6032(5) 0.8187(5) 0.3372(5)
C8G C 0.5554(5) 0.7831(5) 0.3223(5)
H8G H 0.55260 0.74750 0.33860
C9G C 0.6351(5) 0.8047(4) 0.3825(5)
H9G H 0.62590 0.77310 0.40400
C10G C 0.4721(5) 0.7598(5) 0.2802(5)
H10G H 0.47560 0.72740 0.30570
H11G H 0.41730 0.79810 0.32990
H12G H 0.42050 0.82440 0.26990
C11G C 0.3718(12) 0.7687(12) 0.2787(13)
C12G C 0.4182(11) 0.7888(9) 0.2900(6)
N2J N 0.7111(4) 0.5183(5) 0.2017(4)
C7J C 0.6628(5) 0.6032(5) 0.1813(5)
C8J C 0.6777(5) 0.5554(5) 0.2169(5)
H8J H 0.66140 0.55260 0.25250
C9J C 0.6175(5) 0.6351(4) 0.1953(5)
H9J H 0.59600 0.62590 0.22690
C10J C 0.7198(5) 0.4721(5) 0.2402(5)
H10J H 0.69430 0.47560 0.27260
H11J H 0.67010 0.41730 0.20190
H12J H 0.73010 0.42050 0.17560
C11J C 0.7213(12) 0.3718(12) 0.2313(13)
C12J C 0.7100(11) 0.4182(9) 0.2112(6)
N2R N 0.5183(4) 0.7017(5) 0.2111(4)
C7R C 0.6032(5) 0.6813(5) 0.1628(5)
C8R C 0.5554(5) 0.7169(5) 0.1777(5)
H8R H 0.55260 0.75250 0.16140
C9R C 0.6351(5) 0.6953(4) 0.1175(5)
H9R H 0.62590 0.72690 0.09600
C10R C 0.4721(5) 0.7402(5) 0.2198(5)
H10R H 0.47560 0.77260 0.19430
H11R H 0.41730 0.70190 0.17010
H12R H 0.42050 0.67560 0.23010
C11R C 0.3718(12) 0.7313(12) 0.2213(13)
C12R C 0.4182(11) 0.7112(9) 0.2100(6)
N2T N 0.7111(4) 0.9817(5) 0.2983(4)
C7T C 0.6628(5) 0.8968(5) 0.3187(5)
C8T C 0.6777(5) 0.9446(5) 0.2831(5)
H8T H 0.66140 0.94740 0.24750
C9T C 0.6175(5) 0.8649(4) 0.3047(5)
H9T H 0.59600 0.87410 0.27310
C10T C 0.7198(5) 1.0279(5) 0.2598(5)
H10T H 0.69430 1.02440 0.22740
H11T H 0.67010 1.08270 0.29810
H12T H 0.73010 1.07950 0.32440
C11T C 0.7213(12) 1.1282(12) 0.2687(13)
C12T C 0.7100(11) 1.0818(9) 0.2888(6)
N2BA N 0.9817(4) 0.7983(5) 0.2111(4)
C7BA C 0.8968(5) 0.8187(5) 0.1628(5)
C8BA C 0.9446(5) 0.7831(5) 0.1777(5)
H8BA H 0.94740 0.74750 0.16140
C9BA C 0.8649(5) 0.8047(4) 0.1175(5)
H9BA H 0.87410 0.77310 0.09600
C10BA C 1.0279(5) 0.7598(5) 0.2198(5)
H10BA H 1.02440 0.72740 0.19430
H11BA H 1.08270 0.79810 0.17010
H12BA H 1.07950 0.82440 0.23010
C11BA C 1.1282(12) 0.7687(12) 0.2213(13)
C12BA C 1.0818(11) 0.7888(9) 0.2100(6)
N2SA N 0.7889(4) 0.9817(5) 0.2017(4)
C7SA C 0.8372(5) 0.8968(5) 0.1813(5)
C8SA C 0.8223(5) 0.9446(5) 0.2169(5)
H8SA H 0.83860 0.94740 0.25250
C9SA C 0.8825(5) 0.8649(4) 0.1953(5)
H9SA H 0.90400 0.87410 0.22690
C10SA C 0.7802(5) 1.0279(5) 0.2402(5)
H10SA H 0.80570 1.02440 0.27260
H11SA H 0.82990 1.08270 0.20190
H12SA H 0.76990 1.07950 0.17560
C11SA C 0.7787(12) 1.1282(12) 0.2313(13)
C12SA C 0.7900(11) 1.0818(9) 0.2112(6)
N2O N 0.7983(4) 0.7889(5) 0.0183(4)
C7O C 0.8187(5) 0.8372(5) 0.1032(5)
C8O C 0.7831(5) 0.8223(5) 0.0554(5)
H8O H 0.74750 0.83860 0.05260
C9O C 0.8047(5) 0.8825(4) 0.1351(5)
H9O H 0.77310 0.90400 0.12590
C10O C 0.7598(5) 0.7802(5) -0.0279(5)
H10O H 0.72740 0.80570 -0.02440
H11O H 0.79810 0.82990 -0.08270
H12O H 0.82440 0.76990 -0.07950
C11O C 0.7687(12) 0.7787(12) -0.1282(13)
C12O C 0.7888(11) 0.7900(9) -0.0818(6)
N2Z N 0.7017(4) 0.7111(5) 0.0183(4)
C7Z C 0.6813(5) 0.6628(5) 0.1032(5)
C8Z C 0.7169(5) 0.6777(5) 0.0554(5)
H8Z H 0.75250 0.66140 0.05260
C9Z C 0.6953(5) 0.6175(4) 0.1351(5)
H9Z H 0.72690 0.59600 0.12590
C10Z C 0.7402(5) 0.7198(5) -0.0279(5)
H10Z H 0.77260 0.69430 -0.02440
H11Z H 0.70190 0.67010 -0.08270
H12Z H 0.67560 0.73010 -0.07950
C11Z C 0.7313(12) 0.7213(12) -0.1282(13)
C12Z C 0.7112(11) 0.7100(9) -0.0818(6)
#END
