
#######################################################################
#
#                 Cambridge Crystallographic Data Centre
#                                CCDC
#
#######################################################################
#
# If this CIF has been generated from an entry in the Cambridge
# Structural Database, then it will include bibliographic, chemical,
# crystal, experimental, refinement or atomic coordinate data resulting
# from the CCDC's data processing and validation procedures.
#
#######################################################################

data_CSD_CIF_DEDTOY
_audit_creation_date 2017-09-26
_audit_creation_method CSD-ConQuest-V1
_database_code_CSD DEDTOY
_database_code_depnum_ccdc_archive 'CCDC 1520508'
_chemical_formula_sum 'C67.6 H77 N12'
_chemical_formula_moiety
;
C54 H60 N12,1.7(C8 H10)
;
_journal_coden_Cambridge 1542
_journal_volume 9
_journal_year 2017
_journal_page_first 6783
_journal_name_full 'Nanoscale '
loop_
_publ_author_name
"T.Hasell"
"M.A.Little"
"S.Y.Chong"
"M.Schmidtmann"
"M.E.Briggs"
"V.Santolini"
"K.E.Jelfs"
"A.I.Cooper"
_chemical_name_systematic
;
6,17,28,39,47,55-hexamethyl-5,8,16,19,27,30,38,41,46,49,54,57-dodecaazaheptacy
clo[21.21.6.6^12,34^.1^3,43^.1^10,14^.1^21,25^.1^32,36^]hexaconta-1,3(51),4,8,
10(60),11,13,15,19,21(59),22,24,26,30,32(52),33,35,37,41,43,45,49,53,57-tetrac
osaene m-xylene solvate
;
_cell_volume   6594.686
_exptl_crystal_colour 'colorless'
_exptl_crystal_density_diffrn 1.065
_exptl_crystal_description 'needle'
_diffrn_ambient_temperature 100
_refine_special_details
;
C40 and C39 disordered over two sites with occupancies 0.634:0.366; C44 and 
C43 disordered over two sites with occupancies 0.556:0.444; C51 and C50 
disordered over two sites with occupancies 0.773:0.227; C55 and C54 
disordered over two sites with occupancies 0.612:0.388; C59 and C58 
disordered over two sites with occupancies 0.534:0.466; C74,C75 and C76,C77 
disordered over two sites with occupancies 0.424:0.424.
;
#These two values have been output from a single CSD field.
_refine_ls_R_factor_gt 0.0786
_refine_ls_wR_factor_gt 0.0786
_symmetry_cell_setting orthorhombic
_symmetry_space_group_name_H-M 'P 21 21 21'
_symmetry_Int_Tables_number 19
loop_
_symmetry_equiv_pos_site_id
_symmetry_equiv_pos_as_xyz
1 x,y,z
2 1/2-x,-y,1/2+z
3 1/2+x,1/2-y,-z
4 -x,1/2+y,1/2-z
_cell_length_a 11.1553(19)
_cell_length_b 19.490(4)
_cell_length_c 30.332(6)
_cell_angle_alpha 90
_cell_angle_beta 90
_cell_angle_gamma 90
_cell_formula_units_Z 4
loop_
_atom_type_symbol
_atom_type_radius_bond
C 0.68
H 0.23
N 0.68
loop_
_atom_site_label
_atom_site_type_symbol
_atom_site_fract_x
_atom_site_fract_y
_atom_site_fract_z
N1 N 0.2922(5) 0.4386(3) 0.6608(3)
N2 N 0.3133(5) 0.4893(3) 0.7506(2)
N3 N 0.7687(5) 0.6588(3) 0.81988(18)
N4 N 0.9979(4) 0.6569(3) 0.77024(17)
N5 N 0.7283(4) 0.9525(2) 0.59298(18)
N6 N 0.9584(4) 0.8765(3) 0.61647(16)
N7 N 0.2685(4) 0.8131(3) 0.78332(18)
N8 N 0.2699(4) 0.9270(3) 0.71913(19)
N9 N 0.2609(4) 0.8022(3) 0.52127(17)
N10 N 0.3222(4) 0.6548(3) 0.50445(19)
N11 N 0.7839(4) 0.4698(3) 0.5501(2)
N12 N 1.0007(4) 0.5542(2) 0.56917(18)
C1 C 0.4169(5) 0.7230(3) 0.7804(2)
C2 C 0.5338(5) 0.7055(3) 0.7910(2)
H1 H 0.58780 0.74010 0.80060
C3 C 0.5729(5) 0.6379(3) 0.7877(2)
C4 C 0.4945(6) 0.5886(3) 0.7740(2)
H2 H 0.52060 0.54230 0.77190
C5 C 0.3757(6) 0.6053(3) 0.7630(2)
C6 C 0.3394(5) 0.6719(3) 0.7664(2)
H3 H 0.25910 0.68350 0.75900
C7 C 0.3756(6) 0.7943(3) 0.7861(2)
H4 H 0.43420 0.82830 0.79240
C8 C 0.6940(6) 0.6172(4) 0.8029(2)
H5 H 0.71690 0.57060 0.79980
C9 C 0.2909(6) 0.5521(3) 0.7497(2)
H6 H 0.21400 0.56610 0.73970
C10 C 0.3298(5) 0.9034(3) 0.6446(2)
C11 C 0.3007(5) 0.8725(3) 0.6054(2)
H7 H 0.22420 0.85180 0.60210
C12 C 0.3825(5) 0.8712(3) 0.5700(2)
C13 C 0.4933(5) 0.9014(3) 0.5753(2)
H8 H 0.54830 0.90170 0.55140
C14 C 0.5261(5) 0.9319(3) 0.6156(2)
C15 C 0.4456(5) 0.9329(3) 0.6498(2)
H9 H 0.46720 0.95350 0.67700
C16 C 0.2460(6) 0.9012(3) 0.6814(3)
H10 H 0.17050 0.87960 0.67720
C17 C 0.3553(5) 0.8351(3) 0.5287(2)
H11 H 0.41360 0.83670 0.50590
C18 C 0.6489(6) 0.9587(3) 0.6220(2)
H12 H 0.66820 0.98130 0.64880
C19 C 1.0073(4) 0.7010(3) 0.69642(18)
C20 C 0.9977(4) 0.7599(3) 0.67148(18)
H13 H 0.99350 0.80330 0.68560
C21 C 0.9940(4) 0.7561(3) 0.62533(18)
C22 C 1.0011(4) 0.6931(3) 0.60510(19)
H14 H 1.00010 0.69030 0.57380
C23 C 1.0099(4) 0.6319(3) 0.63049(19)
C24 C 1.0140(4) 0.6375(3) 0.67622(19)
H15 H 1.02160 0.59730 0.69370
C25 C 1.0027(5) 0.7073(3) 0.74515(19)
H16 H 1.00340 0.75190 0.75780
C26 C 0.9765(4) 0.8189(3) 0.59900(19)
H17 H 0.97900 0.81580 0.56780
C27 C 1.0103(4) 0.5648(3) 0.6101(2)
H18 H 1.01820 0.52590 0.62890
C28 C 0.5815(6) 0.5124(4) 0.5542(3)
C29 C 0.5014(6) 0.5582(4) 0.5365(2)
H19 H 0.52510 0.58610 0.51230
C30 C 0.3836(6) 0.5643(4) 0.5538(2)
C31 C 0.3522(6) 0.5233(4) 0.5884(3)
H20 H 0.27290 0.52610 0.59960
C32 C 0.4320(6) 0.4773(4) 0.6078(3)
C33 C 0.5465(6) 0.4720(4) 0.5911(3)
H21 H 0.60220 0.44130 0.60420
C34 C 0.7019(6) 0.5082(4) 0.5355(2)
H22 H 0.71960 0.53620 0.51070
C35 C 0.2978(6) 0.6119(4) 0.5350(2)
H23 H 0.21820 0.61100 0.54600
C36 C 0.3960(7) 0.4364(4) 0.6447(3)
H24 H 0.45300 0.40630 0.65750
C37 C 0.2201(6) 0.4417(4) 0.7359(3)
H25 H 0.15000 0.46790 0.72510
H26 H 0.19380 0.41290 0.76100
C38 C 0.2680(7) 0.3965(4) 0.6995(3)
H27 H 0.34260 0.37360 0.70930
C39 C 1.0014(5) 0.4828(3) 0.5537(2)
H28 H 0.99990 0.45150 0.57950
H29 H 1.07610 0.47400 0.53710
C40 C 0.8948(6) 0.4683(4) 0.5247(3)
H30 H 0.89080 0.50310 0.50090
C41 C 0.2247(5) 0.6921(3) 0.4855(2)
H31 H 0.15390 0.68760 0.50490
H32 H 0.20400 0.67110 0.45670
C42 C 0.2502(6) 0.7661(4) 0.4785(2)
H33 H 0.32790 0.77060 0.46230
C43 C 0.1519(7) 0.7972(4) 0.4508(3)
H34 H 0.07530 0.79320 0.46640
H35 H 0.14700 0.77280 0.42260
H36 H 0.16970 0.84570 0.44540
C44 C 0.1824(5) 0.9188(3) 0.7539(2)
H37 H 0.11430 0.89090 0.74310
H38 H 0.15120 0.96430 0.76280
C45 C 0.2398(6) 0.8840(3) 0.7930(2)
H39 H 0.31410 0.90880 0.80110
C46 C 0.8456(5) 0.9829(3) 0.6016(2)
H40 H 0.85390 0.99210 0.63360
H41 H 0.85220 1.02710 0.58580
C47 C 0.9451(5) 0.9356(3) 0.5868(2)
H42 H 0.92770 0.91900 0.55660
C48 C 0.9875(6) 0.6697(4) 0.8173(2)
H43 H 0.97750 0.71950 0.82260
H44 H 1.06150 0.65450 0.83240
C49 C 0.8812(6) 0.6314(4) 0.8358(2)
H45 H 0.88710 0.58240 0.82740
C50 C 0.157(1) 0.8851(7) 0.8331(4)
H46 H 0.07810 0.86710 0.82480
H47 H 0.14850 0.93230 0.84370
H48 H 0.19120 0.85650 0.85650
C51 C 1.0618(9) 0.9775(5) 0.5856(4)
H49 H 1.08100 0.99370 0.61540
H50 H 1.05150 1.01700 0.56590
H51 H 1.12730 0.94860 0.57470
C52 C 0.1821(14) 0.3424(8) 0.6905(8)
H52 H 0.18060 0.31020 0.71530
H53 H 0.20550 0.31790 0.66360
H54 H 0.10230 0.36240 0.68660
C53 C 0.883(2) 0.6363(17) 0.8882(7)
H55 H 0.95830 0.61780 0.89940
H56 H 0.87450 0.68440 0.89720
H57 H 0.81560 0.60970 0.90030
C54 C 0.9198(16) 0.3950(11) 0.5055(9)
H58 H 0.95280 0.36560 0.52880
H59 H 0.97740 0.39840 0.48120
H60 H 0.84470 0.37510 0.49460
H61? H 0.20840 0.36060 0.69210
H62? H 0.90420 0.42270 0.51080
H63? H 0.18450 0.88590 0.81840
H64? H 1.02150 0.96150 0.58590
H65? H 0.88280 0.63420 0.86840
C55? C 0.137(3) 0.9835(15) 0.7684(10)
H66? H 0.20340 1.01240 0.77840
H67? H 0.08070 0.97630 0.79280
H68? H 0.09520 1.00630 0.74400
C56? C 0.8558(17) 1.0425(8) 0.5655(7)
H69? H 0.84350 1.02310 0.53600
H70? H 0.93550 1.06350 0.56710
H71? H 0.79460 1.07750 0.57120
C57? C 0.1810(19) 0.395(1) 0.7712(6)
H72? H 0.25040 0.38150 0.78900
H73? H 0.14440 0.35410 0.75810
H74? H 0.12230 0.41840 0.78990
C58? C 1.1045(10) 0.6540(7) 0.8407(4)
H75? H 1.13050 0.60740 0.83330
H76? H 1.09280 0.65760 0.87260
H77? H 1.16580 0.68690 0.83130
C59? C 1.109(1) 0.4653(7) 0.5254(5)
H78? H 1.11920 0.50060 0.50270
H79? H 1.09650 0.42060 0.51140
H80? H 1.18100 0.46350 0.54390
C60 C 0.6357(6) 0.6330(5) 0.67097(13)
C61 C 0.6949(6) 0.6916(5) 0.67520(11)
H81 H 0.77860 0.69090 0.68110
C62 C 0.6372(7) 0.7532(6) 0.67116(16)
H82 H 0.68030 0.79500 0.67420
C63 C 0.5158(7) 0.7540(5) 0.66258(16)
H83 H 0.47560 0.79680 0.65980
C64 C 0.4539(6) 0.6959(4) 0.65815(14)
C65 C 0.5133(6) 0.6356(4) 0.66230(15)
H84 H 0.47010 0.59390 0.65920
C66 C 0.7017(9) 0.5683(6) 0.6756(2)
H85 H 0.74960 0.56010 0.64900
H86 H 0.64480 0.53050 0.67960
H87 H 0.75480 0.57090 0.70130
C67 C 0.3201(6) 0.6964(5) 0.6487(2)
H88 H 0.28030 0.72870 0.66860
H89 H 0.28740 0.65030 0.65320
H90 H 0.30650 0.71060 0.61810
C68 C 0.435(2) 0.7251(6) 0.9060(4)
C69 C 0.365(2) 0.7628(7) 0.9353(5)
H91 H 0.28040 0.75850 0.93490
C70 C 0.420(2) 0.8069(7) 0.9652(5)
H92 H 0.37230 0.83270 0.98530
C71 C 0.544(2) 0.8133(7) 0.9658(5)
H93 H 0.58120 0.84350 0.98630
C72 C 0.613(2) 0.7756(7) 0.9366(5)
C73 C 0.559(2) 0.7315(7) 0.9066(5)
H94 H 0.60640 0.70570 0.88660
C74 C 0.376(3) 0.6774(10) 0.8737(7)
H95 H 0.43790 0.65510 0.85570
H96 H 0.33040 0.64240 0.88970
H97 H 0.32210 0.70350 0.85450
C75 C 0.751(3) 0.7826(12) 0.9372(9)
H98 H 0.77410 0.81550 0.96010
H99 H 0.78690 0.73790 0.94360
H100 H 0.77860 0.79900 0.90850
H101? H 0.39750 0.69500 0.88560
H102? H 0.69820 0.77990 0.93700
C76? C 0.228(3) 0.7558(12) 0.9346(8)
H103? H 0.20480 0.72290 0.91180
H104? H 0.20020 0.73940 0.96340
H105? H 0.19200 0.80050 0.92830
C77? C 0.605(3) 0.8617(12) 0.9987(8)
H106? H 0.69170 0.85990 0.99460
H107? H 0.57630 0.90870 0.99370
H108? H 0.58460 0.84760 1.02880
#END
