
#######################################################################
#
#                 Cambridge Crystallographic Data Centre
#                                CCDC
#
#######################################################################
#
# If this CIF has been generated from an entry in the Cambridge
# Structural Database, then it will include bibliographic, chemical,
# crystal, experimental, refinement or atomic coordinate data resulting
# from the CCDC's data processing and validation procedures.
#
#######################################################################

data_CSD_CIF_DEDTUE
_audit_creation_date 2017-09-26
_audit_creation_method CSD-ConQuest-V1
_database_code_CSD DEDTUE
_database_code_depnum_ccdc_archive 'CCDC 1520509'
_chemical_formula_sum 'C151 H214 Cl2 N24 O10'
_chemical_formula_moiety
;
C72 H84 N12,C60 H72 N12,6(C3 H8 O1),4(H2 O1),C1 H2 Cl2
;
_journal_coden_Cambridge 1542
_journal_volume 9
_journal_year 2017
_journal_page_first 6783
_journal_name_full 'Nanoscale '
loop_
_publ_author_name
"T.Hasell"
"M.A.Little"
"S.Y.Chong"
"M.Schmidtmann"
"M.E.Briggs"
"V.Santolini"
"K.E.Jelfs"
"A.I.Cooper"
_chemical_name_systematic
;
5,12,20,27,35,42,50,57,62,69,74,81-dodecaazatridecacyclo[29.29.10.10^16,46^.1^
3,59^.1^14,18^.1^29,33^.1^44,48^.0^6,11^.0^21,26^.0^36,41^.0^51,56^.0^63,68^.0
^75,80^]tetraoctaconta-1,3(71),4,12,14(84),15,17,19,27,29(83),30,32,34,42,44(7
2),45,47,49,57,59,61,69,73,81-tetracosaene 
6,6,17,17,28,28,40,40,47,47,55,55-dodecamethyl-5,8,16,19,27,30,38,41,46,49,54,
57-dodecaazaheptacyclo[21.21.6.6^12,34^.1^3,43^.1^10,14^.1^21,25^.1^32,36^]hex
aconta-1,3(51),4,8,10(60),11,13,15,19,21(59),22,24,26,30,32(52),33,35,37,41,43
,45,49,53,57-tetracosaene propan-2-ol dichloromethane solvate tetrahydrate
;
_cell_volume   8641.110
_exptl_crystal_colour 'colorless'
_exptl_crystal_density_diffrn 0.998
_exptl_crystal_description 'hexagonal'
_diffrn_ambient_temperature 100
_refine_special_details
;
C14,C15,C47,C48,C49,C52,C53,C54,C58,C59,C60,O1,O2,O9 and 
C11,C12,C55,C56,C57,O10,O3 and Cl3 disordered over three sites with 
occupancies 
0.525,0.525,0.5,0.5,0.5,0.5,0.5,0.5,0.1667,0.1667,0.5,0.5,0.5,0.5:0.475,0.475,
0.5,0.5,0.5,0.25,0.5:0.1667; C50,C51,O4 disordered by symmetry over three 
configurations with occupancies 0.6667,0.3333,0.3333; C61,Cl2 disordered by 
symmetry over three configurations with occupancy 0.3333; O5,O6,O7 disordered 
by symmetry over three configurations with occupancy 0.3333.
;
#These two values have been output from a single CSD field.
_refine_ls_R_factor_gt 0.0916
_refine_ls_wR_factor_gt 0.0916
_symmetry_cell_setting hexagonal
_symmetry_space_group_name_H-M 'P 63'
_symmetry_Int_Tables_number 173
loop_
_symmetry_equiv_pos_site_id
_symmetry_equiv_pos_as_xyz
1 x,y,z
2 -y,x-y,z
3 -x+y,-x,z
4 -x,-y,1/2+z
5 y,-x+y,1/2+z
6 x-y,x,1/2+z
_cell_length_a 17.5938(7)
_cell_length_b 17.5938(7)
_cell_length_c 32.2344(13)
_cell_angle_alpha 90
_cell_angle_beta 90
_cell_angle_gamma 120
_cell_formula_units_Z 2
loop_
_atom_type_symbol
_atom_type_radius_bond
C 0.68
H 0.23
Cl 0.99
N 0.68
O 0.68
loop_
_atom_site_label
_atom_site_type_symbol
_atom_site_fract_x
_atom_site_fract_y
_atom_site_fract_z
N1 N 0.6183(4) 0.7232(4) 0.7236(2)
N2 N 0.6436(3) 0.8960(4) 0.71307(19)
N3 N 0.5179(4) 0.4986(4) 0.5571(2)
N4 N 0.4457(3) 0.5362(3) 0.48578(19)
C1 C 0.4217(4) 0.7289(4) 0.4922(2)
H1 H 0.48240 0.77170 0.49190
C2 C 0.3967(4) 0.6404(4) 0.4924(2)
C3 C 0.4636(4) 0.6152(4) 0.4903(2)
H2 H 0.52350 0.65980 0.49240
C4 C 0.5189(4) 0.5195(4) 0.4827(3)
H3 H 0.57540 0.57590 0.48620
C5 C 0.5170(6) 0.4815(7) 0.4400(3)
H4 H 0.46010 0.42700 0.43580
H5 H 0.52300 0.52410 0.41830
C6 C 0.5903(7) 0.4621(8) 0.4361(4)
H6 H 0.58790 0.43620 0.40860
H7 H 0.64730 0.51720 0.43860
C7 C 0.5832(7) 0.4014(8) 0.4684(5)
H8 H 0.63230 0.38950 0.46550
H9 H 0.52780 0.34520 0.46450
C8 C 0.5848(6) 0.4353(6) 0.5125(4)
H10 H 0.57700 0.39020 0.53310
H11 H 0.64210 0.48870 0.51780
C9 C 0.5104(4) 0.4565(5) 0.5169(3)
H12 H 0.45230 0.40130 0.51470
C10 C 0.4527(5) 0.4635(4) 0.5808(2)
H13 H 0.40140 0.41200 0.57170
C11 C 0.4529(4) 0.4991(4) 0.6220(2)
C12 C 0.5247(4) 0.5799(5) 0.6353(3)
H14 H 0.57170 0.61330 0.61670
C13 C 0.5275(4) 0.6103(5) 0.6744(2)
C14 C 0.4574(4) 0.5636(5) 0.7024(3)
H15 H 0.45880 0.58560 0.72950
C15 C 0.3855(4) 0.4837(5) 0.6892(3)
C16 C 0.3835(4) 0.4524(4) 0.6496(2)
H16 H 0.33430 0.39840 0.64110
C17 C 0.3158(5) 0.4335(5) 0.7200(2)
H17 H 0.31840 0.45990 0.74600
C18 C 0.6060(4) 0.6924(5) 0.6865(2)
H18 H 0.64950 0.72410 0.66610
C19 C 0.7016(4) 0.8016(4) 0.7324(2)
H19 H 0.73810 0.82010 0.70660
C20 C 0.7492(5) 0.7801(5) 0.7660(3)
H20 H 0.71020 0.75510 0.79040
H21 H 0.76240 0.73520 0.75530
C21 C 0.8332(5) 0.8598(5) 0.7793(3)
H22 H 0.87570 0.87940 0.75600
H23 H 0.85880 0.84390 0.80280
C22 C 0.8188(5) 0.9340(5) 0.7921(3)
H24 H 0.87620 0.98680 0.79810
H25 H 0.78330 0.91760 0.81780
C23 C 0.7716(5) 0.9556(5) 0.7580(3)
H26 H 0.76040 1.00240 0.76790
H27 H 0.80980 0.97790 0.73320
C24 C 0.6859(4) 0.8760(5) 0.7462(2)
H28 H 0.64640 0.85600 0.77100
N5 N 0.7679(6) 0.7103(6) 0.6145(3)
N6 N 0.9211(7) 0.6915(7) 0.6063(3)
N7 N 0.6442(4) 0.8161(6) 0.4501(3)
N8 N 0.7587(4) 0.8852(4) 0.3798(2)
C25 C 0.7729(5) 1.0123(9) 0.6161(3)
H29 H 0.78930 1.00720 0.64350
C26 C 0.7505(5) 0.9386(7) 0.5855(3)
C27 C 0.7224(5) 0.9415(7) 0.5462(3)
H30 H 0.71810 0.99100 0.53800
C28 C 0.7001(5) 0.8738(8) 0.5181(3)
C29 C 0.7060(5) 0.7996(7) 0.5303(3)
H31 H 0.69050 0.75250 0.51140
C30 C 0.7348(5) 0.7965(7) 0.5700(3)
C31 C 0.7561(5) 0.8661(8) 0.5977(3)
H32 H 0.77460 0.86330 0.62510
C32 C 0.6694(5) 0.8794(8) 0.4759(3)
H33 H 0.66840 0.93100 0.46800
C33 C 0.7397(6) 0.7175(8) 0.5809(4)
H34 H 0.72050 0.67110 0.56130
C34 C 0.7664(9) 0.6282(9) 0.6229(5)
H35 H 0.75180 0.59300 0.59710
H36 H 0.72070 0.59390 0.64380
C35 C 0.8543(9) 0.6465(8) 0.6387(4)
C36 C 0.6162(5) 0.8297(7) 0.4098(3)
H37 H 0.62710 0.89050 0.40790
H38 H 0.55240 0.78900 0.40640
C37 C 0.6666(5) 0.8136(5) 0.3751(3)
C38 C 0.6491(6) 0.7203(6) 0.3778(4)
H39 H 0.66110 0.70860 0.40600
H40 H 0.68710 0.71240 0.35820
H41 H 0.58750 0.67950 0.37090
C39 C 0.6360(6) 0.8308(6) 0.3336(3)
H42 H 0.66350 0.81620 0.31090
H43 H 0.65270 0.89280 0.33180
H44 H 0.57200 0.79430 0.33150
C40 C 0.8183(5) 0.8673(5) 0.3868(2)
H45 H 0.80300 0.80780 0.39040
C41 C 0.9373(4) 1.0254(4) 0.3895(2)
H46 H 0.89400 1.04270 0.38930
C42 C 0.9111(4) 0.9363(4) 0.3896(2)
C43 C 0.8534(11) 0.6746(11) 0.6788(6)
H47 H 0.84570 0.72600 0.67800
H48 H 0.90910 0.69020 0.69250
H49 H 0.80490 0.62730 0.69430
C44 C 0.8308(11) 0.5429(11) 0.6392(6)
H50 H 0.87890 0.53900 0.65240
H51 H 0.82320 0.52100 0.61060
H52 H 0.77650 0.50740 0.65480
O1 O 0.606(3) 0.486(3) 0.7586(14)
H53 H 0.58980 0.47430 0.78350
C45 C 0.4786(19) 0.368(2) 0.7577(10)
H54 H 0.44250 0.39220 0.74800
H55 H 0.48870 0.37770 0.78760
H56 H 0.44820 0.30460 0.75200
C46 C 0.5638(19) 0.411(2) 0.7357(12)
H57 H 0.55770 0.42320 0.70590
C47 C 0.612(3) 0.362(3) 0.7409(18)
H58 H 0.58260 0.30760 0.72460
H59 H 0.67240 0.39820 0.73120
H60 H 0.61190 0.34750 0.77020
O2 O 0.2121(9) 0.1007(10) 0.4896(5)
H61 H 0.18880 0.04880 0.48090
C48 C 0.3093(13) 0.1430(14) 0.4864(7)
H62 H 0.32700 0.09830 0.49240
C49 C 0.3595(12) 0.2206(11) 0.5144(6)
H63 H 0.32750 0.21090 0.54060
H64 H 0.36640 0.27360 0.50090
H65 H 0.41750 0.22790 0.52010
C50 C 0.3387(15) 0.1783(15) 0.4432(7)
H66 H 0.40270 0.20600 0.44130
H67 H 0.31150 0.13000 0.42310
H68 H 0.32100 0.22180 0.43690
O3 O 0.66670 0.33330 0.2544(11)
H69? H 0.87020 0.68380 0.66380
H70? H 0.85160 0.59070 0.64630
C51? C 0.734(2) 0.596(2) 0.6688(9)
H71? H 0.67210 0.58090 0.67150
H72? H 0.76960 0.64320 0.68840
H73? H 0.73880 0.54440 0.67500
C52? C 0.7581(19) 0.5649(18) 0.5990(9)
H74? H 0.81040 0.58610 0.58150
H75? H 0.70610 0.54500 0.58140
H76? H 0.75160 0.51590 0.61610
O4? O 0.531(5) 0.474(5) 0.799(2)
Cl1? Cl 0.3881(13) 0.696(2) 0.6052(9)
O5? O 0.5058(13) 0.3037(13) 0.2864(6)
H77? H 0.49560 0.33330 0.26930
C53? C 0.481(3) 0.404(3) 0.3266(17)
H78? H 0.47100 0.41620 0.35530
H79? H 0.53330 0.45530 0.31550
H80? H 0.42970 0.39320 0.30960
C54? C 0.492(3) 0.323(2) 0.3256(9)
H81? H 0.55430 0.35220 0.33560
C55? C 0.452(3) 0.252(3) 0.3575(13)
H82? H 0.44650 0.27710 0.38390
H83? H 0.39330 0.20710 0.34820
H84? H 0.48880 0.22570 0.36150
O6? O 1.00000 1.00000 0.6081(8)
C56? C 0.901(4) 0.881(4) 0.669(2)
C57? C 0.983(4) 0.948(3) 0.6454(10)
C58? C 1.00000 1.00000 0.6856(12)
O7? O 0.4077(17) 0.6995(16) 0.3304(8)
C59? C 0.3653(17) 0.6510(18) 0.3696(8)
C60? C 0.396(3) 0.592(3) 0.3804(16)
O8? O 0.0302(18) 0.0564(15) 0.5012(8)
O9? O 0.0906(19) 0.0755(17) 0.5087(8)
O10? O 0.0929(15) 0.0142(21) 0.5073(7)
Cl2? Cl 0.33330 0.66670 0.6481(10)
Cl3? Cl 0.4981(7) 0.7450(7) 0.5938(4)
C61? C 0.3881(13) 0.696(2) 0.6052(9)
N1A N 0.2768(4) 0.8951(4) 0.7236(2)
N2A N 0.1040(3) 0.7476(4) 0.71307(19)
N3A N 0.5014(4) 1.0193(4) 0.5571(2)
N4A N 0.4638(3) 0.9095(3) 0.48578(19)
C1A C 0.2711(4) 0.6928(4) 0.4922(2)
H1A H 0.22830 0.71070 0.49190
C2A C 0.3596(4) 0.7563(4) 0.4924(2)
C3A C 0.3848(4) 0.8484(4) 0.4903(2)
H2A H 0.34020 0.86370 0.49240
C4A C 0.4805(4) 0.9994(4) 0.4827(3)
H3A H 0.42410 0.99950 0.48620
C5A C 0.5185(6) 1.0355(7) 0.4400(3)
H4A H 0.57300 1.03310 0.43580
H5A H 0.47590 0.99890 0.41830
C6A C 0.5379(7) 1.1282(8) 0.4361(4)
H6A H 0.56380 1.15170 0.40860
H7A H 0.48280 1.13010 0.43860
C7A C 0.5986(7) 1.1818(8) 0.4684(5)
H8A H 0.61050 1.24280 0.46550
H9A H 0.65480 1.18260 0.46450
C8A C 0.5647(6) 1.1495(6) 0.5125(4)
H10A H 0.60980 1.18680 0.53310
H11A H 0.51130 1.15340 0.51780
C9A C 0.5435(4) 1.0539(5) 0.5169(3)
H12A H 0.59870 1.05100 0.51470
C10A C 0.5365(5) 0.9892(4) 0.5808(2)
H13A H 0.58800 0.98940 0.57170
C11A C 0.5009(4) 0.9538(4) 0.6220(2)
C12A C 0.4201(4) 0.9448(5) 0.6353(3)
H14A H 0.38670 0.95840 0.61670
C13A C 0.3897(4) 0.9172(5) 0.6744(2)
C14A C 0.4364(4) 0.8938(5) 0.7024(3)
H15A H 0.41440 0.87320 0.72950
C15A C 0.5163(4) 0.9018(5) 0.6892(3)
C16A C 0.5476(4) 0.9311(4) 0.6496(2)
H16A H 0.60160 0.93590 0.64110
C17A C 0.5665(5) 0.8823(5) 0.7200(2)
H17A H 0.54010 0.85850 0.74600
C18A C 0.3076(4) 0.9136(5) 0.6865(2)
H18A H 0.27590 0.92540 0.66610
C19A C 0.1984(4) 0.9000(4) 0.7324(2)
H19A H 0.17990 0.91800 0.70660
C20A C 0.2199(5) 0.9691(5) 0.7660(3)
H20A H 0.24490 0.95510 0.79040
H21A H 0.26480 1.02720 0.75530
C21A C 0.1402(5) 0.9734(5) 0.7793(3)
H22A H 0.12060 0.99630 0.75600
H23A H 0.15610 1.01490 0.80280
C22A C 0.0660(5) 0.8848(5) 0.7921(3)
H24A H 0.01320 0.88940 0.79810
H25A H 0.08240 0.86570 0.81780
C23A C 0.0444(5) 0.8160(5) 0.7580(3)
H26A H -0.00240 0.75800 0.76790
H27A H 0.02210 0.83190 0.73320
C24A C 0.1240(4) 0.8099(5) 0.7462(2)
H28A H 0.14400 0.79040 0.77100
N1B N 0.1049(4) 0.3817(4) 0.7236(2)
N2B N 0.2524(3) 0.3564(4) 0.71307(19)
N3B N -0.0193(4) 0.4821(4) 0.5571(2)
N4B N 0.0905(3) 0.5543(3) 0.48578(19)
C1B C 0.3072(4) 0.5783(4) 0.4922(2)
H1B H 0.28930 0.51760 0.49190
C2B C 0.2437(4) 0.6033(4) 0.4924(2)
C3B C 0.1516(4) 0.5364(4) 0.4903(2)
H2B H 0.13630 0.47650 0.49240
C4B C 0.0006(4) 0.4811(4) 0.4827(3)
H3B H 0.00050 0.42460 0.48620
C5B C -0.0355(6) 0.4830(7) 0.4400(3)
H4B H -0.03310 0.53990 0.43580
H5B H 0.00110 0.47700 0.41830
C6B C -0.1282(7) 0.4097(8) 0.4361(4)
H6B H -0.15170 0.41210 0.40860
H7B H -0.13010 0.35270 0.43860
C7B C -0.1818(7) 0.4168(8) 0.4684(5)
H8B H -0.24280 0.36770 0.46550
H9B H -0.18260 0.47220 0.46450
C8B C -0.1495(6) 0.4152(6) 0.5125(4)
H10B H -0.18680 0.42300 0.53310
H11B H -0.15340 0.35790 0.51780
C9B C -0.0539(4) 0.4896(5) 0.5169(3)
H12B H -0.05100 0.54770 0.51470
C10B C 0.0108(5) 0.5473(4) 0.5808(2)
H13B H 0.01060 0.59860 0.57170
C11B C 0.0462(4) 0.5471(4) 0.6220(2)
C12B C 0.0552(4) 0.4753(5) 0.6353(3)
H14B H 0.04160 0.42830 0.61670
C13B C 0.0828(4) 0.4725(5) 0.6744(2)
C14B C 0.1062(4) 0.5426(5) 0.7024(3)
H15B H 0.12680 0.54120 0.72950
C15B C 0.0982(4) 0.6145(5) 0.6892(3)
C16B C 0.0689(4) 0.6165(4) 0.6496(2)
H16B H 0.06410 0.66570 0.64110
C17B C 0.1177(5) 0.6842(5) 0.7200(2)
H17B H 0.14150 0.68160 0.74600
C18B C 0.0864(4) 0.3940(5) 0.6865(2)
H18B H 0.07460 0.35050 0.66610
C19B C 0.1000(4) 0.2984(4) 0.7324(2)
H19B H 0.08200 0.26190 0.70660
C20B C 0.0309(5) 0.2508(5) 0.7660(3)
H20B H 0.04490 0.28980 0.79040
H21B H -0.02720 0.23760 0.75530
C21B C 0.0266(5) 0.1668(5) 0.7793(3)
H22B H 0.00370 0.12430 0.75600
H23B H -0.01490 0.14120 0.80280
C22B C 0.1152(5) 0.1812(5) 0.7921(3)
H24B H 0.11060 0.12380 0.79810
H25B H 0.13430 0.21670 0.81780
C23B C 0.1840(5) 0.2284(5) 0.7580(3)
H26B H 0.24200 0.23960 0.76790
H27B H 0.16810 0.19020 0.73320
C24B C 0.1901(4) 0.3141(5) 0.7462(2)
H28B H 0.20960 0.35360 0.77100
N5A N 1.2897(6) 1.0576(6) 0.6145(3)
N6A N 1.3085(7) 1.2296(7) 0.6063(3)
N7A N 1.1839(4) 0.8281(6) 0.4501(3)
N8A N 1.1148(4) 0.8735(4) 0.3798(2)
C25A C 0.9877(5) 0.7606(9) 0.6161(3)
H29A H 0.99280 0.78210 0.64350
C26A C 1.0614(5) 0.8119(7) 0.5855(3)
C27A C 1.0585(5) 0.7809(7) 0.5462(3)
H30A H 1.00900 0.72710 0.53800
C28A C 1.1262(5) 0.8263(8) 0.5181(3)
C29A C 1.2004(5) 0.9064(7) 0.5303(3)
H31A H 1.24750 0.93800 0.51140
C30A C 1.2035(5) 0.9383(7) 0.5700(3)
C31A C 1.1339(5) 0.8900(8) 0.5977(3)
H32A H 1.13670 0.91130 0.62510
C32A C 1.1206(5) 0.7900(8) 0.4759(3)
H33A H 1.06900 0.73740 0.46800
C33A C 1.2825(6) 1.0222(8) 0.5809(4)
H34A H 1.32890 1.04940 0.56130
C34A C 1.3718(9) 1.1382(9) 0.6229(5)
H35A H 1.40700 1.15880 0.59710
H36A H 1.40610 1.12680 0.64380
C35A C 1.3535(9) 1.2078(8) 0.6387(4)
C36A C 1.1703(5) 0.7865(7) 0.4098(3)
H37A H 1.10950 0.73660 0.40790
H38A H 1.21100 0.76340 0.40640
C37A C 1.1864(5) 0.8530(5) 0.3751(3)
C38A C 1.2797(6) 0.9288(6) 0.3778(4)
H39A H 1.29140 0.95250 0.40600
H40A H 1.28760 0.97470 0.35820
H41A H 1.32050 0.90800 0.37090
C39A C 1.1692(6) 0.8052(6) 0.3336(3)
H42A H 1.18380 0.84730 0.31090
H43A H 1.10720 0.75990 0.33180
H44A H 1.20570 0.77770 0.33150
C40A C 1.1327(5) 0.9510(5) 0.3868(2)
H45A H 1.19220 0.99520 0.39040
C41A C 0.9746(4) 0.9119(4) 0.3895(2)
H46A H 0.95730 0.85130 0.38930
C42A C 1.0637(4) 0.9748(4) 0.3896(2)
C43A C 1.3254(11) 1.1788(11) 0.6788(6)
H47A H 1.27400 1.11970 0.67800
H48A H 1.30980 1.21890 0.69250
H49A H 1.37270 1.17760 0.69430
C44A C 1.4571(11) 1.2879(11) 0.6392(6)
H50A H 1.46100 1.33990 0.65240
H51A H 1.47900 1.30220 0.61060
H52A H 1.49260 1.26910 0.65480
N5B N 0.9424(6) 1.2321(6) 0.6145(3)
N6B N 0.7704(7) 1.0789(7) 0.6063(3)
N7B N 1.1719(4) 1.3558(6) 0.4501(3)
N8B N 1.1265(4) 1.2413(4) 0.3798(2)
C25B C 1.2394(5) 1.2271(9) 0.6161(3)
H29B H 1.21790 1.21070 0.64350
C26B C 1.1881(5) 1.2495(7) 0.5855(3)
C27B C 1.2191(5) 1.2776(7) 0.5462(3)
H30B H 1.27290 1.28190 0.53800
C28B C 1.1737(5) 1.2999(8) 0.5181(3)
C29B C 1.0936(5) 1.2940(7) 0.5303(3)
H31B H 1.06200 1.30950 0.51140
C30B C 1.0617(5) 1.2652(7) 0.5700(3)
C31B C 1.1100(5) 1.2439(8) 0.5977(3)
H32B H 1.08870 1.22540 0.62510
C32B C 1.2100(5) 1.3306(8) 0.4759(3)
H33B H 1.26260 1.33160 0.46800
C33B C 0.9778(6) 1.2603(8) 0.5809(4)
H34B H 0.95060 1.27950 0.56130
C34B C 0.8618(9) 1.2336(9) 0.6229(5)
H35B H 0.84120 1.24820 0.59710
H36B H 0.87320 1.27930 0.64380
C35B C 0.7922(9) 1.1457(8) 0.6387(4)
C36B C 1.2135(5) 1.3838(7) 0.4098(3)
H37B H 1.26340 1.37290 0.40790
H38B H 1.23660 1.44760 0.40640
C37B C 1.1470(5) 1.3334(5) 0.3751(3)
C38B C 1.0712(6) 1.3509(6) 0.3778(4)
H39B H 1.04750 1.33890 0.40600
H40B H 1.02530 1.31290 0.35820
H41B H 1.09200 1.41250 0.37090
C39B C 1.1948(6) 1.3640(6) 0.3336(3)
H42B H 1.15270 1.33650 0.31090
H43B H 1.24010 1.34730 0.33180
H44B H 1.22230 1.42800 0.33150
C40B C 1.0490(5) 1.1817(5) 0.3868(2)
H45B H 1.00480 1.19700 0.39040
C41B C 1.0881(4) 1.0627(4) 0.3895(2)
H46B H 1.14870 1.10600 0.38930
C42B C 1.0252(4) 1.0889(4) 0.3896(2)
C43B C 0.8212(11) 1.1466(11) 0.6788(6)
H47B H 0.88030 1.15430 0.67800
H48B H 0.78110 1.09090 0.69250
H49B H 0.82240 1.19510 0.69430
C44B C 0.7121(11) 1.1692(11) 0.6392(6)
H50B H 0.66010 1.12110 0.65240
H51B H 0.69780 1.17680 0.61060
H52B H 0.73090 1.22350 0.65480
O1A O 0.514(3) 0.120(3) 0.7586(14)
H53A H 0.52570 0.11550 0.78350
C45A C 0.6320(19) 0.1106(20) 0.7577(10)
H54A H 0.60780 0.05030 0.74800
H55A H 0.62230 0.11100 0.78760
H56A H 0.69540 0.14360 0.75200
C46A C 0.5890(19) 0.1528(20) 0.7357(12)
H57A H 0.57680 0.13450 0.70590
C47A C 0.638(3) 0.250(3) 0.7409(18)
H58A H 0.69240 0.27500 0.72460
H59A H 0.60180 0.27420 0.73120
H60A H 0.65250 0.26440 0.77020
O1B O 0.880(3) 0.394(3) 0.7586(14)
H53B H 0.88450 0.41020 0.78350
C45B C 0.8894(19) 0.5214(20) 0.7577(10)
H54B H 0.94970 0.55750 0.74800
H55B H 0.88900 0.51130 0.78760
H56B H 0.85640 0.55180 0.75200
C46B C 0.8472(19) 0.4362(20) 0.7357(12)
H57B H 0.86550 0.44230 0.70590
C47B C 0.750(3) 0.388(3) 0.7409(18)
H58B H 0.72500 0.41740 0.72460
H59B H 0.72580 0.32760 0.73120
H60B H 0.73560 0.38810 0.77020
#END
