
#######################################################################
#
#                 Cambridge Crystallographic Data Centre
#                                CCDC
#
#######################################################################
#
# If this CIF has been generated from an entry in the Cambridge
# Structural Database, then it will include bibliographic, chemical,
# crystal, experimental, refinement or atomic coordinate data resulting
# from the CCDC's data processing and validation procedures.
#
#######################################################################

data_CSD_CIF_DEDVAM
_audit_creation_date 2017-09-26
_audit_creation_method CSD-ConQuest-V1
_database_code_CSD DEDVAM
_database_code_depnum_ccdc_archive 'CCDC 1520510'
_chemical_formula_sum 'C65 H80.25 N12 O7.625'
_chemical_formula_moiety
;
C54 H54 N12,2.75(C4 H8 O2),2.125(H2 O1)
;
_journal_coden_Cambridge 1542
_journal_volume 9
_journal_year 2017
_journal_page_first 6783
_journal_name_full 'Nanoscale '
loop_
_publ_author_name
"T.Hasell"
"M.A.Little"
"S.Y.Chong"
"M.Schmidtmann"
"M.E.Briggs"
"V.Santolini"
"K.E.Jelfs"
"A.I.Cooper"
_chemical_name_systematic
;
6,17,28,40,48,56-hexamethyl-5,8,16,19,27,30,38,41,46,49,54,57-dodecaazaheptacy
clo[21.21.6.6^12,34^.1^3,43^.1^10,14^.1^21,25^.1^32,36^]hexaconta-1,3(51),4,8,
10(60),11,13,15,19,21(59),22,24,26,30,32(52),33,35,37,41,43,45,49,53,57-tetrac
osaene 1,4-dioxane solvate hydrate
;
_cell_volume  14380.817
_exptl_crystal_colour 'colorless'
_exptl_crystal_density_diffrn 1.064
_exptl_crystal_description 'block'
_diffrn_ambient_temperature 100
_refine_special_details
;
C10,C11 disordered by symmetry over three configurations with occupancy 
0.3333; C17,C24,C35,C6,O5 and C17B,C24B,C35B,C6B,O6 disordered over two sites 
with occupancies 0.792,0.784,0.729,0.673,0.5:0.208,0.216,0.271,0.327,0.25; 
C41,C42,O3,O4 disordered by symmetry over three configurations with 
occupancies 0.6667,0.6667,0.3333,0.3333; C45,C46,O43,O44 disordered by 
symmetry over three configurations with occupancies 
0.6667,0.6667,0.3333,0.3333; C48,C49 disordered by symmetry over two 
configurations with occupancy 0.5; O7 and O8 disordered over two sites with 
occupancies 0.25:0.25.
;
#These two values have been output from a single CSD field.
_refine_ls_R_factor_gt 0.0722
_refine_ls_wR_factor_gt 0.0722
_symmetry_cell_setting cubic
_symmetry_space_group_name_H-M 'P 21 3'
_symmetry_Int_Tables_number 198
loop_
_symmetry_equiv_pos_site_id
_symmetry_equiv_pos_as_xyz
1 x,y,z
2 1/2-x,-y,1/2+z
3 -x,1/2+y,1/2-z
4 1/2+x,1/2-y,-z
5 z,x,y
6 1/2+z,1/2-x,-y
7 1/2-z,-x,1/2+y
8 -z,1/2+x,1/2-y
9 y,z,x
10 -y,1/2+z,1/2-x
11 1/2+y,1/2-z,-x
12 1/2-y,-z,1/2+x
_cell_length_a 24.318(2)
_cell_length_b 24.318(2)
_cell_length_c 24.318(2)
_cell_angle_alpha 90
_cell_angle_beta 90
_cell_angle_gamma 90
_cell_formula_units_Z 8
loop_
_atom_type_symbol
_atom_type_radius_bond
C 0.68
H 0.23
N 0.68
O 0.68
loop_
_atom_site_label
_atom_site_type_symbol
_atom_site_fract_x
_atom_site_fract_y
_atom_site_fract_z
N1 N 0.6725(2) 0.3589(2) 0.6585(2)
N2 N 0.6971(2) 0.3250(2) 0.5445(2)
N3 N 0.95151(19) 0.2670(2) 0.49621(19)
N4 N 1.03079(18) 0.23784(19) 0.5826(2)
C1 C 0.6690(2) 0.2571(3) 0.7664(3)
H1 H 0.63710 0.23800 0.75440
C2 C 0.6860(3) 0.3027(3) 0.7373(3)
C3 C 0.6570(3) 0.3201(3) 0.6884(3)
H2 H 0.62440 0.30100 0.67840
C4 C 0.6381(3) 0.3718(3) 0.6097(3)
H3 H 0.61780 0.40650 0.61620
H4 H 0.61090 0.34210 0.60400
C5 C 0.6730(3) 0.3777(3) 0.5595(3)
C6 C 0.6348(5) 0.3991(5) 0.5156(5)
H5 H 0.65610 0.40870 0.48280
H6 H 0.61570 0.43190 0.52930
H7 H 0.60780 0.37070 0.50630
C7 C 0.7478(2) 0.3244(3) 0.5335(3)
H8 H 0.76810 0.35760 0.53640
C8 C 0.7765(2) 0.2740(2) 0.5164(2)
C9 C 0.7474(2) 0.2253(2) 0.5071(2)
H9 H 0.70860 0.22490 0.51120
C10 C 0.7742(2) 0.1788(2) 0.4923(2)
C11 C 0.8313(2) 0.1780(2) 0.4864(2)
H10 H 0.84970 0.14520 0.47590
C12 C 0.8610(2) 0.2261(2) 0.4961(2)
C13 C 0.8325(2) 0.2737(2) 0.5110(2)
H11 H 0.85250 0.30660 0.51760
C14 C 0.9214(2) 0.2253(3) 0.4896(2)
H12 H 0.93850 0.19150 0.47980
C15 C 1.0097(2) 0.2612(3) 0.4869(2)
H13 H 1.02100 0.28520 0.45610
H14 H 1.01810 0.22270 0.47680
C16 C 1.0417(2) 0.2767(3) 0.5384(2)
C17 C 1.1023(3) 0.2790(3) 0.5276(3)
H15 H 1.12170 0.28820 0.56170
H16 H 1.10990 0.30710 0.49970
H17 H 1.11490 0.24310 0.51420
C18 C 1.0176(2) 0.2582(2) 0.6283(2)
H18 H 1.01370 0.29700 0.63050
N5 N 0.9158(2) 0.4163(2) 0.6163(2)
N6 N 0.8038(2) 0.4450(2) 0.58791(19)
N7 N 0.7220(2) 0.5081(2) 0.3480(2)
N8 N 0.8008(2) 0.4740(2) 0.2620(2)
C19 C 1.0161(2) 0.4190(2) 0.5058(2)
H19 H 1.00430 0.38700 0.48670
C20 C 0.9871(2) 0.4370(2) 0.5519(2)
C21 C 0.9395(2) 0.4060(2) 0.5711(3)
H20 H 0.92560 0.37710 0.54880
C22 C 0.8683(3) 0.3828(2) 0.6317(2)
C23 C 0.8194(3) 0.4197(3) 0.6397(2)
C24 C 0.7975(3) 0.4956(3) 0.5870(3)
H21 H 0.80420 0.51620 0.61960
C25 C 0.7798(3) 0.5247(3) 0.5368(3)
C26 C 0.7747(3) 0.5811(3) 0.5363(3)
H22 H 0.78260 0.60140 0.56880
C27 C 0.7577(3) 0.6096(3) 0.4878(3)
C28 C 0.7457(3) 0.5787(3) 0.4415(3)
H23 H 0.73440 0.59700 0.40890
C29 C 0.7499(3) 0.5215(3) 0.4414(3)
C30 C 0.7668(3) 0.4951(3) 0.4899(3)
H24 H 0.76940 0.45620 0.49060
C31 C 0.7365(3) 0.4885(3) 0.3937(3)
H25 H 0.73880 0.44960 0.39710
C32 C 0.7076(3) 0.4697(3) 0.3040(3)
C33 C 0.7409(3) 0.4825(3) 0.2538(3)
C34 C 0.8316(3) 0.5142(3) 0.2529(3)
H26 H 0.81510 0.54800 0.24220
C35 C 0.7250(15) 0.4355(15) 0.2175(15)
H27 H 0.75700 0.42360 0.19610
H28 H 0.69560 0.44720 0.19250
H29 H 0.71180 0.40490 0.24020
H30 H 0.66790 0.47290 0.29540
H31 H 0.71500 0.43150 0.31610
H32 H 0.87620 0.36260 0.66620
H33 H 0.86050 0.35560 0.60250
C36 C 0.797(2) 0.3816(19) 0.669(2)
H34 H 0.76130 0.39440 0.68240
H35 H 0.82090 0.37250 0.69980
H36 H 0.79150 0.34880 0.64580
O1 O 0.8129(3) 0.3762(3) 0.4229(3)
O2 O 0.8995(3) 0.3435(3) 0.3510(3)
C37 C 0.8618(5) 0.4098(4) 0.4169(5)
H37 H 0.86930 0.42940 0.45180
H38 H 0.85580 0.43760 0.38780
C38 C 0.9097(4) 0.3744(4) 0.4022(4)
H39 H 0.94280 0.39770 0.39760
H40 H 0.91700 0.34830 0.43260
C39 C 0.8514(4) 0.3114(4) 0.3570(5)
H41 H 0.85750 0.28320 0.38570
H42 H 0.84350 0.29230 0.32190
C40 C 0.8024(4) 0.3468(4) 0.3728(5)
H43 H 0.79470 0.37330 0.34290
H44 H 0.76960 0.32320 0.37750
O3 O 0.4238(9) 0.4238(9) 0.4238(9)
O4 O 0.5089(11) 0.3788(11) 0.4554(11)
O5 O 0.7278(13) 0.6917(14) 0.6362(13)
H45? H 0.65030 0.39150 0.52870
H46? H 0.70270 0.40470 0.56660
C41? C 0.6093(13) 0.4245(13) 0.6076(13)
H47? H 0.57280 0.42050 0.62430
H48? H 0.60520 0.43600 0.56920
H49? H 0.63040 0.45220 0.62780
H50? H 1.08160 0.27700 0.53010
H51? H 1.03100 0.31420 0.55030
C42? C 1.028(3) 0.271(3) 0.432(3)
H52? H 1.03880 0.23610 0.41490
H53? H 1.05990 0.29590 0.43270
H54? H 0.99840 0.28790 0.41060
O6? O 0.4981(11) 0.4485(12) 0.4168(11)
O7? O 0.5517(12) 0.4807(12) 0.4182(12)
O8? O 0.8013(13) 0.2244(6) 0.6988(14)
O9? O 0.8743(8) 0.1633(11) 0.6560(12)
C43? C 0.7991(6) 0.2188(6) 0.6497(6)
C44? C 0.8606(7) 0.2139(7) 0.6533(7)
O10? O 0.9224(12) 0.5295(12) 0.3898(9)
O11? O 0.9552(10) 0.5578(12) 0.3789(9)
C45? C 0.8781(9) 0.5708(10) 0.3886(9)
C46? C 0.9591(15) 0.5290(13) 0.4302(9)
O12? O 0.5583(9) 0.5583(9) 0.5583(9)
C47? C 0.621(2) 0.558(2) 0.556(3)
C48? C 0.631(2) 0.564(2) 0.614(3)
O13? O 0.627(1) 0.627(1) 0.627(1)
C49? C 0.754(2) 0.207(2) 0.299(2)
C50? C 0.689(3) 0.156(4) 0.337(4)
O14? O 0.748(3) 0.143(3) 0.312(3)
O15? O 0.729(3) 0.204(3) 0.340(3)
H55? H 0.72820 0.45880 0.22320
H56? H 0.73430 0.52120 0.24300
C51? C 0.6464(3) 0.4783(4) 0.2891(4)
H57? H 0.62330 0.46790 0.32050
H58? H 0.63690 0.45530 0.25730
H59? H 0.64000 0.51700 0.28010
C52? C 0.8802(3) 0.3522(3) 0.6858(4)
H60? H 0.91410 0.33070 0.68190
H61? H 0.84950 0.32750 0.69430
H62? H 0.88470 0.37890 0.71560
H63? H 0.78810 0.39790 0.65420
H64? H 0.82840 0.44860 0.66690
N1F N 0.8415(2) 0.3275(2) 0.8589(2)
N2F N 0.9555(2) 0.3029(2) 0.8250(2)
N3F N 1.00379(19) 0.04849(20) 0.76700(19)
N4F N 0.91740(18) -0.03079(19) 0.73784(20)
C1F C 0.7336(2) 0.3310(3) 0.7571(3)
H1F H 0.74560 0.36290 0.73800
C2F C 0.7627(3) 0.3140(3) 0.8027(3)
C3F C 0.8116(3) 0.3430(3) 0.8201(3)
H2F H 0.82160 0.37560 0.80100
C4F C 0.8903(3) 0.3619(3) 0.8718(3)
H3F H 0.88380 0.38220 0.90650
H4F H 0.89600 0.38910 0.84210
C5F C 0.9405(3) 0.3270(3) 0.8777(3)
C6F C 0.9844(5) 0.3652(5) 0.8991(5)
H5F H 1.01720 0.34390 0.90870
H6F H 0.97070 0.38430 0.93190
H7F H 0.99370 0.39220 0.87070
C7F C 0.9665(2) 0.2522(3) 0.8244(3)
H8F H 0.96360 0.23190 0.85760
C8F C 0.9836(2) 0.2235(2) 0.7740(2)
C9F C 0.9929(2) 0.2526(2) 0.7253(2)
H9F H 0.98880 0.29140 0.72490
C10F C 1.0077(2) 0.2258(2) 0.6788(2)
C11F C 1.0136(2) 0.1687(2) 0.6780(2)
H10F H 1.02410 0.15030 0.64520
C12F C 1.0039(2) 0.1390(2) 0.7261(2)
C13F C 0.9890(2) 0.1675(2) 0.7737(2)
H11F H 0.98240 0.14750 0.80660
C14F C 1.0104(2) 0.0786(3) 0.7253(2)
H12F H 1.02020 0.06150 0.69150
C15F C 1.0131(2) -0.0097(3) 0.7612(2)
H13F H 1.04390 -0.02100 0.78520
H14F H 1.02320 -0.01810 0.72270
C16F C 0.9616(2) -0.0417(3) 0.7767(2)
C17F C 0.9724(3) -0.1023(3) 0.7790(3)
H15F H 0.93830 -0.12170 0.78820
H16F H 1.00030 -0.10990 0.80710
H17F H 0.98580 -0.11490 0.74310
C18F C 0.8717(2) -0.0176(2) 0.7582(2)
H18F H 0.86950 -0.01370 0.79700
N1I N 0.6411(2) 0.1585(2) 0.8275(2)
N2I N 0.6750(2) 0.0445(2) 0.8029(2)
N3I N 0.73300(19) -0.00379(20) 0.54849(19)
N4I N 0.76216(18) 0.08260(19) 0.46921(20)
C1I C 0.7429(2) 0.2664(3) 0.8310(3)
H1I H 0.76200 0.25440 0.86290
C2I C 0.6973(3) 0.2373(3) 0.8140(3)
C3I C 0.6799(3) 0.1884(3) 0.8430(3)
H2I H 0.69900 0.17840 0.87560
C4I C 0.6282(3) 0.1097(3) 0.8619(3)
H3I H 0.59350 0.11620 0.88220
H4I H 0.65790 0.10400 0.88910
C5I C 0.6223(3) 0.0595(3) 0.8270(3)
C6I C 0.6009(5) 0.0156(5) 0.8652(5)
H5I H 0.59130 -0.01720 0.84390
H6I H 0.56810 0.02930 0.88430
H7I H 0.62930 0.00630 0.89220
C7I C 0.6756(2) 0.0335(3) 0.7522(3)
H8I H 0.64240 0.03640 0.73190
C8I C 0.7260(2) 0.0164(2) 0.7235(2)
C9I C 0.7747(2) 0.0071(2) 0.7526(2)
H9I H 0.77510 0.01120 0.79140
C10I C 0.8212(2) -0.0077(2) 0.7258(2)
C11I C 0.8220(2) -0.0136(2) 0.6687(2)
H10I H 0.85480 -0.02410 0.65030
C12I C 0.7739(2) -0.0039(2) 0.6390(2)
C13I C 0.7263(2) 0.0110(2) 0.6675(2)
H11I H 0.69340 0.01760 0.64750
C14I C 0.7747(2) -0.0104(3) 0.5786(2)
H12I H 0.80850 -0.02020 0.56150
C15I C 0.7388(2) -0.0131(3) 0.4903(2)
H13I H 0.71480 -0.04390 0.47900
H14I H 0.77730 -0.02320 0.48190
C16I C 0.7233(2) 0.0384(3) 0.4583(2)
C17I C 0.7210(3) 0.0276(3) 0.3977(3)
H15I H 0.71180 0.06170 0.37830
H16I H 0.69290 -0.00030 0.39010
H17I H 0.75690 0.01420 0.38510
C18I C 0.7418(2) 0.1283(2) 0.4824(2)
H18I H 0.70300 0.13050 0.48630
N5E N 1.1163(2) 0.5842(2) 0.5837(2)
N6E N 1.08791(20) 0.6962(2) 0.55500(19)
N7E N 0.8480(2) 0.7780(2) 0.4919(2)
N8E N 0.7620(2) 0.6992(2) 0.5260(2)
C19E C 1.0058(2) 0.4839(2) 0.5810(2)
H19E H 0.98670 0.49570 0.61300
C20E C 1.0519(2) 0.5129(2) 0.5630(2)
C21E C 1.0711(2) 0.5605(2) 0.5940(3)
H20E H 1.04880 0.57440 0.62290
C22E C 1.1317(3) 0.6317(2) 0.6172(2)
C23E C 1.1397(3) 0.6806(3) 0.5803(2)
C24E C 1.0870(3) 0.7025(3) 0.5044(3)
H21E H 1.11960 0.69580 0.48380
C25E C 1.0368(3) 0.7202(3) 0.4753(3)
C26E C 1.0363(3) 0.7253(3) 0.4189(3)
H22E H 1.06880 0.71740 0.39860
C27E C 0.9878(3) 0.7423(3) 0.3904(3)
C28E C 0.9415(3) 0.7543(3) 0.4213(3)
H23E H 0.90890 0.76560 0.40300
C29E C 0.9414(3) 0.7501(3) 0.4785(3)
C30E C 0.9899(3) 0.7332(3) 0.5049(3)
H24E H 0.99060 0.73060 0.54380
C31E C 0.8937(3) 0.7635(3) 0.5115(3)
H25E H 0.89710 0.76120 0.55040
C32E C 0.8040(3) 0.7924(3) 0.5303(3)
C33E C 0.7538(3) 0.7591(3) 0.5175(3)
C34E C 0.7529(3) 0.6684(3) 0.4858(3)
H26E H 0.74220 0.68490 0.45200
C35E C 0.7175(15) 0.7750(15) 0.5645(15)
H27E H 0.69610 0.74300 0.57640
H28E H 0.69250 0.80440 0.55280
H29E H 0.74020 0.78820 0.59510
H30E H 0.79540 0.83210 0.52710
H31E H 0.81610 0.78500 0.56850
H32E H 1.16620 0.62380 0.63740
H33E H 1.10250 0.63950 0.64440
C36E C 1.169(2) 0.7030(19) 0.6184(20)
H34E H 1.18240 0.73870 0.60560
H35E H 1.19980 0.67910 0.62750
H36E H 1.14580 0.70850 0.65120
N5K N 1.0837(2) 0.3837(2) 0.4158(2)
N6K N 1.0550(2) 0.41209(20) 0.30380(19)
N7K N 0.9919(2) 0.6520(2) 0.2220(2)
N8K N 1.0260(2) 0.7380(2) 0.3008(2)
C19K C 1.0810(2) 0.4942(2) 0.5161(2)
H19K H 1.11300 0.51330 0.50430
C20K C 1.0630(2) 0.4481(2) 0.4871(2)
C21K C 1.0940(2) 0.4289(2) 0.4395(3)
H20K H 1.12290 0.45120 0.42560
C22K C 1.1172(3) 0.3683(2) 0.3683(2)
C23K C 1.0803(3) 0.3603(3) 0.3194(2)
C24K C 1.0044(3) 0.4130(3) 0.2975(3)
H21K H 0.98380 0.38040 0.30420
C25K C 0.9753(3) 0.4632(3) 0.2798(3)
C26K C 0.9189(3) 0.4637(3) 0.2747(3)
H22K H 0.89860 0.43120 0.28260
C27K C 0.8904(3) 0.5122(3) 0.2577(3)
C28K C 0.9213(3) 0.5585(3) 0.2457(3)
H23K H 0.90300 0.59110 0.23440
C29K C 0.9785(3) 0.5586(3) 0.2499(3)
C30K C 1.0049(3) 0.5101(3) 0.2668(3)
H24K H 1.04380 0.50940 0.26940
C31K C 1.0115(3) 0.6063(3) 0.2365(3)
H25K H 1.05040 0.60290 0.23880
C32K C 1.0303(3) 0.6960(3) 0.2076(3)
C33K C 1.0175(3) 0.7462(3) 0.2409(3)
C34K C 0.9858(3) 0.7471(3) 0.3316(3)
H26K H 0.95200 0.75780 0.31510
C35K C 1.0645(15) 0.7825(15) 0.2250(15)
H27K H 1.07640 0.80390 0.25700
H28K H 1.05280 0.80750 0.19560
H29K H 1.09510 0.75980 0.21180
H30K H 1.02710 0.70460 0.16790
H31K H 1.06850 0.68390 0.21500
H32K H 1.13740 0.33380 0.37620
H33K H 1.14440 0.39750 0.36050
C36K C 1.1184(20) 0.3310(19) 0.297(2)
H34K H 1.10560 0.31760 0.26130
H35K H 1.12750 0.30020 0.32090
H36K H 1.15120 0.35420 0.29150
#END
