
#######################################################################
#
#                 Cambridge Crystallographic Data Centre
#                                CCDC
#
#######################################################################
#
# If this CIF has been generated from an entry in the Cambridge
# Structural Database, then it will include bibliographic, chemical,
# crystal, experimental, refinement or atomic coordinate data resulting
# from the CCDC's data processing and validation procedures.
#
#######################################################################

data_CSD_CIF_DEDVEQ
_audit_creation_date 2017-09-26
_audit_creation_method CSD-ConQuest-V1
_database_code_CSD DEDVEQ
_database_code_depnum_ccdc_archive 'CCDC 1520511'
_chemical_formula_sum 'C142.1 H188.2 Cl4.5 N24 O9.92'
_chemical_formula_moiety
;
C72 H84 N12,C60 H72 N12,2.25(C1 H2 Cl2),6(H2 O1),1.96(C4 H8 O2)
;
_journal_coden_Cambridge 1542
_journal_volume 9
_journal_year 2017
_journal_page_first 6783
_journal_name_full 'Nanoscale '
loop_
_publ_author_name
"T.Hasell"
"M.A.Little"
"S.Y.Chong"
"M.Schmidtmann"
"M.E.Briggs"
"V.Santolini"
"K.E.Jelfs"
"A.I.Cooper"
_chemical_name_systematic
;
5,12,20,27,35,42,50,57,62,69,74,81-dodecaazatridecacyclo[29.29.10.10^16,46^.1^
3,59^.1^14,18^.1^29,33^.1^44,48^.0^6,11^.0^21,26^.0^36,41^.0^51,56^.0^63,68^.0
^75,80^]tetraoctaconta-1,3(71),4,12,14(84),15,17,19,27,29(83),30,32,34,42,44(7
2),45,47,49,57,59,61,69,73,81-tetracosaene 
6,6,17,17,28,28,40,40,47,47,55,55-dodecamethyl-5,8,16,19,27,30,38,41,46,49,54,
57-dodecaazaheptacyclo[21.21.6.6^12,34^.1^3,43^.1^10,14^.1^21,25^.1^32,36^]hex
aconta-1,3(51),4,8,10(60),11,13,15,19,21(59),22,24,26,30,32(52),33,35,37,41,43
,45,49,53,57-tetracosaene 1,4-dioxane dichloromethane solvate hexahydrate
;
_cell_volume   7659.816
_exptl_crystal_colour 'colorless'
_exptl_crystal_description 'plate'
_diffrn_ambient_temperature 100
_refine_special_details
;
The structure is disordered.

;
#These two values have been output from a single CSD field.
_refine_ls_R_factor_gt 0.1285
_refine_ls_wR_factor_gt 0.1285
_symmetry_cell_setting hexagonal
_symmetry_space_group_name_H-M 'P 3 2 1'
_symmetry_Int_Tables_number 150
loop_
_symmetry_equiv_pos_site_id
_symmetry_equiv_pos_as_xyz
1 x,y,z
2 -y,x-y,z
3 -x+y,-x,z
4 y,x,-z
5 x-y,-y,-z
6 -x,-x+y,-z
_cell_length_a 17.5575(7)
_cell_length_b 17.5575(7)
_cell_length_c 28.6921(12)
_cell_angle_alpha 90
_cell_angle_beta 90
_cell_angle_gamma 120
_cell_formula_units_Z 2
loop_
_atom_type_symbol
_atom_type_radius_bond
C 0.68
H 0.23
Cl 0.99
N 0.68
O 0.68
loop_
_atom_site_label
_atom_site_type_symbol
_atom_site_fract_x
_atom_site_fract_y
_atom_site_fract_z
N1 N 0.9279(5) 0.6933(6) 0.4279(3)
N2 N 0.7748(5) 0.7132(5) 0.4361(3)
N3 N 0.7563(5) 0.8906(5) 0.1664(2)
N4 N 0.6509(6) 0.8173(5) 0.2484(3)
C1 C 0.9371(7) 1.0256(6) 0.1689(3)
H1 H 0.89410 1.04340 0.16950
C2 C 0.9111(7) 0.9376(6) 0.1685(3)
C3 C 0.8178(6) 0.8693(6) 0.1682(3)
H2 H 0.80200 0.80910 0.16940
C4 C 0.6663(6) 0.8183(7) 0.1635(4)
H3 H 0.66530 0.76110 0.16640
C5 C 0.6284(8) 0.8230(8) 0.1163(4)
H4 H 0.66100 0.81310 0.09120
H5 H 0.63630 0.88250 0.11210
C6 C 0.530(1) 0.7541(11) 0.1126(7)
H6 H 0.50650 0.76140 0.08260
H7 H 0.52230 0.69430 0.11340
C7 C 0.481(1) 0.7648(12) 0.1518(7)
H8 H 0.41830 0.71880 0.14960
H9 H 0.48450 0.82270 0.14900
C8 C 0.5160(8) 0.7587(10) 0.1988(6)
H10 H 0.50830 0.69920 0.20280
H11 H 0.48230 0.76790 0.22360
C9 C 0.6134(6) 0.8275(6) 0.2032(4)
H12 H 0.62010 0.88750 0.20200
C10 C 0.6762(7) 0.8787(8) 0.2767(4)
H13 H 0.67210 0.92890 0.26830
C11 C 0.7133(4) 0.8767(4) 0.32379(18)
C12 C 0.7365(5) 0.9462(3) 0.3545(2)
H14 H 0.73110 0.99520 0.34520
C13 C 0.7677(5) 0.9439(3) 0.3987(2)
C14 C 0.7756(5) 0.8722(4) 0.41222(17)
H15 H 0.79690 0.87070 0.44240
C15 C 0.7524(5) 0.8027(3) 0.3815(2)
C16 C 0.7212(4) 0.8050(3) 0.33732(19)
H16 H 0.70540 0.75750 0.31630
C17 C 0.7568(7) 0.7234(6) 0.3955(4)
H17 H 0.74560 0.67950 0.37290
C18 C 0.7740(6) 0.6324(6) 0.4478(3)
H18 H 0.75980 0.59480 0.41930
C19 C 0.7035(7) 0.5822(7) 0.4857(4)
H19 H 0.71420 0.62180 0.51250
H20 H 0.64460 0.56460 0.47290
C20 C 0.7048(8) 0.5015(7) 0.5023(4)
H21 H 0.69080 0.46010 0.47600
H22 H 0.65960 0.47170 0.52670
C21 C 0.7961(7) 0.5272(7) 0.5221(4)
H23 H 0.81000 0.56740 0.54900
H24 H 0.79730 0.47420 0.53260
C22 C 0.8631(7) 0.5731(7) 0.4829(4)
H25 H 0.92240 0.58850 0.49420
H26 H 0.84840 0.53180 0.45640
C23 C 0.8648(6) 0.6546(6) 0.4662(3)
H27 H 0.88220 0.69770 0.49240
C24 C 0.9834(7) 0.7748(7) 0.4327(4)
H28 H 0.97840 0.80530 0.45870
N5 N 0.5071(10) 0.5206(8) 0.2783(5)
N6 N 0.3812(10) 0.2981(10) 0.0899(5)
N7 N 0.5620(8) 0.4733(8) 0.3639(4)
N8 N 0.3534(10) 0.1171(11) 0.0985(5)
C25 C 0.5579(7) 0.5217(7) 0.2016(3)
C26 C 0.4839(6) 0.4433(7) 0.1886(3)
H29 H 0.43710 0.41300 0.21010
C27 C 0.4785(6) 0.4092(6) 0.1443(3)
C28 C 0.5471(7) 0.4535(8) 0.1128(3)
H30 H 0.54340 0.43020 0.08250
C29 C 0.6211(6) 0.5319(8) 0.1257(3)
C30 C 0.6265(6) 0.5660(6) 0.1701(4)
H31 H 0.67710 0.61960 0.17900
C31 C 0.5645(13) 0.5618(12) 0.2469(6)
H32 H 0.61210 0.61920 0.25310
C32 C 0.3949(13) 0.3258(13) 0.1319(6)
H33 H 0.35250 0.29390 0.15530
C33 C 0.6966(11) 0.4226(11) 0.3674(4)
H34 H 0.71720 0.48400 0.36800
C34 C 0.6068(10) 0.3638(10) 0.3670(4)
C35 C 0.5419(10) 0.3929(11) 0.3654(4)
H35 H 0.48140 0.34930 0.36540
C36 C 0.4948(12) 0.4999(14) 0.3655(7)
C37 C 0.511(2) 0.5594(16) 0.3271(8)
H36 H 0.57010 0.61180 0.33130
H37 H 0.46750 0.57930 0.32850
C38 C 0.3020(15) 0.2231(17) 0.0826(7)
H38 H 0.26750 0.23720 0.06050
H39 H 0.26940 0.20600 0.11250
C39 C 0.3057(18) 0.1431(18) 0.0636(8)
C40 C 0.4222(13) 0.1162(13) 0.0900(6)
H40 H 0.44740 0.13320 0.05980
C41 C 0.2196(14) 0.0653(14) 0.0527(7)
H41 H 0.22760 0.01520 0.04550
H42 H 0.19370 0.07820 0.02570
H43 H 0.18030 0.05100 0.07960
C42 C 0.3580(16) 0.1733(16) 0.0172(6)
H44 H 0.40900 0.23230 0.02120
H45 H 0.32000 0.17460 -0.00740
H46 H 0.37800 0.13220 0.00860
C43 C 0.5098(13) 0.5552(13) 0.4070(7)
H47 H 0.50900 0.52290 0.43500
H48 H 0.46340 0.57060 0.40910
H49 H 0.56710 0.60910 0.40430
C44 C 0.4026(13) 0.4273(13) 0.3581(6)
H50 H 0.40070 0.39140 0.33150
H51 H 0.36470 0.45230 0.35190
H52 H 0.38180 0.39050 0.38610
O1 O 0.66670 0.33340 -0.040(5)
Cl1 Cl 0.4605(8) 0.5434(7) 0.0292(3)
C45 C 0.4464(17) 0.4464(17) 0.00000
H53 H 0.42760 0.39850 0.02320
O2 O 1.00000 1.00000 0.50000
O3 O 0.33330 0.66670 0.288(2)
O4 O 0.33330 0.66670 0.388(4)
N9? N 0.6057(19) 0.5686(7) 0.3137(8)
N10? N 0.802(3) 0.578(2) 0.0484(12)
N11? N 0.9686(15) 0.5639(7) 0.3169(8)
N12? N 0.8502(19) 0.6798(5) 0.1324(7)
C46? C 0.8463(10) 0.6328(3) 0.2078(4)
C47? C 0.7662(9) 0.6273(4) 0.2177(4)
H54? H 0.73710 0.64200 0.19450
C48? C 0.7285(8) 0.6002(4) 0.2616(5)
H55? H 0.74540 0.56020 0.32550
C49? C 0.8512(9) 0.5843(4) 0.2857(4)
C50? C 0.8888(8) 0.6113(4) 0.2418(4)
H56? H 0.94360 0.61520 0.23500
C51? C 0.6426(14) 0.5929(6) 0.2743(8)
H57? H 0.61350 0.60760 0.25110
C52? C 0.8876(15) 0.6608(5) 0.1625(6)
H58? H 0.94240 0.66430 0.15620
C53? C 0.8971(14) 0.5612(6) 0.3221(7)
H59? H 0.86940 0.54300 0.35170
C54? C 0.6047(17) 0.360(2) 0.0553(14)
H60? H 0.56230 0.37870 0.05730
C55? C 0.694(2) 0.4227(10) 0.0538(14)
C56? C 0.728(3) 0.523(3) 0.0550(14)
H61? H 0.68670 0.54190 0.06160
C57? C 0.519(2) 0.562(2) 0.317(2)
H62? H 0.50120 0.59990 0.30260
C58? C 1.020(2) 0.538(2) 0.3477(9)
H63? H 0.98400 0.50430 0.37480
H64? H 1.07340 0.59100 0.35910
C59? C 0.898(2) 0.722(3) 0.0891(10)
H65? H 0.94930 0.71320 0.08490
H66? H 0.91850 0.78540 0.08890
C60? C 0.827(3) 0.672(2) 0.0509(18)
C61? C 0.770(4) 0.705(4) 0.0485(18)
H67? H 0.73480 0.68360 0.02010
H68? H 0.80420 0.76950 0.04800
H69? H 0.73140 0.68540 0.07580
O5? O 0.618(6) 0.334(8) 0.007(3)
O6? O 0.454(3) 0.483(4) 0.0278(14)
H70? H 0.42760 0.39850 0.02320
O7? O 0.9160(8) 0.6598(8) 0.2514(4)
O8? O 0.7673(8) 0.6738(8) 0.2736(4)
C62? C 0.8307(11) 0.5802(11) 0.2562(6)
H71? H 0.84080 0.53010 0.26080
H72? H 0.79860 0.57020 0.22640
C63? C 0.9041(13) 0.7304(13) 0.2366(6)
H73? H 0.87460 0.71650 0.20580
H74? H 0.96200 0.78460 0.23340
C64? C 0.8520(13) 0.7436(13) 0.2699(7)
H75? H 0.88080 0.75440 0.30080
H76? H 0.84950 0.79690 0.26130
C65? C 0.7711(9) 0.5787(4) 0.2955(4)
H77? H 0.79890 0.58880 0.32670
H78? H 0.71270 0.52450 0.29570
O9? O 0.9104(12) 0.8307(10) 0.2875(5)
Cl2? Cl 1.00000 1.00000 0.2865(6)
C66? C 1.059(3) 1.022(3) 0.3257(15)
Cl3? Cl 1.027(11) 0.985(12) 0.3671(18)
Cl4? Cl 0.6357(17) 0.3605(16) 0.1597(7)
C67? C 0.623(4) 0.286(2) 0.2022(12)
Cl5? Cl 0.6688(14) 0.3589(8) 0.2495(3)
O10? O 1.00000 1.00000 0.027(4)
N1A N 1.3067(5) 1.2346(6) 0.4279(3)
N2A N 1.2868(5) 1.0616(5) 0.4361(3)
N3A N 1.1094(5) 0.8657(5) 0.1664(2)
N4A N 1.1827(6) 0.8336(5) 0.2484(3)
C1A C 0.9744(7) 0.9115(6) 0.1689(3)
H1A H 0.95660 0.85070 0.16950
C2A C 1.0624(7) 0.9735(6) 0.1685(3)
C3A C 1.1307(6) 0.9485(6) 0.1682(3)
H2A H 1.19090 0.99290 0.16940
C4A C 1.1817(6) 0.8480(7) 0.1635(4)
H3A H 1.23890 0.90420 0.16640
C5A C 1.1770(8) 0.8054(8) 0.1163(4)
H4A H 1.18690 0.84790 0.09120
H5A H 1.11750 0.75380 0.11210
C6A C 1.2459(10) 0.7759(11) 0.1126(7)
H6A H 1.23860 0.74510 0.08260
H7A H 1.30570 0.82800 0.11340
C7A C 1.2352(10) 0.7162(12) 0.1518(7)
H8A H 1.28120 0.69950 0.14960
H9A H 1.17730 0.66180 0.14900
C8A C 1.2413(8) 0.7573(10) 0.1988(6)
H10A H 1.30080 0.80910 0.20280
H11A H 1.23210 0.71440 0.22360
C9A C 1.1725(6) 0.7859(6) 0.2032(4)
H12A H 1.11250 0.73260 0.20200
C10A C 1.1213(7) 0.7975(8) 0.2767(4)
H13A H 1.07110 0.74320 0.26830
C11A C 1.1233(4) 0.8366(4) 0.32379(18)
C12A C 1.0538(5) 0.7903(3) 0.3545(2)
H14A H 1.00480 0.73590 0.34520
C13A C 1.0561(5) 0.8238(3) 0.3987(2)
C14A C 1.1278(5) 0.9034(4) 0.41222(17)
H15A H 1.12930 0.92620 0.44240
C15A C 1.1973(5) 0.9497(3) 0.3815(2)
C16A C 1.1950(4) 0.9162(3) 0.33732(19)
H16A H 1.24250 0.94790 0.31630
C17A C 1.2766(7) 1.0334(6) 0.3955(4)
H17A H 1.32050 1.06610 0.37290
C18A C 1.3676(6) 1.1416(6) 0.4478(3)
H18A H 1.40520 1.16500 0.41930
C19A C 1.4178(7) 1.1213(7) 0.4857(4)
H19A H 1.37820 1.09240 0.51250
H20A H 1.43540 1.08000 0.47290
C20A C 1.4985(8) 1.2033(7) 0.5023(4)
H21A H 1.53990 1.23070 0.47600
H22A H 1.52830 1.18790 0.52670
C21A C 1.4728(7) 1.2689(7) 0.5221(4)
H23A H 1.43260 1.24260 0.54900
H24A H 1.52580 1.32310 0.53260
C22A C 1.4269(7) 1.2900(7) 0.4829(4)
H25A H 1.41150 1.33390 0.49420
H26A H 1.46820 1.31660 0.45640
C23A C 1.3454(6) 1.2102(6) 0.4662(3)
H27A H 1.30230 1.18450 0.49240
C24A C 1.2252(7) 1.2086(7) 0.4327(4)
H28A H 1.19470 1.17310 0.45870
N1B N 0.7654(5) 1.0721(6) 0.4279(3)
N2B N 0.9384(5) 1.2252(5) 0.4361(3)
N3B N 1.1343(5) 1.2437(5) 0.1664(2)
N4B N 1.1664(6) 1.3491(5) 0.2484(3)
C1B C 1.0885(7) 1.0629(6) 0.1689(3)
H1B H 1.14930 1.10590 0.16950
C2B C 1.0265(7) 1.0889(6) 0.1685(3)
C3B C 1.0515(6) 1.1822(6) 0.1682(3)
H2B H 1.00710 1.19800 0.16940
C4B C 1.1520(6) 1.3337(7) 0.1635(4)
H3B H 1.09580 1.33470 0.16640
C5B C 1.1946(8) 1.3716(8) 0.1163(4)
H4B H 1.15210 1.33900 0.09120
H5B H 1.24620 1.36370 0.11210
C6B C 1.2241(10) 1.4700(11) 0.1126(7)
H6B H 1.25490 1.49350 0.08260
H7B H 1.17200 1.47770 0.11340
C7B C 1.2838(10) 1.5190(12) 0.1518(7)
H8B H 1.30050 1.58170 0.14960
H9B H 1.33820 1.51550 0.14900
C8B C 1.2427(8) 1.484(1) 0.1988(6)
H10B H 1.19090 1.49170 0.20280
H11B H 1.28560 1.51770 0.22360
C9B C 1.2141(6) 1.3866(6) 0.2032(4)
H12B H 1.26740 1.37990 0.20200
C10B C 1.2025(7) 1.3238(8) 0.2767(4)
H13B H 1.25680 1.32790 0.26830
C11B C 1.1634(4) 1.2867(4) 0.32379(18)
C12B C 1.2097(5) 1.2635(3) 0.3545(2)
H14B H 1.26410 1.26890 0.34520
C13B C 1.1762(5) 1.2323(3) 0.3987(2)
C14B C 1.0966(5) 1.2244(4) 0.41222(17)
H15B H 1.07380 1.20310 0.44240
C15B C 1.0503(5) 1.2476(3) 0.3815(2)
C16B C 1.0838(4) 1.2788(3) 0.33732(19)
H16B H 1.05210 1.29460 0.31630
C17B C 0.9666(7) 1.2432(6) 0.3955(4)
H17B H 0.93390 1.25440 0.37290
C18B C 0.8584(6) 1.2260(6) 0.4478(3)
H18B H 0.83500 1.24020 0.41930
C19B C 0.8787(7) 1.2965(7) 0.4857(4)
H19B H 0.90760 1.28580 0.51250
H20B H 0.92000 1.35540 0.47290
C20B C 0.7967(8) 1.2952(7) 0.5023(4)
H21B H 0.76930 1.30920 0.47600
H22B H 0.81210 1.34040 0.52670
C21B C 0.7311(7) 1.2039(7) 0.5221(4)
H23B H 0.75740 1.19000 0.54900
H24B H 0.67690 1.20270 0.53260
C22B C 0.7100(7) 1.1369(7) 0.4829(4)
H25B H 0.66610 1.07760 0.49420
H26B H 0.68340 1.15160 0.45640
C23B C 0.7898(6) 1.1352(6) 0.4662(3)
H27B H 0.81550 1.11780 0.49240
C24B C 0.7914(7) 1.0166(7) 0.4327(4)
H28B H 0.82690 1.02160 0.45870
N5A N 0.4794(10) -0.0135(8) 0.2783(5)
N6A N 0.7019(10) 0.0831(10) 0.0899(5)
N7A N 0.5267(8) 0.0887(8) 0.3639(4)
N8A N 0.8829(10) 0.2363(11) 0.0985(5)
C25A C 0.4783(7) 0.0362(7) 0.2016(3)
C26A C 0.5567(6) 0.0406(7) 0.1886(3)
H29A H 0.58700 0.02410 0.21010
C27A C 0.5908(6) 0.0693(6) 0.1443(3)
C28A C 0.5465(7) 0.0936(8) 0.1128(3)
H30A H 0.56980 0.11320 0.08250
C29A C 0.4681(6) 0.0892(8) 0.1257(3)
C30A C 0.4340(6) 0.0605(6) 0.1701(4)
H31A H 0.38040 0.05750 0.17900
C31A C 0.4382(13) 0.0027(12) 0.2469(6)
H32A H 0.38080 -0.00710 0.25310
C32A C 0.6742(13) 0.0691(13) 0.1319(6)
H33A H 0.70610 0.05860 0.15530
C33A C 0.5774(11) 0.2740(11) 0.3674(4)
H34A H 0.51600 0.23320 0.36800
C34A C 0.6362(10) 0.243(1) 0.3670(4)
C35A C 0.6071(10) 0.1490(11) 0.3654(4)
H35A H 0.65070 0.13210 0.36540
C36A C 0.5001(12) -0.0051(14) 0.3655(7)
C37A C 0.4406(20) -0.0484(16) 0.3271(8)
H36A H 0.38820 -0.04170 0.33130
H37A H 0.42070 -0.11180 0.32850
C38A C 0.7769(15) 0.0789(17) 0.0826(7)
H38A H 0.76280 0.03030 0.06050
H39A H 0.79400 0.06340 0.11250
C39A C 0.8569(18) 0.1626(18) 0.0636(8)
C40A C 0.8838(13) 0.3060(13) 0.0900(6)
H40A H 0.86680 0.31420 0.05980
C41A C 0.9347(14) 0.1543(14) 0.0527(7)
H41A H 0.98480 0.21240 0.04550
H42A H 0.92180 0.11550 0.02570
H43A H 0.94900 0.12930 0.07960
C42A C 0.8267(16) 0.1847(16) 0.0172(6)
H44A H 0.76770 0.17670 0.02120
H45A H 0.82540 0.14540 -0.00740
H46A H 0.86780 0.24580 0.00860
C43A C 0.4448(13) -0.0454(13) 0.4070(7)
H47A H 0.47710 -0.01390 0.43500
H48A H 0.42940 -0.10720 0.40910
H49A H 0.39090 -0.04200 0.40430
C44A C 0.5727(13) -0.0247(13) 0.3581(6)
H50A H 0.60860 0.00930 0.33150
H51A H 0.54770 -0.08760 0.35190
H52A H 0.60950 -0.00870 0.38610
N5B N 1.0135(10) 0.4929(8) 0.2783(5)
N6B N 0.9169(10) 0.6188(10) 0.0899(5)
N7B N 0.9113(8) 0.4380(8) 0.3639(4)
N8B N 0.7637(10) 0.6466(11) 0.0985(5)
C25B C 0.9638(7) 0.4421(7) 0.2016(3)
C26B C 0.9594(6) 0.5161(7) 0.1886(3)
H29B H 0.97590 0.56290 0.21010
C27B C 0.9307(6) 0.5215(6) 0.1443(3)
C28B C 0.9064(7) 0.4529(8) 0.1128(3)
H30B H 0.88680 0.45660 0.08250
C29B C 0.9108(6) 0.3789(8) 0.1257(3)
C30B C 0.9395(6) 0.3735(6) 0.1701(4)
H31B H 0.94250 0.32290 0.17900
C31B C 0.9973(13) 0.4355(12) 0.2469(6)
H32B H 1.00710 0.38790 0.25310
C32B C 0.9309(13) 0.6051(13) 0.1319(6)
H33B H 0.94140 0.64750 0.15530
C33B C 0.7260(11) 0.3034(11) 0.3674(4)
H34B H 0.76680 0.28280 0.36800
C34B C 0.757(1) 0.3932(10) 0.3670(4)
C35B C 0.851(1) 0.4581(11) 0.3654(4)
H35B H 0.86790 0.51860 0.36540
C36B C 1.0051(12) 0.5052(14) 0.3655(7)
C37B C 1.0484(20) 0.4890(16) 0.3271(8)
H36B H 1.04170 0.42990 0.33130
H37B H 1.11180 0.53250 0.32850
C38B C 0.9211(15) 0.6980(17) 0.0826(7)
H38B H 0.96970 0.73250 0.06050
H39B H 0.93660 0.73060 0.11250
C39B C 0.8374(18) 0.6943(18) 0.0636(8)
C40B C 0.6940(13) 0.5778(13) 0.0900(6)
H40B H 0.68580 0.55260 0.05980
C41B C 0.8457(14) 0.7804(14) 0.0527(7)
H41B H 0.78760 0.77240 0.04550
H42B H 0.88450 0.80630 0.02570
H43B H 0.87070 0.81970 0.07960
C42B C 0.8153(16) 0.6420(16) 0.0172(6)
H44B H 0.82330 0.59100 0.02120
H45B H 0.85460 0.68000 -0.00740
H46B H 0.75420 0.62200 0.00860
C43B C 1.0454(13) 0.4902(13) 0.4070(7)
H47B H 1.01390 0.49100 0.43500
H48B H 1.10720 0.53660 0.40910
H49B H 1.04200 0.43290 0.40430
C44B C 1.0247(13) 0.5974(13) 0.3581(6)
H50B H 0.99070 0.59930 0.33150
H51B H 1.08760 0.63530 0.35190
H52B H 1.00870 0.61820 0.38610
Cl1C Cl 0.5434(8) 0.4605(7) -0.0292(3)
H53C H 0.39850 0.42760 -0.02320
#END
