
#######################################################################
#
#                 Cambridge Crystallographic Data Centre
#                                CCDC
#
#######################################################################
#
# If this CIF has been generated from an entry in the Cambridge
# Structural Database, then it will include bibliographic, chemical,
# crystal, experimental, refinement or atomic coordinate data resulting
# from the CCDC's data processing and validation procedures.
#
#######################################################################

data_CSD_CIF_DENMUH
_audit_creation_date 2018-02-07
_audit_creation_method CSD-ConQuest-V1
_database_code_CSD DENMUH
_database_code_depnum_ccdc_archive 'CCDC 1588272'
_chemical_formula_sum 'C120 H156 N12'
_chemical_formula_moiety
;
C120 H156 N12
;
_journal_coden_Cambridge 1220
_journal_volume 24
_journal_year 2018
_journal_page_first 1816
_journal_name_full 'Chem.-Eur.J. '
loop_
_publ_author_name
"J.C.Lauer"
"Wen-Shan Zhang"
"F.Rominger"
"R.R.Schroder"
"M.Mastalerz"
_chemical_name_systematic
;
2,8,10,16,18,24,26,32,34,40,42,48,50,56,58,64,68,69,73,77,78,82,83,84-tetracos
aethyl-5,13,21,29,37,45,53,61,66,71,75,80-dodecaazatridecacyclo[39.23.3.3^9,33
^.3^17,57^.3^25,49^.1^3,63^.1^7,11^.1^15,19^.1^23,27^.1^31,35^.1^39,43^.1^47,5
1^.1^55,59^]tetraoctaconta-1,3(68),4,7(84),8,10,13,15(83),16,18,20,23(82),24,2
6,29,31(78),32,34,36,39(77),40,42,45,47(73),48,50,52,55(69),56,58,61,63,65,71,
74,79-hexatriacontaene unknown solvate
;
_cell_volume  13704.203
_exptl_crystal_colour 'colorless'
_exptl_crystal_density_diffrn 0.856
_exptl_crystal_description 'irregular'
_exptl_crystal_preparation 'toluene'
_diffrn_ambient_temperature 100
_refine_special_details
;
Disordered solvent molecules were not modelled and the disordered density was 
taken into account using the SQUEEZE/PLATON procedure.
;
#These two values have been output from a single CSD field.
_refine_ls_R_factor_gt 0.0891
_refine_ls_wR_factor_gt 0.0891
_symmetry_cell_setting tetragonal
_symmetry_space_group_name_H-M 'P 41 21 2'
_symmetry_Int_Tables_number 92
loop_
_symmetry_equiv_pos_site_id
_symmetry_equiv_pos_as_xyz
1 x,y,z
2 -x,-y,1/2+z
3 1/2-y,1/2+x,1/4+z
4 1/2+y,1/2-x,3/4+z
5 1/2-x,1/2+y,1/4-z
6 1/2+x,1/2-y,3/4-z
7 y,x,-z
8 -y,-x,1/2-z
_cell_length_a 15.72840(14)
_cell_length_b 15.72840(14)
_cell_length_c 55.3968(12)
_cell_angle_alpha 90
_cell_angle_beta 90
_cell_angle_gamma 90
_cell_formula_units_Z 4
loop_
_atom_type_symbol
_atom_type_radius_bond
C 0.68
H 0.23
N 0.68
loop_
_atom_site_label
_atom_site_type_symbol
_atom_site_fract_x
_atom_site_fract_y
_atom_site_fract_z
C1 C 0.8493(6) 0.5172(6) 0.74943(17)
C2 C 0.8572(7) 0.4749(7) 0.77178(16)
C3 C 0.8759(7) 0.3883(7) 0.77217(16)
C4 C 0.8859(6) 0.3438(6) 0.75027(16)
C5 C 0.8795(6) 0.3866(6) 0.72841(15)
C6 C 0.8608(7) 0.4744(7) 0.72813(16)
C7 C 0.8321(8) 0.6101(6) 0.74925(19)
H1 H 0.77479 0.62835 0.75071
N1 N 0.8876(6) 0.6648(6) 0.74733(18)
C8 C 0.8779(8) 0.3421(7) 0.79545(17)
H2 H 0.82638 0.31830 0.80133
N2 N 0.9427(6) 0.3328(6) 0.80759(14)
C9 C 0.8858(8) 0.3394(7) 0.70519(17)
H3 H 0.83476 0.31651 0.69869
N3 N 0.9519(6) 0.3276(6) 0.69372(15)
C10 C 0.8422(9) 0.5249(8) 0.79513(17)
H4 H 0.80464 0.57389 0.79163
H5 H 0.81259 0.48789 0.80688
C11 C 0.9210(9) 0.5560(8) 0.8060(2)
H6 H 0.90785 0.58741 0.82078
H7 H 0.95800 0.50774 0.80981
H8 H 0.95005 0.59377 0.79456
C12 C 0.9081(6) 0.2493(6) 0.75080(19)
H9 H 0.88105 0.22275 0.76506
H10 H 0.88473 0.22161 0.73619
C13 C 1.0015(7) 0.2342(7) 0.7518(2)
H11 H 1.01259 0.17291 0.75211
H12 H 1.02852 0.25932 0.73755
H13 H 1.02484 0.26046 0.76641
C14 C 0.8494(9) 0.5213(8) 0.70415(19)
H14 H 0.82281 0.48287 0.69220
H15 H 0.81130 0.57072 0.70650
C15 C 0.9338(10) 0.5512(10) 0.6948(2)
H16 H 0.92560 0.58115 0.67948
H17 H 0.95969 0.58989 0.70659
H18 H 0.97118 0.50219 0.69231
C16 C 0.5105(10) 0.5955(11) 0.6906(4)
C17 C 0.5584(9) 0.5488(10) 0.6738(3)
C18 C 0.5176(9) 0.4821(9) 0.6613(3)
C19 C 0.4333(10) 0.4589(11) 0.6668(4)
C20 C 0.3943(12) 0.4987(14) 0.6864(4)
C21 C 0.4292(10) 0.5704(12) 0.6976(3)
C22 C 0.5513(9) 0.6722(8) 0.7022(3)
H19 H 0.58170 0.66566 0.71686
N4 N 0.5462(8) 0.7397(8) 0.69330(18)
C23 C 0.5617(10) 0.4271(10) 0.6435(2)
H20 H 0.52921 0.40453 0.63050
N5 N 0.6342(8) 0.4099(7) 0.6444(2)
C24 C 0.3232(11) 0.4544(14) 0.6994(4)
H21 H 0.33556 0.43777 0.71547
N6 N 0.2608(8) 0.4388(11) 0.6931(2)
C25 C 0.6505(8) 0.5797(9) 0.6673(2)
H22 H 0.67724 0.61046 0.68088
H23 H 0.68738 0.53173 0.66236
C26 C 0.6325(10) 0.6366(12) 0.6469(2)
H24 H 0.68580 0.66099 0.64096
H25 H 0.60480 0.60453 0.63398
H26 H 0.59476 0.68250 0.65232
C27 C 0.3928(14) 0.3826(17) 0.6524(5)
H27 H 0.33173 0.39342 0.64939
H28 H 0.42182 0.37546 0.63667
C28 C 0.4033(19) 0.3078(16) 0.6669(8)
H29 H 0.37879 0.25884 0.65848
H30 H 0.46398 0.29785 0.66974
H31 H 0.37429 0.31573 0.68239
C29 C 0.3827(13) 0.6192(14) 0.7183(3)
H32 H 0.36295 0.57829 0.73069
H33 H 0.42266 0.65932 0.72610
C30 C 0.310(2) 0.666(2) 0.7087(7)
H34 H 0.28175 0.69601 0.72179
H35 H 0.33027 0.70655 0.69658
H36 H 0.27066 0.62568 0.70116
C31 C 0.7471(6) 0.1509(6) 0.66193(16)
C32 C 0.8301(7) 0.1744(6) 0.66880(14)
C33 C 0.8620(6) 0.2545(6) 0.66165(16)
C34 C 0.8113(7) 0.3102(7) 0.64802(17)
C35 C 0.7297(7) 0.2853(6) 0.64103(15)
C36 C 0.6972(6) 0.2059(6) 0.64814(16)
C37 C 0.7130(7) 0.0650(7) 0.66860(15)
H37 H 0.76119 0.02445 0.66872
H38 H 0.67360 0.04664 0.65568
C38 C 0.9489(7) 0.2800(7) 0.67047(16)
H39 H 0.98359 0.22786 0.67225
H40 H 0.97605 0.31543 0.65788
C39 C 0.6721(8) 0.3473(8) 0.62700(17)
H41 H 0.70577 0.37772 0.61462
H42 H 0.62630 0.31537 0.61873
C40 C 0.8836(7) 0.1147(7) 0.68429(16)
H43 H 0.91898 0.14900 0.69540
H44 H 0.84519 0.07914 0.69422
C41 C 0.9412(8) 0.0569(7) 0.66948(18)
H45 H 0.97387 0.02016 0.68034
H46 H 0.90650 0.02179 0.65869
H47 H 0.98033 0.09168 0.65987
C42 C 0.8458(8) 0.3956(7) 0.64066(16)
H48 H 0.88589 0.41609 0.65316
H49 H 0.79851 0.43693 0.63955
C43 C 0.8922(8) 0.3910(8) 0.61612(17)
H50 H 0.91385 0.44744 0.61186
H51 H 0.93967 0.35087 0.61726
H52 H 0.85236 0.37170 0.60366
C44 C 0.6054(7) 0.1828(8) 0.64131(17)
H53 H 0.58127 0.14495 0.65383
H54 H 0.57062 0.23525 0.64082
C45 C 0.6009(8) 0.1389(8) 0.61702(18)
H55 H 0.54162 0.12519 0.61326
H56 H 0.62383 0.17666 0.60454
H57 H 0.63448 0.08642 0.61753
C46 C 0.6349(7) 0.8029(6) 0.72771(16)
C47 C 0.7223(7) 0.7861(6) 0.72694(17)
C48 C 0.7698(6) 0.7766(6) 0.74818(17)
C49 C 0.7286(7) 0.7837(7) 0.77035(17)
C50 C 0.6420(7) 0.8046(7) 0.77134(17)
C51 C 0.5945(7) 0.8115(6) 0.74996(18)
C52 C 0.5837(8) 0.8173(7) 0.70435(18)
H58 H 0.53713 0.85774 0.70789
H59 H 0.62149 0.84443 0.69232
C53 C 0.8634(7) 0.7563(6) 0.7473(2)
H60 H 0.88743 0.78280 0.73265
H61 H 0.89083 0.78365 0.76141
C54 C 0.5974(8) 0.8143(7) 0.79529(18)
H62 H 0.63835 0.83994 0.80674
H63 H 0.55080 0.85595 0.79306
C55 C 0.7679(8) 0.7735(7) 0.70277(16)
H64 H 0.72697 0.75202 0.69063
H65 H 0.81350 0.73067 0.70466
C56 C 0.8066(9) 0.8582(8) 0.6939(2)
H66 H 0.83541 0.84904 0.67845
H67 H 0.76121 0.90029 0.69183
H68 H 0.84761 0.87897 0.70584
C57 C 0.7795(8) 0.7738(7) 0.79409(17)
H69 H 0.74146 0.75136 0.80682
H70 H 0.82573 0.73197 0.79159
C58 C 0.8174(10) 0.8569(8) 0.8025(2)
H71 H 0.84898 0.84765 0.81749
H72 H 0.85604 0.87873 0.79006
H73 H 0.77179 0.89811 0.80529
C59 C 0.5002(7) 0.8306(6) 0.7513(2)
H74 H 0.47662 0.80514 0.76624
H75 H 0.47120 0.80386 0.73739
C60 C 0.4820(8) 0.9256(7) 0.7513(3)
H76 H 0.42052 0.93495 0.75216
H77 H 0.50965 0.95209 0.76521
H78 H 0.50423 0.95082 0.73636
C1G C 0.4828(6) 0.1507(6) 0.75057(17)
C2G C 0.5251(7) 0.1428(7) 0.72822(16)
C3G C 0.6117(7) 0.1241(7) 0.72783(16)
C4G C 0.6562(6) 0.1141(6) 0.74973(16)
C5G C 0.6134(6) 0.1205(6) 0.77159(15)
C6G C 0.5256(7) 0.1392(7) 0.77187(16)
C7G C 0.3899(8) 0.1679(6) 0.75075(19)
H1G H 0.37165 0.22521 0.74929
N1G N 0.3352(6) 0.1124(6) 0.75267(18)
C8G C 0.6579(8) 0.1221(7) 0.70455(17)
H2G H 0.68170 0.17362 0.69867
N2G N 0.6672(6) 0.0573(6) 0.69241(14)
C9G C 0.6606(8) 0.1142(7) 0.79481(17)
H3G H 0.68349 0.16524 0.80131
N3G N 0.6724(6) 0.0481(6) 0.80628(15)
C10G C 0.4751(9) 0.1578(8) 0.70487(17)
H4G H 0.42611 0.19536 0.70837
H5G H 0.51211 0.18741 0.69312
C11G C 0.4440(9) 0.0790(8) 0.6940(2)
H6G H 0.41259 0.09215 0.67922
H7G H 0.49226 0.04200 0.69019
H8G H 0.40623 0.04995 0.70544
C12G C 0.7507(6) 0.0919(6) 0.74920(19)
H9G H 0.77725 0.11895 0.73494
H10G H 0.77839 0.11527 0.76381
C13G C 0.7658(7) -0.0015(7) 0.7482(2)
H11G H 0.82709 -0.01259 0.74789
H12G H 0.74068 -0.02852 0.76245
H13G H 0.73954 -0.02484 0.73359
C14G C 0.4787(9) 0.1506(8) 0.79585(19)
H14G H 0.51713 0.17719 0.80780
H15G H 0.42928 0.18870 0.79350
C15G C 0.4488(10) 0.0662(10) 0.8052(2)
H16G H 0.41885 0.07440 0.82052
H17G H 0.41011 0.04031 0.79341
H18G H 0.49781 0.02882 0.80769
C16G C 0.4045(10) 0.4895(11) 0.8094(4)
C17G C 0.4512(9) 0.4416(10) 0.8262(3)
C18G C 0.5179(9) 0.4824(9) 0.8387(3)
C19G C 0.5411(10) 0.5667(11) 0.8332(4)
C20G C 0.5013(12) 0.6057(14) 0.8136(4)
C21G C 0.4296(10) 0.5708(12) 0.8024(3)
C22G C 0.3278(9) 0.4487(8) 0.7978(3)
H19G H 0.33434 0.41830 0.78314
N4G N 0.2603(8) 0.4538(8) 0.80670(18)
C23G C 0.5729(10) 0.4383(10) 0.8565(2)
H20G H 0.59547 0.47079 0.86950
N5G N 0.5901(8) 0.3658(7) 0.8556(2)
C24G C 0.5456(11) 0.6768(14) 0.8006(4)
H21G H 0.56223 0.66444 0.78453
N6G N 0.5612(8) 0.7392(11) 0.8069(2)
C25G C 0.4203(8) 0.3495(9) 0.8327(2)
H22G H 0.38954 0.32276 0.81912
H23G H 0.46827 0.31262 0.83764
C26G C 0.3634(10) 0.3675(12) 0.8531(2)
H24G H 0.33901 0.31420 0.85904
H25G H 0.39547 0.39520 0.86602
H26G H 0.31750 0.40524 0.84768
C27G C 0.6174(14) 0.6072(17) 0.8476(5)
H27G H 0.60658 0.66827 0.85061
H28G H 0.62454 0.57818 0.86333
C28G C 0.6922(19) 0.5967(16) 0.8331(8)
H29G H 0.74116 0.62121 0.84152
H30G H 0.70215 0.53602 0.83026
H31G H 0.68427 0.62571 0.81761
C29G C 0.3808(13) 0.6173(14) 0.7817(3)
H32G H 0.42171 0.63705 0.76931
H33G H 0.34068 0.57734 0.77390
C30G C 0.334(2) 0.690(2) 0.7913(7)
H34G H 0.30399 0.71825 0.77821
H35G H 0.29345 0.66973 0.80342
H36G H 0.37432 0.72934 0.79884
C31G C 0.8491(6) 0.2529(6) 0.83807(16)
C32G C 0.8256(7) 0.1699(6) 0.83120(14)
C33G C 0.7455(6) 0.1380(6) 0.83835(16)
C34G C 0.6898(7) 0.1887(7) 0.85198(17)
C35G C 0.7147(7) 0.2703(6) 0.85897(15)
C36G C 0.7941(6) 0.3028(6) 0.85186(16)
C37G C 0.9350(7) 0.2870(7) 0.83140(15)
H37G H 0.97555 0.23881 0.83128
H38G H 0.95336 0.32640 0.84432
C38G C 0.7200(7) 0.0511(7) 0.82953(16)
H39G H 0.77214 0.01641 0.82775
H40G H 0.68457 0.02395 0.84212
C39G C 0.6527(8) 0.3279(8) 0.87300(17)
H41G H 0.62228 0.29423 0.88538
H42G H 0.68463 0.37370 0.88127
C40G C 0.8853(7) 0.1164(7) 0.81571(16)
H43G H 0.85100 0.08102 0.80460
H44G H 0.92086 0.15481 0.80578
C41G C 0.9431(8) 0.0588(7) 0.83052(18)
H45G H 0.97984 0.02613 0.81966
H46G H 0.97821 0.09350 0.84131
H47G H 0.90832 0.01967 0.84013
C42G C 0.6044(8) 0.1542(7) 0.85934(16)
H48G H 0.58391 0.11411 0.84684
H49G H 0.56307 0.20149 0.86045
C43G C 0.6090(8) 0.1078(8) 0.88388(17)
H50G H 0.55256 0.08615 0.88814
H51G H 0.64913 0.06033 0.88274
H52G H 0.62830 0.14764 0.89634
C44G C 0.8172(7) 0.3946(8) 0.85869(17)
H53G H 0.85505 0.41873 0.84617
H54G H 0.76475 0.42938 0.85918
C45G C 0.8611(8) 0.3991(8) 0.88298(18)
H55G H 0.87481 0.45838 0.88674
H56G H 0.82334 0.37617 0.89546
H57G H 0.91358 0.36552 0.88247
C46G C 0.1971(7) 0.3651(6) 0.77229(16)
C47G C 0.2139(7) 0.2777(6) 0.77306(17)
C48G C 0.2234(6) 0.2302(6) 0.75182(17)
C49G C 0.2163(7) 0.2714(7) 0.72965(17)
C50G C 0.1954(7) 0.3580(7) 0.72866(17)
C51G C 0.1885(7) 0.4055(6) 0.75004(18)
C52G C 0.1827(8) 0.4163(7) 0.79565(18)
H58G H 0.14226 0.46287 0.79211
H59G H 0.15557 0.37851 0.80768
C53G C 0.2437(7) 0.1366(6) 0.7527(2)
H60G H 0.21720 0.11257 0.76735
H61G H 0.21635 0.10917 0.73859
C54G C 0.1857(8) 0.4026(7) 0.70471(18)
H62G H 0.16006 0.36165 0.69326
H63G H 0.14405 0.44920 0.70694
C55G C 0.2265(8) 0.2321(7) 0.79723(16)
H64G H 0.24798 0.27303 0.80937
H65G H 0.26933 0.18650 0.79534
C56G C 0.1418(9) 0.1934(8) 0.8061(2)
H66G H 0.15096 0.16459 0.82155
H67G H 0.09971 0.23879 0.80817
H68G H 0.12103 0.15239 0.79416
C57G C 0.2262(8) 0.2205(7) 0.70591(17)
H69G H 0.24864 0.25854 0.69318
H70G H 0.26803 0.17427 0.70841
C58G C 0.1431(10) 0.1826(8) 0.6975(2)
H71G H 0.15235 0.15102 0.68251
H72G H 0.12127 0.14396 0.70994
H73G H 0.10189 0.22821 0.69471
C59G C 0.1694(7) 0.4998(6) 0.7487(2)
H74G H 0.19486 0.52338 0.73376
H75G H 0.19614 0.52880 0.76261
C60G C 0.0744(8) 0.5180(7) 0.7487(3)
H76G H 0.06505 0.57948 0.74784
H77G H 0.04791 0.49035 0.73479
H78G H 0.04918 0.49577 0.76364
#END
