
#######################################################################
#
#                 Cambridge Crystallographic Data Centre
#                                CCDC
#
#######################################################################
#
# If this CIF has been generated from an entry in the Cambridge
# Structural Database, then it will include bibliographic, chemical,
# crystal, experimental, refinement or atomic coordinate data resulting
# from the CCDC's data processing and validation procedures.
#
#######################################################################

data_CSD_CIF_DENMIV
_audit_creation_date 2018-02-07
_audit_creation_method CSD-ConQuest-V1
_database_code_CSD DENMIV
_database_code_depnum_ccdc_archive 'CCDC 1588270'
_chemical_formula_sum 'C120 H156 N12'
_chemical_formula_moiety
;
C120 H156 N12
;
_journal_coden_Cambridge 1220
_journal_volume 24
_journal_year 2018
_journal_page_first 1816
_journal_name_full 'Chem.-Eur.J. '
loop_
_publ_author_name
"J.C.Lauer"
"Wen-Shan Zhang"
"F.Rominger"
"R.R.Schroder"
"M.Mastalerz"
_chemical_name_systematic
;
2,8,10,16,18,24,26,32,34,40,42,48,50,56,58,64,68,69,73,77,78,82,83,84-tetracos
aethyl-5,13,21,29,37,45,53,61,66,71,75,80-dodecaazatridecacyclo[39.23.3.3^9,33
^.3^17,57^.3^25,49^.1^3,63^.1^7,11^.1^15,19^.1^23,27^.1^31,35^.1^39,43^.1^47,5
1^.1^55,59^]tetraoctaconta-1,3(68),4,7(84),8,10,13,15(83),16,18,20,23(82),24,2
6,29,31(78),32,34,36,39(77),40,42,45,47(73),48,50,52,55(69),56,58,61,63,65,71,
74,79-hexatriacontaene unknown solvate
;
_cell_volume  11166.098
_exptl_crystal_colour 'colorless'
_exptl_crystal_density_diffrn 0.788
_exptl_crystal_description 'plate'
_exptl_crystal_preparation 'chloroform'
_diffrn_ambient_temperature 100
_refine_special_details
;
Disordered solvent molecules were not modelled and the disordered density was 
taken into account using the SQUEEZE/PLATON procedure.
;
#These two values have been output from a single CSD field.
_refine_ls_R_factor_gt 0.1144
_refine_ls_wR_factor_gt 0.1144
_symmetry_cell_setting rhombohedral
_symmetry_space_group_name_H-M 'R 3'
_symmetry_Int_Tables_number 146
loop_
_symmetry_equiv_pos_site_id
_symmetry_equiv_pos_as_xyz
1 x,y,z
2 -y,x-y,z
3 -x+y,-x,z
4 2/3+x,1/3+y,1/3+z
5 2/3-y,1/3+x-y,1/3+z
6 2/3-x+y,1/3-x,1/3+z
7 1/3+x,2/3+y,2/3+z
8 1/3-y,2/3+x-y,2/3+z
9 1/3-x+y,2/3-x,2/3+z
_cell_length_a 25.004(3)
_cell_length_b 25.004(3)
_cell_length_c 20.623(5)
_cell_angle_alpha 90
_cell_angle_beta 90
_cell_angle_gamma 120
_cell_formula_units_Z 3
loop_
_atom_type_symbol
_atom_type_radius_bond
C 0.68
H 0.23
N 0.68
loop_
_atom_site_label
_atom_site_type_symbol
_atom_site_fract_x
_atom_site_fract_y
_atom_site_fract_z
N1 N 0.5544(8) 0.1710(8) 0.5894(8)
N2 N 0.5022(9) 0.2829(12) 0.0876(11)
N3 N 0.3871(7) 0.1181(8) 0.3486(9)
N4 N 0.4501(10) 0.3970(7) 0.3477(9)
C1 C 0.6246(9) 0.2688(8) 0.6572(9)
C2 C 0.6029(7) 0.3105(8) 0.6569(9)
C3 C 0.5739(11) 0.1984(8) 0.6636(10)
H1 H 0.53746 0.19395 0.68731
H2 H 0.59065 0.17568 0.68757
C4 C 0.5290(7) 0.2909(9) 0.6530(9)
H3 H 0.52428 0.32216 0.62810
H4 H 0.50472 0.25042 0.63127
C5 C 0.5061(11) 0.2874(13) 0.7240(11)
H5 H 0.46243 0.27585 0.72358
H6 H 0.51097 0.25628 0.74804
H7 H 0.53044 0.32770 0.74489
C6 C 0.6052(11) 0.3117(12) 0.1263(12)
C7 C 0.6476(12) 0.3747(12) 0.1270(12)
C8 C 0.5367(10) 0.2903(15) 0.1343(14)
H8 H 0.51966 0.28229 0.17678
C9 C 0.6227(17) 0.4178(15) 0.1510(19)
H9 H 0.57934 0.39134 0.16518
H10 H 0.64690 0.44071 0.18952
C10 C 0.624(4) 0.460(3) 0.107(3)
H11 H 0.60781 0.48423 0.12689
H12 H 0.66715 0.48768 0.09331
H13 H 0.59937 0.43814 0.06888
C11 C 0.5598(6) 0.1766(7) 0.4707(4)
C12 C 0.5907(5) 0.1505(6) 0.4400(6)
C13 C 0.5736(6) 0.1266(6) 0.3777(6)
C14 C 0.5256(6) 0.1288(6) 0.3462(5)
C15 C 0.4947(5) 0.1549(7) 0.3770(6)
C16 C 0.5118(6) 0.1788(7) 0.4393(6)
C17 C 0.5789(9) 0.2032(9) 0.5393(8)
H14 H 0.61014 0.24513 0.54422
C18 C 0.6460(8) 0.150(1) 0.4755(11)
H15 H 0.67450 0.15053 0.44178
H16 H 0.66869 0.18906 0.50008
C19 C 0.6336(11) 0.1022(9) 0.5175(10)
H17 H 0.67237 0.10813 0.53585
H18 H 0.60688 0.10162 0.55262
H19 H 0.61272 0.06289 0.49402
C20 C 0.6143(11) 0.1081(12) 0.3405(13)
H20 H 0.64663 0.13647 0.31305
C21 C 0.5082(12) 0.1061(13) 0.2744(9)
H21 H 0.49448 0.13282 0.25333
H22 H 0.54662 0.11410 0.25221
C22 C 0.4641(14) 0.0458(14) 0.2617(15)
H23 H 0.45889 0.03945 0.21467
H24 H 0.47721 0.01802 0.28007
H25 H 0.42474 0.03686 0.28120
C23 C 0.4436(8) 0.1591(10) 0.3414(10)
H26 H 0.45402 0.19298 0.31328
C24 C 0.473(1) 0.2023(12) 0.4774(11)
H27 H 0.50110 0.23649 0.50633
H28 H 0.45524 0.21903 0.44597
C25 C 0.4257(11) 0.1572(14) 0.5142(14)
H29 H 0.40365 0.17505 0.53652
H30 H 0.39697 0.12355 0.48589
H31 H 0.44289 0.14104 0.54633
C26 C 0.3677(7) 0.1937(4) 0.2672(6)
C27 C 0.3880(7) 0.2002(5) 0.2034(6)
C28 C 0.4102(6) 0.2564(6) 0.1718(4)
C29 C 0.4120(6) 0.3062(5) 0.2039(7)
C30 C 0.3916(6) 0.2997(5) 0.2676(7)
C31 C 0.3695(6) 0.2435(6) 0.2993(4)
C32 C 0.3411(8) 0.1289(7) 0.3009(10)
H32 H 0.32640 0.09714 0.26643
H33 H 0.30449 0.12142 0.32655
C33 C 0.3924(10) 0.1452(10) 0.1645(13)
H34 H 0.41829 0.16200 0.12517
H35 H 0.41092 0.12666 0.19258
C34 C 0.3257(11) 0.0961(13) 0.1455(18)
H36 H 0.32627 0.06228 0.12208
H37 H 0.30057 0.07981 0.18483
H38 H 0.30791 0.11500 0.11773
C35 C 0.4306(8) 0.264(1) 0.0980(9)
H39 H 0.42378 0.29606 0.07793
H40 H 0.40399 0.22462 0.07515
C36 C 0.4368(12) 0.3740(9) 0.1671(12)
H41 H 0.45668 0.40805 0.19897
H42 H 0.46747 0.38016 0.13330
C37 C 0.3795(12) 0.3734(11) 0.1359(12)
H43 H 0.39277 0.41278 0.11386
H44 H 0.36030 0.33959 0.10439
H45 H 0.34956 0.36736 0.16980
C38 C 0.3887(10) 0.3528(9) 0.3048(11)
H46 H 0.35235 0.33420 0.33396
H47 H 0.38241 0.37876 0.27293
C39 C 0.3482(9) 0.2296(12) 0.3767(9)
H48 H 0.35734 0.19819 0.39424
H49 H 0.37148 0.26791 0.40240
C40 C 0.2780(7) 0.2060(9) 0.3815(10)
H50 H 0.26510 0.19767 0.42700
H51 H 0.26935 0.23740 0.36438
H52 H 0.25525 0.16789 0.35625
N1A N 0.8290(8) 0.3834(8) 0.5894(8)
N2A N 0.7171(9) 0.2193(12) 0.0876(11)
N3A N 0.8819(7) 0.2690(8) 0.3486(9)
N4A N 0.603(1) 0.0531(7) 0.3477(9)
C1A C 0.7312(9) 0.3558(8) 0.6572(9)
C2A C 0.6895(7) 0.2924(8) 0.6569(9)
C3A C 0.8016(11) 0.3755(8) 0.6636(10)
H1A H 0.80605 0.34351 0.68731
H2A H 0.82432 0.41496 0.68757
C4A C 0.7091(7) 0.2381(9) 0.6530(9)
H3A H 0.67784 0.20212 0.62810
H4A H 0.74958 0.25430 0.63127
C5A C 0.7126(11) 0.2187(13) 0.7240(11)
H5A H 0.72415 0.18658 0.72358
H6A H 0.74372 0.25469 0.74804
H7A H 0.67230 0.20274 0.74489
C6A C 0.6883(11) 0.2935(12) 0.1263(12)
C7A C 0.6253(12) 0.2729(12) 0.1270(12)
C8A C 0.7097(10) 0.2464(15) 0.1343(14)
H8A H 0.71771 0.23736 0.17678
C9A C 0.5822(17) 0.2049(15) 0.1510(19)
H9A H 0.60866 0.18800 0.16518
H10A H 0.55929 0.20618 0.18952
C10A C 0.540(4) 0.164(3) 0.107(3)
H11A H 0.51577 0.12357 0.12689
H12A H 0.51232 0.17947 0.09331
H13A H 0.56186 0.16123 0.06888
C11A C 0.8234(6) 0.3832(7) 0.4707(4)
C12A C 0.8495(5) 0.4402(6) 0.4400(6)
C13A C 0.8734(6) 0.4470(6) 0.3777(6)
C14A C 0.8712(6) 0.3968(6) 0.3462(5)
C15A C 0.8451(5) 0.3398(7) 0.3770(6)
C16A C 0.8212(6) 0.3330(7) 0.4393(6)
C17A C 0.7968(9) 0.3757(9) 0.5393(8)
H14A H 0.75487 0.36501 0.54422
C18A C 0.8500(8) 0.496(1) 0.4755(11)
H15A H 0.84947 0.52397 0.44178
H16A H 0.81094 0.47963 0.50008
C19A C 0.8978(11) 0.5314(9) 0.5175(10)
H17A H 0.89187 0.56424 0.53585
H18A H 0.89838 0.50527 0.55262
H19A H 0.93711 0.54983 0.49402
C20A C 0.8919(11) 0.5062(12) 0.3405(13)
H20A H 0.86353 0.51016 0.31305
C21A C 0.8939(12) 0.4021(13) 0.2744(9)
H21A H 0.86718 0.36166 0.25333
H22A H 0.88590 0.43252 0.25221
C22A C 0.9542(14) 0.4183(14) 0.2617(15)
H23A H 0.96056 0.41945 0.21467
H24A H 0.98198 0.45918 0.28007
H25A H 0.96314 0.38788 0.28120
C23A C 0.8409(8) 0.2845(10) 0.3414(10)
H26A H 0.80702 0.26104 0.31328
C24A C 0.7977(10) 0.2707(12) 0.4774(11)
H27A H 0.76351 0.26461 0.50633
H28A H 0.78097 0.23621 0.44597
C25A C 0.8428(11) 0.2685(14) 0.5142(14)
H29A H 0.82495 0.22860 0.53652
H30A H 0.87645 0.27341 0.48589
H31A H 0.85896 0.30185 0.54633
C26A C 0.8063(7) 0.1740(4) 0.2672(6)
C27A C 0.7998(7) 0.1878(5) 0.2034(6)
C28A C 0.7436(6) 0.1538(6) 0.1718(4)
C29A C 0.6938(6) 0.1058(5) 0.2039(7)
C30A C 0.7003(6) 0.0919(5) 0.2676(7)
C31A C 0.7565(6) 0.1260(6) 0.2993(4)
C32A C 0.8711(8) 0.2122(7) 0.3009(10)
H32A H 0.90286 0.22926 0.26643
H33A H 0.87858 0.18307 0.32655
C33A C 0.8548(10) 0.2472(10) 0.1645(13)
H34A H 0.83800 0.25629 0.12517
H35A H 0.87334 0.28426 0.19258
C34A C 0.9039(11) 0.2296(13) 0.1455(18)
H36A H 0.93772 0.26398 0.12208
H37A H 0.92019 0.22076 0.18483
H38A H 0.88500 0.19291 0.11773
C35A C 0.7360(8) 0.1666(10) 0.0980(9)
H39A H 0.70394 0.12772 0.07793
H40A H 0.77538 0.17937 0.07515
C36A C 0.6260(12) 0.0628(9) 0.1671(12)
H41A H 0.59195 0.04863 0.19897
H42A H 0.61984 0.08730 0.13330
C37A C 0.6266(12) 0.0061(11) 0.1359(12)
H43A H 0.58722 -0.02001 0.11386
H44A H 0.66041 0.02072 0.10439
H45A H 0.63264 -0.01780 0.16980
C38A C 0.6472(10) 0.0359(9) 0.3048(11)
H46A H 0.66580 0.01815 0.33396
H47A H 0.62124 0.00365 0.27293
C39A C 0.7704(9) 0.1186(12) 0.3767(9)
H48A H 0.80181 0.15915 0.39424
H49A H 0.73209 0.10357 0.40240
C40A C 0.7940(7) 0.0720(9) 0.3815(10)
H50A H 0.80233 0.06743 0.42700
H51A H 0.76260 0.03195 0.36438
H52A H 0.83211 0.08737 0.35625
N1B N 0.6166(8) 0.4456(8) 0.5894(8)
N2B N 0.7807(9) 0.4978(12) 0.0876(11)
N3B N 0.7310(7) 0.6129(8) 0.3486(9)
N4B N 0.9469(10) 0.5499(7) 0.3477(9)
C1B C 0.6442(9) 0.3754(8) 0.6572(9)
C2B C 0.7076(7) 0.3971(8) 0.6569(9)
C3B C 0.6245(11) 0.4261(8) 0.6636(10)
H1B H 0.65649 0.46254 0.68731
H2B H 0.58504 0.40935 0.68757
C4B C 0.7619(7) 0.4710(9) 0.6530(9)
H3B H 0.79788 0.47572 0.62810
H4B H 0.74570 0.49528 0.63127
C5B C 0.7813(11) 0.4939(13) 0.7240(11)
H5B H 0.81342 0.53757 0.72358
H6B H 0.74531 0.48903 0.74804
H7B H 0.79726 0.46956 0.74489
C6B C 0.7065(11) 0.3948(12) 0.1263(12)
C7B C 0.7271(12) 0.3524(12) 0.1270(12)
C8B C 0.7536(10) 0.4633(15) 0.1343(14)
H8B H 0.76264 0.48034 0.17678
C9B C 0.7951(17) 0.3773(15) 0.1510(19)
H9B H 0.81200 0.42066 0.16518
H10B H 0.79382 0.35310 0.18952
C10B C 0.836(4) 0.376(3) 0.107(3)
H11B H 0.87643 0.39219 0.12689
H12B H 0.82053 0.33285 0.09331
H13B H 0.83877 0.40063 0.06888
C11B C 0.6168(6) 0.4402(7) 0.4707(4)
C12B C 0.5598(5) 0.4093(6) 0.4400(6)
C13B C 0.5530(6) 0.4264(6) 0.3777(6)
C14B C 0.6032(6) 0.4744(6) 0.3462(5)
C15B C 0.6602(5) 0.5053(7) 0.3770(6)
C16B C 0.6670(6) 0.4882(7) 0.4393(6)
C17B C 0.6243(9) 0.4211(9) 0.5393(8)
H14B H 0.63499 0.38986 0.54422
C18B C 0.5040(8) 0.354(1) 0.4755(11)
H15B H 0.47603 0.32550 0.44178
H16B H 0.52037 0.33131 0.50008
C19B C 0.4686(11) 0.3664(9) 0.5175(10)
H17B H 0.43576 0.32763 0.53585
H18B H 0.49473 0.39312 0.55262
H19B H 0.45017 0.38728 0.49402
C20B C 0.4938(11) 0.3857(12) 0.3405(13)
H20B H 0.48984 0.35337 0.31305
C21B C 0.5979(12) 0.4918(13) 0.2744(9)
H21B H 0.63834 0.50552 0.25333
H22B H 0.56748 0.45338 0.25221
C22B C 0.5817(14) 0.5359(14) 0.2617(15)
H23B H 0.58055 0.54111 0.21467
H24B H 0.54082 0.52279 0.28007
H25B H 0.61212 0.57526 0.28120
C23B C 0.7155(8) 0.5564(10) 0.3414(10)
H26B H 0.73896 0.54598 0.31328
C24B C 0.7293(10) 0.5270(12) 0.4774(11)
H27B H 0.73539 0.49890 0.50633
H28B H 0.76379 0.54476 0.44597
C25B C 0.7315(11) 0.5743(14) 0.5142(14)
H29B H 0.77140 0.59635 0.53652
H30B H 0.72659 0.60303 0.48589
H31B H 0.69815 0.55711 0.54633
C26B C 0.8260(7) 0.6323(4) 0.2672(6)
C27B C 0.8122(7) 0.6120(5) 0.2034(6)
C28B C 0.8462(6) 0.5898(6) 0.1718(4)
C29B C 0.8942(6) 0.5880(5) 0.2039(7)
C30B C 0.9081(6) 0.6084(5) 0.2676(7)
C31B C 0.8740(6) 0.6305(6) 0.2993(4)
C32B C 0.7878(8) 0.6589(7) 0.3009(10)
H32B H 0.77074 0.67360 0.26643
H33B H 0.81693 0.69551 0.32655
C33B C 0.7528(10) 0.6076(10) 0.1645(13)
H34B H 0.74371 0.58171 0.12517
H35B H 0.71574 0.58908 0.19258
C34B C 0.7704(11) 0.6743(13) 0.1455(18)
H36B H 0.73602 0.67373 0.12208
H37B H 0.77924 0.69943 0.18483
H38B H 0.80709 0.69209 0.11773
C35B C 0.8334(8) 0.5694(10) 0.0980(9)
H39B H 0.87228 0.57622 0.07793
H40B H 0.82063 0.59601 0.07515
C36B C 0.9372(12) 0.5632(9) 0.1671(12)
H41B H 0.95137 0.54332 0.19897
H42B H 0.91270 0.53253 0.13330
C37B C 0.9939(12) 0.6205(11) 0.1359(12)
H43B H 1.02001 0.60723 0.11386
H44B H 0.97928 0.63970 0.10439
H45B H 1.01780 0.65044 0.16980
C38B C 0.9641(10) 0.6113(9) 0.3048(11)
H46B H 0.98185 0.64765 0.33396
H47B H 0.99635 0.61759 0.27293
C39B C 0.8814(9) 0.6518(12) 0.3767(9)
H48B H 0.84085 0.64265 0.39424
H49B H 0.89643 0.62852 0.40240
C40B C 0.9280(7) 0.7220(9) 0.3815(10)
H50B H 0.93257 0.73490 0.42700
H51B H 0.96805 0.73065 0.36438
H52B H 0.91263 0.74475 0.35625
#END
