
#######################################################################
#
#                 Cambridge Crystallographic Data Centre
#                                CCDC
#
#######################################################################
#
# If this CIF has been generated from an entry in the Cambridge
# Structural Database, then it will include bibliographic, chemical,
# crystal, experimental, refinement or atomic coordinate data resulting
# from the CCDC's data processing and validation procedures.
#
#######################################################################

data_CSD_CIF_DENNAO
_audit_creation_date 2018-02-07
_audit_creation_method CSD-ConQuest-V1
_database_code_CSD DENNAO
_database_code_depnum_ccdc_archive 'CCDC 1588273'
_chemical_formula_sum 'C107 H130 Cl22 N12'
_chemical_formula_moiety
;
C96 H108 N12,11(C1 H2 Cl2)
;
_journal_coden_Cambridge 1220
_journal_volume 24
_journal_year 2018
_journal_page_first 1816
_journal_name_full 'Chem.-Eur.J. '
loop_
_publ_author_name
"J.C.Lauer"
"Wen-Shan Zhang"
"F.Rominger"
"R.R.Schroder"
"M.Mastalerz"
_chemical_name_systematic
;
8,10,24,26,40,42,56,58,69,77,82,84-dodecaethyl-5,13,21,29,37,45,53,61,66,71,75
,80-dodecaazatridecacyclo[39.23.3.3^9,33^.3^17,57^.3^25,49^.1^3,63^.1^7,11^.1^
15,19^.1^23,27^.1^31,35^.1^39,43^.1^47,51^.1^55,59^]tetraoctaconta-1,3(68),4,7
(84),8,10,13,15(83),16,18,20,23(82),24,26,29,31(78),32,34,36,39(77),40,42,45,4
7(73),48,50,52,55(69),56,58,61,63,65,71,74,79-hexatriacontaene 
dichloromethane solvate
;
_cell_volume  12004.770
_exptl_crystal_colour 'colorless'
_exptl_crystal_density_diffrn 1.308
_exptl_crystal_description 'plate'
_diffrn_ambient_temperature 100
_refine_special_details
;
C100,Cl19 and C10B,Cl29 disordered over two sites with occupancies 0.59:0.41; 
C31,C32,C33,C34,C35,C36,C37,C38,C39,N37,N38,N39 and 
C31B,C32B,C33B,C34B,C35B,C36B,C37B,C38B,C39B,N37B,N38B,N39B disordered over 
two sites with occupancies 0.637:0.363; C98,Cl15,Cl16 and C98B,Cl25,Cl26 
disordered over two sites with occupancies 0.562:0.438.
;
#These two values have been output from a single CSD field.
_refine_ls_R_factor_gt 0.1996
_refine_ls_wR_factor_gt 0.1996
_symmetry_cell_setting monoclinic
_symmetry_space_group_name_H-M 'P 21/n'
_symmetry_Int_Tables_number 14
loop_
_symmetry_equiv_pos_site_id
_symmetry_equiv_pos_as_xyz
1 x,y,z
2 1/2-x,1/2+y,1/2-z
3 -x,-y,-z
4 -1/2+x,-1/2-y,-1/2+z
_cell_length_a 16.0211(8)
_cell_length_b 41.134(2)
_cell_length_c 19.484(1)
_cell_angle_alpha 90
_cell_angle_beta 110.782(4)
_cell_angle_gamma 90
_cell_formula_units_Z 4
loop_
_atom_type_symbol
_atom_type_radius_bond
C 0.68
H 0.23
Cl 0.99
N 0.68
loop_
_atom_site_label
_atom_site_type_symbol
_atom_site_fract_x
_atom_site_fract_y
_atom_site_fract_z
C1 C 0.2430(8) 0.2561(3) 0.4386(6)
C2 C 0.3349(7) 0.2563(3) 0.4558(6)
H1 H 0.37182 0.24245 0.49336
C3 C 0.3728(6) 0.2766(3) 0.4179(7)
C4 C 0.3188(8) 0.2969(3) 0.3629(6)
H2 H 0.34469 0.31080 0.33708
C5 C 0.2268(7) 0.2967(3) 0.3458(6)
C6 C 0.1889(6) 0.2764(3) 0.3836(7)
H3 H 0.12609 0.27629 0.37189
C7 C 0.2019(12) 0.2338(5) 0.4797(10)
H4 H 0.23520 0.21579 0.50603
N1 N 0.1264(11) 0.2386(4) 0.4796(9)
C8 C 0.4735(10) 0.2776(5) 0.4378(10)
H5 H 0.49652 0.28977 0.40712
N2 N 0.5261(11) 0.2638(5) 0.4899(9)
C9 C 0.1694(12) 0.3200(5) 0.2875(9)
H6 H 0.10671 0.31673 0.26682
N3 N 0.2038(12) 0.3430(4) 0.2670(9)
C10 C 0.4156(8) 0.2917(3) 0.8361(7)
C11 C 0.3978(7) 0.3196(3) 0.8686(7)
H7 H 0.34315 0.32157 0.87707
C12 C 0.4599(9) 0.3447(3) 0.8887(7)
C13 C 0.5398(8) 0.3418(3) 0.8762(7)
H8 H 0.58229 0.35897 0.88994
C14 C 0.5576(7) 0.3139(3) 0.8437(7)
C15 C 0.4955(9) 0.2888(3) 0.8237(7)
H9 H 0.50767 0.26969 0.80146
C16 C 0.3486(11) 0.2642(4) 0.8157(10)
H10 H 0.36578 0.24314 0.80550
N4 N 0.2723(11) 0.2692(4) 0.8124(9)
C17 C 0.4379(15) 0.3744(4) 0.9252(11)
H11 H 0.38839 0.37306 0.94116
N5 N 0.4784(13) 0.3993(4) 0.9353(10)
C18 C 0.6447(11) 0.3108(5) 0.8292(11)
H12 H 0.69359 0.32444 0.85489
N6 N 0.6526(11) 0.2908(4) 0.7847(9)
C19 C -0.021(2) 0.3801(4) 0.5797(10)
C20 C -0.027(3) 0.3951(5) 0.5142(8)
H13 H -0.04957 0.38343 0.46932
C21 C 0.000(2) 0.4272(5) 0.5143(8)
C22 C 0.034(2) 0.4443(4) 0.5800(9)
H14 H 0.05248 0.46622 0.58012
C23 C 0.0400(19) 0.4293(5) 0.6456(7)
C24 C 0.0127(19) 0.3972(5) 0.6454(7)
H15 H 0.01687 0.38695 0.69022
C25 C -0.048(2) 0.3447(5) 0.5797(13)
H16 H -0.07937 0.33447 0.53418
N7 N -0.0308(17) 0.3291(6) 0.6361(13)
C26 C -0.007(2) 0.4431(6) 0.4421(11)
H17 H -0.01112 0.46612 0.43739
N8 N -0.0079(19) 0.4264(7) 0.3902(12)
C27 C 0.0817(19) 0.4474(6) 0.7171(11)
H18 H 0.07091 0.43880 0.75843
N9 N 0.128(2) 0.4717(6) 0.7278(14)
C28 C 0.5186(9) 0.4782(3) 0.6468(7)
C29 C 0.4524(8) 0.4825(3) 0.5783(8)
H19 H 0.40438 0.49708 0.57281
C30 C 0.4564(8) 0.4656(4) 0.5178(6)
C31 C 0.5266(9) 0.4443(3) 0.5258(6)
H20 H 0.52933 0.43268 0.48452
C32 C 0.5928(8) 0.4399(3) 0.5943(7)
C33 C 0.5888(8) 0.4569(3) 0.6548(6)
H21 H 0.63401 0.45394 0.70156
C34 C 0.5166(15) 0.4935(5) 0.7175(11)
H22 H 0.57161 0.49340 0.75780
N10 N 0.4549(15) 0.5056(6) 0.7288(12)
C35 C 0.3850(14) 0.4735(6) 0.4448(11)
H23 H 0.35028 0.49253 0.44192
N11 N 0.3692(15) 0.4577(6) 0.3908(12)
C36 C 0.6716(12) 0.4170(5) 0.6069(12)
H24 H 0.72122 0.41929 0.65135
N12 N 0.6758(12) 0.3964(4) 0.5651(11)
C37 C 0.4008(7) 0.4521(3) 0.9076(6)
C38 C 0.3088(7) 0.4565(3) 0.8820(7)
C39 C 0.2697(5) 0.4805(3) 0.8303(7)
C40 C 0.3226(8) 0.5001(3) 0.8041(6)
C41 C 0.4146(7) 0.4956(3) 0.8297(7)
C42 C 0.4537(5) 0.4717(3) 0.8814(7)
C43 C 0.4464(14) 0.4264(5) 0.9651(10)
H25 H 0.49724 0.43645 1.00449
H26 H 0.40358 0.41841 0.98748
C44 C 0.1688(9) 0.4845(5) 0.7980(11)
H27 H 0.14269 0.47391 0.83137
H28 H 0.15462 0.50794 0.79658
C45 C 0.4701(14) 0.5172(5) 0.7986(11)
H29 H 0.45118 0.54014 0.79695
H30 H 0.53427 0.51561 0.82908
C46 C 0.2449(13) 0.4340(4) 0.9049(10)
H31 H 0.18593 0.43328 0.86479
H32 H 0.26941 0.41169 0.91292
C47 C 0.2334(17) 0.4462(7) 0.9746(11)
H33 H 0.20101 0.42995 0.99211
H34 H 0.19965 0.46662 0.96432
H35 H 0.29226 0.44995 1.01231
C48 C 0.2787(14) 0.5292(4) 0.753(1)
H36 H 0.31194 0.53351 0.71970
H37 H 0.21656 0.52346 0.72240
C49 C 0.2784(19) 0.5598(5) 0.7973(15)
H38 H 0.24375 0.57686 0.76431
H39 H 0.33990 0.56732 0.82200
H40 H 0.25147 0.55489 0.83409
C50 C 0.5561(9) 0.4655(5) 0.9092(9)
H41 H 0.56802 0.44249 0.92463
H42 H 0.57827 0.46928 0.86855
C51 C 0.6065(13) 0.4875(6) 0.9736(10)
H43 H 0.67069 0.48336 0.98845
H44 H 0.58692 0.48298 1.01498
H45 H 0.59415 0.51028 0.95884
C52 C 0.1416(7) 0.2461(3) 0.7170(4)
C53 C 0.1482(7) 0.2294(3) 0.6571(6)
C54 C 0.0838(8) 0.2338(3) 0.5878(5)
C55 C 0.0128(7) 0.2549(3) 0.5783(4)
C56 C 0.0062(6) 0.2716(3) 0.6382(6)
C57 C 0.0706(8) 0.2672(3) 0.7075(5)
C58 C 0.2083(13) 0.2405(5) 0.7936(8)
H46 H 0.24140 0.22001 0.79538
H47 H 0.17714 0.23893 0.82923
C59 C 0.0915(14) 0.2162(5) 0.5214(9)
H48 H 0.13211 0.19730 0.53789
H49 H 0.03215 0.20806 0.48981
C60 C -0.0632(12) 0.2980(4) 0.6262(10)
H50 H -0.10695 0.29598 0.57555
H51 H -0.09573 0.29420 0.66022
C61 C 0.2286(11) 0.2062(4) 0.6676(12)
H52 H 0.24448 0.20658 0.62297
H53 H 0.28093 0.21383 0.70941
C62 C 0.2052(18) 0.1715(4) 0.6822(17)
H54 H 0.25221 0.15668 0.68035
H55 H 0.14820 0.16524 0.64484
H56 H 0.20033 0.17041 0.73091
C63 C -0.0639(9) 0.2582(4) 0.5032(8)
H57 H -0.08523 0.28099 0.49606
H58 H -0.04172 0.25263 0.46330
C64 C -0.1414(12) 0.2356(5) 0.4998(11)
H59 H -0.19160 0.23931 0.45395
H60 H -0.16015 0.23999 0.54161
H61 H -0.12177 0.21290 0.50178
C65 C 0.0603(12) 0.2854(5) 0.7735(8)
H62 H 0.12006 0.28838 0.81168
H63 H 0.03486 0.30719 0.75723
C66 C 0.0012(15) 0.2675(6) 0.8063(11)
H64 H 0.00437 0.27815 0.85222
H65 H 0.02130 0.24496 0.81633
H66 H -0.06061 0.26793 0.77173
C67 C 0.7259(9) 0.3009(3) 0.6950(4)
C68 C 0.7479(9) 0.3323(3) 0.6813(5)
C69 C 0.7311(9) 0.3425(2) 0.6096(6)
C70 C 0.6921(9) 0.3212(3) 0.5516(5)
C71 C 0.6701(9) 0.2898(3) 0.5652(5)
C72 C 0.6870(9) 0.2797(2) 0.6370(6)
C73 C 0.7398(13) 0.2899(5) 0.7733(8)
H67 H 0.76436 0.26759 0.78123
H68 H 0.78301 0.30452 0.80896
C74 C 0.7583(14) 0.3767(4) 0.5950(12)
H69 H 0.79918 0.38645 0.64107
H70 H 0.78939 0.37578 0.55924
C75 C 0.6231(14) 0.2667(5) 0.5026(9)
H71 H 0.63066 0.27458 0.45714
H72 H 0.65107 0.24493 0.51398
C76 C 0.7880(11) 0.3564(5) 0.7459(9)
H73 H 0.77101 0.37879 0.72760
H74 H 0.76118 0.35195 0.78354
C77 C 0.8891(11) 0.3547(6) 0.7819(12)
H75 H 0.90936 0.37056 0.82185
H76 H 0.91646 0.35955 0.74533
H77 H 0.90660 0.33278 0.80155
C78 C 0.6654(11) 0.3337(5) 0.4712(8)
H78 H 0.60673 0.32435 0.44142
H79 H 0.65916 0.35761 0.47069
C79 C 0.7339(14) 0.3245(6) 0.4369(12)
H80 H 0.70909 0.32861 0.38396
H81 H 0.74867 0.30135 0.44558
H82 H 0.78800 0.33751 0.45908
C80 C 0.6704(11) 0.2439(3) 0.6535(10)
H83 H 0.65594 0.24311 0.69885
H84 H 0.61845 0.23531 0.61272
C81 C 0.7516(13) 0.2226(5) 0.6631(12)
H85 H 0.73271 0.19991 0.65305
H86 H 0.79399 0.22455 0.71360
H87 H 0.78043 0.22968 0.62889
C82 C 0.2150(7) 0.4482(3) 0.3003(8)
C83 C 0.1411(8) 0.4569(3) 0.3178(8)
C84 C 0.0683(7) 0.4360(3) 0.3011(8)
C85 C 0.0695(7) 0.4064(3) 0.2669(7)
C86 C 0.1434(8) 0.3978(2) 0.2494(7)
C87 C 0.2161(7) 0.4186(3) 0.2661(7)
C88 C 0.2959(13) 0.4711(5) 0.3219(14)
H88 H 0.27800 0.49308 0.33191
H89 H 0.31883 0.47268 0.28103
C89 C -0.0130(11) 0.4460(5) 0.3195(11)
H90 H -0.06864 0.44063 0.27834
H91 H -0.01194 0.46963 0.32898
C90 C 0.1447(14) 0.3652(4) 0.2126(11)
H92 H 0.08361 0.35601 0.19290
H93 H 0.16636 0.36812 0.17137
C91 C 0.1398(17) 0.4907(5) 0.3536(15)
H94 H 0.09751 0.49011 0.38030
H95 H 0.19997 0.49558 0.38954
C92 C 0.112(2) 0.5174(6) 0.2954(18)
H96 H 0.12738 0.53866 0.31916
H97 H 0.04744 0.51624 0.26885
H98 H 0.14335 0.51435 0.26088
C93 C -0.0127(11) 0.3838(5) 0.2478(10)
H99 H 0.00743 0.36086 0.25255
H100 H -0.04337 0.38751 0.28316
C94 C -0.0782(14) 0.3897(7) 0.1699(10)
H101 H -0.12071 0.37161 0.15510
H102 H -0.04534 0.39122 0.13617
H103 H -0.11065 0.41002 0.16860
C95 C 0.2984(11) 0.4088(5) 0.2467(10)
H104 H 0.35276 0.41739 0.28513
H105 H 0.30294 0.38484 0.24746
C96 C 0.2962(15) 0.4209(6) 0.1731(10)
H106 H 0.34705 0.41193 0.16260
H107 H 0.29968 0.44472 0.17382
H108 H 0.24045 0.41400 0.13492
H109? H 0.14363 0.48341 0.83757
H110? H 0.15351 0.50590 0.77358
H111? H -0.12216 0.28901 0.59588
H112? H -0.06639 0.30411 0.67433
H113? H -0.03292 0.46782 0.29900
H114? H -0.06228 0.43050 0.29625
C97? C -0.014(4) 0.4211(8) 0.4986(11)
C98? C -0.030(5) 0.3909(8) 0.5233(13)
H115? H -0.05722 0.37419 0.48899
C99? C -0.005(4) 0.3850(7) 0.5981(14)
C100? C 0.035(4) 0.4094(8) 0.6483(11)
H116? H 0.05220 0.40535 0.69943
C101? C 0.051(3) 0.4396(7) 0.6236(13)
C102? C 0.027(4) 0.4455(7) 0.5488(14)
H117? H 0.03780 0.46617 0.53194
C103? C -0.034(3) 0.4268(11) 0.4170(14)
H118? H -0.08020 0.41422 0.38283
N13? N 0.005(3) 0.4465(13) 0.394(2)
C104? C -0.026(4) 0.3525(7) 0.6256(19)
H119? H -0.02223 0.35158 0.67526
N14? N -0.047(3) 0.3278(8) 0.590(2)
C105? C 0.105(4) 0.4641(9) 0.6806(18)
H120? H 0.11910 0.48441 0.66368
N15? N 0.132(4) 0.4593(13) 0.7464(18)
C106 C 0.0453(15) 0.4553(6) 0.0955(16)
H121 H 0.06557 0.44789 0.14719
H122 H 0.09364 0.46870 0.08963
Cl1 Cl 0.0293(6) 0.4218(2) 0.0395(5)
Cl2 Cl -0.0471(8) 0.4794(3) 0.0792(6)
C107 C 0.4600(17) 0.3185(4) 0.1692(7)
H123 H 0.40155 0.30732 0.15144
H124 H 0.50590 0.30261 0.16807
Cl3 Cl 0.4575(7) 0.3497(2) 0.1100(4)
Cl4 Cl 0.4825(7) 0.3304(2) 0.2582(4)
C108 C -0.3481(9) 0.4230(7) 0.3919(15)
H125 H -0.35667 0.41857 0.43890
H126 H -0.35303 0.44682 0.38383
Cl5 Cl -0.4324(7) 0.4046(3) 0.3228(6)
Cl6 Cl -0.2427(5) 0.4112(2) 0.4001(5)
C109 C -0.2539(18) 0.5306(4) 0.3842(11)
H127 H -0.21740 0.53475 0.35337
H128 H -0.31515 0.52516 0.35104
Cl7 Cl -0.2093(5) 0.49762(17) 0.4416(5)
Cl8 Cl -0.2576(5) 0.56527(18) 0.4316(5)
C110 C 0.4565(11) 0.2726(4) 0.6421(12)
H129 H 0.47142 0.27494 0.59719
H130 H 0.50564 0.28233 0.68335
Cl9 Cl 0.4492(4) 0.23160(17) 0.6596(4)
Cl10 Cl 0.3586(4) 0.29369(19) 0.6303(3)
C111 C 0.4520(12) 0.3813(5) 0.6931(12)
H131 H 0.41203 0.38702 0.64286
H132 H 0.42378 0.36293 0.70967
Cl11 Cl 0.4557(7) 0.4131(2) 0.7478(5)
Cl12 Cl 0.5492(6) 0.3677(2) 0.6878(6)
C112 C -0.0003(15) 0.3185(9) 0.020(2)
H133 H 0.02131 0.32131 0.07363
H134 H -0.00985 0.29499 0.00926
Cl13 Cl -0.101(1) 0.3381(4) -0.0177(8)
Cl14 Cl 0.0809(9) 0.3315(3) -0.0113(8)
C113 C 0.3475(13) 0.3745(10) 0.4272(17)
H135 H 0.31791 0.36531 0.37752
H136 H 0.34423 0.39851 0.42245
Cl15 Cl 0.2884(11) 0.3628(4) 0.4812(8)
Cl16 Cl 0.4573(8) 0.3633(4) 0.4580(15)
C114? C 0.367(2) 0.3616(13) 0.508(2)
H137? H 0.36370 0.37346 0.55069
H138? H 0.33305 0.34112 0.50312
Cl17? Cl 0.3156(16) 0.3846(6) 0.4307(12)
Cl18? Cl 0.4758(19) 0.3520(8) 0.5241(16)
C115 C 0.239(3) 0.3807(11) 0.7693(19)
H139 H 0.22014 0.40377 0.76416
H140 H 0.30244 0.38012 0.80225
Cl19 Cl 0.2334(11) 0.3670(5) 0.6848(17)
Cl20 Cl 0.1772(10) 0.3602(3) 0.8118(9)
C116 C 0.0541(16) 0.3224(8) 0.4508(16)
H141 H 0.03953 0.32510 0.49575
H142 H 0.08440 0.30123 0.45382
Cl21 Cl 0.1249(11) 0.3530(4) 0.4465(10)
Cl22 Cl -0.0427(6) 0.3226(2) 0.3755(4)
C117? C 0.064(2) 0.3368(17) 0.4218(16)
H143? H 0.10244 0.32981 0.39482
H144? H 0.06198 0.36084 0.42110
Cl23? Cl 0.1114(11) 0.3242(4) 0.5113(9)
C118 C 0.789(3) 0.4398(5) 0.876(4)
H145 H 0.81965 0.43567 0.92947
H146 H 0.83158 0.43366 0.85221
Cl24 Cl 0.7031(18) 0.4122(4) 0.8469(15)
Cl25 Cl 0.7756(8) 0.4810(3) 0.8667(6)
#END
