
#######################################################################
#
#                 Cambridge Crystallographic Data Centre
#                                CCDC
#
#######################################################################
#
# If this CIF has been generated from an entry in the Cambridge
# Structural Database, then it will include bibliographic, chemical,
# crystal, experimental, refinement or atomic coordinate data resulting
# from the CCDC's data processing and validation procedures.
#
#######################################################################

data_CSD_CIF_GICGUX
_audit_creation_date 2018-04-24
_audit_creation_method CSD-ConQuest-V1
_database_code_CSD GICGUX
_database_code_depnum_ccdc_archive 'CCDC 1578448'
_chemical_formula_sum 'C234 H306 Cl54 N24 O18'
_chemical_formula_moiety
;
C180 H180 N24,18(C1 H1 Cl3),18(C2 H6 O1)
;
_journal_coden_Cambridge 1147
_journal_volume 18
_journal_year 2018
_journal_page_first 2759
_journal_name_full 'Cryst.Growth Des. '
loop_
_publ_author_name
"C.J.Pugh"
"V.Santolini"
"R.L.Greenaway"
"M.A.Little"
"M.E.Briggs"
"K.E.Jelfs"
"A.I.Cooper"
_chemical_name_systematic
;
(R,R)-6,8,12,14,21,23,27,29,36,38,42,44,51,53,57,59,62,64,69,71,76,78,81,83-te
tracosaaza-7,13,22,28,37,43,52,58,63,70,77,82(1,2)-dodecacyclohexana-1,4,10,16
,19,25,31,34,40,46,49,55(1,3,5)-dodecabenzenaheptacyclo[47.11.5.5^4,16^.5^19,3
1^.5^34,46^.2^10,40^.2^25,55^]tetraoctaconta-5,8,11,14,20,23,26,29,35,38,41,44
,50,53,56,59,61,64,68,71,75,78,80,83-tetracosaene-2,17,32,47,66,73-hexayne 
chloroform isopropanol solvate
;
_cell_volume  23914.964
_exptl_crystal_colour 'colorless'
_exptl_special_details
;
Sensitive to desolvation

;
_exptl_crystal_description 'Needle'
_diffrn_ambient_temperature 100
_refine_special_details
;
Disordered solvent molecules were not modelled and the disordered density was 
taken into account using the SQUEEZE/PLATON procedure.
;
#These two values have been output from a single CSD field.
_refine_ls_R_factor_gt 0.0687
_refine_ls_wR_factor_gt 0.0687
_symmetry_cell_setting rhombohedral
_symmetry_space_group_name_H-M 'R 3'
_symmetry_Int_Tables_number 146
loop_
_symmetry_equiv_pos_site_id
_symmetry_equiv_pos_as_xyz
1 x,y,z
2 -y,x-y,z
3 -x+y,-x,z
4 2/3+x,1/3+y,1/3+z
5 2/3-y,1/3+x-y,1/3+z
6 2/3-x+y,1/3-x,1/3+z
7 1/3+x,2/3+y,2/3+z
8 1/3-y,2/3+x-y,2/3+z
9 1/3-x+y,2/3-x,2/3+z
_cell_length_a 38.524(7)
_cell_length_b 38.524(7)
_cell_length_c 18.607(4)
_cell_angle_alpha 90
_cell_angle_beta 90
_cell_angle_gamma 120
_cell_formula_units_Z 3
loop_
_atom_type_symbol
_atom_type_radius_bond
C 0.68
H 0.23
N 0.68
loop_
_atom_site_label
_atom_site_type_symbol
_atom_site_fract_x
_atom_site_fract_y
_atom_site_fract_z
N1 N 0.24193(14) 0.51988(15) -0.3104(2)
N2 N 0.32727(13) 0.54499(14) -0.3219(2)
N3 N 0.46950(13) 0.52098(15) 0.0872(3)
N4 N 0.42441(12) 0.46828(12) 0.2096(2)
N5 N 0.49303(14) 0.63117(14) 0.5354(2)
N6 N 0.42402(13) 0.55025(13) 0.5150(2)
N7 N 0.61206(15) 0.69689(13) 0.1503(3)
N8 N 0.61660(16) 0.73941(15) 0.2865(3)
C1 C 0.50167(11) 0.59144(8) 0.10123(18)
C2 C 0.53623(10) 0.62530(11) 0.12494(17)
H1 H 0.55380 0.62260 0.15740
C3 C 0.54511(9) 0.66306(9) 0.10110(19)
C4 C 0.51944(11) 0.66696(8) 0.0535(2)
H2 H 0.52550 0.69280 0.03720
C5 C 0.48489(10) 0.63310(11) 0.02982(18)
C6 C 0.47600(9) 0.59534(9) 0.05367(18)
H3 H 0.45240 0.57220 0.03750
C7 C 0.49490(18) 0.55080(15) 0.1201(3)
H4 H 0.51010 0.54790 0.15740
C8 C 0.58378(17) 0.69928(17) 0.1233(3)
H5 H 0.58680 0.72510 0.11640
C9 C 0.46292(17) 0.63690(16) -0.0279(3)
C10 C 0.44318(17) 0.63439(15) -0.0792(3)
C11 C 0.42268(10) 0.63238(10) -0.14748(15)
C12 C 0.38875(9) 0.59658(9) -0.16643(17)
H6 H 0.37680 0.57520 -0.13280
C13 C 0.37226(8) 0.59206(9) -0.23460(19)
C14 C 0.3897(1) 0.62333(11) -0.28383(15)
H7 H 0.37840 0.62020 -0.33040
C15 C 0.42364(11) 0.65912(9) -0.26488(17)
C16 C 0.44013(9) 0.66365(8) -0.19671(19)
H8 H 0.46330 0.68810 -0.18380
C17 C 0.34007(15) 0.55311(16) -0.2563(3)
H9 H 0.32780 0.53270 -0.22100
C18 C 0.3922(2) 0.46998(19) 0.2195(3)
H10 H 0.37330 0.46150 0.18150
C19 C 0.38313(10) 0.48427(10) 0.28649(15)
C20 C 0.34665(9) 0.48339(10) 0.28975(16)
H11 H 0.32860 0.47320 0.25040
C21 C 0.33662(8) 0.4974(1) 0.35062(19)
C22 C 0.36307(10) 0.5123(1) 0.40824(15)
H12 H 0.35620 0.52190 0.44980
C23 C 0.39955(9) 0.51318(11) 0.40498(16)
C24 C 0.40958(8) 0.49917(11) 0.34410(18)
H13 H 0.43450 0.49980 0.34190
C25 C 0.42916(14) 0.53229(14) 0.4652(3)
H14 H 0.45280 0.53040 0.46470
C26 C 0.29596(18) 0.49191(17) 0.3583(3)
C27 C 0.2647(2) 0.4894(2) 0.3734(4)
C28 C 0.48287(17) 0.65711(15) 0.5064(2)
H15 H 0.46030 0.65790 0.52480
C29 C 0.56081(11) 0.71417(11) 0.3605(2)
C30 C 0.55096(11) 0.74342(9) 0.34436(17)
H16 H 0.56610 0.76350 0.30970
C31 C 0.51893(11) 0.74334(10) 0.3789(2)
C32 C 0.49675(10) 0.71401(12) 0.4296(2)
H17 H 0.47490 0.71390 0.45320
C33 C 0.50660(12) 0.68476(10) 0.44580(18)
C34 C 0.53863(13) 0.68484(10) 0.4112(2)
H18 H 0.54540 0.66480 0.42230
C35 C 0.59494(18) 0.71363(19) 0.3273(4)
H19 H 0.60000 0.69250 0.33830
C36 C 0.64507(15) 0.73527(18) 0.1727(3)
H20 H 0.64140 0.75770 0.15480
C37 C 0.68350(17) 0.73725(18) 0.1377(4)
H21 H 0.68530 0.71360 0.15280
H22 H 0.68100 0.73660 0.08470
C38 C 0.72105(17) 0.77487(18) 0.1600(4)
H23 H 0.71980 0.79850 0.14290
H24 H 0.74460 0.77540 0.13730
C39 C 0.72613(16) 0.77705(19) 0.2412(4)
H25 H 0.75150 0.80120 0.25530
H26 H 0.72620 0.75300 0.25980
C40 C 0.68928(16) 0.7792(2) 0.2708(4)
H27 H 0.69240 0.78510 0.32290
H28 H 0.68690 0.80070 0.24600
C41 C 0.65198(17) 0.7384(2) 0.2567(4)
H29 H 0.65460 0.71570 0.27630
C42 C 0.46774(18) 0.60672(16) 0.5927(3)
H30 H 0.44470 0.61150 0.59900
C43 C 0.49395(16) 0.61989(16) 0.6608(3)
H31 H 0.51810 0.61750 0.65290
H32 H 0.50280 0.64830 0.67170
C44 C 0.46964(18) 0.59327(16) 0.7241(3)
H33 H 0.44610 0.59650 0.73290
H34 H 0.48640 0.60170 0.76800
C45 C 0.4553(2) 0.54811(17) 0.7077(3)
H35 H 0.47880 0.54480 0.69820
H36 H 0.44070 0.53130 0.74970
C46 C 0.42794(16) 0.53503(17) 0.6423(3)
H37 H 0.40400 0.53750 0.65230
H38 H 0.41880 0.50670 0.63090
C47 C 0.45238(16) 0.56304(15) 0.5757(3)
H39 H 0.47540 0.55890 0.56350
C48 C 0.43031(16) 0.45261(16) 0.1420(3)
H40 H 0.40890 0.45000 0.10840
C49 C 0.42320(17) 0.40938(17) 0.1544(3)
H41 H 0.43990 0.40970 0.19510
H42 H 0.39470 0.39120 0.16700
C50 C 0.43390(18) 0.39350(18) 0.0860(3)
H43 H 0.43520 0.36910 0.09800
H44 H 0.41290 0.38630 0.04910
C51 C 0.47314(18) 0.42477(17) 0.0573(3)
H45 H 0.47900 0.41420 0.01330
H46 H 0.49410 0.42960 0.09310
C52 C 0.4763(2) 0.46380(19) 0.0395(3)
H47 H 0.45610 0.45990 0.00290
H48 H 0.50320 0.48240 0.01980
C53 C 0.46928(17) 0.48159(16) 0.1089(3)
H49 H 0.49150 0.48810 0.14380
C54 C 0.29559(17) 0.50638(18) -0.3373(3)
H50 H 0.28890 0.49160 -0.29060
C55 C 0.30946(18) 0.48292(16) -0.3892(4)
H51 H 0.32000 0.49840 -0.43420
H52 H 0.33150 0.48090 -0.36600
C56 C 0.27480(18) 0.44007(17) -0.4077(4)
H53 H 0.26750 0.42320 -0.36400
H54 H 0.28440 0.42800 -0.44400
C57 C 0.23620(17) 0.43973(17) -0.4378(3)
H55 H 0.24190 0.45120 -0.48680
H56 H 0.21400 0.41160 -0.44120
C58 C 0.22274(17) 0.46352(16) -0.3906(3)
H57 H 0.20770 0.44660 -0.34900
H58 H 0.20400 0.46870 -0.41870
C59 C 0.25746(16) 0.50478(15) -0.3612(3)
H59 H 0.26540 0.52360 -0.40290
C60 C 0.24694(17) 0.55467(19) -0.3177(3)
H60 H 0.25920 0.56840 -0.36100
N1A N 0.48012(14) 0.72205(15) -0.3104(2)
N2A N 0.45501(13) 0.78228(14) -0.3219(2)
N3A N 0.47902(13) 0.94852(15) 0.0872(3)
N4A N 0.53172(12) 0.95613(12) 0.2096(2)
N5A N 0.36883(14) 0.86186(14) 0.5354(2)
N6A N 0.44975(13) 0.87377(13) 0.5150(2)
N7A N 0.30311(15) 0.91517(13) 0.1503(3)
N8A N 0.26059(16) 0.87719(15) 0.2865(3)
C1A C 0.40856(11) 0.91023(8) 0.10123(18)
C2A C 0.3747(1) 0.91093(11) 0.12494(17)
H1A H 0.37740 0.93120 0.15740
C3A C 0.33694(9) 0.88205(9) 0.10110(19)
C4A C 0.33304(11) 0.85248(8) 0.0535(2)
H2A H 0.30720 0.83270 0.03720
C5A C 0.3669(1) 0.85179(11) 0.02982(18)
C6A C 0.40466(9) 0.88066(9) 0.05367(18)
H3A H 0.42780 0.88020 0.03750
C7A C 0.44920(18) 0.94410(15) 0.1201(3)
H4A H 0.45210 0.96220 0.15740
C8A C 0.30072(17) 0.88450(17) 0.1233(3)
H5A H 0.27490 0.86170 0.11640
C9A C 0.36310(17) 0.82602(16) -0.0279(3)
C10A C 0.36561(17) 0.80879(15) -0.0792(3)
C11A C 0.36762(10) 0.7903(1) -0.14748(15)
C12A C 0.40342(9) 0.79217(9) -0.16643(17)
H6A H 0.42480 0.80160 -0.13280
C13A C 0.40794(8) 0.78020(9) -0.23460(19)
C14A C 0.37667(10) 0.76637(11) -0.28383(15)
H7A H 0.37980 0.75820 -0.33040
C15A C 0.34088(11) 0.76452(9) -0.26488(17)
C16A C 0.33635(9) 0.77648(8) -0.19671(19)
H8A H 0.31190 0.77520 -0.18380
C17A C 0.44689(15) 0.78696(16) -0.2563(3)
H9A H 0.46730 0.79510 -0.22100
C18A C 0.53002(20) 0.92222(19) 0.2195(3)
H10A H 0.53850 0.91180 0.18150
C19A C 0.51573(10) 0.89886(10) 0.28649(15)
C20A C 0.51661(9) 0.86326(10) 0.28975(16)
H11A H 0.52680 0.85540 0.25040
C21A C 0.50260(8) 0.83922(10) 0.35062(19)
C22A C 0.4877(1) 0.85077(10) 0.40824(15)
H12A H 0.47810 0.83430 0.44980
C23A C 0.48682(9) 0.88637(11) 0.40498(16)
C24A C 0.50083(8) 0.91041(11) 0.34410(18)
H13A H 0.50020 0.93470 0.34190
C25A C 0.46771(14) 0.89687(14) 0.4652(3)
H14A H 0.46960 0.92240 0.46470
C26A C 0.50809(18) 0.80405(17) 0.3583(3)
C27A C 0.5106(2) 0.7753(2) 0.3734(4)
C28A C 0.34289(17) 0.82576(15) 0.5064(2)
H15A H 0.34210 0.80240 0.52480
C29A C 0.28583(11) 0.84664(11) 0.3605(2)
C30A C 0.25658(11) 0.80754(9) 0.34436(17)
H16A H 0.23650 0.80260 0.30970
C31A C 0.25666(11) 0.77559(10) 0.3789(2)
C32A C 0.28599(10) 0.78274(12) 0.4296(2)
H17A H 0.28610 0.76100 0.45320
C33A C 0.31524(12) 0.82184(10) 0.44580(18)
C34A C 0.31516(13) 0.85379(10) 0.4112(2)
H18A H 0.33520 0.88060 0.42230
C35A C 0.28637(18) 0.88131(19) 0.3273(4)
H19A H 0.30750 0.90750 0.33830
C36A C 0.26473(15) 0.90980(18) 0.1727(3)
H20A H 0.24230 0.88370 0.15480
C37A C 0.26275(17) 0.94625(18) 0.1377(4)
H21A H 0.28640 0.97170 0.15280
H22A H 0.26340 0.94440 0.08470
C38A C 0.22513(17) 0.94618(18) 0.1600(4)
H23A H 0.20150 0.92130 0.14290
H24A H 0.22460 0.96920 0.13730
C39A C 0.22295(16) 0.94908(19) 0.2412(4)
H25A H 0.19880 0.95030 0.25530
H26A H 0.24700 0.97320 0.25980
C40A C 0.22080(16) 0.91008(20) 0.2708(4)
H27A H 0.21490 0.90730 0.32290
H28A H 0.19930 0.88620 0.24600
C41A C 0.26160(17) 0.91358(20) 0.2567(4)
H29A H 0.28430 0.93890 0.27630
C42A C 0.39328(18) 0.86102(16) 0.5927(3)
H30A H 0.38850 0.83320 0.59900
C43A C 0.38011(16) 0.87406(16) 0.6608(3)
H31A H 0.38250 0.90060 0.65290
H32A H 0.35170 0.85450 0.67170
C44A C 0.40673(18) 0.87637(16) 0.7241(3)
H33A H 0.40350 0.84960 0.73290
H34A H 0.39830 0.88470 0.76800
C45A C 0.45189(20) 0.90719(17) 0.7077(3)
H35A H 0.45520 0.93400 0.69820
H36A H 0.46870 0.90940 0.74970
C46A C 0.46497(16) 0.89291(17) 0.6423(3)
H37A H 0.46250 0.86650 0.65230
H38A H 0.49330 0.91210 0.63090
C47A C 0.43696(16) 0.88934(15) 0.5757(3)
H39A H 0.44110 0.91650 0.56350
C48A C 0.54739(16) 0.97770(16) 0.1420(3)
H40A H 0.55000 0.95890 0.10840
C49A C 0.59062(17) 1.01382(17) 0.1544(3)
H41A H 0.59030 1.03020 0.19510
H42A H 0.60880 1.00350 0.16700
C50A C 0.60650(18) 1.04040(18) 0.0860(3)
H43A H 0.63090 1.06610 0.09800
H44A H 0.61370 1.02660 0.04910
C51A C 0.57523(18) 1.04837(17) 0.0573(3)
H45A H 0.58580 1.06480 0.01330
H46A H 0.57040 1.06450 0.09310
C52A C 0.5362(2) 1.01250(19) 0.0395(3)
H47A H 0.54010 0.99620 0.00290
H48A H 0.51760 1.02080 0.01980
C53A C 0.51841(17) 0.98769(16) 0.1089(3)
H49A H 0.51190 1.00340 0.14380
C54A C 0.49362(17) 0.78921(18) -0.3373(3)
H50A H 0.50840 0.79730 -0.29060
C55A C 0.51708(18) 0.82654(16) -0.3892(4)
H51A H 0.50160 0.82160 -0.43420
H52A H 0.51910 0.85060 -0.36600
C56A C 0.55993(18) 0.83473(17) -0.4077(4)
H53A H 0.57680 0.84430 -0.36400
H54A H 0.57200 0.85640 -0.44400
C57A C 0.56027(17) 0.79647(17) -0.4378(3)
H55A H 0.54880 0.79070 -0.48680
H56A H 0.58840 0.80240 -0.44120
C58A C 0.53648(17) 0.75922(16) -0.3906(3)
H57A H 0.55340 0.76110 -0.34900
H58A H 0.53130 0.73530 -0.41870
C59A C 0.49522(16) 0.75268(15) -0.3612(3)
H59A H 0.47640 0.74180 -0.40290
C60A C 0.44533(17) 0.69227(19) -0.3177(3)
H60A H 0.43160 0.69080 -0.36100
N1B N 0.27795(14) 0.75807(15) -0.3104(2)
N2B N 0.21772(13) 0.67273(14) -0.3219(2)
N3B N 0.05148(13) 0.53050(15) 0.0872(3)
N4B N 0.04387(12) 0.57559(12) 0.2096(2)
N5B N 0.13814(14) 0.50697(14) 0.5354(2)
N6B N 0.12623(13) 0.57598(13) 0.5150(2)
N7B N 0.08483(15) 0.38794(13) 0.1503(3)
N8B N 0.12281(16) 0.38340(15) 0.2865(3)
C1B C 0.08977(11) 0.49833(8) 0.10123(18)
C2B C 0.08907(10) 0.46377(11) 0.12494(17)
H1B H 0.06880 0.44620 0.15740
C3B C 0.11795(9) 0.45489(9) 0.10110(19)
C4B C 0.14752(11) 0.48056(8) 0.0535(2)
H2B H 0.16730 0.47450 0.03720
C5B C 0.14821(10) 0.51511(11) 0.02982(18)
C6B C 0.11934(9) 0.52400(9) 0.05367(18)
H3B H 0.11980 0.54760 0.03750
C7B C 0.05590(18) 0.50510(15) 0.1201(3)
H4B H 0.03780 0.48990 0.15740
C8B C 0.11550(17) 0.41622(17) 0.1233(3)
H5B H 0.13830 0.41320 0.11640
C9B C 0.17398(17) 0.53708(16) -0.0279(3)
C10B C 0.19121(17) 0.55682(15) -0.0792(3)
C11B C 0.2097(1) 0.57732(10) -0.14748(15)
C12B C 0.20783(9) 0.61125(9) -0.16643(17)
H6B H 0.19840 0.62320 -0.13280
C13B C 0.21980(8) 0.62774(9) -0.23460(19)
C14B C 0.23363(10) 0.61030(11) -0.28383(15)
H7B H 0.24180 0.62160 -0.33040
C15B C 0.23548(11) 0.57636(9) -0.26488(17)
C16B C 0.22352(9) 0.55987(8) -0.19671(19)
H8B H 0.22480 0.53670 -0.18380
C17B C 0.21304(15) 0.65993(16) -0.2563(3)
H9B H 0.20490 0.67220 -0.22100
C18B C 0.07778(20) 0.60780(19) 0.2195(3)
H10B H 0.08820 0.62670 0.18150
C19B C 0.10114(10) 0.61687(10) 0.28649(15)
C20B C 0.13674(9) 0.65335(10) 0.28975(16)
H11B H 0.14460 0.67140 0.25040
C21B C 0.16078(8) 0.66338(10) 0.35062(19)
C22B C 0.14923(10) 0.63693(10) 0.40824(15)
H12B H 0.16570 0.64380 0.44980
C23B C 0.11363(9) 0.60045(11) 0.40498(16)
C24B C 0.08959(8) 0.59042(11) 0.34410(18)
H13B H 0.06530 0.56550 0.34190
C25B C 0.10313(14) 0.57084(14) 0.4652(3)
H14B H 0.07760 0.54720 0.46470
C26B C 0.19595(18) 0.70404(17) 0.3583(3)
C27B C 0.2247(2) 0.7353(2) 0.3734(4)
C28B C 0.17424(17) 0.51713(15) 0.5064(2)
H15B H 0.19760 0.53970 0.52480
C29B C 0.15336(11) 0.43919(11) 0.3605(2)
C30B C 0.19246(11) 0.44904(9) 0.34436(17)
H16B H 0.19740 0.43390 0.30970
C31B C 0.22441(11) 0.48107(10) 0.3789(2)
C32B C 0.21726(10) 0.50325(12) 0.4296(2)
H17B H 0.23900 0.52510 0.45320
C33B C 0.17816(12) 0.4934(1) 0.44580(18)
C34B C 0.14621(13) 0.46137(10) 0.4112(2)
H18B H 0.11940 0.45460 0.42230
C35B C 0.11869(18) 0.40506(19) 0.3273(4)
H19B H 0.09250 0.40000 0.33830
C36B C 0.09020(15) 0.35493(18) 0.1727(3)
H20B H 0.11630 0.35860 0.15480
C37B C 0.05375(17) 0.31650(18) 0.1377(4)
H21B H 0.02830 0.31470 0.15280
H22B H 0.05560 0.31900 0.08470
C38B C 0.05382(17) 0.27895(18) 0.1600(4)
H23B H 0.07870 0.28020 0.14290
H24B H 0.03080 0.25540 0.13730
C39B C 0.05092(16) 0.27387(19) 0.2412(4)
H25B H 0.04970 0.24850 0.25530
H26B H 0.02680 0.27380 0.25980
C40B C 0.08992(16) 0.31072(20) 0.2708(4)
H27B H 0.09270 0.30760 0.32290
H28B H 0.11380 0.31310 0.24600
C41B C 0.08642(17) 0.34802(20) 0.2567(4)
H29B H 0.06110 0.34540 0.27630
C42B C 0.13898(18) 0.53226(16) 0.5927(3)
H30B H 0.16680 0.55530 0.59900
C43B C 0.12594(16) 0.50605(16) 0.6608(3)
H31B H 0.09940 0.48190 0.65290
H32B H 0.14550 0.49720 0.67170
C44B C 0.12363(18) 0.53036(16) 0.7241(3)
H33B H 0.15040 0.55390 0.73290
H34B H 0.11530 0.51360 0.76800
C45B C 0.09281(20) 0.54470(17) 0.7077(3)
H35B H 0.06600 0.52120 0.69820
H36B H 0.09060 0.55930 0.74970
C46B C 0.10709(16) 0.57206(17) 0.6423(3)
H37B H 0.13350 0.59600 0.65230
H38B H 0.08790 0.58120 0.63090
C47B C 0.11066(16) 0.54762(15) 0.5757(3)
H39B H 0.08350 0.52460 0.56350
C48B C 0.02230(16) 0.56969(16) 0.1420(3)
H40B H 0.04110 0.59110 0.10840
C49B C -0.01382(17) 0.57680(17) 0.1544(3)
H41B H -0.03020 0.56010 0.19510
H42B H -0.00350 0.60530 0.16700
C50B C -0.04040(18) 0.56610(18) 0.0860(3)
H43B H -0.06610 0.56480 0.09800
H44B H -0.02660 0.58710 0.04910
C51B C -0.04837(18) 0.52686(17) 0.0573(3)
H45B H -0.06480 0.52100 0.01330
H46B H -0.06450 0.50590 0.09310
C52B C -0.0125(2) 0.52370(19) 0.0395(3)
H47B H 0.00380 0.54390 0.00290
H48B H -0.02080 0.49680 0.01980
C53B C 0.01231(17) 0.53072(16) 0.1089(3)
H49B H -0.00340 0.50850 0.14380
C54B C 0.21079(17) 0.70441(18) -0.3373(3)
H50B H 0.20270 0.71110 -0.29060
C55B C 0.17346(18) 0.69054(16) -0.3892(4)
H51B H 0.17840 0.68000 -0.43420
H52B H 0.14940 0.66850 -0.36600
C56B C 0.16527(18) 0.72520(17) -0.4077(4)
H53B H 0.15570 0.73250 -0.36400
H54B H 0.14360 0.71560 -0.44400
C57B C 0.20353(17) 0.76380(17) -0.4378(3)
H55B H 0.20930 0.75810 -0.48680
H56B H 0.19760 0.78600 -0.44120
C58B C 0.24078(17) 0.77726(16) -0.3906(3)
H57B H 0.23890 0.79230 -0.34900
H58B H 0.26470 0.79600 -0.41870
C59B C 0.24732(16) 0.74254(15) -0.3612(3)
H59B H 0.25820 0.73460 -0.40290
C60B C 0.30773(17) 0.75306(19) -0.3177(3)
H60B H 0.30920 0.74080 -0.36100
#END
