
#######################################################################
#
#                 Cambridge Crystallographic Data Centre
#                                CCDC
#
#######################################################################
#
# If this CIF has been generated from an entry in the Cambridge
# Structural Database, then it will include bibliographic, chemical,
# crystal, experimental, refinement or atomic coordinate data resulting
# from the CCDC's data processing and validation procedures.
#
#######################################################################

data_CSD_CIF_IFAJOR
_audit_creation_date 2018-08-07
_audit_creation_method CSD-ConQuest-V1
_database_code_CSD IFAJOR
_database_code_depnum_ccdc_archive 'CCDC 1575910'
_chemical_formula_sum 'C57 H60 Cl2 N12'
_chemical_formula_moiety
;
C48 H48 N12,C8 H10,C1 H2 Cl2
;
_journal_coden_Cambridge 169
_journal_year 2018
_journal_name_full 'Faraday Discuss. '
loop_
_publ_author_name
"D.P.McMahon"
"A.Stephenson"
"Samantha Y.Chong"
"M.A.Little"
"J.T.A.Jones"
"A.I.Cooper"
"G.M.Day"
_chemical_name_systematic
;
5,8,16,19,27,30,38,41,46,49,54,57-dodecaazaheptacyclo[21.21.6.6^12,34^.1^3,43^
.1^10,14^.1^21,25^.1^32,36^]hexaconta-1,3(51),4,8,10(60),11,13,15,19,21(59),22
,24,26,30,32(52),33,35,37,41,43,45,49,53,57-tetracosaene o-xylene 
dichloromethane solvate
;
_cell_volume   5525.973
_exptl_crystal_colour 'colorless'
_exptl_crystal_density_diffrn 1.183
_exptl_crystal_description 'needle'
_diffrn_ambient_temperature 100
_refine_special_details
;
Cl1,Cl2 and Cl3,Cl4 disordered over two sites with occupancies 0.5:0.5; 
H49A,H49B and H49C,H49D disordered over two sites with occupancies 0.5:0.5.
;
#These two values have been output from a single CSD field.
_refine_ls_R_factor_gt 0.0958
_refine_ls_wR_factor_gt 0.0958
_symmetry_cell_setting monoclinic
_symmetry_space_group_name_H-M 'P 21/n'
_symmetry_Int_Tables_number 14
loop_
_symmetry_equiv_pos_site_id
_symmetry_equiv_pos_as_xyz
1 x,y,z
2 1/2-x,1/2+y,1/2-z
3 -x,-y,-z
4 -1/2+x,-1/2-y,-1/2+z
_cell_length_a 16.565(4)
_cell_length_b 10.745(3)
_cell_length_c 31.067(8)
_cell_angle_alpha 90
_cell_angle_beta 92.088(6)
_cell_angle_gamma 90
_cell_formula_units_Z 4
loop_
_atom_type_symbol
_atom_type_radius_bond
C 0.68
H 0.23
Cl 0.99
N 0.68
loop_
_atom_site_label
_atom_site_type_symbol
_atom_site_fract_x
_atom_site_fract_y
_atom_site_fract_z
N1 N -0.2786(4) 0.6575(6) 0.2915(2)
N2 N -0.1908(4) 0.6948(6) 0.2118(2)
N3 N -0.2513(4) 0.2069(6) 0.4294(2)
N4 N -0.1811(4) -0.0214(6) 0.3933(2)
N5 N -0.0765(4) 0.7266(6) 0.4726(2)
N6 N 0.0989(4) 0.6865(6) 0.4770(2)
N7 N 0.0124(4) -0.0352(6) 0.2159(2)
N8 N -0.0188(4) 0.1840(6) 0.1593(2)
N9 N 0.2033(4) -0.0235(6) 0.4018(2)
N10 N 0.2962(4) 0.2061(6) 0.4186(2)
N11 N 0.2789(4) 0.6938(6) 0.2979(2)
N12 N 0.1995(4) 0.6570(6) 0.2118(2)
C1 C -0.2153(5) 0.6061(8) 0.3604(3)
C2 C -0.2470(5) 0.4850(7) 0.3622(3)
H1 H -0.28130 0.45550 0.33930
C3 C -0.2289(5) 0.4082(7) 0.3969(3)
C4 C -0.1783(5) 0.4514(7) 0.4299(3)
H2 H -0.16580 0.39850 0.45370
C5 C -0.1456(5) 0.5683(7) 0.4293(3)
C6 C -0.1664(5) 0.6463(8) 0.3939(3)
H3 H -0.14580 0.72880 0.39340
C7 C -0.2363(5) 0.6904(8) 0.3241(3)
H4 H -0.21710 0.77360 0.32540
C8 C -0.2662(5) 0.2840(8) 0.3987(3)
H5 H -0.30300 0.26000 0.37610
C9 C -0.0942(5) 0.6137(8) 0.4651(3)
H6 H -0.07200 0.55330 0.48440
C10 C -0.0451(5) -0.0191(7) 0.3671(3)
C11 C -0.0655(5) -0.0288(7) 0.3238(3)
H7 H -0.12110 -0.03410 0.31540
C12 C -0.0098(5) -0.0314(7) 0.2920(3)
C13 C 0.0735(5) -0.0293(7) 0.3054(3)
H8 H 0.11390 -0.03430 0.28460
C14 C 0.0958(5) -0.0198(7) 0.3488(3)
C15 C 0.0374(5) -0.0133(7) 0.3793(3)
H9 H 0.05310 -0.00480 0.40890
C16 C -0.1045(5) -0.0144(7) 0.4009(3)
H10 H -0.08530 -0.00580 0.42990
C17 C -0.0340(5) -0.0356(7) 0.2464(3)
H11 H -0.09030 -0.03900 0.23940
C18 C 0.1824(5) -0.0149(7) 0.3622(3)
H12 H 0.22220 -0.00540 0.34120
C19 C 0.2300(5) 0.4041(8) 0.4126(3)
C20 C 0.2610(5) 0.4345(7) 0.3726(3)
H13 H 0.29090 0.37490 0.35720
C21 C 0.2476(5) 0.5524(7) 0.3557(3)
C22 C 0.2020(5) 0.6371(8) 0.3773(3)
H14 H 0.19160 0.71630 0.36460
C23 C 0.1708(5) 0.6104(8) 0.4167(3)
C24 C 0.1847(5) 0.4912(7) 0.4342(3)
H15 H 0.16280 0.47010 0.46110
C25 C 0.2464(5) 0.2827(8) 0.4330(3)
H16 H 0.21820 0.26110 0.45800
C26 C 0.2831(5) 0.5838(8) 0.3147(3)
H17 H 0.31050 0.52050 0.29970
C27 C 0.1258(5) 0.7040(8) 0.4408(3)
H18 H 0.11670 0.78290 0.42770
C28 C 0.0600(5) 0.5961(7) 0.2025(2)
C29 C 0.0764(5) 0.4783(7) 0.1867(2)
H19 H 0.13090 0.45370 0.18330
C30 C 0.0141(5) 0.3953(7) 0.1758(2)
C31 C -0.0652(5) 0.4362(7) 0.1789(2)
H20 H -0.10800 0.38200 0.17010
C32 C -0.0836(5) 0.5531(7) 0.1945(2)
C33 C -0.0197(5) 0.6354(8) 0.2056(2)
H21 H -0.03100 0.71740 0.21500
C34 C 0.1268(5) 0.6855(8) 0.2142(3)
H22 H 0.11330 0.76660 0.22370
C35 C 0.0341(5) 0.2697(7) 0.1616(2)
H23 H 0.08790 0.25170 0.15390
C36 C -0.1678(5) 0.5899(8) 0.1986(3)
H24 H -0.20830 0.53060 0.19090
C37 C -0.2968(5) 0.7544(8) 0.2595(3)
H25 H -0.26560 0.83010 0.26730
H26 H -0.35490 0.77550 0.26020
C38 C -0.2776(5) 0.7169(8) 0.2149(3)
H27 H -0.30770 0.64010 0.20700
H28 H -0.29480 0.78330 0.19450
C39 C -0.2926(5) 0.0872(7) 0.4268(3)
H29 H -0.32340 0.08030 0.39900
H30 H -0.33110 0.08040 0.45040
C40 C -0.2299(5) -0.0181(7) 0.4307(3)
H31 H -0.19480 -0.00490 0.45680
H32 H -0.25790 -0.09880 0.43380
C41 C -0.0248(5) 0.7520(8) 0.5106(3)
H33 H -0.02070 0.67640 0.52870
H34 H -0.04900 0.81910 0.52770
C42 C 0.0577(5) 0.7905(8) 0.4976(3)
H35 H 0.05320 0.86140 0.47730
H36 H 0.08990 0.81800 0.52330
C43 C -0.0226(5) -0.0403(7) 0.1724(2)
H37 H -0.08220 -0.03500 0.17360
H38 H -0.00920 -0.12160 0.15940
C44 C 0.0071(5) 0.0636(7) 0.1435(2)
H39 H 0.06680 0.06120 0.14300
H40 H -0.01460 0.05100 0.11370
C45 C 0.2903(5) -0.0194(8) 0.4127(3)
H41 H 0.32090 -0.01100 0.38610
H42 H 0.30720 -0.09790 0.42710
C46 C 0.3092(5) 0.0902(7) 0.4424(3)
H43 H 0.27380 0.08770 0.46740
H44 H 0.36600 0.08530 0.45330
C47 C 0.3183(5) 0.7113(8) 0.2580(2)
H45 H 0.34330 0.63200 0.24920
H46 H 0.36190 0.77380 0.26200
C48 C 0.2594(5) 0.7543(7) 0.2233(3)
H47 H 0.23100 0.82950 0.23320
H48 H 0.28920 0.77710 0.19740
C49 C 0.0058(12) 0.4596(8) 0.3517(3)
H49 H 0.05510 0.44800 0.37030
H50 H -0.04240 0.44710 0.36910
Cl1 Cl 0.0045(4) 0.6177(7) 0.3250(2)
Cl2 Cl 0.0050(5) 0.3550(12) 0.3053(3)
H51? H -0.03920 0.49810 0.36700
H52? H 0.05740 0.49560 0.36300
Cl3? Cl -0.0053(10) 0.4849(11) 0.2983(3)
Cl4? Cl 0.0055(7) 0.2914(6) 0.3590(3)
C50 C 0.4686(7) 0.2866(12) 0.4845(3)
C51 C 0.4890(8) 0.1849(13) 0.5139(4)
H53 H 0.52850 0.12550 0.50630
C52 C 0.4527(10) 0.1741(16) 0.5516(4)
H54 H 0.46450 0.10710 0.57070
C53 C 0.3987(10) 0.2633(17) 0.5609(5)
H55 H 0.37350 0.25290 0.58770
C54 C 0.3745(8) 0.3655(15) 0.5381(4)
H56 H 0.33600 0.42420 0.54740
C55 C 0.4157(9) 0.3729(15) 0.4977(5)
C56 C 0.5094(7) 0.2902(10) 0.4428(3)
H57 H 0.47140 0.31970 0.42010
H58 H 0.52820 0.20650 0.43560
H59 H 0.55570 0.34690 0.44510
C57 C 0.3992(7) 0.4758(13) 0.4698(4)
H60 H 0.35780 0.52880 0.48220
H61 H 0.37970 0.44520 0.44160
H62 H 0.44870 0.52420 0.46650
#END
