
#######################################################################
#
#                 Cambridge Crystallographic Data Centre
#                                CCDC
#
#######################################################################
#
# If this CIF has been generated from an entry in the Cambridge
# Structural Database, then it will include bibliographic, chemical,
# crystal, experimental, refinement or atomic coordinate data resulting
# from the CCDC's data processing and validation procedures.
#
#######################################################################

data_CSD_CIF_IFAJUX
_audit_creation_date 2018-08-07
_audit_creation_method CSD-ConQuest-V1
_database_code_CSD IFAJUX
_database_code_depnum_ccdc_archive 'CCDC 1575911'
_chemical_formula_sum 'C65 H69 Cl3 N12'
_chemical_formula_moiety
;
C48 H48 N12,2(C8 H10),C1 H1 Cl3
;
_journal_coden_Cambridge 169
_journal_year 2018
_journal_name_full 'Faraday Discuss. '
loop_
_publ_author_name
"D.P.McMahon"
"A.Stephenson"
"Samantha Y.Chong"
"M.A.Little"
"J.T.A.Jones"
"A.I.Cooper"
"G.M.Day"
_chemical_name_systematic
;
5,8,16,19,27,30,38,41,46,49,54,57-dodecaazaheptacyclo[21.21.6.6^12,34^.1^3,43^
.1^10,14^.1^21,25^.1^32,36^]hexaconta-1,3(51),4,8,10(60),11,13,15,19,21(59),22
,24,26,30,32(52),33,35,37,41,43,45,49,53,57-tetracosaene o-xylene chloroform 
solvate
;
_cell_volume   6255.803
_exptl_crystal_colour 'colorless'
_exptl_crystal_density_diffrn 1.194
_exptl_crystal_description 'block'
_diffrn_ambient_temperature 100
_diffrn_radiation_probe x-ray
_diffrn_source synchrotron
_refine_special_details
;
C49A,Cl1A,Cl2A,Cl3A and C49B,Cl1B,Cl2B,Cl3B disordered over two sites with 
occupancies 0.61:0.39.
;
#These two values have been output from a single CSD field.
_refine_ls_R_factor_gt 0.0654
_refine_ls_wR_factor_gt 0.0654
_symmetry_cell_setting orthorhombic
_symmetry_space_group_name_H-M 'P 21 21 21'
_symmetry_Int_Tables_number 19
loop_
_symmetry_equiv_pos_site_id
_symmetry_equiv_pos_as_xyz
1 x,y,z
2 1/2-x,-y,1/2+z
3 -x,1/2+y,1/2-z
4 1/2+x,1/2-y,-z
_cell_length_a 10.654(3)
_cell_length_b 23.151(6)
_cell_length_c 25.363(7)
_cell_angle_alpha 90
_cell_angle_beta 90
_cell_angle_gamma 90
_cell_formula_units_Z 4
loop_
_atom_type_symbol
_atom_type_radius_bond
C 0.68
H 0.23
Cl 0.99
N 0.68
loop_
_atom_site_label
_atom_site_type_symbol
_atom_site_fract_x
_atom_site_fract_y
_atom_site_fract_z
N1 N 0.4012(8) 0.2744(3) 0.5649(3)
N2 N 0.3766(7) 0.2552(3) 0.4487(3)
N3 N -0.1016(8) 0.3605(4) 0.6836(3)
N4 N -0.3228(7) 0.3998(3) 0.6225(3)
N5 N 0.3945(7) 0.5145(3) 0.6878(3)
N6 N 0.4267(8) 0.6176(3) 0.6215(3)
N7 N 0.4349(8) 0.4967(3) 0.3260(3)
N8 N 0.3981(7) 0.6121(3) 0.3712(4)
N9 N -0.0791(8) 0.3507(3) 0.3049(3)
N10 N -0.3016(7) 0.3759(3) 0.3688(3)
N11 N -0.3067(7) 0.6257(3) 0.4819(3)
N12 N -0.0876(7) 0.6936(3) 0.5059(3)
C1 C 0.2572(8) 0.3358(4) 0.6122(4)
C2 C 0.1390(9) 0.3424(4) 0.6318(4)
H1 H 0.08130 0.31130 0.62890
C3 C 0.1002(9) 0.3940(4) 0.6561(4)
C4 C 0.1874(8) 0.4376(4) 0.6620(4)
H2 H 0.16370 0.47280 0.67860
C5 C 0.3103(9) 0.4307(4) 0.6437(4)
C6 C 0.3446(9) 0.3803(4) 0.6182(4)
H3 H 0.42720 0.37600 0.60470
C7 C 0.2947(10) 0.2818(4) 0.5841(3)
H4 H 0.23450 0.25170 0.58060
C8 C -0.0262(9) 0.4016(4) 0.6757(4)
H5 H -0.05400 0.43970 0.68300
C9 C 0.4083(9) 0.4757(4) 0.6530(4)
H6 H 0.48270 0.47530 0.63240
C10 C 0.3228(8) 0.3351(4) 0.3926(4)
C11 C 0.3607(9) 0.3886(4) 0.3722(4)
H7 H 0.44080 0.40360 0.38130
C12 C 0.2830(9) 0.4197(4) 0.3392(4)
C13 C 0.1674(9) 0.3993(4) 0.3251(4)
H8 H 0.11540 0.42100 0.30210
C14 C 0.1253(9) 0.3451(4) 0.3454(4)
C15 C 0.2057(9) 0.3145(4) 0.3783(4)
H9 H 0.17910 0.27820 0.39160
C16 C 0.4061(10) 0.3038(4) 0.4271(4)
H10 H 0.48640 0.31980 0.43430
C17 C 0.3264(9) 0.4761(4) 0.3158(4)
H11 H 0.27180 0.49680 0.29310
C18 C 0.0007(9) 0.3230(4) 0.3315(4)
H12 H -0.02140 0.28540 0.34330
C19 C -0.3054(9) 0.4241(4) 0.5321(4)
C20 C -0.3063(8) 0.4074(4) 0.4805(4)
H13 H -0.31290 0.36740 0.47250
C21 C -0.2980(8) 0.4463(4) 0.4395(4)
C22 C -0.2953(8) 0.5055(4) 0.4510(4)
H14 H -0.29070 0.53290 0.42320
C23 C -0.2993(9) 0.5239(4) 0.5020(4)
C24 C -0.3022(8) 0.4847(4) 0.5428(4)
H15 H -0.30210 0.49800 0.57830
C25 C -0.3094(9) 0.3831(4) 0.5756(4)
H16 H -0.30160 0.34300 0.56840
C26 C -0.2966(8) 0.4294(4) 0.3839(4)
H17 H -0.29170 0.45880 0.35790
C27 C -0.3019(9) 0.5872(4) 0.5161(4)
H18 H -0.29990 0.59800 0.55230
C28 C 0.2749(9) 0.6320(4) 0.5531(4)
C29 C 0.1562(9) 0.6511(4) 0.5393(4)
H19 H 0.09870 0.66130 0.56640
C30 C 0.1186(9) 0.6560(4) 0.4869(4)
C31 C 0.2030(9) 0.6410(4) 0.4476(4)
H20 H 0.17880 0.64460 0.41170
C32 C 0.3224(8) 0.6207(4) 0.4599(4)
C33 C 0.3567(8) 0.6170(4) 0.5122(4)
H21 H 0.43870 0.60390 0.52080
C34 C 0.3147(10) 0.6292(4) 0.6083(4)
H22 H 0.25460 0.63630 0.63520
C35 C -0.0038(9) 0.6808(4) 0.4724(4)
H23 H -0.02080 0.68760 0.43610
C36 C 0.4154(9) 0.6061(4) 0.4195(4)
H24 H 0.49390 0.59100 0.43080
C37 C 0.4217(9) 0.2191(4) 0.5380(4)
H25 H 0.34180 0.19740 0.53630
H26 H 0.48280 0.19570 0.55820
C38 C 0.4708(9) 0.2288(4) 0.4827(4)
H27 H 0.54570 0.25400 0.48430
H28 H 0.49690 0.19130 0.46750
C39 C -0.2252(8) 0.3726(4) 0.7051(4)
H29 H -0.23130 0.41400 0.71460
H30 H -0.23870 0.34950 0.73740
C40 C -0.3241(9) 0.3579(4) 0.6648(4)
H31 H -0.30800 0.31880 0.65040
H32 H -0.40770 0.35760 0.68180
C41 C 0.4989(8) 0.5545(4) 0.6922(4)
H33 H 0.56750 0.54270 0.66820
H34 H 0.53180 0.55440 0.72870
C42 C 0.4532(9) 0.6153(4) 0.6776(4)
H35 H 0.37640 0.62470 0.69780
H36 H 0.51850 0.64410 0.68660
C43 C 0.4656(9) 0.5503(4) 0.2991(4)
H37 H 0.39190 0.56370 0.27870
H38 H 0.53530 0.54350 0.27400
C44 C 0.5035(9) 0.5963(4) 0.3379(4)
H39 H 0.57310 0.58180 0.36010
H40 H 0.53370 0.63080 0.31870
C45 C -0.1992(8) 0.3250(4) 0.2964(4)
H41 H -0.20530 0.28890 0.31710
H42 H -0.20820 0.31500 0.25870
C46 C -0.3037(9) 0.3653(4) 0.3123(4)
H43 H -0.29450 0.40240 0.29330
H44 H -0.38540 0.34820 0.30230
C47 C -0.3163(8) 0.6852(4) 0.5021(4)
H45 H -0.32090 0.68470 0.54110
H46 H -0.39350 0.70370 0.48840
C48 C -0.2023(8) 0.7188(4) 0.4845(4)
H47 H -0.19800 0.71890 0.44550
H48 H -0.20980 0.75940 0.49650
C49 C -0.0999(10) 0.7054(6) 0.6794(4)
C50 C -0.0512(11) 0.7467(5) 0.7141(5)
H49 H -0.08700 0.78430 0.71460
C51 C 0.0444(11) 0.7349(5) 0.7468(5)
H50 H 0.07440 0.76340 0.77060
C52 C 0.0995(10) 0.6801(5) 0.7453(4)
H51 H 0.16910 0.67090 0.76710
C53 C 0.0499(11) 0.6398(5) 0.7111(5)
H52 H 0.08570 0.60220 0.71030
C54 C -0.0481(11) 0.6517(5) 0.6787(4)
C55 C -0.2052(11) 0.7227(6) 0.6435(4)
H53 H -0.26930 0.69230 0.64330
H54 H -0.17280 0.72810 0.60770
H55 H -0.24250 0.75880 0.65600
C56 C -0.0980(13) 0.6059(6) 0.6433(5)
H56 H -0.08190 0.61660 0.60650
H57 H -0.18860 0.60180 0.64880
H58 H -0.05630 0.56920 0.65110
C57 C 0.0281(9) 0.6568(5) 0.2940(4)
C58 C -0.0168(12) 0.7118(5) 0.2835(5)
H59 H 0.03050 0.73750 0.26200
C59 C -0.1293(13) 0.7291(5) 0.3041(6)
H60 H -0.15910 0.76680 0.29590
C60 C -0.1995(11) 0.6952(7) 0.3354(5)
H61 H -0.27790 0.70790 0.34890
C61 C -0.1527(11) 0.6408(6) 0.3471(5)
H62 H -0.19830 0.61630 0.37030
C62 C -0.0415(11) 0.6217(4) 0.3258(5)
C63 C 0.149(1) 0.6378(6) 0.2707(5)
H63 H 0.13490 0.60330 0.24900
H64 H 0.20850 0.62870 0.29890
H65 H 0.18320 0.66870 0.24860
C64 C 0.0051(14) 0.5604(5) 0.3387(7)
H66 H 0.08360 0.56280 0.35880
H67 H 0.01990 0.53920 0.30580
H68 H -0.05840 0.54020 0.35970
Cl1 Cl 0.2951(11) 0.4661(5) 0.4949(5)
Cl2 Cl 0.0684(12) 0.5111(4) 0.5389(6)
Cl3 Cl 0.0597(12) 0.4245(4) 0.4635(6)
C65 C 0.145(2) 0.4513(12) 0.5137(10)
H69 H 0.14830 0.42130 0.54200
Cl4? Cl 0.276(4) 0.4509(15) 0.5043(12)
Cl5? Cl 0.037(3) 0.4875(15) 0.5498(9)
Cl6? Cl 0.048(2) 0.4494(15) 0.4390(9)
C66? C 0.131(2) 0.4876(14) 0.4913(12)
H70? H 0.14830 0.52820 0.48010
#END
