
#######################################################################
#
#                 Cambridge Crystallographic Data Centre
#                                CCDC
#
#######################################################################
#
# If this CIF has been generated from an entry in the Cambridge
# Structural Database, then it will include bibliographic, chemical,
# crystal, experimental, refinement or atomic coordinate data resulting
# from the CCDC's data processing and validation procedures.
#
#######################################################################

data_CSD_CIF_IFAKAE
_audit_creation_date 2018-08-07
_audit_creation_method CSD-ConQuest-V1
_database_code_CSD IFAKAE
_database_code_depnum_ccdc_archive 'CCDC 1575912'
_chemical_formula_sum 'C106 H96 Cl40 N24'
_chemical_formula_moiety
;
2(C48 H48 N12),10(C1 Cl4)
;
_journal_coden_Cambridge 169
_journal_year 2018
_journal_name_full 'Faraday Discuss. '
loop_
_publ_author_name
"D.P.McMahon"
"A.Stephenson"
"Samantha Y.Chong"
"M.A.Little"
"J.T.A.Jones"
"A.I.Cooper"
"G.M.Day"
_chemical_name_systematic
;
bis(5,8,16,19,27,30,38,41,46,49,54,57-dodecaazaheptacyclo[21.21.6.6^12,34^.1^3
,43^.1^10,14^.1^21,25^.1^32,36^]hexaconta-1,3(51),4,8,10(60),11,13,15,19,21(59
),22,24,26,30,32(52),33,35,37,41,43,45,49,53,57-tetracosaene) 
tetrachloromethane solvate
;
_cell_volume  14433.750
_exptl_crystal_colour 'colorless'
_exptl_crystal_density_diffrn 1.438
_diffrn_ambient_temperature 100.2
_diffrn_special_details
;
twin

;
_refine_special_details
;
Cl4,Cl5A disordered by symmetry over three configurations with occupancies 
0.3333,0.66; Cl5B,Cl5C,Cl7B,Cl7C disordered over one sites with occupancies 
0.169,0.169,0.406,0.1; Cl6 disordered by symmetry over three configurations 
with occupancy 0.3333.
;
#These two values have been output from a single CSD field.
_refine_ls_R_factor_gt 0.0468
_refine_ls_wR_factor_gt 0.0468
_symmetry_cell_setting cubic
_symmetry_space_group_name_H-M 'F 2 3'
_symmetry_Int_Tables_number 196
loop_
_symmetry_equiv_pos_site_id
_symmetry_equiv_pos_as_xyz
1 x,y,z
2 -x,-y,z
3 -x,y,-z
4 x,-y,-z
5 z,x,y
6 z,-x,-y
7 -z,-x,y
8 -z,x,-y
9 y,z,x
10 -y,z,-x
11 y,-z,-x
12 -y,-z,x
13 x,1/2+y,1/2+z
14 -x,1/2-y,1/2+z
15 -x,1/2+y,1/2-z
16 x,1/2-y,1/2-z
17 z,1/2+x,1/2+y
18 z,1/2-x,1/2-y
19 -z,1/2-x,1/2+y
20 -z,1/2+x,1/2-y
21 y,1/2+z,1/2+x
22 -y,1/2+z,1/2-x
23 y,1/2-z,1/2-x
24 -y,1/2-z,1/2+x
25 1/2+x,y,1/2+z
26 1/2-x,-y,1/2+z
27 1/2-x,y,1/2-z
28 1/2+x,-y,1/2-z
29 1/2+z,x,1/2+y
30 1/2+z,-x,1/2-y
31 1/2-z,-x,1/2+y
32 1/2-z,x,1/2-y
33 1/2+y,z,1/2+x
34 1/2-y,z,1/2-x
35 1/2+y,-z,1/2-x
36 1/2-y,-z,1/2+x
37 1/2+x,1/2+y,z
38 1/2-x,1/2-y,z
39 1/2-x,1/2+y,-z
40 1/2+x,1/2-y,-z
41 1/2+z,1/2+x,y
42 1/2+z,1/2-x,-y
43 1/2-z,1/2-x,y
44 1/2-z,1/2+x,-y
45 1/2+y,1/2+z,x
46 1/2-y,1/2+z,-x
47 1/2+y,1/2-z,-x
48 1/2-y,1/2-z,x
_cell_length_a 24.3478(5)
_cell_length_b 24.3478(5)
_cell_length_c 24.3478(5)
_cell_angle_alpha 90
_cell_angle_beta 90
_cell_angle_gamma 90
_cell_formula_units_Z 4
loop_
_atom_type_symbol
_atom_type_radius_bond
C 0.68
H 0.23
Cl 0.99
N 0.68
loop_
_atom_site_label
_atom_site_type_symbol
_atom_site_fract_x
_atom_site_fract_y
_atom_site_fract_z
N1 N 0.54672(15) 0.03613(15) 0.72804(13)
C1 C 0.55498(16) 0.13203(17) 0.61377(17)
H1 H 0.52410 0.15400 0.62310
C2 C 0.56802(17) 0.08664(17) 0.64576(18)
C3 C 0.53444(18) 0.07437(17) 0.69435(18)
H2 H 0.50240 0.09570 0.70090
C4 C 0.51058(19) 0.02940(18) 0.77527(17)
H3 H 0.47950 0.05540 0.77290
H4 H 0.53100 0.03690 0.80960
N2 N 0.52044(15) 0.20170(19) 0.7873(2)
C5 C 0.63543(18) 0.1949(2) 0.88248(19)
H5 H 0.62630 0.22600 0.90420
C6 C 0.60377(18) 0.18163(18) 0.83771(19)
C7 C 0.55560(17) 0.2157(2) 0.8239(2)
H6 H 0.55040 0.24940 0.84290
C8 C 0.47461(18) 0.2393(3) 0.7793(2)
H7 H 0.47780 0.27040 0.80530
H8 H 0.43960 0.22000 0.78690
Cl1 Cl 0.70812(7) 0.29188(7) 0.79188(7)
C9 C 0.75000 0.25000 0.75000
Cl2 Cl 0.45791(6) 0.04209(6) 0.54209(6)
C10 C 0.50000 0.00000 0.50000
Cl3? Cl 0.3746(2) 0.04424(14) 0.86855(18)
Cl4? Cl 0.3973(6) 0.0280(12) 0.8861(12)
Cl5? Cl 0.37481(17) 0.1387(2) 0.7171(2)
Cl6? Cl 0.3880(2) 0.1021(4) 0.6828(3)
Cl7? Cl 0.4685(4) 0.0479(7) 0.9294(3)
Cl8? Cl 0.3661(7) 0.0697(15) 0.8556(7)
C11? C 0.4112(2) 0.0888(2) 0.9112(2)
Cl9? Cl 0.3100(4) 0.2268(3) 0.6740(4)
Cl10? Cl 0.3863(5) 0.1137(5) 0.6137(5)
C12? C 0.3409(4) 0.1591(4) 0.6591(4)
N1A N 0.45328(15) -0.03613(15) 0.72804(13)
C1A C 0.44502(16) -0.13203(17) 0.61377(17)
H1A H 0.47590 -0.15400 0.62310
C2A C 0.43198(17) -0.08664(17) 0.64576(18)
C3A C 0.46556(18) -0.07437(17) 0.69435(18)
H2A H 0.49760 -0.09570 0.70090
C4A C 0.48942(19) -0.02940(18) 0.77527(17)
H3A H 0.52050 -0.05540 0.77290
H4A H 0.46900 -0.03690 0.80960
N1P N 0.72804(15) 0.04672(15) 0.53613(13)
C1P C 0.61377(16) 0.05498(17) 0.63203(17)
H1P H 0.62310 0.02410 0.65400
C2P C 0.64576(17) 0.06802(17) 0.58664(18)
C3P C 0.69435(18) 0.03444(17) 0.57437(18)
H2P H 0.70090 0.00240 0.59570
C4P C 0.77527(19) 0.01058(18) 0.52940(17)
H3P H 0.77290 -0.02050 0.55540
H4P H 0.80960 0.03100 0.53690
N1RA N 0.53613(15) 0.22804(15) 0.54672(13)
C1RA C 0.63203(16) 0.11377(17) 0.55498(17)
H1RA H 0.65400 0.12310 0.52410
C2RA C 0.58664(17) 0.14576(17) 0.56802(18)
C3RA C 0.57437(18) 0.19435(17) 0.53444(18)
H2RA H 0.59570 0.20090 0.50240
C4RA C 0.52940(19) 0.27527(18) 0.51058(17)
H3RA H 0.55540 0.27290 0.47950
H4RA H 0.53690 0.30960 0.53100
N1Q N 0.72804(15) -0.04672(15) 0.46387(13)
C1Q C 0.61377(16) -0.05498(17) 0.36797(17)
H1Q H 0.62310 -0.02410 0.34600
C2Q C 0.64576(17) -0.06802(17) 0.41336(18)
C3Q C 0.69435(18) -0.03444(17) 0.42563(18)
H2Q H 0.70090 -0.00240 0.40430
C4Q C 0.77527(19) -0.01058(18) 0.47060(17)
H3Q H 0.77290 0.02050 0.44460
H4Q H 0.80960 -0.03100 0.46310
N1R N 0.27196(15) -0.04672(15) 0.53613(13)
C1R C 0.38623(16) -0.05498(17) 0.63203(17)
H1R H 0.37690 -0.02410 0.65400
C2R C 0.35424(17) -0.06802(17) 0.58664(18)
C3R C 0.30565(18) -0.03444(17) 0.57437(18)
H2R H 0.29910 -0.00240 0.59570
C4R C 0.22473(19) -0.01058(18) 0.52940(17)
H3R H 0.22710 0.02050 0.55540
H4R H 0.19040 -0.03100 0.53690
N1SA N 0.46387(15) 0.22804(15) 0.45328(13)
C1SA C 0.36797(16) 0.11377(17) 0.44502(17)
H1SA H 0.34600 0.12310 0.47590
C2SA C 0.41336(17) 0.14576(17) 0.43198(18)
C3SA C 0.42563(18) 0.19435(17) 0.46556(18)
H2SA H 0.40430 0.20090 0.49760
C4SA C 0.47060(19) 0.27527(18) 0.48942(17)
H3SA H 0.44460 0.27290 0.52050
H4SA H 0.46310 0.30960 0.46900
N1TA N 0.53613(15) -0.22804(15) 0.45328(13)
C1TA C 0.63203(16) -0.11377(17) 0.44502(17)
H1TA H 0.65400 -0.12310 0.47590
C2TA C 0.58664(17) -0.14576(17) 0.43198(18)
C3TA C 0.57437(18) -0.19435(17) 0.46556(18)
H2TA H 0.59570 -0.20090 0.49760
C4TA C 0.52940(19) -0.27527(18) 0.48942(17)
H3TA H 0.55540 -0.27290 0.52050
H4TA H 0.53690 -0.30960 0.46900
N1UA N 0.46387(15) -0.22804(15) 0.54672(13)
C1UA C 0.36797(16) -0.11377(17) 0.55498(17)
H1UA H 0.34600 -0.12310 0.52410
C2UA C 0.41336(17) -0.14576(17) 0.56802(18)
C3UA C 0.42563(18) -0.19435(17) 0.53444(18)
H2UA H 0.40430 -0.20090 0.50240
C4UA C 0.47060(19) -0.27527(18) 0.51058(17)
H3UA H 0.44460 -0.27290 0.47950
H4UA H 0.46310 -0.30960 0.53100
N1B N 0.45328(15) 0.03613(15) 0.27196(13)
C1B C 0.44502(16) 0.13203(17) 0.38623(17)
H1B H 0.47590 0.15400 0.37690
C2B C 0.43198(17) 0.08664(17) 0.35424(18)
C3B C 0.46556(18) 0.07437(17) 0.30565(18)
H2B H 0.49760 0.09570 0.29910
C4B C 0.48942(19) 0.02940(18) 0.22473(17)
H3B H 0.52050 0.05540 0.22710
H4B H 0.46900 0.03690 0.19040
N1C N 0.54672(15) -0.03613(15) 0.27196(13)
C1C C 0.55498(16) -0.13203(17) 0.38623(17)
H1C H 0.52410 -0.15400 0.37690
C2C C 0.56802(17) -0.08664(17) 0.35424(18)
C3C C 0.53444(18) -0.07437(17) 0.30565(18)
H2C H 0.50240 -0.09570 0.29910
C4C C 0.51058(19) -0.02940(18) 0.22473(17)
H3C H 0.47950 -0.05540 0.22710
H4C H 0.53100 -0.03690 0.19040
N1S N 0.27196(15) 0.04672(15) 0.46387(13)
C1S C 0.38623(16) 0.05498(17) 0.36797(17)
H1S H 0.37690 0.02410 0.34600
C2S C 0.35424(17) 0.06802(17) 0.41336(18)
C3S C 0.30565(18) 0.03444(17) 0.42563(18)
H2S H 0.29910 0.00240 0.40430
C4S C 0.22473(19) 0.01058(18) 0.47060(17)
H3S H 0.22710 -0.02050 0.44460
H4S H 0.19040 0.03100 0.46310
N2O N 0.52044(15) 0.29830(19) 0.7127(2)
C5O C 0.63543(18) 0.3051(2) 0.61752(19)
H5O H 0.62630 0.27400 0.59580
C6O C 0.60377(18) 0.31837(18) 0.66229(19)
C7O C 0.55560(17) 0.2843(2) 0.6761(2)
H6O H 0.55040 0.25060 0.65710
C8O C 0.47461(18) 0.2607(3) 0.7207(2)
H7O H 0.47780 0.22960 0.69470
H8O H 0.43960 0.28000 0.71310
N2HA N 0.70170(15) 0.21270(19) 0.97956(20)
C5HA C 0.69490(18) 0.11752(20) 0.86457(19)
H5HA H 0.72600 0.09580 0.87370
C6HA C 0.68163(18) 0.16229(18) 0.89623(19)
C7HA C 0.71570(17) 0.1761(2) 0.9444(2)
H6HA H 0.74940 0.15710 0.94960
C8HA C 0.73930(18) 0.2207(3) 1.02539(20)
H7HA H 0.77040 0.19470 1.02220
H8HA H 0.72000 0.21310 1.06040
N2QA N 0.71270(15) 0.02044(19) 0.7983(2)
C5QA C 0.61752(18) 0.13543(20) 0.80510(19)
H5QA H 0.59580 0.12630 0.77400
C6QA C 0.66229(18) 0.10377(18) 0.81837(19)
C7QA C 0.67610(17) 0.0556(2) 0.7843(2)
H6QA H 0.65710 0.05040 0.75060
C8QA C 0.72070(18) -0.02539(30) 0.7607(2)
H7QA H 0.69470 -0.02220 0.72960
H8QA H 0.71310 -0.06040 0.78000
N2P N 0.78730(15) 0.02044(19) 0.7017(2)
C5P C 0.88248(18) 0.13543(20) 0.69490(19)
H5P H 0.90420 0.12630 0.72600
C6P C 0.83771(18) 0.10377(18) 0.68163(19)
C7P C 0.82390(17) 0.0556(2) 0.7157(2)
H6P H 0.84290 0.05040 0.74940
C8P C 0.77930(18) -0.02539(30) 0.7393(2)
H7P H 0.80530 -0.02220 0.77040
H8P H 0.78690 -0.06040 0.72000
N2U N 0.79830(15) 0.28730(19) 0.97956(20)
C5U C 0.80510(18) 0.38248(20) 0.86457(19)
H5U H 0.77400 0.40420 0.87370
C6U C 0.81837(18) 0.33771(18) 0.89623(19)
C7U C 0.78430(17) 0.3239(2) 0.9444(2)
H6U H 0.75060 0.34290 0.94960
C8U C 0.76070(18) 0.2793(3) 1.02539(20)
H7U H 0.72960 0.30530 1.02220
H8U H 0.78000 0.28690 1.06040
N2DA N 0.71270(15) 0.47956(19) 0.7017(2)
C5DA C 0.61752(18) 0.36457(20) 0.69490(19)
H5DA H 0.59580 0.37370 0.72600
C6DA C 0.66229(18) 0.39623(18) 0.68163(19)
C7DA C 0.67610(17) 0.4444(2) 0.7157(2)
H6DA H 0.65710 0.44960 0.74940
C8DA C 0.72070(18) 0.52539(30) 0.7393(2)
H7DA H 0.69470 0.52220 0.77040
H8DA H 0.71310 0.56040 0.72000
N2RA N 0.70170(15) 0.28730(19) 0.52044(20)
C5RA C 0.69490(18) 0.38248(20) 0.63543(19)
H5RA H 0.72600 0.40420 0.62630
C6RA C 0.68163(18) 0.33771(18) 0.60377(19)
C7RA C 0.71570(17) 0.3239(2) 0.5556(2)
H6RA H 0.74940 0.34290 0.55040
C8RA C 0.73930(18) 0.2793(3) 0.47461(20)
H7RA H 0.77040 0.30530 0.47780
H8RA H 0.72000 0.28690 0.43960
N2E N 0.78730(15) 0.47956(19) 0.7983(2)
C5E C 0.88248(18) 0.36457(20) 0.80510(19)
H5E H 0.90420 0.37370 0.77400
C6E C 0.83771(18) 0.39623(18) 0.81837(19)
C7E C 0.82390(17) 0.4444(2) 0.7843(2)
H6E H 0.84290 0.44960 0.75060
C8E C 0.77930(18) 0.52539(30) 0.7607(2)
H7E H 0.80530 0.52220 0.72960
H8E H 0.78690 0.56040 0.78000
N2K N 0.79830(15) 0.21270(19) 0.52044(20)
C5K C 0.80510(18) 0.11752(20) 0.63543(19)
H5K H 0.77400 0.09580 0.62630
C6K C 0.81837(18) 0.16229(18) 0.60377(19)
C7K C 0.78430(17) 0.1761(2) 0.5556(2)
H6K H 0.75060 0.15710 0.55040
C8K C 0.76070(18) 0.2207(3) 0.47461(20)
H7K H 0.72960 0.19470 0.47780
H8K H 0.78000 0.21310 0.43960
N2Z N 0.97956(15) 0.20170(19) 0.7127(2)
C5Z C 0.86457(18) 0.1949(2) 0.61752(19)
H5Z H 0.87370 0.22600 0.59580
C6Z C 0.89623(18) 0.18163(18) 0.66229(19)
C7Z C 0.94440(17) 0.2157(2) 0.6761(2)
H6Z H 0.94960 0.24940 0.65710
C8Z C 1.02539(18) 0.2393(3) 0.7207(2)
H7Z H 1.02220 0.27040 0.69470
H8Z H 1.06040 0.22000 0.71310
N2KA N 0.97956(15) 0.29830(19) 0.7873(2)
C5KA C 0.86457(18) 0.3051(2) 0.88248(19)
H5KA H 0.87370 0.27400 0.90420
C6KA C 0.89623(18) 0.31837(18) 0.83771(19)
C7KA C 0.94440(17) 0.2843(2) 0.8239(2)
H6KA H 0.94960 0.25060 0.84290
C8KA C 1.02539(18) 0.2607(3) 0.7793(2)
H7KA H 1.02220 0.22960 0.80530
H8KA H 1.06040 0.28000 0.78690
Cl1E Cl 0.79188(7) 0.29188(7) 0.70812(7)
Cl1K Cl 0.70812(7) 0.20812(7) 0.70812(7)
Cl1P Cl 0.79188(7) 0.20812(7) 0.79188(7)
Cl2A Cl 0.54209(6) -0.04209(6) 0.54209(6)
Cl2B Cl 0.54209(6) 0.04209(6) 0.45791(6)
Cl2C Cl 0.45791(6) -0.04209(6) 0.45791(6)
#END
