
#######################################################################
#
#                 Cambridge Crystallographic Data Centre
#                                CCDC
#
#######################################################################
#
# If this CIF has been generated from an entry in the Cambridge
# Structural Database, then it will include bibliographic, chemical,
# crystal, experimental, refinement or atomic coordinate data resulting
# from the CCDC's data processing and validation procedures.
#
#######################################################################

data_CSD_CIF_IFAKIM
_audit_creation_date 2018-08-07
_audit_creation_method CSD-ConQuest-V1
_database_code_CSD IFAKIM
_database_code_depnum_ccdc_archive 'CCDC 1575914'
_chemical_formula_sum 'C53.66 H53.66 Cl16.98 N12'
_chemical_formula_moiety
;
C48 H48 N12,5.66(C1 H1 Cl3)
;
_journal_coden_Cambridge 169
_journal_year 2018
_journal_name_full 'Faraday Discuss. '
loop_
_publ_author_name
"D.P.McMahon"
"A.Stephenson"
"Samantha Y.Chong"
"M.A.Little"
"J.T.A.Jones"
"A.I.Cooper"
"G.M.Day"
_chemical_name_systematic
;
5,8,16,19,27,30,38,41,46,49,54,57-dodecaazaheptacyclo[21.21.6.6^12,34^.1^3,43^
.1^10,14^.1^21,25^.1^32,36^]hexaconta-1,3(51),4,8,10(60),11,13,15,19,21(59),22
,24,26,30,32(52),33,35,37,41,43,45,49,53,57-tetracosaene chloroform solvate
;
_cell_volume   7050.882
_exptl_crystal_colour 'colorless'
_exptl_crystal_density_diffrn 1.384
_exptl_crystal_description 'block'
_diffrn_ambient_temperature 150
_refine_special_details
;
The structure is disordered.

;
#These two values have been output from a single CSD field.
_refine_ls_R_factor_gt 0.0798
_refine_ls_wR_factor_gt 0.0798
_symmetry_cell_setting triclinic
_symmetry_space_group_name_H-M 'P -1'
_symmetry_Int_Tables_number 2
loop_
_symmetry_equiv_pos_site_id
_symmetry_equiv_pos_as_xyz
1 x,y,z
2 -x,-y,-z
_cell_length_a 17.1487(11)
_cell_length_b 18.3913(11)
_cell_length_c 24.7171(15)
_cell_angle_alpha 73.378(2)
_cell_angle_beta 72.980(2)
_cell_angle_gamma 76.700(2)
_cell_formula_units_Z 4
loop_
_atom_type_symbol
_atom_type_radius_bond
C 0.68
H 0.23
Cl 0.99
N 0.68
loop_
_atom_site_label
_atom_site_type_symbol
_atom_site_fract_x
_atom_site_fract_y
_atom_site_fract_z
N1 N 1.11289(16) 0.58128(16) 0.51061(12)
N2 N 1.02117(17) 0.64757(16) 0.41994(11)
N3 N 0.7703(2) 0.95659(17) 0.47381(14)
N4 N 0.7035(2) 0.98845(17) 0.59349(15)
N5 N 0.55234(19) 0.55884(18) 0.57639(13)
N6 N 0.63150(18) 0.66406(17) 0.46892(12)
N7 N 0.73637(16) 0.36908(15) 0.77867(13)
N8 N 0.91379(16) 0.37346(14) 0.74203(12)
N9 N 1.02775(17) 0.67082(15) 0.75926(12)
N10 N 0.91103(19) 0.80861(18) 0.78253(14)
N11 N 0.52440(19) 0.78251(19) 0.84003(15)
N12 N 0.45878(18) 0.66069(16) 0.81927(13)
C1 C 1.03273(17) 0.54884(17) 0.61053(13)
C2 C 0.99323(18) 0.49062(17) 0.65168(13)
H1 H 0.98530 0.44870 0.63980
C3 C 0.96522(18) 0.49346(17) 0.71033(13)
C4 C 0.97836(18) 0.55463(17) 0.72741(13)
H2 H 0.96010 0.55660 0.76720
C5 C 1.01830(18) 0.61349(17) 0.68647(13)
C6 C 1.04441(18) 0.61059(17) 0.62799(13)
H3 H 1.07030 0.65080 0.59990
C7 C 1.06398(18) 0.54036(17) 0.54985(14)
H4 H 1.04630 0.50190 0.53960
C8 C 0.92539(18) 0.43155(17) 0.75461(13)
H5 H 0.90780 0.43530 0.79400
C9 C 1.03633(19) 0.67532(17) 0.70605(14)
H6 H 1.05470 0.71930 0.67800
C10 C 0.7749(2) 0.8243(2) 0.76879(16)
C11 C 0.6949(2) 0.8077(2) 0.79348(17)
H7 H 0.68240 0.77450 0.83110
C12 C 0.6331(2) 0.8394(2) 0.76341(17)
C13 C 0.6520(2) 0.8871(2) 0.70814(17)
H8 H 0.61000 0.90850 0.68750
C14 C 0.7321(2) 0.9041(2) 0.68234(17)
C15 C 0.7925(2) 0.8728(2) 0.71292(17)
H9 H 0.84680 0.88440 0.69580
C16 C 0.8401(2) 0.7897(2) 0.80017(17)
H10 H 0.82840 0.75140 0.83530
C17 C 0.5477(2) 0.8235(2) 0.78909(18)
H11 H 0.50820 0.84500 0.76640
C18 C 0.7536(2) 0.9565(2) 0.62437(18)
H12 H 0.80880 0.96650 0.60970
C19 C 0.7742(2) 0.82856(19) 0.46332(14)
C20 C 0.7252(2) 0.7756(2) 0.46811(14)
H13 H 0.66680 0.78870 0.47910
C21 C 0.7606(2) 0.70287(19) 0.45698(14)
C22 C 0.8461(2) 0.68460(19) 0.44145(14)
H14 H 0.87080 0.63570 0.43370
C23 C 0.8963(2) 0.73701(19) 0.43705(14)
C24 C 0.8603(2) 0.8089(2) 0.44750(14)
H15 H 0.89420 0.84510 0.44390
C25 C 0.7334(2) 0.9041(2) 0.47524(15)
H16 H 0.67470 0.91390 0.48470
C26 C 0.7093(2) 0.6471(2) 0.46104(14)
H17 H 0.73520 0.59650 0.45770
C27 C 0.9866(2) 0.7147(2) 0.42360(14)
H18 H 1.02000 0.75230 0.41750
C28 C 0.65038(18) 0.47023(17) 0.72670(14)
C29 C 0.61758(19) 0.50720(17) 0.77209(14)
H19 H 0.63630 0.48780 0.80690
C30 C 0.55726(19) 0.57264(17) 0.76701(14)
C31 C 0.53086(19) 0.60092(18) 0.71529(15)
H20 H 0.49030 0.64580 0.71130
C32 C 0.5632(2) 0.56422(18) 0.66982(15)
C33 C 0.62335(19) 0.49860(18) 0.67569(15)
H21 H 0.64590 0.47330 0.64460
C34 C 0.71257(18) 0.39976(17) 0.73236(14)
H22 H 0.73540 0.37680 0.70010
C35 C 0.5211(2) 0.60768(18) 0.81681(15)
H23 H 0.54560 0.58980 0.84910
C36 C 0.5323(2) 0.5943(2) 0.61646(16)
H24 H 0.49610 0.64200 0.61220
C37 C 0.7182(3) 1.0276(2) 0.48736(19)
H25 H 0.65930 1.02280 0.49530
H26 H 0.72990 1.07110 0.45330
C38 C 0.7335(3) 1.0439(2) 0.5394(2)
H27 H 0.79350 1.04220 0.53340
H28 H 0.70550 1.09630 0.54300
C39 C 0.87573(19) 0.31552(17) 0.79042(15)
H29 H 0.85990 0.33370 0.82680
H30 H 0.91580 0.26730 0.79550
C40 C 0.79946(19) 0.30030(17) 0.77852(16)
H31 H 0.81410 0.28710 0.74030
H32 H 0.77780 0.25640 0.80880
C41 C 0.9718(2) 0.7682(2) 0.81552(17)
H33 H 0.94830 0.72740 0.84810
H34 H 0.98730 0.80440 0.83200
C42 C 1.0478(2) 0.7329(2) 0.77575(16)
H35 H 1.06680 0.77270 0.74050
H36 H 1.09300 0.71280 0.79610
C43 C 0.4384(2) 0.7735(2) 0.8594(2)
H37 H 0.40930 0.80430 0.82900
H38 H 0.41260 0.79300 0.89510
C44 C 0.4289(2) 0.6891(2) 0.87219(18)
H39 H 0.46050 0.65780 0.90100
H40 H 0.37000 0.68370 0.88910
C45 C 0.5861(3) 0.6048(2) 0.47129(16)
H41 H 0.62430 0.55560 0.47030
H42 H 0.56260 0.61940 0.43680
C46 C 0.5171(2) 0.5942(2) 0.52604(16)
H43 H 0.48340 0.64470 0.53030
H44 H 0.48080 0.56110 0.52360
C47 C 1.1109(2) 0.6307(2) 0.40685(14)
H45 H 1.13330 0.67640 0.40550
H46 H 1.13260 0.61820 0.36830
C48 C 1.1383(2) 0.5632(2) 0.45330(14)
H47 H 1.11400 0.51830 0.45540
H48 H 1.19920 0.54930 0.44240
N13 N 0.36793(18) 0.35475(17) 1.02492(12)
N14 N 0.48375(19) 0.40902(18) 0.91337(13)
N15 N 0.66203(17) 0.22260(15) 0.71765(12)
N16 N 0.64475(16) 0.06023(15) 0.75665(13)
N17 N 0.36144(17) 0.50222(16) 0.67971(13)
N18 N 0.22040(18) 0.46196(15) 0.65807(13)
N19 N 0.34309(19) -0.00164(16) 1.07760(12)
N20 N 0.40372(18) -0.09658(15) 0.99016(12)
N21 N 0.30484(16) -0.01534(15) 0.74228(12)
N22 N 0.16237(17) 0.10735(15) 0.72287(12)
N23 N 0.03162(18) 0.25645(17) 1.02560(12)
N24 N -0.00461(16) 0.31636(16) 0.90821(12)
C49 C 0.37637(19) -0.03622(16) 0.87121(14)
H49 H 0.33030 -0.05530 0.89960
C50 C 0.44481(19) -0.03036(16) 0.88872(14)
C51 C 0.51167(19) -0.00092(16) 0.84689(14)
H50 H 0.55830 0.00330 0.85850
C52 C 0.51058(18) 0.02249(16) 0.78785(14)
C53 C 0.44209(19) 0.01524(17) 0.77129(14)
H51 H 0.44100 0.03060 0.73140
C54 C 0.37483(18) -0.01455(16) 0.81311(14)
C55 C 0.4519(2) -0.05608(17) 0.94945(14)
H52 H 0.49510 -0.04150 0.95880
C56 C 0.58126(19) 0.05329(17) 0.74335(15)
H53 H 0.57910 0.06830 0.70360
C57 C 0.30314(19) -0.02354(17) 0.79484(14)
H54 H 0.25450 -0.03590 0.82370
C58 C 0.1568(2) 0.23454(18) 0.73383(14)
C59 C 0.10502(19) 0.22265(18) 0.79017(14)
H55 H 0.08860 0.17370 0.80850
C60 C 0.07752(19) 0.28111(18) 0.81952(14)
C61 C 0.10202(19) 0.35325(17) 0.79198(14)
H56 H 0.08310 0.39380 0.81160
C62 C 0.15358(19) 0.36592(18) 0.73629(14)
C63 C 0.1814(2) 0.30609(18) 0.70737(14)
H57 H 0.21720 0.31430 0.66950
C64 C 0.1874(2) 0.17191(18) 0.70316(14)
H58 H 0.22750 0.18010 0.66710
C65 C 0.02200(19) 0.26714(18) 0.87804(14)
H59 H 0.00520 0.21810 0.89400
C66 C 0.17772(19) 0.44288(18) 0.70982(14)
H60 H 0.16040 0.47990 0.73270
C67 C 0.1697(2) 0.2423(2) 1.03694(14)
C68 C 0.2327(2) 0.2814(2) 1.03102(14)
H61 H 0.22400 0.33600 1.02010
C69 C 0.3093(2) 0.24168(19) 1.04084(14)
C70 C 0.3209(2) 0.16235(19) 1.05687(14)
H62 H 0.37240 0.13490 1.06430
C71 C 0.2580(2) 0.12150(19) 1.06244(14)
C72 C 0.1822(2) 0.1623(2) 1.05310(14)
H63 H 0.13870 0.13540 1.05780
C73 C 0.0901(2) 0.2871(2) 1.02598(15)
H64 H 0.08260 0.34150 1.01890
C74 C 0.3772(2) 0.2823(2) 1.03430(14)
H65 H 0.42990 0.25320 1.03720
C75 C 0.2723(2) 0.0370(2) 1.07650(15)
H66 H 0.22690 0.01070 1.08500
C76 C 0.4653(2) 0.39588(18) 0.82435(14)
C77 C 0.4272(2) 0.42998(18) 0.77935(15)
H67 H 0.38340 0.47200 0.78290
C78 C 0.45283(19) 0.40309(17) 0.72816(14)
C79 C 0.51605(19) 0.34068(18) 0.72352(14)
H68 H 0.53320 0.32190 0.68910
C80 C 0.55436(19) 0.30551(17) 0.76943(14)
C81 C 0.5286(2) 0.33317(18) 0.81966(14)
H69 H 0.55420 0.30920 0.85100
C82 C 0.4163(2) 0.44311(18) 0.67838(15)
H70 H 0.43450 0.42390 0.64420
C83 C 0.62551(19) 0.24305(17) 0.76448(14)
H71 H 0.64490 0.21680 0.79840
C84 C 0.4418(2) 0.42890(19) 0.87582(15)
H72 H 0.39340 0.46630 0.88080
C85 C 0.3516(2) -0.08539(19) 1.09214(15)
H73 H 0.29940 -0.10060 1.09290
H74 H 0.36240 -0.10640 1.13130
C86 C 0.4219(2) -0.11835(19) 1.04772(15)
H75 H 0.47290 -0.09940 1.04470
H76 H 0.43170 -0.17510 1.06090
C87 C -0.0430(2) 0.3087(2) 1.01419(16)
H77 H -0.03380 0.36250 1.00520
H78 H -0.08920 0.30050 1.04930
C88 C -0.0652(2) 0.2947(2) 0.96335(15)
H79 H -0.06890 0.23960 0.97100
H80 H -0.12020 0.32470 0.96000
C89 C 0.2318(2) -0.02535(18) 0.72790(15)
H81 H 0.18880 -0.03930 0.76410
H82 H 0.24640 -0.06750 0.70750
C90 C 0.1985(2) 0.04923(19) 0.68895(15)
H83 H 0.24390 0.06780 0.65590
H84 H 0.15610 0.03970 0.67300
C91 C 0.3318(2) 0.53865(19) 0.62735(16)
H85 H 0.36100 0.51010 0.59680
H86 H 0.34390 0.59190 0.61270
C92 C 0.2395(2) 0.54000(18) 0.63980(16)
H87 H 0.21030 0.56770 0.67080
H88 H 0.21980 0.56780 0.60430
C93 C 0.4561(3) 0.4478(2) 0.96110(16)
H89 H 0.40480 0.48480 0.95720
H90 H 0.49890 0.47670 0.95990
C94 C 0.4400(2) 0.3884(2) 1.01853(16)
H91 H 0.48890 0.34750 1.01980
H92 H 0.43080 0.41290 1.05110
C95 C 0.7319(2) 0.15974(19) 0.72030(16)
H93 H 0.74380 0.14630 0.75910
H94 H 0.78160 0.17610 0.69070
C96 C 0.7113(2) 0.08987(19) 0.70907(16)
H95 H 0.69430 0.10450 0.67190
H96 H 0.76080 0.04960 0.70590
C97 C 0.7380(3) 0.1878(3) 0.99210(19)
H97 H 0.70230 0.14680 1.00740
Cl1 Cl 0.81970(13) 0.16228(19) 0.93649(12)
Cl2 Cl 0.7618(2) 0.2064(3) 1.0515(2)
Cl3 Cl 0.6784(3) 0.27859(14) 0.95343(17)
C98 C 1.2199(4) 0.7122(3) 0.4930(2)
H98 H 1.16840 0.68880 0.50530
Cl4 Cl 1.2180(2) 0.77936(16) 0.43422(12)
Cl5 Cl 1.2313(6) 0.7405(7) 0.5510(5)
Cl6 Cl 1.31900(15) 0.63253(17) 0.46922(12)
Cl7 Cl 0.23541(9) 0.14345(11) 0.90138(7)
Cl8 Cl 0.31650(9) 0.25164(8) 0.80397(5)
Cl9 Cl 0.38535(11) 0.18545(12) 0.90288(7)
C99 C 0.3310(3) 0.1705(2) 0.85951(19)
H99 H 0.36390 0.12740 0.84130
Cl10 Cl 0.9491(2) 0.98415(17) 0.76907(15)
Cl11 Cl 0.91293(17) 1.09805(13) 0.83618(13)
Cl12 Cl 0.95922(12) 1.14506(12) 0.71096(10)
C100 C 0.9739(4) 1.0692(4) 0.7722(4)
H100 H 1.03330 1.06000 0.77320
Cl13 Cl 0.43949(8) 0.78873(10) 0.41330(9)
Cl14 Cl 0.54346(11) 0.90299(7) 0.39253(6)
Cl15 Cl 0.59354(9) 0.78503(8) 0.32956(6)
C101 C 0.5404(3) 0.8072(2) 0.39660(19)
H101 H 0.56830 0.77330 0.42740
Cl16 Cl 0.26454(15) 0.62084(12) 0.7984(2)
Cl17 Cl 0.2350(4) 0.7748(3) 0.8070(3)
Cl18 Cl 0.2958(2) 0.7418(3) 0.69467(15)
C102 C 0.2989(4) 0.7095(4) 0.7669(3)
H102 H 0.35690 0.70420 0.76990
Cl19 Cl 0.75059(9) 0.59074(9) 0.83681(6)
Cl20 Cl 0.87589(7) 0.52337(10) 0.89935(5)
Cl21 Cl 0.73173(11) 0.45173(8) 0.92493(9)
C103 C 0.7693(3) 0.5387(3) 0.9044(2)
H103 H 0.73990 0.56930 0.93420
Cl22 Cl 0.5796(4) 0.7914(3) 0.6205(3)
Cl23 Cl 0.44703(12) 0.91014(13) 0.65536(9)
Cl24 Cl 0.50246(13) 0.8917(2) 0.53881(9)
C104 C 0.5334(4) 0.8837(4) 0.6027(3)
H104 H 0.57450 0.91880 0.59400
Cl25 Cl 0.12441(11) 0.48938(7) 0.95910(6)
Cl26 Cl 0.08131(6) 0.53454(5) 0.84860(5)
Cl27 Cl 0.22005(7) 0.41527(7) 0.86777(6)
C105 C 0.1212(3) 0.4576(2) 0.89922(18)
H105 H 0.08390 0.41790 0.91340
Cl28 Cl 0.73836(10) 0.68195(9) 0.69844(6)
Cl29 Cl 0.85604(12) 0.74946(9) 0.59931(7)
C106 C 0.8217(3) 0.6637(2) 0.64138(17)
H106 H 0.86770 0.62950 0.65800
Cl30 Cl 0.79461(14) 0.61704(11) 0.59939(8)
Cl31 Cl 1.0166(5) 0.9085(5) 0.5542(4)
Cl32 Cl 1.1025(4) 0.9093(3) 0.6404(2)
Cl33 Cl 0.9700(4) 1.0338(5) 0.6102(4)
C107 C 1.0542(6) 0.9670(6) 0.5844(4)
H107 H 1.09570 0.99550 0.55300
H108? H 0.68400 0.16840 1.00530
Cl34? Cl 0.8283(3) 0.1078(3) 0.9806(3)
Cl35? Cl 0.7633(8) 0.2077(11) 1.0480(5)
Cl36? Cl 0.7413(6) 0.2509(4) 0.9395(3)
H109? H 1.19890 0.66200 0.50760
Cl37? Cl 1.1283(4) 0.8042(2) 0.4758(3)
Cl38? Cl 1.2574(6) 0.7337(7) 0.5439(4)
Cl39? Cl 1.2735(3) 0.7241(4) 0.42719(18)
Cl40? Cl 1.0092(8) 0.9965(8) 0.5374(5)
Cl41? Cl 1.0507(11) 0.9106(9) 0.6385(7)
Cl42? Cl 0.9780(8) 1.0545(8) 0.6390(6)
C108? C 0.9728(17) 0.9785(12) 0.6124(8)
H110? H 0.91750 0.96150 0.62670
Cl43? Cl 0.4519(6) 0.8181(5) 0.5566(3)
Cl44? Cl 0.4276(7) 0.9019(6) 0.6403(5)
Cl45? Cl 0.5796(7) 0.7871(4) 0.6285(5)
C109? C 0.5027(11) 0.8523(13) 0.5943(9)
H111? H 0.53300 0.89230 0.56420
Cl46? Cl 0.9845(5) 0.9560(3) 0.7931(3)
Cl47? Cl 1.0013(4) 1.0283(4) 0.8761(2)
Cl48? Cl 0.9118(3) 1.1113(3) 0.7918(4)
C110? C 0.9969(8) 1.0374(7) 0.8095(6)
H112? H 1.04930 1.05410 0.78290
Cl49? Cl 0.2892(4) 0.6418(3) 0.7450(3)
Cl50? Cl 0.2435(4) 0.6310(3) 0.8628(3)
Cl51? Cl 0.2459(9) 0.7834(6) 0.7909(7)
C111? C 0.2922(11) 0.6873(6) 0.7966(4)
H113? H 0.35130 0.68330 0.79670
Cl52? Cl 1.0105(5) 0.8707(5) 0.5937(4)
Cl53? Cl 1.1288(6) 0.8926(6) 0.6399(5)
C112? C 1.0218(10) 0.9181(10) 0.6429(9)
H114? H 0.98670 0.90170 0.68310
Cl54? Cl 0.9967(9) 1.0169(8) 0.6121(6)
Cl55? Cl 1.0561(3) 0.9146(3) 0.88452(17)
Cl56? Cl 0.9574(3) 0.9414(3) 0.9965(2)
Cl57? Cl 1.1022(5) 1.0138(4) 0.9354(3)
C113? C 1.0540(11) 0.9327(9) 0.9496(7)
H115? H 1.08890 0.88780 0.96960
#END
