
#######################################################################
#
#                 Cambridge Crystallographic Data Centre
#                                CCDC
#
#######################################################################
#
# If this CIF has been generated from an entry in the Cambridge
# Structural Database, then it will include bibliographic, chemical,
# crystal, experimental, refinement or atomic coordinate data resulting
# from the CCDC's data processing and validation procedures.
#
#######################################################################

data_CSD_CIF_IFAKEI
_audit_creation_date 2018-08-07
_audit_creation_method CSD-ConQuest-V1
_database_code_CSD IFAKEI
_database_code_depnum_ccdc_archive 'CCDC 1575913'
_chemical_formula_sum 'C103.8 H111.5 Cl15.5 N24'
_chemical_formula_moiety
;
2(C48 H48 N12),7.75(C1 H2 Cl2)
;
_journal_coden_Cambridge 169
_journal_year 2018
_journal_name_full 'Faraday Discuss. '
loop_
_publ_author_name
"D.P.McMahon"
"A.Stephenson"
"Samantha Y.Chong"
"M.A.Little"
"J.T.A.Jones"
"A.I.Cooper"
"G.M.Day"
_chemical_name_systematic
;
bis(5,8,16,19,27,30,38,41,46,49,54,57-dodecaazaheptacyclo[21.21.6.6^12,34^.1^3
,43^.1^10,14^.1^21,25^.1^32,36^]hexaconta-1,3(51),4,8,10(60),11,13,15,19,21(59
),22,24,26,30,32(52),33,35,37,41,43,45,49,53,57-tetracosaene) dichloromethane 
solvate
;
_cell_volume   8453.164
_exptl_crystal_colour 'colorless'
_exptl_crystal_density_diffrn 1.323
_exptl_crystal_description 'plate'
_diffrn_ambient_temperature 100
_refine_special_details
;
C34,Cl1,Cl2 and C35,Cl3,Cl4 disordered over two sites with occupancies 
0.5:0.5; Cl10 and C36,Cl9 disordered over two sites with occupancies 
0.75:0.250; Cl5 disordered by symmetry over three configurations with 
occupancy 0.3333.
;
#These two values have been output from a single CSD field.
_refine_ls_R_factor_gt 0.0912
_refine_ls_wR_factor_gt 0.0912
_symmetry_cell_setting rhombohedral
_symmetry_space_group_name_H-M 'R 3'
_symmetry_Int_Tables_number 146
loop_
_symmetry_equiv_pos_site_id
_symmetry_equiv_pos_as_xyz
1 x,y,z
2 -y,x-y,z
3 -x+y,-x,z
4 2/3+x,1/3+y,1/3+z
5 2/3-y,1/3+x-y,1/3+z
6 2/3-x+y,1/3-x,1/3+z
7 1/3+x,2/3+y,2/3+z
8 1/3-y,2/3+x-y,2/3+z
9 1/3-x+y,2/3-x,2/3+z
_cell_length_a 21.3987(16)
_cell_length_b 21.3987(16)
_cell_length_c 21.3164(18)
_cell_angle_alpha 90
_cell_angle_beta 90
_cell_angle_gamma 120
_cell_formula_units_Z 3
loop_
_atom_type_symbol
_atom_type_radius_bond
C 0.68
H 0.23
Cl 0.99
N 0.68
loop_
_atom_site_label
_atom_site_type_symbol
_atom_site_fract_x
_atom_site_fract_y
_atom_site_fract_z
N1 N 0.3449(3) 0.4987(3) 0.1009(2)
N2 N 0.3835(3) 0.4415(3) 0.2124(2)
N3 N 0.5335(3) 0.6260(3) 0.4657(3)
N4 N 0.1917(3) 0.4067(3) 0.4534(2)
C1 C 0.3559(3) 0.4633(3) 0.3169(3)
C2 C 0.4267(3) 0.5155(3) 0.3332(3)
H1 H 0.46470 0.52990 0.30360
C3 C 0.4412(3) 0.5462(3) 0.3928(3)
C4 C 0.3856(3) 0.5251(3) 0.4366(3)
H2 H 0.39610 0.54590 0.47730
C5 C 0.3149(3) 0.4735(3) 0.4210(3)
C6 C 0.3010(3) 0.4431(3) 0.3609(3)
H3 H 0.25310 0.40790 0.34990
C7 C 0.3373(3) 0.4292(3) 0.2544(3)
H4 H 0.28800 0.39630 0.24540
C8 C 0.5164(3) 0.6024(3) 0.4095(3)
H5 H 0.55230 0.62120 0.37780
C9 C 0.2563(3) 0.4526(3) 0.4670(3)
H6 H 0.26730 0.47380 0.50760
C10 C 0.1373(3) 0.3876(3) 0.5024(3)
H7 H 0.15850 0.42110 0.53830
H8 H 0.12100 0.33800 0.51750
C11 C 0.3564(3) 0.4026(3) 0.1533(3)
H9 H 0.30300 0.37400 0.15450
H10 H 0.37480 0.36880 0.14740
C12 C 0.3804(3) 0.4553(3) 0.0988(3)
H11 H 0.43330 0.48750 0.10060
H12 H 0.36850 0.42830 0.05880
C13 C 0.3856(3) 0.5659(3) 0.1097(3)
H13 H 0.43580 0.58400 0.11550
C14 C 0.3585(3) 0.6172(3) 0.1114(3)
C15 C 0.2833(3) 0.5929(3) 0.1112(3)
H14 H 0.24960 0.54260 0.11090
C16 C 0.6081(3) 0.6818(3) 0.4763(3)
H15 H 0.63500 0.69310 0.43620
H16 H 0.63090 0.66380 0.50610
N5 N 0.6307(3) 0.5327(3) 0.6132(3)
N6 N 0.3993(3) 0.1917(3) 0.6026(3)
N7 N 0.3911(3) 0.2868(3) 0.3780(3)
N8 N 0.4762(3) 0.2920(3) 0.2694(2)
C17 C 0.4652(3) 0.3592(3) 0.4647(3)
C18 C 0.5168(4) 0.4281(3) 0.4831(3)
H17 H 0.53050 0.46710 0.45470
C19 C 0.5492(3) 0.4419(3) 0.5420(3)
C20 C 0.5284(3) 0.3832(3) 0.5833(3)
H18 H 0.55070 0.39100 0.62320
C21 C 0.4753(3) 0.3138(3) 0.5660(3)
C22 C 0.4436(3) 0.3015(3) 0.5062(3)
H19 H 0.40770 0.25420 0.49410
C23 C 0.4346(3) 0.3483(3) 0.4002(3)
H20 H 0.44830 0.38950 0.37470
C24 C 0.6036(4) 0.5155(3) 0.5591(3)
H21 H 0.61910 0.55210 0.52800
C25 C 0.4546(3) 0.2539(3) 0.6108(3)
H22 H 0.48360 0.26190 0.64700
C26 C 0.6318(4) 0.3731(4) 0.2742(3)
H23 H 0.60770 0.40030 0.27470
C27 C 0.5914(3) 0.2977(3) 0.2739(3)
C28 C 0.5116(3) 0.2596(3) 0.2751(3)
H24 H 0.48590 0.20870 0.28040
C29 C 0.3675(3) 0.2844(4) 0.3133(3)
H25 H 0.38440 0.33410 0.29830
H26 H 0.31410 0.25730 0.31160
C30 C 0.3970(3) 0.2484(4) 0.2712(3)
H27 H 0.38230 0.19950 0.28730
H28 H 0.37730 0.24340 0.22830
C31 C 0.6842(3) 0.6098(3) 0.6236(3)
H29 H 0.66430 0.63120 0.65310
H30 H 0.69510 0.63640 0.58350
C32 C 0.7534(3) 0.6157(3) 0.6511(3)
H31 H 0.78460 0.66490 0.66800
H32 H 0.74090 0.58090 0.68600
Cl1 Cl 0.0637(3) 0.2749(2) 0.0753(2)
Cl2 Cl 0.1336(4) 0.4065(3) 0.1480(4)
C33 C 0.143(1) 0.3594(10) 0.0843(10)
H33 H 0.18460 0.35220 0.09160
H34 H 0.15220 0.38810 0.04540
Cl3? Cl 0.1293(3) 0.3970(3) 0.1172(3)
Cl4? Cl 0.1619(3) 0.4709(3) 0.2388(2)
C34? C 0.1834(7) 0.4194(7) 0.1862(6)
H35? H 0.23510 0.44770 0.17450
H36? H 0.17510 0.37460 0.20720
H37? H 0.09890 0.23660 0.06700
H38? H 0.05590 0.23450 0.12930
Cl5? Cl 0.0204(2) 0.1207(2) 0.09539(19)
Cl6? Cl -0.01168(19) 0.2256(2) 0.0409(2)
C35? C 0.0509(9) 0.2126(8) 0.0874(8)
Cl7? Cl 0.0141(6) 0.0582(6) 0.1585(6)
Cl8? Cl 0.00000 0.00000 0.2808(5)
C36? C 0.00000 0.00000 0.2083(18)
H39? H -0.04820 -0.04060 0.19720
H40? H 0.03450 -0.01630 0.19720
Cl9? Cl 0.33330 0.66670 0.4263(9)
Cl10? Cl 0.297(2) 0.656(2) 0.2927(14)
C37? C 0.356(5) 0.655(7) 0.3515(16)
H41? H 0.35490 0.60820 0.34960
H42? H 0.40560 0.69350 0.34240
N1A N 0.5013(3) 0.8462(3) 0.1009(2)
N2A N 0.5585(3) 0.9420(3) 0.2124(2)
N3A N 0.3740(3) 0.9075(3) 0.4657(3)
N4A N 0.5933(3) 0.7850(3) 0.4534(2)
C1A C 0.5367(3) 0.8926(3) 0.3169(3)
C2A C 0.4845(3) 0.9112(3) 0.3332(3)
H1A H 0.47010 0.93480 0.30360
C3A C 0.4538(3) 0.8950(3) 0.3928(3)
C4A C 0.4749(3) 0.8605(3) 0.4366(3)
H2A H 0.45410 0.85020 0.47730
C5A C 0.5265(3) 0.8414(3) 0.4210(3)
C6A C 0.5569(3) 0.8579(3) 0.3609(3)
H3A H 0.59210 0.84520 0.34990
C7A C 0.5708(3) 0.9081(3) 0.2544(3)
H4A H 0.60370 0.89170 0.24540
C8A C 0.3976(3) 0.9140(3) 0.4095(3)
H5A H 0.37880 0.93110 0.37780
C9A C 0.5474(3) 0.8037(3) 0.4670(3)
H6A H 0.52620 0.79350 0.50760
C10A C 0.6124(3) 0.7497(3) 0.5024(3)
H7A H 0.57890 0.73740 0.53830
H8A H 0.66200 0.78300 0.51750
C11A C 0.5974(3) 0.9538(3) 0.1533(3)
H9A H 0.62600 0.92900 0.15450
H10A H 0.63120 1.00600 0.14740
C12A C 0.5447(3) 0.9251(3) 0.0988(3)
H11A H 0.51250 0.94580 0.10060
H12A H 0.57170 0.94020 0.05880
C13A C 0.4341(3) 0.8197(3) 0.1097(3)
H13A H 0.41600 0.85180 0.11550
C14A C 0.3828(3) 0.7413(3) 0.1114(3)
C15A C 0.4071(3) 0.6904(3) 0.1112(3)
H14A H 0.45740 0.70700 0.11090
C16A C 0.3182(3) 0.9263(3) 0.4763(3)
H15A H 0.30690 0.94190 0.43620
H16A H 0.33620 0.96710 0.50610
N1B N 0.1538(3) 0.6551(3) 0.1009(2)
N2B N 0.0580(3) 0.6165(3) 0.2124(2)
N3B N 0.0925(3) 0.4665(3) 0.4657(3)
N4B N 0.2150(3) 0.8083(3) 0.4534(2)
C1B C 0.1074(3) 0.6441(3) 0.3169(3)
C2B C 0.0888(3) 0.5733(3) 0.3332(3)
H1B H 0.06520 0.53530 0.30360
C3B C 0.1050(3) 0.5588(3) 0.3928(3)
C4B C 0.1395(3) 0.6144(3) 0.4366(3)
H2B H 0.14980 0.60390 0.47730
C5B C 0.1586(3) 0.6851(3) 0.4210(3)
C6B C 0.1421(3) 0.6990(3) 0.3609(3)
H3B H 0.15480 0.74690 0.34990
C7B C 0.0919(3) 0.6627(3) 0.2544(3)
H4B H 0.10830 0.71200 0.24540
C8B C 0.0860(3) 0.4836(3) 0.4095(3)
H5B H 0.06890 0.44770 0.37780
C9B C 0.1963(3) 0.7437(3) 0.4670(3)
H6B H 0.20650 0.73270 0.50760
C10B C 0.2503(3) 0.8627(3) 0.5024(3)
H7B H 0.26260 0.84150 0.53830
H8B H 0.21700 0.87900 0.51750
C11B C 0.0462(3) 0.6436(3) 0.1533(3)
H9B H 0.07100 0.69700 0.15450
H10B H -0.00600 0.62520 0.14740
C12B C 0.0749(3) 0.6196(3) 0.0988(3)
H11B H 0.05420 0.56670 0.10060
H12B H 0.05980 0.63150 0.05880
C13B C 0.1803(3) 0.6144(3) 0.1097(3)
H13B H 0.14820 0.56420 0.11550
C14B C 0.2587(3) 0.6415(3) 0.1114(3)
C15B C 0.3096(3) 0.7167(3) 0.1112(3)
H14B H 0.29300 0.75040 0.11090
C16B C 0.0737(3) 0.3919(3) 0.4763(3)
H15B H 0.05810 0.36500 0.43620
H16B H 0.03290 0.36910 0.50610
N5A N 0.4673(3) 0.0980(3) 0.6132(3)
N6A N 0.8083(3) 0.2076(3) 0.6026(3)
N7A N 0.7132(3) 0.1043(3) 0.3780(3)
N8A N 0.7080(3) 0.1842(3) 0.2694(2)
C17A C 0.6408(3) 0.1060(3) 0.4647(3)
C18A C 0.5719(4) 0.0887(3) 0.4831(3)
H17A H 0.53290 0.06340 0.45470
C19A C 0.5581(3) 0.1073(3) 0.5420(3)
C20A C 0.6168(3) 0.1452(3) 0.5833(3)
H18A H 0.60900 0.15970 0.62320
C21A C 0.6862(3) 0.1615(3) 0.5660(3)
C22A C 0.6985(3) 0.1421(3) 0.5062(3)
H19A H 0.74580 0.15350 0.49410
C23A C 0.6517(3) 0.0863(3) 0.4002(3)
H20A H 0.61050 0.05880 0.37470
C24A C 0.4845(4) 0.0881(3) 0.5591(3)
H21A H 0.44790 0.06700 0.52800
C25A C 0.7461(3) 0.2007(3) 0.6108(3)
H22A H 0.73810 0.22170 0.64700
C26A C 0.6269(4) 0.2587(4) 0.2742(3)
H23A H 0.59970 0.20740 0.27470
C27A C 0.7023(3) 0.2937(3) 0.2739(3)
C28A C 0.7404(3) 0.2520(3) 0.2751(3)
H24A H 0.79130 0.27720 0.28040
C29A C 0.7156(3) 0.0831(4) 0.3133(3)
H25A H 0.66590 0.05030 0.29830
H26A H 0.74270 0.05680 0.31160
C30A C 0.7516(3) 0.1486(4) 0.2712(3)
H27A H 0.80050 0.18280 0.28730
H28A H 0.75660 0.13390 0.22830
C31A C 0.3902(3) 0.0744(3) 0.6236(3)
H29A H 0.36880 0.03310 0.65310
H30A H 0.36360 0.05870 0.58350
C32A C 0.3843(3) 0.1377(3) 0.6511(3)
H31A H 0.33510 0.11970 0.66800
H32A H 0.41910 0.16000 0.68600
N5B N 0.9020(3) 0.3693(3) 0.6132(3)
N6B N 0.7924(3) 0.6007(3) 0.6026(3)
N7B N 0.8957(3) 0.6089(3) 0.3780(3)
N8B N 0.8158(3) 0.5238(3) 0.2694(2)
C17B C 0.8940(3) 0.5348(3) 0.4647(3)
C18B C 0.9113(4) 0.4832(3) 0.4831(3)
H17B H 0.93660 0.46950 0.45470
C19B C 0.8927(3) 0.4508(3) 0.5420(3)
C20B C 0.8548(3) 0.4716(3) 0.5833(3)
H18B H 0.84030 0.44930 0.62320
C21B C 0.8385(3) 0.5247(3) 0.5660(3)
C22B C 0.8579(3) 0.5564(3) 0.5062(3)
H19B H 0.84650 0.59230 0.49410
C23B C 0.9137(3) 0.5654(3) 0.4002(3)
H20B H 0.94120 0.55170 0.37470
C24B C 0.9119(4) 0.3964(3) 0.5591(3)
H21B H 0.93300 0.38090 0.52800
C25B C 0.7993(3) 0.5454(3) 0.6108(3)
H22B H 0.77830 0.51640 0.64700
C26B C 0.7413(4) 0.3682(4) 0.2742(3)
H23B H 0.79260 0.39230 0.27470
C27B C 0.7063(3) 0.4086(3) 0.2739(3)
C28B C 0.7480(3) 0.4884(3) 0.2751(3)
H24B H 0.72280 0.51410 0.28040
C29B C 0.9169(3) 0.6325(4) 0.3133(3)
H25B H 0.94970 0.61560 0.29830
H26B H 0.94320 0.68590 0.31160
C30B C 0.8514(3) 0.6030(4) 0.2712(3)
H27B H 0.81720 0.61770 0.28730
H28B H 0.86610 0.62270 0.22830
C31B C 0.9256(3) 0.3158(3) 0.6236(3)
H29B H 0.96690 0.33570 0.65310
H30B H 0.94130 0.30490 0.58350
C32B C 0.8623(3) 0.2466(3) 0.6511(3)
H31B H 0.88030 0.21540 0.66800
H32B H 0.84000 0.25910 0.68600
#END
