
#######################################################################
#
#                 Cambridge Crystallographic Data Centre
#                                CCDC
#
#######################################################################
#
# If this CIF has been generated from an entry in the Cambridge
# Structural Database, then it will include bibliographic, chemical,
# crystal, experimental, refinement or atomic coordinate data resulting
# from the CCDC's data processing and validation procedures.
#
#######################################################################

data_CSD_CIF_IYEMEG
_audit_creation_date 2016-10-13
_audit_creation_method CSD-ConQuest-V1
_database_code_CSD IYEMEG
_database_code_depnum_ccdc_archive 'CCDC 1481845'
_chemical_formula_sum 'C85.75 H160 N12 O36.25'
_chemical_formula_moiety
;
C72 H84 N12 O12,13.75(C1 H4 O1),10.5(H2 O1)
;
_journal_coden_Cambridge 1220
_journal_volume 22
_journal_year 2016
_journal_page_first 16547
_journal_name_full 'Chem.-Eur.J. '
loop_
_publ_author_name
"P.S.Reiss"
"M.A.Little"
"V.Santolini"
"Samantha Y.Chong"
"T.Hasell"
"K.E.Jelfs"
"M.E.Briggs"
"A.I.Cooper"
_chemical_name_systematic
;
5,12,20,27,35,42,50,57,62,69,74,81-dodecaazatridecacyclo[29.29.10.10^16,46^.1^
3,59^.1^14,18^.1^29,33^.1^44,48^.0^6,11^.0^21,26^.0^36,41^.0^51,56^.0^63,68^.0
^75,80^]tetraoctaconta-1,3(71),4,12,14(84),15,17,19,27,29(83),30,32,34,42,44(7
2),45,47,49,57,59,61,69,73,81-tetracosaene-8,9,23,24,38,39,53,54,65,66,77,78-d
odecol methanol solvate hydrate
;
_cell_volume  23368.412
_exptl_crystal_colour 'colorless'
_exptl_crystal_density_diffrn 1.102
_exptl_crystal_description 'needle'
_exptl_crystal_preparation 'methanol'
_diffrn_ambient_temperature 100
_refine_special_details
;
The structure is disordered.

;
#These two values have been output from a single CSD field.
_refine_ls_R_factor_gt 0.0816
_refine_ls_wR_factor_gt 0.0816
_symmetry_cell_setting tetragonal
_symmetry_space_group_name_H-M 'P 43 21 2'
_symmetry_Int_Tables_number 96
loop_
_symmetry_equiv_pos_site_id
_symmetry_equiv_pos_as_xyz
1 x,y,z
2 1/2-y,1/2+x,3/4+z
3 -x,-y,1/2+z
4 1/2+y,1/2-x,1/4+z
5 1/2+x,1/2-y,1/4-z
6 1/2-x,1/2+y,3/4-z
7 y,x,-z
8 -y,-x,1/2-z
_cell_length_a 20.4170(14)
_cell_length_b 20.4170(14)
_cell_length_c 56.059(4)
_cell_angle_alpha 90
_cell_angle_beta 90
_cell_angle_gamma 90
_cell_formula_units_Z 8
loop_
_atom_type_symbol
_atom_type_radius_bond
C 0.68
H 0.23
N 0.68
O 0.68
loop_
_atom_site_label
_atom_site_type_symbol
_atom_site_fract_x
_atom_site_fract_y
_atom_site_fract_z
O1 O 0.36187(18) 1.03238(16) 0.71573(7)
H1 H 0.36420 1.06350 0.70600
O2 O 0.25773(15) 0.94168(17) 0.72330(5)
H2 H 0.26030 0.97720 0.73080
O3 O 0.1025(2) 0.5344(3) 0.55269(9)
H3 H 0.09900 0.49350 0.55140
O4 O 0.1812(2) 0.5145(2) 0.50969(6)
H4 H 0.15020 0.54160 0.50940
O5 O 0.80525(18) 0.18493(16) 0.56449(8)
H5 H 0.78950 0.14710 0.56320
O6 O 0.99604(17) 0.62851(17) 0.73830(7)
H6 H 0.97860 0.62650 0.75190
O7 O 0.96541(15) 0.76047(15) 0.73803(5)
H7 H 0.99760 0.75720 0.72880
O8 O 0.77371(16) 0.96043(14) 0.53045(5)
H8 H 0.80350 0.96210 0.52010
O9 O 0.75995(14) 0.85811(14) 0.49381(4)
H9 H 0.76890 0.89570 0.48870
O10 O 0.46114(17) 0.24552(15) 0.75798(5)
H10 H 0.44310 0.24190 0.77140
O11 O 0.33733(15) 0.31225(15) 0.75692(5)
H11 H 0.30230 0.29920 0.75070
O12 O 0.73752(18) 0.2262(2) 0.52153(7)
H12 H 0.69730 0.21760 0.52110
N1 N 0.79719(17) 0.57908(18) 0.69404(6)
N2 N 0.37720(17) 0.55657(17) 0.55453(6)
N3 N 0.66368(15) 0.82144(16) 0.58671(5)
N4 N 0.37208(16) 0.77535(16) 0.67850(5)
N5 N 0.49213(16) 0.85424(16) 0.68214(6)
N6 N 0.54714(18) 0.3934(2) 0.69950(6)
N7 N 0.64514(16) 0.72314(15) 0.54989(5)
N8 N 0.42576(19) 0.46803(16) 0.69944(6)
N9 N 0.30046(17) 0.55857(17) 0.59869(6)
N10 N 0.72769(19) 0.37543(17) 0.60654(7)
N11 N 0.65188(18) 0.41340(17) 0.56448(7)
N12 N 0.78081(16) 0.71991(17) 0.68528(5)
C1 C 0.39263(19) 0.71942(18) 0.68478(6)
H13 H 0.41440 0.71570 0.69970
C2 C 0.42575(18) 0.88152(18) 0.68373(6)
H14 H 0.40930 0.89120 0.66730
C3 C 0.70334(18) 0.7648(2) 0.64651(6)
H15 H 0.74510 0.74690 0.64290
C4 C 0.3144(2) 0.85912(19) 0.70147(7)
H16 H 0.28790 0.82610 0.71010
H17 H 0.29120 0.87050 0.68650
C5 C 0.36084(18) 0.66140(18) 0.64697(6)
H18 H 0.35200 0.70240 0.63960
C6 C 0.38144(19) 0.83004(18) 0.69541(6)
H19 H 0.40270 0.81340 0.71030
C7 C 0.71855(19) 0.86352(19) 0.51440(6)
H20 H 0.68010 0.89200 0.51050
C8 C 0.4997(2) 0.3899(2) 0.71885(7)
H21 H 0.50970 0.42450 0.73100
C9 C 0.5046(2) 0.3221(2) 0.73046(7)
H22 H 0.50030 0.28820 0.71790
H23 H 0.54840 0.31720 0.73780
C10 C 0.60352(19) 0.8183(2) 0.63405(7)
H24 H 0.57770 0.83760 0.62180
C11 C 0.4527(2) 0.3107(2) 0.74932(7)
H25 H 0.45960 0.34220 0.76270
C12 C 0.61916(19) 0.7893(2) 0.67527(6)
H26 H 0.60320 0.78800 0.69120
C13 C 0.38562(19) 0.32172(18) 0.73872(6)
H27 H 0.37820 0.28890 0.72570
C14 C 0.71748(18) 0.89212(19) 0.55805(6)
H28 H 0.67730 0.91880 0.55610
H29 H 0.74360 0.91110 0.57120
C15 C 0.3804(2) 0.39053(19) 0.72819(7)
H30 H 0.33590 0.39700 0.72160
H31 H 0.38720 0.42330 0.74100
C16 C 0.3596(2) 0.97155(19) 0.70299(8)
H32 H 0.33720 0.97900 0.68740
C17 C 0.38929(18) 0.54086(18) 0.66815(6)
C18 C 0.5871(2) 0.7025(2) 0.54948(8)
H33 H 0.55260 0.73220 0.54610
C19 C 0.6438(3) 0.4425(3) 0.68332(9)
C20 C 0.40165(19) 0.47589(18) 0.67894(6)
H34 H 0.39080 0.43800 0.66990
C21 C 0.32219(19) 0.60814(19) 0.61002(6)
H35 H 0.32050 0.64990 0.60250
C22 C 0.6946(2) 0.79499(19) 0.52080(6)
H36 H 0.73280 0.76530 0.52190
H37 H 0.66610 0.77880 0.50780
C23 C 0.65662(17) 0.79181(18) 0.54427(6)
H38 H 0.61410 0.81590 0.54290
C24 C 0.75715(19) 0.89373(18) 0.53503(6)
H39 H 0.79840 0.86810 0.53740
C25 C 0.39907(18) 0.59915(18) 0.68069(6)
H40 H 0.41570 0.59770 0.69650
C26 C 0.69892(17) 0.82145(18) 0.56408(6)
H41 H 0.73980 0.79490 0.56580
C27 C 0.6214(2) 0.5865(2) 0.55541(8)
H42 H 0.66550 0.59950 0.55280
C28 C 0.4282(2) 0.94528(19) 0.69818(7)
H43 H 0.45070 0.93710 0.71350
H44 H 0.45370 0.97850 0.68930
C29 C 0.5065(2) 0.6135(2) 0.55699(8)
H45 H 0.47220 0.64480 0.55580
C30 C 0.6610(2) 0.4730(2) 0.56093(8)
H46 H 0.70450 0.48800 0.55850
C31 C 0.32129(19) 0.92045(19) 0.71698(7)
H47 H 0.34610 0.90900 0.73180
C32 C 0.6875(2) 0.3754(2) 0.62347(8)
H48 H 0.65060 0.34720 0.62210
C33 C 0.6440(3) 0.4061(3) 0.66229(9)
H49 H 0.61060 0.37470 0.65950
C34 C 0.6071(2) 0.5211(2) 0.56039(8)
C35 C 0.31057(19) 0.5292(2) 0.55677(7)
H50 H 0.31320 0.48270 0.56220
C36 C 0.5713(2) 0.6330(2) 0.55419(8)
C37 C 0.7087(2) 0.3698(2) 0.56319(8)
H51 H 0.74960 0.39600 0.56090
C38 C 0.4232(2) 0.5246(2) 0.56329(8)
H52 H 0.41410 0.48440 0.57120
C39 C 0.6989(2) 0.3230(2) 0.54233(8)
H53 H 0.65520 0.30240 0.54370
H54 H 0.69970 0.34840 0.52730
C40 C 0.7503(2) 0.2695(2) 0.54100(8)
H55 H 0.79390 0.29070 0.53830
C41 C 0.7533(2) 0.2318(2) 0.56465(9)
H56 H 0.71070 0.20870 0.56730
C42 C 0.34983(18) 0.60335(18) 0.63426(6)
C43 C 0.7659(2) 0.2793(2) 0.58521(9)
H57 H 0.76770 0.25470 0.60040
H58 H 0.80880 0.30100 0.58290
C44 C 0.7126(2) 0.3309(2) 0.58666(8)
H59 H 0.66960 0.30910 0.58970
C45 C 0.58030(19) 0.8166(2) 0.65712(7)
C46 C 0.84937(18) 0.6280(2) 0.69677(6)
H60 H 0.87190 0.63500 0.68110
C47 C 0.89877(19) 0.6025(2) 0.71530(7)
H61 H 0.87500 0.58960 0.73000
H62 H 0.92100 0.56320 0.70890
C48 C 0.66493(18) 0.7916(2) 0.62849(6)
C49 C 0.94991(19) 0.6540(2) 0.72155(7)
H63 H 0.97390 0.66640 0.70670
C50 C 0.91661(19) 0.7143(2) 0.73134(7)
H64 H 0.89060 0.70190 0.74580
C51 C 0.68022(19) 0.7644(2) 0.67012(7)
C52 C 0.87051(19) 0.7421(2) 0.71244(7)
H65 H 0.89620 0.75480 0.69820
H66 H 0.84900 0.78190 0.71880
C53 C 0.81791(18) 0.69219(19) 0.70515(6)
H67 H 0.78800 0.68350 0.71890
C54 C 0.51479(19) 0.8447(2) 0.66185(7)
H68 H 0.48830 0.85610 0.64850
C55 C 0.69175(18) 0.79282(19) 0.60395(6)
H69 H 0.73200 0.77100 0.60100
C56 C 0.4309(2) 0.40100(18) 0.70861(6)
H70 H 0.42280 0.36920 0.69540
C57 C 0.72214(19) 0.7363(2) 0.68912(6)
H71 H 0.70430 0.73040 0.70460
C58 C 0.2726(2) 0.5700(2) 0.57518(7)
H72 H 0.27540 0.61760 0.57110
C59 C 0.6927(3) 0.4894(3) 0.68675(8)
H73 H 0.69200 0.51560 0.70070
C60 C 0.2009(2) 0.5478(2) 0.57531(7)
H74 H 0.19860 0.50190 0.58100
H75 H 0.17600 0.57530 0.58670
C61 C 0.7426(3) 0.4985(3) 0.67009(8)
C62 C 0.7420(2) 0.4614(3) 0.64922(8)
H76 H 0.77540 0.46760 0.63760
C63 C 0.1691(2) 0.5524(3) 0.55088(9)
H77 H 0.17150 0.59880 0.54530
C64 C 0.6928(3) 0.4153(3) 0.64522(9)
C65 C 0.2065(2) 0.5098(3) 0.53335(8)
H78 H 0.20480 0.46310 0.53870
C66 C 0.5923(3) 0.4343(3) 0.70134(8)
H79 H 0.59330 0.46150 0.71510
C67 C 0.7934(2) 0.5488(2) 0.67438(8)
H80 H 0.82400 0.55850 0.66210
C68 C 0.2778(2) 0.5323(3) 0.53234(7)
H81 H 0.30220 0.50410 0.52100
H82 H 0.27960 0.57780 0.52630
C69 C 0.38466(18) 0.65959(18) 0.67024(7)
C70 C 0.4917(2) 0.5476(2) 0.56166(8)
C71 C 0.5420(2) 0.50189(19) 0.56372(8)
H83 H 0.53200 0.45760 0.56740
C72 C 0.36419(18) 0.54328(18) 0.64503(6)
H84 H 0.35680 0.50370 0.63650
O13 O 0.05660 0.43230 0.58010
H85 H 0.03920 0.45380 0.59190
H86 H 0.06860 0.45970 0.56900
O14 O 0.8642(5) 0.4093(6) 0.6063(2)
H87 H 0.86690 0.41020 0.62130
C73 C 0.8226(17) 0.4615(15) 0.5983(6)
H88 H 0.81860 0.45980 0.58090
H89 H 0.84150 0.50370 0.60300
H90 H 0.77910 0.45680 0.60550
O15 O 1.0446(3) 0.4973(3) 0.68501(11)
H91 H 1.03260 0.53090 0.69350
H92 H 1.01450 0.48850 0.67460
O16 O 0.8573(10) 0.3009(10) 0.6502(4)
H93 H 0.82120 0.32060 0.65080
C74 C 0.9044(9) 0.3431(9) 0.6447(3)
H94 H 0.89080 0.36910 0.63080
H95 H 0.94460 0.31910 0.64080
H96 H 0.91250 0.37220 0.65820
O17 O 0.8996(10) 0.4061(11) 0.7000(4)
H97 H 0.86040 0.41820 0.69910
C75 C 0.9311(7) 0.4279(7) 0.6818(3)
H98 H 0.90440 0.46070 0.67350
H99 H 0.94080 0.39160 0.67090
H100 H 0.97220 0.44800 0.68700
O18 O 0.9458(13) 0.4895(14) 0.6082(4)
H101 H 0.92170 0.45680 0.60580
C76 C 0.9127(13) 0.5350(12) 0.6235(4)
H102 H 0.91200 0.57830 0.61590
H103 H 0.93570 0.53790 0.63880
H104 H 0.86760 0.52010 0.62620
O19 O 0.5803(6) 0.6612(6) 0.7117(2)
H105 H 0.61500 0.65350 0.71930
C77 C 0.5555(10) 0.6003(10) 0.7014(4)
H106 H 0.58970 0.58000 0.69160
H107 H 0.51720 0.60990 0.69140
H108 H 0.54290 0.57030 0.71420
O20 O 0.9727(5) 0.4467(5) 0.76156(17)
H109 H 0.98830 0.46020 0.74860
C78 C 0.9164(11) 0.4037(13) 0.7568(5)
H110 H 0.93110 0.36500 0.74790
H111 H 0.88380 0.42750 0.74730
H112 H 0.89670 0.38990 0.77190
O21 O 0.4452(12) 0.3492(12) 0.5723(4)
H113 H 0.41790 0.35600 0.56140
C79 C 0.4955(18) 0.3055(19) 0.5638(7)
H114 H 0.51660 0.32750 0.54850
H115 H 0.47810 0.26460 0.55810
H116 H 0.53000 0.30100 0.57490
O22 O 0.6076(2) 0.1946(2) 0.52418(8)
H117 H 0.62330 0.17460 0.51240
C80 C 0.5860(5) 0.1489(5) 0.54136(14)
H118 H 0.60400 0.10560 0.53770
H119 H 0.53800 0.14680 0.54110
H120 H 0.60080 0.16260 0.55720
O23 O 0.4302(5) 0.1159(5) 0.68496(16)
H121 H 0.46590 0.09630 0.68280
C81 C 0.4406(16) 0.1713(15) 0.6988(5)
H122 H 0.43620 0.16000 0.71570
H123 H 0.40830 0.20490 0.69460
H124 H 0.48480 0.18820 0.69580
O24 O 0.6389(5) 0.1698(5) 0.60892(19)
H125 H 0.66320 0.18640 0.61940
C82 C 0.5742(11) 0.1844(12) 0.6140(4)
H126 H 0.57200 0.21190 0.62830
H127 H 0.54990 0.14370 0.61670
H128 H 0.55480 0.20790 0.60040
O25 O 0.7190(3) 0.6143(3) 0.62963(12)
H129 H 0.69680 0.64650 0.63430
C83 C 0.6960(7) 0.5936(7) 0.6081(2)
H130 H 0.72930 0.60140 0.59590
H131 H 0.65610 0.61790 0.60410
H132 H 0.68610 0.54670 0.60890
O26 O 0.5675(4) 0.8070(5) 0.74121(11)
H133 H 0.56010 0.80520 0.75590
C84 C 0.5321(5) 0.8549(5) 0.73161(13)
H134 H 0.54730 0.86320 0.71530
H135 H 0.53720 0.89480 0.74120
H136 H 0.48590 0.84210 0.73130
O27 O 0.4463(2) 0.8087(3) 0.60520(8)
H137 H 0.47570 0.83370 0.60010
C85 C 0.4668(4) 0.7427(4) 0.60274(14)
H138 H 0.50300 0.74040 0.59130
H139 H 0.43010 0.71610 0.59700
H140 H 0.48150 0.72610 0.61820
O28 O 0.4066(2) 0.61925(17) 0.51010(6)
H141 H 0.39610 0.60500 0.52360
C86 C 0.4364(5) 0.5694(3) 0.49702(13)
H142 H 0.42440 0.57370 0.48020
H143 H 0.42150 0.52680 0.50300
H144 H 0.48400 0.57260 0.49870
O29 O 0.1478(3) 0.4571(3) 0.65735(8)
H145 H 0.12920 0.42370 0.65180
C87 C 0.1596(4) 0.5025(4) 0.63857(12)
H146 H 0.13600 0.48850 0.62420
H147 H 0.20670 0.50430 0.63520
H148 H 0.14430 0.54600 0.64340
O30 O 0.56260 0.98220 0.51720
H149 H 0.52330 0.99630 0.52030
H150 H 0.57390 0.95310 0.52780
O31 O 0.2509(2) 0.4360(2) 0.68806(8)
H151 H 0.22160 0.44500 0.67730
H152 H 0.28980 0.44080 0.68200
O32 O 0.5354(2) 0.8753(2) 0.58017(7)
H153 H 0.53750 0.91700 0.58320
H154 H 0.57480 0.85930 0.57940
O33 O 0.83226(17) 0.67919(17) 0.61835(6)
H155 H 0.80820 0.64430 0.61980
H156 H 0.86960 0.67300 0.62550
O34 O 0.6139(5) 0.6181(5) 0.66131(16)
H157 H 0.62680 0.65120 0.66890
C88 C 0.5654(8) 0.6357(8) 0.6462(3)
H158 H 0.58260 0.63780 0.62990
H159 H 0.54840 0.67880 0.65080
H160 H 0.53000 0.60330 0.64700
O35 O 0.2392(8) 0.3239(8) 0.6092(3)
H161 H 0.25520 0.28650 0.61150
C89 C 0.2870(11) 0.3740(11) 0.6160(4)
H162 H 0.28270 0.41190 0.60540
H163 H 0.33140 0.35600 0.61470
H164 H 0.27900 0.38770 0.63250
O36 O 0.5061(8) 0.4587(8) 0.6246(3)
H165 H 0.54150 0.45190 0.61740
C90 C 0.4579(11) 0.4100(11) 0.6173(4)
H166 H 0.46500 0.39860 0.60050
H167 H 0.41370 0.42810 0.61920
H168 H 0.46250 0.37070 0.62710
O37 O 0.33020 0.35010 0.54540
H169 H 0.32790 0.33740 0.56020
H170 H 0.32630 0.31620 0.53610
O38 O 0.4681(3) 0.6676(3) 0.73731(10)
H171 H 0.44780 0.63020 0.73640
H172 H 0.50860 0.66260 0.73280
O39? O 0.85220 0.48380 0.77100
H173? H 0.85680 0.45910 0.75850
H174? H 0.87970 0.51630 0.77020
O40? O 0.9492(16) 0.4214(16) 0.7452(5)
H175? H 0.96610 0.38840 0.75170
C91? C 0.917(1) 0.4624(10) 0.7637(3)
H176? H 0.92750 0.50860 0.76090
H177? H 0.93270 0.44930 0.77950
H178? H 0.86940 0.45620 0.76290
O41? O 0.8512(8) 0.4360(9) 0.6016(3)
H179? H 0.84990 0.40040 0.59300
H180? H 0.88420 0.46000 0.59700
O42? O 0.9666(12) 0.5133(12) 0.6293(4)
H181? H 0.99750 0.52020 0.63880
C92? C 0.9210(19) 0.4696(19) 0.6397(7)
H182? H 0.91500 0.43170 0.62930
H183? H 0.87900 0.49200 0.64190
H184? H 0.93760 0.45490 0.65520
O43? O 0.4046(3) 0.5526(3) 0.73916(11)
H185? H 0.41000 0.52490 0.72760
H186? H 0.43350 0.54510 0.75020
O44? O 0.58650 0.63790 0.70710
H187? H 0.62630 0.62430 0.70950
H188? H 0.57150 0.62100 0.69400
O45? O 0.5161(4) 0.5541(4) 0.72306(13)
H189? H 0.49880 0.53700 0.71030
H190? H 0.53250 0.59230 0.71960
O46? O 0.72520 0.57630 0.60760
H191? H 0.71530 0.53710 0.61250
H192? H 0.69190 0.59310 0.60010
O47? O 0.4610(8) 0.2704(8) 0.6581(3)
H193? H 0.45180 0.23080 0.66040
C93? C 0.5277(11) 0.2840(11) 0.6668(4)
H194? H 0.55960 0.27270 0.65440
H195? H 0.53620 0.25770 0.68110
H196? H 0.53170 0.33060 0.67070
O48? O 0.40240 0.31480 0.64950
H197? H 0.38560 0.32950 0.66270
H198? H 0.42010 0.27660 0.65210
O49? O 0.50840 0.31370 0.65710
H199? H 0.47040 0.33210 0.65930
H200? H 0.51950 0.29220 0.66990
O50? O 0.42420 0.24980 0.67830
H201? H 0.39690 0.21710 0.67790
H202? H 0.46410 0.23510 0.67710
O51? O 0.40050 0.12830 0.68960
H203? H 0.43280 0.11620 0.69880
H204? H 0.36850 0.14290 0.69830
O52? O 0.48900 0.42290 0.62370
H205? H 0.49290 0.42690 0.60830
H206? H 0.47040 0.38560 0.62700
O53? O 0.5369(10) 0.3392(9) 0.5828(3)
H207? H 0.52920 0.37830 0.58650
C94? C 0.5384(13) 0.3337(13) 0.5587(3)
H208? H 0.50260 0.35930 0.55180
H209? H 0.53340 0.28750 0.55420
H210? H 0.58040 0.35020 0.55270
#END
