
#######################################################################
#
#                 Cambridge Crystallographic Data Centre
#                                CCDC
#
#######################################################################
#
# If this CIF has been generated from an entry in the Cambridge
# Structural Database, then it will include bibliographic, chemical,
# crystal, experimental, refinement or atomic coordinate data resulting
# from the CCDC's data processing and validation procedures.
#
#######################################################################

data_CSD_CIF_IYEMIK
_audit_creation_date 2016-10-13
_audit_creation_method CSD-ConQuest-V1
_database_code_CSD IYEMIK
_database_code_depnum_ccdc_archive 'CCDC 1481846'
_chemical_formula_sum 'C329.2 H322.4 Cl32.6 N24 O16.3'
_chemical_formula_moiety
;
C264 H192 N24,16.3(C3 H6 O1),16.3(C1 H2 Cl2)
;
_journal_coden_Cambridge 1220
_journal_volume 22
_journal_year 2016
_journal_page_first 16547
_journal_name_full 'Chem.-Eur.J. '
loop_
_publ_author_name
"P.S.Reiss"
"M.A.Little"
"V.Santolini"
"Samantha Y.Chong"
"T.Hasell"
"K.E.Jelfs"
"M.E.Briggs"
"A.I.Cooper"
_chemical_name_systematic
;
4,10,16,22,28,34,40,46,51,56,61,66(11,12)-dodeca(9,10-ethanoanthracena)-1,7,13
,19,25,31,37,43(1,3,5)-octabenzena-3,5,9,11,15,17,21,23,27,29,33,35,39,41,45,4
7,50,52,55,57,60,62,65,67-tetracosaazapentacyclo[29.17.5.5^7,25^.5^13,43^.5^19
,37^]octahexacontaphane-2,5,8,11,14,17,20,23,26,29,32,35,38,41,44,47,49,52,54,
57,59,62,64,67-tetracosaene acetone dichloromethane solvate
;
_cell_volume  22015.286
_exptl_crystal_colour 'colorless'
_exptl_special_details
;
The solvent stoichiometry reported in the cif and paper doesn't correlate 
with the given chemical formula sum
;
_exptl_crystal_description 'block'
_exptl_crystal_preparation 'dichloromethane/acetone'
_diffrn_ambient_temperature 100
_refine_special_details
;
Disordered solvent molecules were not modelled and the disordered density was 
taken into account using the SQUEEZE/PLATON procedure.
;
#These two values have been output from a single CSD field.
_refine_ls_R_factor_gt 0.0698
_refine_ls_wR_factor_gt 0.0698
_symmetry_cell_setting hexagonal
_symmetry_space_group_name_H-M 'P 3 2 1'
_symmetry_Int_Tables_number 150
loop_
_symmetry_equiv_pos_site_id
_symmetry_equiv_pos_as_xyz
1 x,y,z
2 -y,x-y,z
3 -x+y,-x,z
4 x-y,-y,-z
5 -x,-x+y,-z
6 y,x,-z
_cell_length_a 31.0991(13)
_cell_length_b 31.0991(13)
_cell_length_c 26.2844(13)
_cell_angle_alpha 90
_cell_angle_beta 90
_cell_angle_gamma 120
_cell_formula_units_Z 2
loop_
_atom_type_symbol
_atom_type_radius_bond
C 0.68
H 0.23
N 0.68
loop_
_atom_site_label
_atom_site_type_symbol
_atom_site_fract_x
_atom_site_fract_y
_atom_site_fract_z
N1 N 0.4887(2) 0.5852(2) 0.4806(2)
N2 N 0.42807(17) 0.62868(18) 0.55048(16)
N3 N 0.5890(3) 0.6056(2) 0.2644(2)
N4 N 0.6302(3) 0.7048(2) 0.1905(2)
N5 N 0.3755(3) 0.4189(3) 0.3113(2)
N6 N 0.2742(2) 0.3752(2) 0.2346(2)
N7 N 0.2399(2) 0.4423(2) 0.0172(2)
N8 N 0.2900(3) 0.5335(3) -0.0713(2)
C1 C 0.44700(19) 0.50075(17) 0.32129(18)
C2 C 0.4919(2) 0.5358(2) 0.29998(13)
H1 H 0.50010 0.53140 0.26630
C3 C 0.52491(16) 0.57724(18) 0.3280(2)
C4 C 0.51292(18) 0.58364(16) 0.37727(19)
H2 H 0.53550 0.61200 0.39640
C5 C 0.4680(2) 0.5486(2) 0.39859(13)
C6 C 0.43501(16) 0.50715(18) 0.37060(19)
H3 H 0.40430 0.48320 0.38520
C7 C 0.5736(3) 0.6152(3) 0.3072(3)
H4 H 0.59330 0.64570 0.32450
C8 C 0.4131(3) 0.4560(3) 0.2918(3)
H5 H 0.41970 0.45500 0.25660
C9 C 0.4561(3) 0.5527(3) 0.4521(2)
H6 H 0.42380 0.53080 0.46510
C10 C 0.2204(2) 0.3972(2) 0.19305(16)
C11 C 0.24801(16) 0.4141(2) 0.14850(19)
H7 H 0.28020 0.41770 0.14670
C12 C 0.22853(19) 0.42572(18) 0.10655(15)
C13 C 0.1815(2) 0.4204(2) 0.10915(16)
H8 H 0.16820 0.42840 0.08050
C14 C 0.15390(16) 0.4035(2) 0.1537(2)
C15 C 0.17339(19) 0.3919(2) 0.19565(16)
H9 H 0.15450 0.38030 0.22610
C16 C 0.2560(3) 0.4416(3) 0.0596(3)
H10 H 0.29050 0.45270 0.06170
C17 C 0.2404(3) 0.3849(3) 0.2375(3)
H11 H 0.22680 0.38440 0.27000
C18 C 0.1054(3) 0.3968(3) 0.1558(3)
H12 H 0.09560 0.41250 0.13110
C19 C 0.3326(2) 0.62198(19) 0.5387(2)
H13 H 0.33210 0.59120 0.53770
C20 C 0.3783(2) 0.6662(2) 0.5395(2)
C21 C 0.4250(2) 0.6666(2) 0.5396(2)
H14 H 0.45450 0.69650 0.53110
C22 C 0.3547(5) 0.6379(5) -0.0721(3)
H15 H 0.36920 0.61730 -0.07290
C23 C 0.3038(5) 0.6171(3) -0.0715(3)
C24 C 0.2710(4) 0.5600(4) -0.0692(3)
H16 H 0.23600 0.54520 -0.06620
C25 C 0.4718(2) 0.5833(2) 0.5338(2)
H17 H 0.43600 0.55710 0.53620
C26 C 0.4769(2) 0.6327(2) 0.5484(2)
H18 H 0.49790 0.65830 0.52260
C27 C 0.5021(2) 0.5699(2) 0.5707(2)
H19 H 0.50330 0.53960 0.56000
C28 C 0.5028(2) 0.6489(3) 0.6032(2)
H20 H 0.50290 0.67900 0.61660
C29 C 0.5534(3) 0.6156(3) 0.5755(2)
C30 C 0.5967(3) 0.6152(3) 0.5638(2)
H21 H 0.59630 0.58600 0.55270
C31 C 0.6409(3) 0.6605(4) 0.5693(3)
H22 H 0.67110 0.66210 0.55960
C32 C 0.6429(3) 0.7016(4) 0.5874(3)
H23 H 0.67390 0.73130 0.59190
C33 C 0.5980(3) 0.6999(3) 0.5997(3)
H24 H 0.59850 0.72890 0.61170
C34 C 0.5549(3) 0.6578(3) 0.5946(2)
C35 C 0.4745(3) 0.5628(3) 0.6230(3)
C36 C 0.4506(3) 0.5198(3) 0.6485(3)
H25 H 0.45100 0.49120 0.63630
C37 C 0.4244(3) 0.5170(4) 0.6944(3)
H26 H 0.40740 0.48730 0.71370
C38 C 0.4256(3) 0.5614(4) 0.7094(3)
H27 H 0.40950 0.56150 0.74000
C39 C 0.4488(2) 0.6038(3) 0.6816(3)
H28 H 0.44820 0.63280 0.69200
C40 C 0.4737(2) 0.6037(3) 0.6371(3)
C41 C 0.6316(3) 0.6580(3) 0.1927(3)
H29 H 0.60050 0.63000 0.17810
C42 C 0.6383(3) 0.6468(3) 0.2482(3)
H30 H 0.64680 0.67670 0.26940
C43 C 0.6798(4) 0.6642(3) 0.1625(3)
H31 H 0.68000 0.67530 0.12670
C44 C 0.6810(3) 0.6357(3) 0.2518(3)
H32 H 0.68390 0.62450 0.28670
C45 C 0.7259(3) 0.6824(3) 0.2373(4)
C46 C 0.7662(4) 0.7106(4) 0.2690(3)
H33 H 0.76720 0.69900 0.30210
C47 C 0.8049(3) 0.7559(4) 0.2522(4)
H34 H 0.83240 0.77520 0.27390
C48 C 0.8033(3) 0.7730(3) 0.2038(4)
H35 H 0.82980 0.80400 0.19230
C49 C 0.7631(4) 0.7448(3) 0.1721(3)
H36 H 0.76200 0.75650 0.13900
C50 C 0.7244(3) 0.6995(3) 0.1889(3)
C51 C 0.6720(2) 0.5976(3) 0.2126(3)
C52 C 0.6644(2) 0.5502(3) 0.2213(3)
H37 H 0.66500 0.53960 0.25510
C53 C 0.6561(3) 0.5184(2) 0.1807(4)
H38 H 0.65100 0.48600 0.18670
C54 C 0.6554(3) 0.5339(3) 0.1313(3)
H39 H 0.64970 0.51220 0.10350
C55 C 0.6629(3) 0.5813(3) 0.1225(2)
H40 H 0.66240 0.59190 0.08880
C56 C 0.6712(3) 0.6131(2) 0.1632(3)
C57 C 0.2550(3) 0.4795(3) -0.0693(3)
H41 H 0.22090 0.47320 -0.06140
C58 C 0.2725(3) 0.4578(3) -0.0263(3)
H42 H 0.30620 0.48420 -0.01490
C59 C 0.2541(3) 0.4536(3) -0.1197(2)
H43 H 0.24520 0.46830 -0.14890
C60 C 0.2771(3) 0.4145(3) -0.0478(3)
H44 H 0.28630 0.39780 -0.02100
C61 C 0.3149(2) 0.4358(2) -0.08856(18)
C62 C 0.3608(2) 0.4383(3) -0.0887(2)
H45 H 0.36890 0.42260 -0.06240
C63 C 0.3948(2) 0.4639(3) -0.1271(2)
H46 H 0.42620 0.46570 -0.12720
C64 C 0.3829(2) 0.4869(2) -0.16550(19)
H47 H 0.40610 0.50440 -0.19180
C65 C 0.3369(3) 0.4843(2) -0.16541(19)
H48 H 0.32880 0.50010 -0.19160
C66 C 0.30294(19) 0.4588(2) -0.1269(2)
C67 C 0.2285(2) 0.3794(3) -0.0723(2)
C68 C 0.1970(3) 0.3300(3) -0.0594(2)
H49 H 0.20550 0.31540 -0.03230
C69 C 0.1530(3) 0.3019(2) -0.0860(3)
H50 H 0.13140 0.26810 -0.07720
C70 C 0.1404(2) 0.3233(3) -0.1256(3)
H51 H 0.11040 0.30410 -0.14380
C71 C 0.1719(3) 0.3727(3) -0.1385(2)
H52 H 0.16340 0.38730 -0.16550
C72 C 0.2159(2) 0.4008(2) -0.1118(3)
C73 C 0.3462(3) 0.3772(4) 0.2789(3)
H53 H 0.35750 0.38630 0.24290
C74 C 0.2914(3) 0.3627(3) 0.2831(3)
H54 H 0.28680 0.38060 0.31230
C75 C 0.3516(3) 0.3332(4) 0.2948(3)
H55 H 0.38730 0.34250 0.29750
C76 C 0.2591(3) 0.3062(4) 0.2909(2)
H56 H 0.22280 0.29440 0.28930
C77 C 0.3252(3) 0.3135(2) 0.3433(2)
C78 C 0.3460(2) 0.3075(3) 0.3876(3)
H57 H 0.38030 0.31740 0.38860
C79 C 0.3167(3) 0.2872(3) 0.4306(2)
H58 H 0.33090 0.28310 0.46100
C80 C 0.2666(3) 0.2727(3) 0.4292(2)
H59 H 0.24660 0.25880 0.45860
C81 C 0.2458(2) 0.2786(3) 0.3849(3)
H60 H 0.21150 0.26870 0.38390
C82 C 0.2751(3) 0.2990(3) 0.3419(2)
C83 C 0.3256(3) 0.2959(2) 0.2530(2)
C84 C 0.3456(2) 0.2772(3) 0.2180(3)
H61 H 0.38000 0.28760 0.21900
C85 C 0.3152(3) 0.2433(3) 0.1814(3)
H62 H 0.32890 0.23050 0.15750
C86 C 0.2649(3) 0.2280(3) 0.1799(3)
H63 H 0.24420 0.20480 0.15490
C87 C 0.2450(2) 0.2468(3) 0.2149(3)
H64 H 0.21060 0.23640 0.21380
C88 C 0.2753(3) 0.2807(3) 0.2514(2)
N1A N 0.4148(2) 0.9035(2) 0.4806(2)
N2A N 0.37132(17) 0.79939(18) 0.55048(16)
N3A N 0.3944(3) 0.9834(2) 0.2644(2)
N4A N 0.2952(3) 0.9254(2) 0.1905(2)
N5A N 0.5811(3) 0.9566(3) 0.3113(2)
N6A N 0.6248(2) 0.8990(2) 0.2346(2)
N7A N 0.5577(2) 0.7976(2) 0.0172(2)
N8A N 0.4665(3) 0.7565(3) -0.0713(2)
C1A C 0.49925(19) 0.94625(17) 0.32129(18)
C2A C 0.4642(2) 0.9561(2) 0.29998(13)
H1A H 0.46860 0.96870 0.26630
C3A C 0.42276(16) 0.94767(18) 0.3280(2)
C4A C 0.41636(18) 0.92928(16) 0.37727(19)
H2A H 0.38800 0.92350 0.39640
C5A C 0.4514(2) 0.9194(2) 0.39859(13)
C6A C 0.49285(16) 0.92786(18) 0.37060(19)
H3A H 0.51680 0.92110 0.38520
C7A C 0.3848(3) 0.9584(3) 0.3072(3)
H4A H 0.35430 0.94760 0.32450
C8A C 0.5440(3) 0.9571(3) 0.2918(3)
H5A H 0.54500 0.96470 0.25660
C9A C 0.4473(3) 0.9034(3) 0.4521(2)
H6A H 0.46920 0.89300 0.46510
C10A C 0.6028(2) 0.8232(2) 0.19305(16)
C11A C 0.58590(16) 0.83391(20) 0.14850(19)
H7A H 0.58230 0.86250 0.14670
C12A C 0.57428(19) 0.80281(18) 0.10655(15)
C13A C 0.5796(2) 0.7611(2) 0.10915(16)
H8A H 0.57160 0.73980 0.08050
C14A C 0.59650(16) 0.7504(2) 0.1537(2)
C15A C 0.60810(19) 0.78149(20) 0.19565(16)
H9A H 0.61970 0.77420 0.22610
C16A C 0.5584(3) 0.8144(3) 0.0596(3)
H10A H 0.54730 0.83780 0.06170
C17A C 0.6151(3) 0.8555(3) 0.2375(3)
H11A H 0.61560 0.84240 0.27000
C18A C 0.6032(3) 0.7086(3) 0.1558(3)
H12A H 0.58750 0.68310 0.13110
C19A C 0.37802(20) 0.71062(19) 0.5387(2)
H13A H 0.40880 0.74090 0.53770
C20A C 0.3338(2) 0.7121(2) 0.5395(2)
C21A C 0.3334(2) 0.7584(2) 0.5396(2)
H14A H 0.30350 0.75800 0.53110
C22A C 0.3621(5) 0.7168(5) -0.0721(3)
H15A H 0.38270 0.75190 -0.07290
C23A C 0.3829(5) 0.6867(3) -0.0715(3)
C24A C 0.4400(4) 0.7110(4) -0.0692(3)
H16A H 0.45480 0.69080 -0.06620
C25A C 0.4167(2) 0.8885(2) 0.5338(2)
H17A H 0.44290 0.87890 0.53620
C26A C 0.3673(2) 0.8442(2) 0.5484(2)
H18A H 0.34170 0.83960 0.52260
C27A C 0.4301(2) 0.9322(2) 0.5707(2)
H19A H 0.46040 0.96370 0.56000
C28A C 0.3511(2) 0.8539(3) 0.6032(2)
H20A H 0.32100 0.82390 0.61660
C29A C 0.3844(3) 0.9378(3) 0.5755(2)
C30A C 0.3848(3) 0.9815(3) 0.5638(2)
H21A H 0.41400 1.01030 0.55270
C31A C 0.3395(3) 0.9804(4) 0.5693(3)
H22A H 0.33790 1.00900 0.55960
C32A C 0.2984(3) 0.9413(4) 0.5874(3)
H23A H 0.26870 0.94260 0.59190
C33A C 0.3001(3) 0.8981(3) 0.5997(3)
H24A H 0.27110 0.86960 0.61170
C34A C 0.3422(3) 0.8971(3) 0.5946(2)
C35A C 0.4372(3) 0.9117(3) 0.6230(3)
C36A C 0.4802(3) 0.9308(3) 0.6485(3)
H25A H 0.50880 0.95980 0.63630
C37A C 0.4830(3) 0.9074(4) 0.6944(3)
H26A H 0.51270 0.92010 0.71370
C38A C 0.4386(3) 0.8642(4) 0.7094(3)
H27A H 0.43850 0.84800 0.74000
C39A C 0.3962(2) 0.8450(3) 0.6816(3)
H28A H 0.36720 0.81540 0.69200
C40A C 0.3963(2) 0.8700(3) 0.6371(3)
C41A C 0.3420(3) 0.9736(3) 0.1927(3)
H29A H 0.37000 0.97050 0.17810
C42A C 0.3532(3) 0.9915(3) 0.2482(3)
H30A H 0.32330 0.97010 0.26940
C43A C 0.3358(4) 1.0156(3) 0.1625(3)
H31A H 0.32470 1.00470 0.12670
C44A C 0.3643(3) 1.0453(3) 0.2518(3)
H32A H 0.37550 1.05940 0.28670
C45A C 0.3176(3) 1.0435(3) 0.2373(4)
C46A C 0.2894(4) 1.0556(4) 0.2690(3)
H33A H 0.30100 1.06820 0.30210
C47A C 0.2441(3) 1.0490(4) 0.2522(4)
H34A H 0.22480 1.05720 0.27390
C48A C 0.2270(3) 1.0303(3) 0.2038(4)
H35A H 0.19600 1.02580 0.19230
C49A C 0.2552(4) 1.0183(3) 0.1721(3)
H36A H 0.24350 1.00550 0.13900
C50A C 0.3005(3) 1.0249(3) 0.1889(3)
C51A C 0.4024(2) 1.0744(3) 0.2126(3)
C52A C 0.4498(2) 1.1142(3) 0.2213(3)
H37A H 0.46040 1.12540 0.25510
C53A C 0.4816(3) 1.1377(2) 0.1807(4)
H38A H 0.51400 1.16500 0.18670
C54A C 0.4661(3) 1.1215(3) 0.1313(3)
H39A H 0.48780 1.13750 0.10350
C55A C 0.4187(3) 1.0816(3) 0.1225(2)
H40A H 0.40810 1.07050 0.08880
C56A C 0.3869(3) 1.0581(2) 0.1632(3)
C57A C 0.5205(3) 0.7755(3) -0.0693(3)
H41A H 0.52680 0.74770 -0.06140
C58A C 0.5422(3) 0.8147(3) -0.0263(3)
H42A H 0.51580 0.82200 -0.01490
C59A C 0.5464(3) 0.8005(3) -0.1197(2)
H43A H 0.53170 0.77690 -0.14890
C60A C 0.5855(3) 0.8626(3) -0.0478(3)
H44A H 0.60220 0.88850 -0.02100
C61A C 0.5642(2) 0.8791(2) -0.08856(18)
C62A C 0.5617(2) 0.9225(3) -0.0887(2)
H45A H 0.57740 0.94630 -0.06240
C63A C 0.5361(2) 0.9309(3) -0.1271(2)
H46A H 0.53430 0.96050 -0.12720
C64A C 0.5131(2) 0.8960(2) -0.16550(19)
H47A H 0.49560 0.90170 -0.19180
C65A C 0.5157(3) 0.8526(2) -0.16541(19)
H48A H 0.49990 0.82870 -0.19160
C66A C 0.54120(19) 0.84414(20) -0.1269(2)
C67A C 0.6206(2) 0.8491(3) -0.0723(2)
C68A C 0.6700(3) 0.8670(3) -0.0594(2)
H49A H 0.68460 0.89010 -0.03230
C69A C 0.6981(3) 0.8511(2) -0.0860(3)
H50A H 0.73190 0.86330 -0.07720
C70A C 0.6767(2) 0.8171(3) -0.1256(3)
H51A H 0.69590 0.80630 -0.14380
C71A C 0.6273(3) 0.7992(3) -0.1385(2)
H52A H 0.61270 0.77610 -0.16550
C72A C 0.5992(2) 0.8151(2) -0.1118(3)
C73A C 0.6228(3) 0.9690(4) 0.2789(3)
H53A H 0.61370 0.97120 0.24290
C74A C 0.6373(3) 0.9287(3) 0.2831(3)
H54A H 0.61940 0.90620 0.31230
C75A C 0.6668(3) 1.0184(4) 0.2948(3)
H55A H 0.65750 1.04480 0.29750
C76A C 0.6938(3) 0.9529(4) 0.2909(2)
H56A H 0.70560 0.92840 0.28930
C77A C 0.6865(3) 1.0117(2) 0.3433(2)
C78A C 0.6925(2) 1.0385(3) 0.3876(3)
H57A H 0.68260 1.06290 0.38860
C79A C 0.7128(3) 1.0295(3) 0.4306(2)
H58A H 0.71690 1.04780 0.46100
C80A C 0.7273(3) 0.9939(3) 0.4292(2)
H59A H 0.74120 0.98780 0.45860
C81A C 0.7214(2) 0.9672(3) 0.3849(3)
H60A H 0.73130 0.94280 0.38390
C82A C 0.7010(3) 0.9761(3) 0.3419(2)
C83A C 0.7041(3) 1.0297(2) 0.2530(2)
C84A C 0.7228(2) 1.0684(3) 0.2180(3)
H61A H 0.71240 1.09240 0.21900
C85A C 0.7567(3) 1.0719(3) 0.1814(3)
H62A H 0.76950 1.09840 0.15750
C86A C 0.7720(3) 1.0369(3) 0.1799(3)
H63A H 0.79520 1.03940 0.15490
C87A C 0.7532(2) 0.9982(3) 0.2149(3)
H64A H 0.76360 0.97420 0.21380
C88A C 0.7193(3) 0.9946(3) 0.2514(2)
N1B N 0.0965(2) 0.5113(2) 0.4806(2)
N2B N 0.20061(17) 0.57193(18) 0.55048(16)
N3B N 0.0166(3) 0.4110(2) 0.2644(2)
N4B N 0.0746(3) 0.3698(2) 0.1905(2)
N5B N 0.0434(3) 0.6245(3) 0.3113(2)
N6B N 0.1010(2) 0.7258(2) 0.2346(2)
N7B N 0.2024(2) 0.7601(2) 0.0172(2)
N8B N 0.2435(3) 0.7100(3) -0.0713(2)
C1B C 0.05375(19) 0.55300(17) 0.32129(18)
C2B C 0.0439(2) 0.5081(2) 0.29998(13)
H1B H 0.03130 0.49990 0.26630
C3B C 0.05233(16) 0.47509(18) 0.3280(2)
C4B C 0.07072(18) 0.48708(16) 0.37727(19)
H2B H 0.07650 0.46450 0.39640
C5B C 0.0806(2) 0.5320(2) 0.39859(13)
C6B C 0.07214(16) 0.56499(18) 0.37060(19)
H3B H 0.07890 0.59570 0.38520
C7B C 0.0416(3) 0.4264(3) 0.3072(3)
H4B H 0.05240 0.40670 0.32450
C8B C 0.0429(3) 0.5869(3) 0.2918(3)
H5B H 0.03530 0.58030 0.25660
C9B C 0.0966(3) 0.5439(3) 0.4521(2)
H6B H 0.10700 0.57620 0.46510
C10B C 0.1768(2) 0.7796(2) 0.19305(16)
C11B C 0.16609(16) 0.75199(20) 0.14850(19)
H7B H 0.13750 0.71980 0.14670
C12B C 0.19719(19) 0.77147(18) 0.10655(15)
C13B C 0.2389(2) 0.8185(2) 0.10915(16)
H8B H 0.26020 0.83180 0.08050
C14B C 0.24960(16) 0.8461(2) 0.1537(2)
C15B C 0.21851(19) 0.82661(20) 0.19565(16)
H9B H 0.22580 0.84550 0.22610
C16B C 0.1856(3) 0.7440(3) 0.0596(3)
H10B H 0.16220 0.70950 0.06170
C17B C 0.1445(3) 0.7596(3) 0.2375(3)
H11B H 0.15760 0.77320 0.27000
C18B C 0.2914(3) 0.8946(3) 0.1558(3)
H12B H 0.31690 0.90440 0.13110
C19B C 0.28938(20) 0.66740(19) 0.5387(2)
H13B H 0.25910 0.66790 0.53770
C20B C 0.2879(2) 0.6217(2) 0.5395(2)
C21B C 0.2416(2) 0.5750(2) 0.5396(2)
H14B H 0.24200 0.54550 0.53110
C22B C 0.2832(5) 0.6453(5) -0.0721(3)
H15B H 0.24810 0.63080 -0.07290
C23B C 0.3133(5) 0.6962(3) -0.0715(3)
C24B C 0.2890(4) 0.7290(4) -0.0692(3)
H16B H 0.30920 0.76400 -0.06620
C25B C 0.1115(2) 0.5282(2) 0.5338(2)
H17B H 0.12110 0.56400 0.53620
C26B C 0.1558(2) 0.5231(2) 0.5484(2)
H18B H 0.16040 0.50210 0.52260
C27B C 0.0678(2) 0.4979(2) 0.5707(2)
H19B H 0.03630 0.49670 0.56000
C28B C 0.1461(2) 0.4972(3) 0.6032(2)
H20B H 0.17610 0.49710 0.61660
C29B C 0.0622(3) 0.4466(3) 0.5755(2)
C30B C 0.0185(3) 0.4033(3) 0.5638(2)
H21B H -0.01030 0.40370 0.55270
C31B C 0.0196(3) 0.3591(4) 0.5693(3)
H22B H -0.00900 0.32890 0.55960
C32B C 0.0587(3) 0.3571(4) 0.5874(3)
H23B H 0.05740 0.32610 0.59190
C33B C 0.1019(3) 0.4020(3) 0.5997(3)
H24B H 0.13040 0.40150 0.61170
C34B C 0.1029(3) 0.4451(3) 0.5946(2)
C35B C 0.0883(3) 0.5255(3) 0.6230(3)
C36B C 0.0692(3) 0.5494(3) 0.6485(3)
H25B H 0.04020 0.54900 0.63630
C37B C 0.0926(3) 0.5756(4) 0.6944(3)
H26B H 0.07990 0.59260 0.71370
C38B C 0.1358(3) 0.5744(4) 0.7094(3)
H27B H 0.15200 0.59050 0.74000
C39B C 0.1550(2) 0.5512(3) 0.6816(3)
H28B H 0.18460 0.55180 0.69200
C40B C 0.1300(2) 0.5263(3) 0.6371(3)
C41B C 0.0264(3) 0.3684(3) 0.1927(3)
H29B H 0.02950 0.39950 0.17810
C42B C 0.0085(3) 0.3617(3) 0.2482(3)
H30B H 0.02990 0.35320 0.26940
C43B C -0.0156(4) 0.3202(3) 0.1625(3)
H31B H -0.00470 0.32000 0.12670
C44B C -0.0453(3) 0.3190(3) 0.2518(3)
H32B H -0.05940 0.31610 0.28670
C45B C -0.0435(3) 0.2741(3) 0.2373(4)
C46B C -0.0556(4) 0.2338(4) 0.2690(3)
H33B H -0.06820 0.23280 0.30210
C47B C -0.0490(3) 0.1951(4) 0.2522(4)
H34B H -0.05720 0.16760 0.27390
C48B C -0.0303(3) 0.1967(3) 0.2038(4)
H35B H -0.02580 0.17020 0.19230
C49B C -0.0183(4) 0.2369(3) 0.1721(3)
H36B H -0.00550 0.23800 0.13900
C50B C -0.0249(3) 0.2756(3) 0.1889(3)
C51B C -0.0744(2) 0.3280(3) 0.2126(3)
C52B C -0.1142(2) 0.3356(3) 0.2213(3)
H37B H -0.12540 0.33500 0.25510
C53B C -0.1377(3) 0.3439(2) 0.1807(4)
H38B H -0.16500 0.34900 0.18670
C54B C -0.1215(3) 0.3446(3) 0.1313(3)
H39B H -0.13750 0.35030 0.10350
C55B C -0.0816(3) 0.3371(3) 0.1225(2)
H40B H -0.07050 0.33760 0.08880
C56B C -0.0581(3) 0.3288(2) 0.1632(3)
C57B C 0.2245(3) 0.7450(3) -0.0693(3)
H41B H 0.25230 0.77910 -0.06140
C58B C 0.1853(3) 0.7275(3) -0.0263(3)
H42B H 0.17800 0.69380 -0.01490
C59B C 0.1995(3) 0.7459(3) -0.1197(2)
H43B H 0.22310 0.75480 -0.14890
C60B C 0.1374(3) 0.7229(3) -0.0478(3)
H44B H 0.11150 0.71370 -0.02100
C61B C 0.1209(2) 0.6851(2) -0.08856(18)
C62B C 0.0775(2) 0.6392(3) -0.0887(2)
H45B H 0.05370 0.63110 -0.06240
C63B C 0.0691(2) 0.6052(3) -0.1271(2)
H46B H 0.03950 0.57380 -0.12720
C64B C 0.1040(2) 0.6171(2) -0.16550(19)
H47B H 0.09830 0.59390 -0.19180
C65B C 0.1474(3) 0.6631(2) -0.16541(19)
H48B H 0.17130 0.67120 -0.19160
C66B C 0.15586(19) 0.69706(20) -0.1269(2)
C67B C 0.1509(2) 0.7715(3) -0.0723(2)
C68B C 0.1330(3) 0.8030(3) -0.0594(2)
H49B H 0.10990 0.79450 -0.03230
C69B C 0.1489(3) 0.8470(2) -0.0860(3)
H50B H 0.13670 0.86860 -0.07720
C70B C 0.1829(2) 0.8596(3) -0.1256(3)
H51B H 0.19370 0.88960 -0.14380
C71B C 0.2008(3) 0.8281(3) -0.1385(2)
H52B H 0.22390 0.83660 -0.16550
C72B C 0.1849(2) 0.7841(2) -0.1118(3)
C73B C 0.0310(3) 0.6538(4) 0.2789(3)
H53B H 0.02880 0.64250 0.24290
C74B C 0.0713(3) 0.7086(3) 0.2831(3)
H54B H 0.09380 0.71320 0.31230
C75B C -0.0184(3) 0.6484(4) 0.2948(3)
H55B H -0.04480 0.61270 0.29750
C76B C 0.0471(3) 0.7409(4) 0.2909(2)
H56B H 0.07160 0.77720 0.28930
C77B C -0.0117(3) 0.6748(2) 0.3433(2)
C78B C -0.0385(2) 0.6540(3) 0.3876(3)
H57B H -0.06290 0.61970 0.38860
C79B C -0.0295(3) 0.6833(3) 0.4306(2)
H58B H -0.04780 0.66910 0.46100
C80B C 0.0061(3) 0.7334(3) 0.4292(2)
H59B H 0.01220 0.75340 0.45860
C81B C 0.0328(2) 0.7542(3) 0.3849(3)
H60B H 0.05720 0.78850 0.38390
C82B C 0.0239(3) 0.7249(3) 0.3419(2)
C83B C -0.0297(3) 0.6744(2) 0.2530(2)
C84B C -0.0684(2) 0.6544(3) 0.2180(3)
H61B H -0.09240 0.62000 0.21900
C85B C -0.0719(3) 0.6848(3) 0.1814(3)
H62B H -0.09840 0.67110 0.15750
C86B C -0.0369(3) 0.7351(3) 0.1799(3)
H63B H -0.03940 0.75580 0.15490
C87B C 0.0018(2) 0.7550(3) 0.2149(3)
H64B H 0.02580 0.78940 0.21380
C88B C 0.0054(3) 0.7247(3) 0.2514(2)
#END
