
#######################################################################
#
#                 Cambridge Crystallographic Data Centre
#                                CCDC
#
#######################################################################
#
# If this CIF has been generated from an entry in the Cambridge
# Structural Database, then it will include bibliographic, chemical,
# crystal, experimental, refinement or atomic coordinate data resulting
# from the CCDC's data processing and validation procedures.
#
#######################################################################

data_CSD_CIF_IYEMAC
_audit_creation_date 2016-10-13
_audit_creation_method CSD-ConQuest-V1
_database_code_CSD IYEMAC
_database_code_depnum_ccdc_archive 'CCDC 1481844'
_chemical_formula_sum 'C84.5 H116 Cl1 N12 O3.5'
_chemical_formula_moiety
;
C84 H108 N12,0.5(C1 H2 Cl2),3.5(H2 O1)
;
_journal_coden_Cambridge 1220
_journal_volume 22
_journal_year 2016
_journal_page_first 16547
_journal_name_full 'Chem.-Eur.J. '
loop_
_publ_author_name
"P.S.Reiss"
"M.A.Little"
"V.Santolini"
"Samantha Y.Chong"
"T.Hasell"
"K.E.Jelfs"
"M.E.Briggs"
"A.I.Cooper"
_chemical_name_systematic
;
8,9,23,24,38,39,53,54,65,66,77,78-dodecamethyl-5,12,20,27,35,42,50,57,62,69,74
,81-dodecaazatridecacyclo[29.29.10.10^16,46^.1^3,59^.1^14,18^.1^29,33^.1^44,48
^.0^6,11^.0^21,26^.0^36,41^.0^51,56^.0^63,68^.0^75,80^]tetraoctaconta-1,3(71),
4,12,14(84),15,17,19,27,29(83),30,32,34,42,44(72),45,47,49,57,59,61,69,73,81-t
etracosaene dichloromethane solvate hydrate
;
_cell_volume  18181.074
_exptl_crystal_colour 'colorless'
_exptl_crystal_density_diffrn 1.02
_exptl_crystal_description 'prism'
_exptl_crystal_preparation 'dichloromethane/ethyl acetate'
_diffrn_ambient_temperature 100
_refine_special_details
;
The structure is disordered.

;
#These two values have been output from a single CSD field.
_refine_ls_R_factor_gt 0.1127
_refine_ls_wR_factor_gt 0.1127
_symmetry_cell_setting cubic
_symmetry_space_group_name_H-M 'F 41 3 2'
_symmetry_Int_Tables_number 210
loop_
_symmetry_equiv_pos_site_id
_symmetry_equiv_pos_as_xyz
1 x,y,z
2 -x,-y,z
3 x,-y,-z
4 -x,y,-z
5 z,x,y
6 y,z,x
7 -z,-x,y
8 -y,z,-x
9 z,-x,-y
10 -y,-z,x
11 -z,x,-y
12 y,-z,-x
13 1/4-y,1/4-x,1/4-z
14 1/4+y,1/4+x,1/4-z
15 1/4+y,1/4-x,1/4+z
16 1/4-y,1/4+x,1/4+z
17 1/4-x,1/4-z,1/4-y
18 1/4-z,1/4-y,1/4-x
19 1/4+x,1/4+z,1/4-y
20 1/4-z,1/4+y,1/4+x
21 1/4+x,1/4-z,1/4+y
22 1/4+z,1/4+y,1/4-x
23 1/4-x,1/4+z,1/4+y
24 1/4+z,1/4-y,1/4+x
25 x,1/2+y,1/2+z
26 -x,1/2-y,1/2+z
27 x,1/2-y,1/2-z
28 -x,1/2+y,1/2-z
29 z,1/2+x,1/2+y
30 y,1/2+z,1/2+x
31 -z,1/2-x,1/2+y
32 -y,1/2+z,1/2-x
33 z,1/2-x,1/2-y
34 -y,1/2-z,1/2+x
35 -z,1/2+x,1/2-y
36 y,1/2-z,1/2-x
37 1/4-y,3/4-x,3/4-z
38 1/4+y,3/4+x,3/4-z
39 1/4+y,3/4-x,3/4+z
40 1/4-y,3/4+x,3/4+z
41 1/4-x,3/4-z,3/4-y
42 1/4-z,3/4-y,3/4-x
43 1/4+x,3/4+z,3/4-y
44 1/4-z,3/4+y,3/4+x
45 1/4+x,3/4-z,3/4+y
46 1/4+z,3/4+y,3/4-x
47 1/4-x,3/4+z,3/4+y
48 1/4+z,3/4-y,3/4+x
49 1/2+x,y,1/2+z
50 1/2-x,-y,1/2+z
51 1/2+x,-y,1/2-z
52 1/2-x,y,1/2-z
53 1/2+z,x,1/2+y
54 1/2+y,z,1/2+x
55 1/2-z,-x,1/2+y
56 1/2-y,z,1/2-x
57 1/2+z,-x,1/2-y
58 1/2-y,-z,1/2+x
59 1/2-z,x,1/2-y
60 1/2+y,-z,1/2-x
61 3/4-y,1/4-x,3/4-z
62 3/4+y,1/4+x,3/4-z
63 3/4+y,1/4-x,3/4+z
64 3/4-y,1/4+x,3/4+z
65 3/4-x,1/4-z,3/4-y
66 3/4-z,1/4-y,3/4-x
67 3/4+x,1/4+z,3/4-y
68 3/4-z,1/4+y,3/4+x
69 3/4+x,1/4-z,3/4+y
70 3/4+z,1/4+y,3/4-x
71 3/4-x,1/4+z,3/4+y
72 3/4+z,1/4-y,3/4+x
73 1/2+x,1/2+y,z
74 1/2-x,1/2-y,z
75 1/2+x,1/2-y,-z
76 1/2-x,1/2+y,-z
77 1/2+z,1/2+x,y
78 1/2+y,1/2+z,x
79 1/2-z,1/2-x,y
80 1/2-y,1/2+z,-x
81 1/2+z,1/2-x,-y
82 1/2-y,1/2-z,x
83 1/2-z,1/2+x,-y
84 1/2+y,1/2-z,-x
85 3/4-y,3/4-x,1/4-z
86 3/4+y,3/4+x,1/4-z
87 3/4+y,3/4-x,1/4+z
88 3/4-y,3/4+x,1/4+z
89 3/4-x,3/4-z,1/4-y
90 3/4-z,3/4-y,1/4-x
91 3/4+x,3/4+z,1/4-y
92 3/4-z,3/4+y,1/4+x
93 3/4+x,3/4-z,1/4+y
94 3/4+z,3/4+y,1/4-x
95 3/4-x,3/4+z,1/4+y
96 3/4+z,3/4-y,1/4+x
_cell_length_a 26.295(7)
_cell_length_b 26.295(7)
_cell_length_c 26.295(7)
_cell_angle_alpha 90
_cell_angle_beta 90
_cell_angle_gamma 90
_cell_formula_units_Z 8
loop_
_atom_type_symbol
_atom_type_radius_bond
C 0.68
H 0.23
Cl 0.99
N 0.68
O 0.68
loop_
_atom_site_label
_atom_site_type_symbol
_atom_site_fract_x
_atom_site_fract_y
_atom_site_fract_z
C1 C 0.5492(3) 0.3962(3) 0.6205(3)
H1 H 0.52020 0.38770 0.64040
C2 C 0.5788(3) 0.4379(3) 0.6331(3)
C3 C 0.5675(3) 0.4681(3) 0.6784(3)
H2 H 0.58650 0.49840 0.68370
C4 C 0.5266(3) 0.4885(4) 0.7550(3)
H3 H 0.55210 0.51670 0.75360
C5 C 0.5358(5) 0.4573(4) 0.8037(3)
H4 H 0.51180 0.42830 0.80480
H5 H 0.57080 0.44360 0.80360
C6 C 0.5683(6) 0.5286(7) 0.8585(5)
H6 H 0.55940 0.55040 0.88750
H7 H 0.57200 0.54960 0.82790
H8 H 0.60030 0.51110 0.86550
N1 N 0.5337(3) 0.4563(2) 0.7115(2)
C7 C 0.5279(4) 0.4912(5) 0.8505(4)
H9 H 0.53060 0.46750 0.88020
O1 O 0.4286(3) 0.4286(3) 0.5714(3)
O2 O 0.50000 0.50000 0.5300(11)
O3 O 0.4600(4) 0.37500 0.7100(4)
C8? C 0.5413(10) 0.4353(10) 0.8566(11)
H10? H 0.53860 0.41350 0.88680
H11? H 0.57240 0.45570 0.85880
H12? H 0.54250 0.41400 0.82600
C9? C 0.4900(11) 0.4723(7) 0.7569(7)
H13? H 0.51990 0.44870 0.75540
C10? C 0.5405(10) 0.5383(11) 0.8083(7)
H14? H 0.57040 0.51550 0.81030
H15? H 0.55280 0.57390 0.80880
C11? C 0.43121(19) 0.41275(19) 0.64038(19)
N2? N 0.4564(3) 0.4610(3) 0.7138(3)
C12? C 0.4651(3) 0.4233(3) 0.6849(3)
H16? H 0.49340 0.40180 0.69150
C13? C 0.4431(3) 0.3710(3) 0.6105(3)
H17? H 0.47170 0.35030 0.61840
C14? C 0.5055(11) 0.5289(3) 0.8540(9)
H18? H 0.52630 0.53590 0.88510
Cl1? Cl 0.4205(7) 0.37500 0.6705(7)
C15? C 0.37500 0.37500 0.62500
C1A C 0.4508(3) 0.6038(3) 0.6205(3)
H1A H 0.47980 0.61230 0.64040
C2A C 0.4212(3) 0.5621(3) 0.6331(3)
C3A C 0.4325(3) 0.5319(3) 0.6784(3)
H2A H 0.41350 0.50160 0.68370
C4A C 0.4734(3) 0.5115(4) 0.7550(3)
H3A H 0.44790 0.48330 0.75360
C5A C 0.4642(5) 0.5427(4) 0.8037(3)
H4A H 0.48820 0.57170 0.80480
H5A H 0.42920 0.55640 0.80360
C6A C 0.4317(6) 0.4714(7) 0.8585(5)
H6A H 0.44060 0.44960 0.88750
H7A H 0.42800 0.45040 0.82790
H8A H 0.39970 0.48890 0.86550
N1A N 0.4663(3) 0.5437(2) 0.7115(2)
C7A C 0.4721(4) 0.5088(5) 0.8505(4)
H9A H 0.46940 0.53250 0.88020
C1H C 0.6205(3) 0.4508(3) 0.6038(3)
H1H H 0.64040 0.47980 0.61230
C2H C 0.6331(3) 0.4212(3) 0.5621(3)
C3H C 0.6784(3) 0.4325(3) 0.5319(3)
H2H H 0.68370 0.41350 0.50160
C4H C 0.7550(3) 0.4734(4) 0.5115(3)
H3H H 0.75360 0.44790 0.48330
C5H C 0.8037(5) 0.4642(4) 0.5427(3)
H4H H 0.80480 0.48820 0.57170
H5H H 0.80360 0.42920 0.55640
C6H C 0.8585(6) 0.4317(7) 0.4714(5)
H6H H 0.88750 0.44060 0.44960
H7H H 0.82790 0.42800 0.45040
H8H H 0.86550 0.39970 0.48890
N1H N 0.7115(3) 0.4663(2) 0.5437(2)
C7H C 0.8505(4) 0.4721(5) 0.5088(4)
H9H H 0.88020 0.46940 0.53250
C1I C 0.6038(3) 0.3795(3) 0.5492(3)
H1I H 0.61230 0.35960 0.52020
C2I C 0.5621(3) 0.3669(3) 0.5788(3)
C3I C 0.5319(3) 0.3216(3) 0.5675(3)
H2I H 0.50160 0.31630 0.58650
C4I C 0.5115(3) 0.2450(4) 0.5266(3)
H3I H 0.48330 0.24640 0.55210
C5I C 0.5427(5) 0.1963(4) 0.5358(3)
H4I H 0.57170 0.19520 0.51180
H5I H 0.55640 0.19640 0.57080
C6I C 0.4714(6) 0.1415(7) 0.5683(5)
H6I H 0.44960 0.11250 0.55940
H7I H 0.45040 0.17210 0.57200
H8I H 0.48890 0.13450 0.60030
N1I N 0.5437(3) 0.2885(2) 0.5337(2)
C7I C 0.5088(4) 0.1495(5) 0.5279(4)
H9I H 0.53250 0.11980 0.53060
C1D C 0.6205(3) 0.5492(3) 0.3962(3)
H1D H 0.64040 0.52020 0.38770
C2D C 0.6331(3) 0.5788(3) 0.4379(3)
C3D C 0.6784(3) 0.5675(3) 0.4681(3)
H2D H 0.68370 0.58650 0.49840
C4D C 0.7550(3) 0.5266(4) 0.4885(3)
H3D H 0.75360 0.55210 0.51670
C5D C 0.8037(5) 0.5358(4) 0.4573(3)
H4D H 0.80480 0.51180 0.42830
H5D H 0.80360 0.57080 0.44360
C6D C 0.8585(6) 0.5683(7) 0.5286(5)
H6D H 0.88750 0.55940 0.55040
H7D H 0.82790 0.57200 0.54960
H8D H 0.86550 0.60030 0.51110
N1D N 0.7115(3) 0.5337(2) 0.4563(2)
C7D C 0.8505(4) 0.5279(5) 0.4912(4)
H9D H 0.88020 0.53060 0.46750
C1E C 0.3962(3) 0.6205(3) 0.5492(3)
H1E H 0.38770 0.64040 0.52020
C2E C 0.4379(3) 0.6331(3) 0.5788(3)
C3E C 0.4681(3) 0.6784(3) 0.5675(3)
H2E H 0.49840 0.68370 0.58650
C4E C 0.4885(3) 0.7550(4) 0.5266(3)
H3E H 0.51670 0.75360 0.55210
C5E C 0.4573(5) 0.8037(4) 0.5358(3)
H4E H 0.42830 0.80480 0.51180
H5E H 0.44360 0.80360 0.57080
C6E C 0.5286(6) 0.8585(7) 0.5683(5)
H6E H 0.55040 0.88750 0.55940
H7E H 0.54960 0.82790 0.57200
H8E H 0.51110 0.86550 0.60030
N1E N 0.4563(3) 0.7115(2) 0.5337(2)
C7E C 0.4912(4) 0.8505(5) 0.5279(4)
H9E H 0.46750 0.88020 0.53060
C1G C 0.6038(3) 0.6205(3) 0.4508(3)
H1G H 0.61230 0.64040 0.47980
C2G C 0.5621(3) 0.6331(3) 0.4212(3)
C3G C 0.5319(3) 0.6784(3) 0.4325(3)
H2G H 0.50160 0.68370 0.41350
C4G C 0.5115(3) 0.7550(4) 0.4734(3)
H3G H 0.48330 0.75360 0.44790
C5G C 0.5427(5) 0.8037(4) 0.4642(3)
H4G H 0.57170 0.80480 0.48820
H5G H 0.55640 0.80360 0.42920
C6G C 0.4714(6) 0.8585(7) 0.4317(5)
H6G H 0.44960 0.88750 0.44060
H7G H 0.45040 0.82790 0.42800
H8G H 0.48890 0.86550 0.39970
N1G N 0.5437(3) 0.7115(2) 0.4663(2)
C7G C 0.5088(4) 0.8505(5) 0.4721(4)
H9G H 0.53250 0.88020 0.46940
C1J C 0.3795(3) 0.5492(3) 0.6038(3)
H1J H 0.35960 0.52020 0.61230
C2J C 0.3669(3) 0.5788(3) 0.5621(3)
C3J C 0.3216(3) 0.5675(3) 0.5319(3)
H2J H 0.31630 0.58650 0.50160
C4J C 0.2450(3) 0.5266(4) 0.5115(3)
H3J H 0.24640 0.55210 0.48330
C5J C 0.1963(5) 0.5358(4) 0.5427(3)
H4J H 0.19520 0.51180 0.57170
H5J H 0.19640 0.57080 0.55640
C6J C 0.1415(6) 0.5683(7) 0.4714(5)
H6J H 0.11250 0.55940 0.44960
H7J H 0.17210 0.57200 0.45040
H8J H 0.13450 0.60030 0.48890
N1J N 0.2885(3) 0.5337(2) 0.5437(2)
C7J C 0.1495(4) 0.5279(5) 0.5088(4)
H9J H 0.11980 0.53060 0.53250
C1K C 0.3962(3) 0.3795(3) 0.4508(3)
H1K H 0.38770 0.35960 0.47980
C2K C 0.4379(3) 0.3669(3) 0.4212(3)
C3K C 0.4681(3) 0.3216(3) 0.4325(3)
H2K H 0.49840 0.31630 0.41350
C4K C 0.4885(3) 0.2450(4) 0.4734(3)
H3K H 0.51670 0.24640 0.44790
C5K C 0.4573(5) 0.1963(4) 0.4642(3)
H4K H 0.42830 0.19520 0.48820
H5K H 0.44360 0.19640 0.42920
C6K C 0.5286(6) 0.1415(7) 0.4317(5)
H6K H 0.55040 0.11250 0.44060
H7K H 0.54960 0.17210 0.42800
H8K H 0.51110 0.13450 0.39970
N1K N 0.4563(3) 0.2885(2) 0.4663(2)
C7K C 0.4912(4) 0.1495(5) 0.4721(4)
H9K H 0.46750 0.11980 0.46940
C1B C 0.5492(3) 0.6038(3) 0.3795(3)
H1B H 0.52020 0.61230 0.35960
C2B C 0.5788(3) 0.5621(3) 0.3669(3)
C3B C 0.5675(3) 0.5319(3) 0.3216(3)
H2B H 0.58650 0.50160 0.31630
C4B C 0.5266(3) 0.5115(4) 0.2450(3)
H3B H 0.55210 0.48330 0.24640
C5B C 0.5358(5) 0.5427(4) 0.1963(3)
H4B H 0.51180 0.57170 0.19520
H5B H 0.57080 0.55640 0.19640
C6B C 0.5683(6) 0.4714(7) 0.1415(5)
H6B H 0.55940 0.44960 0.11250
H7B H 0.57200 0.45040 0.17210
H8B H 0.60030 0.48890 0.13450
N1B N 0.5337(3) 0.5437(2) 0.2885(2)
C7B C 0.5279(4) 0.5088(5) 0.1495(4)
H9B H 0.53060 0.53250 0.11980
C1C C 0.4508(3) 0.3962(3) 0.3795(3)
H1C H 0.47980 0.38770 0.35960
C2C C 0.4212(3) 0.4379(3) 0.3669(3)
C3C C 0.4325(3) 0.4681(3) 0.3216(3)
H2C H 0.41350 0.49840 0.31630
C4C C 0.4734(3) 0.4885(4) 0.2450(3)
H3C H 0.44790 0.51670 0.24640
C5C C 0.4642(5) 0.4573(4) 0.1963(3)
H4C H 0.48820 0.42830 0.19520
H5C H 0.42920 0.44360 0.19640
C6C C 0.4317(6) 0.5286(7) 0.1415(5)
H6C H 0.44060 0.55040 0.11250
H7C H 0.42800 0.54960 0.17210
H8C H 0.39970 0.51110 0.13450
N1C N 0.4663(3) 0.4563(2) 0.2885(2)
C7C C 0.4721(4) 0.4912(5) 0.1495(4)
H9C H 0.46940 0.46750 0.11980
C1F C 0.3795(3) 0.4508(3) 0.3962(3)
H1F H 0.35960 0.47980 0.38770
C2F C 0.3669(3) 0.4212(3) 0.4379(3)
C3F C 0.3216(3) 0.4325(3) 0.4681(3)
H2F H 0.31630 0.41350 0.49840
C4F C 0.2450(3) 0.4734(4) 0.4885(3)
H3F H 0.24640 0.44790 0.51670
C5F C 0.1963(5) 0.4642(4) 0.4573(3)
H4F H 0.19520 0.48820 0.42830
H5F H 0.19640 0.42920 0.44360
C6F C 0.1415(6) 0.4317(7) 0.5286(5)
H6F H 0.11250 0.44060 0.55040
H7F H 0.17210 0.42800 0.54960
H8F H 0.13450 0.39970 0.51110
N1F N 0.2885(3) 0.4663(2) 0.4563(2)
C7F C 0.1495(4) 0.4721(5) 0.4912(4)
H9F H 0.11980 0.46940 0.46750
#END
