
#######################################################################
#
#                 Cambridge Crystallographic Data Centre
#                                CCDC
#
#######################################################################
#
# If this CIF has been generated from an entry in the Cambridge
# Structural Database, then it will include bibliographic, chemical,
# crystal, experimental, refinement or atomic coordinate data resulting
# from the CCDC's data processing and validation procedures.
#
#######################################################################

data_CSD_CIF_KENRED
_audit_creation_date 2017-11-22
_audit_creation_method CSD-ConQuest-V1
_database_code_CSD KENRED
_database_code_depnum_ccdc_archive 'CCDC 1571867'
_chemical_formula_sum 'C73.09 H89.96 Cl1.54 N12 O1.89'
_chemical_formula_moiety
;
C72 H84 N12,0.77(C1 H2 Cl2),0.32(C1 H4 O1),1.57(H2 O1)
;
_journal_coden_Cambridge 2054
_journal_volume 3
_journal_year 2018
_journal_page_first 223
_journal_name_full 'MSDE '
loop_
_publ_author_name
"A.G.Slater"
"M.A.Little"
"M.E.Briggs"
"K.E.Jelfs"
"A.I.Cooper"
_chemical_name_systematic
;
5,12,20,27,35,42,50,57,62,69,74,81-dodecaazatridecacyclo[29.29.10.10^16,46^.1^
3,59^.1^14,18^.1^29,33^.1^44,48^.0^6,11^.0^21,26^.0^36,41^.0^51,56^.0^63,68^.0
^75,80^]tetraoctaconta-1,3(71),4,12,14(84),15,17,19,27,29(83),30,32,34,42,44(7
2),45,47,49,57,59,61,69,73,81-tetracosaene dichloromethane methanol solvate 
hydrate
;
_cell_volume  10180.953
_exptl_crystal_colour 'colorless'
_exptl_crystal_density_diffrn 1.196
_exptl_crystal_description 'needle'
_diffrn_ambient_temperature 100
_diffrn_special_details
;
twin

;
_refine_special_details
;
The structure is disordered.

;
#These two values have been output from a single CSD field.
_refine_ls_R_factor_gt 0.0608
_refine_ls_wR_factor_gt 0.0608
_symmetry_cell_setting rhombohedral
_symmetry_space_group_name_H-M 'R -3'
_symmetry_Int_Tables_number 148
loop_
_symmetry_equiv_pos_site_id
_symmetry_equiv_pos_as_xyz
1 x,y,z
2 -y,x-y,z
3 -x+y,-x,z
4 2/3+x,1/3+y,1/3+z
5 2/3-y,1/3+x-y,1/3+z
6 2/3-x+y,1/3-x,1/3+z
7 1/3+x,2/3+y,2/3+z
8 1/3-y,2/3+x-y,2/3+z
9 1/3-x+y,2/3-x,2/3+z
10 -x,-y,-z
11 y,-x+y,-z
12 x-y,x,-z
13 -2/3-x,-1/3-y,-1/3-z
14 -2/3+y,-1/3-x+y,-1/3-z
15 -2/3+x-y,-1/3+x,-1/3-z
16 -1/3-x,-2/3-y,-2/3-z
17 -1/3+y,-2/3-x+y,-2/3-z
18 -1/3+x-y,-2/3+x,-2/3-z
_cell_length_a 24.4830(11)
_cell_length_b 24.4830(11)
_cell_length_c 19.6123(9)
_cell_angle_alpha 90
_cell_angle_beta 90
_cell_angle_gamma 120
_cell_formula_units_Z 6
loop_
_atom_type_symbol
_atom_type_radius_bond
C 0.68
H 0.23
Cl 0.99
N 0.68
O 0.68
loop_
_atom_site_label
_atom_site_type_symbol
_atom_site_fract_x
_atom_site_fract_y
_atom_site_fract_z
N1 N 0.50055(11) 0.37817(11) 0.43084(12)
N2 N 0.41794(11) 0.13029(11) 0.67921(11)
C1 C 0.61608(13) 0.27155(13) 0.74857(14)
N3 N 0.61505(11) 0.50187(10) 0.44399(12)
C2 C 0.47799(13) 0.29132(13) 0.50602(15)
C3 C 0.56386(13) 0.20613(13) 0.75619(14)
H1 H 0.57020 0.17230 0.74300
C4 C 0.44973(12) 0.42954(13) 0.37440(15)
H2 H 0.40880 0.39810 0.39450
H3 H 0.45400 0.41340 0.32960
N4 N 0.51116(11) 0.19401(10) 0.77972(12)
C5 C 0.60536(13) 0.32241(13) 0.74782(14)
H4 H 0.56330 0.31490 0.74680
C6 C 0.56833(13) 0.54914(13) 0.37434(15)
H5 H 0.57020 0.57150 0.41710
H6 H 0.60740 0.57630 0.34840
C7 C 0.48117(14) 0.19698(13) 0.47709(15)
C8 C 0.50282(13) 0.43801(12) 0.42070(14)
H7 H 0.49680 0.45300 0.46600
C9 C 0.49032(14) 0.25587(14) 0.45940(14)
H8 H 0.50510 0.27220 0.41510
C10 C 0.45666(14) 0.26656(14) 0.57096(14)
H9 H 0.44930 0.29080 0.60360
C11 C 0.45062(15) 0.49203(15) 0.36428(17)
H10 H 0.41530 0.48530 0.33410
H11 H 0.44490 0.50750 0.40880
C12 C 0.34029(14) 0.02616(15) 0.83399(16)
H12 H 0.32080 0.04880 0.85570
H13 H 0.30990 -0.01960 0.83720
C13 C 0.48668(14) 0.35403(13) 0.48948(15)
H14 H 0.48150 0.37740 0.52500
C14 C 0.46324(13) 0.12717(13) 0.78770(13)
H15 H 0.47910 0.10050 0.76660
C15 C 0.42450(13) 0.18266(13) 0.65865(15)
H16 H 0.41530 0.20710 0.68920
C16 C 0.45878(14) 0.17257(14) 0.54167(14)
H17 H 0.45220 0.13210 0.55340
C17 C 0.44590(13) 0.20659(13) 0.58898(14)
C18 C 0.35311(14) 0.04508(14) 0.75914(14)
H18 H 0.31340 0.03690 0.73690
H19 H 0.36790 0.01890 0.73600
C19 C 0.45098(15) 0.11126(15) 0.86348(15)
H20 H 0.43650 0.13830 0.88510
H21 H 0.49050 0.11950 0.88610
C20 C 0.40018(16) 0.04105(16) 0.87231(16)
H22 H 0.41660 0.01410 0.85490
H23 H 0.39050 0.03160 0.92140
C21 C 0.56685(13) 0.48749(13) 0.39265(13)
H24 H 0.57670 0.47040 0.35110
C22 C 0.49740(14) 0.16159(14) 0.42731(14)
H25 H 0.50740 0.17640 0.38170
C23 C 0.40275(13) 0.11479(12) 0.75102(13)
H26 H 0.38680 0.14180 0.77110
C24 C 0.51268(14) 0.54083(15) 0.33285(16)
H27 H 0.51580 0.52760 0.28600
H28 H 0.51370 0.58170 0.32980
O1 O 0.6377(2) 0.3590(2) 0.3774(3)
H29? H 0.60450 0.32980 0.36020
C25? C 0.66670 0.33330 0.4172(18)
H30? H 0.63530 0.29230 0.43400
H31? H 0.68660 0.36020 0.45690
H32? H 0.69770 0.32980 0.39190
Cl1? Cl 0.61796(16) 0.2542(2) 0.56259(16)
C26? C 0.66670 0.33330 0.5709(6)
H33? H 0.70070 0.34640 0.53660
H34? H 0.68670 0.34100 0.61640
N1A N 0.62183(11) 0.12238(11) 0.43084(12)
N2A N 0.86971(11) 0.28765(11) 0.67921(11)
C1A C 0.72845(13) 0.34453(13) 0.74857(14)
N3A N 0.49813(11) 0.11318(10) 0.44399(12)
C2A C 0.70868(13) 0.18667(13) 0.50602(15)
C3A C 0.79387(13) 0.35773(13) 0.75619(14)
H1A H 0.82770 0.39790 0.74300
C4A C 0.57046(12) 0.02019(13) 0.37440(15)
H2A H 0.60190 0.01070 0.39450
H3A H 0.58660 0.04060 0.32960
N4A N 0.80599(11) 0.31715(10) 0.77972(12)
C5A C 0.67759(13) 0.28295(13) 0.74782(14)
H4A H 0.68510 0.24840 0.74680
C6A C 0.45086(13) 0.01919(13) 0.37434(15)
H5A H 0.42850 -0.00130 0.41710
H6A H 0.42370 0.03110 0.34840
C7A C 0.80302(14) 0.28419(13) 0.47709(15)
C8A C 0.56199(13) 0.06481(12) 0.42070(14)
H7A H 0.54700 0.04380 0.46600
C9A C 0.74413(14) 0.23445(14) 0.45940(14)
H8A H 0.72780 0.23290 0.41510
C10A C 0.73344(14) 0.19010(14) 0.57096(14)
H9A H 0.70920 0.15850 0.60360
C11A C 0.50797(15) -0.04141(15) 0.36428(17)
H10A H 0.51470 -0.07000 0.33410
H11A H 0.49250 -0.06260 0.40880
C12A C 0.97384(14) 0.31413(15) 0.83399(16)
H12A H 0.95120 0.27200 0.85570
H13A H 1.01960 0.32950 0.83720
C13A C 0.64597(14) 0.13265(13) 0.48948(15)
H14A H 0.62260 0.10410 0.52500
C14A C 0.87283(13) 0.33607(13) 0.78770(13)
H15A H 0.89950 0.37860 0.76660
C15A C 0.81734(13) 0.24184(13) 0.65865(15)
H16A H 0.79290 0.20820 0.68920
C16A C 0.82743(14) 0.28621(14) 0.54167(14)
H17A H 0.86790 0.32010 0.55340
C17A C 0.79341(13) 0.23931(13) 0.58898(14)
C18A C 0.95492(14) 0.30803(14) 0.75914(14)
H18A H 0.96310 0.27650 0.73690
H19A H 0.98110 0.34900 0.73600
C19A C 0.88874(15) 0.33972(15) 0.86348(15)
H20A H 0.86170 0.29820 0.88510
H21A H 0.88050 0.37100 0.88610
C20A C 0.95895(16) 0.35913(16) 0.87231(16)
H22A H 0.98590 0.40250 0.85490
H23A H 0.96840 0.35890 0.92140
C21A C 0.51251(13) 0.07936(13) 0.39265(13)
H24A H 0.52960 0.10630 0.35110
C22A C 0.83841(14) 0.33581(14) 0.42731(14)
H25A H 0.82360 0.33100 0.38170
C23A C 0.88521(13) 0.28796(12) 0.75102(13)
H26A H 0.85820 0.24500 0.77110
C24A C 0.45917(14) -0.02815(15) 0.33285(16)
H27A H 0.47240 -0.01180 0.28600
H28A H 0.41830 -0.06800 0.32980
N1B N 0.87762(11) 0.49945(11) 0.43084(12)
N2B N 0.71235(11) 0.58206(11) 0.67921(11)
C1B C 0.65547(13) 0.38392(13) 0.74857(14)
N3B N 0.88682(11) 0.38495(10) 0.44399(12)
C2B C 0.81333(13) 0.52201(13) 0.50602(15)
C3B C 0.64227(13) 0.43614(13) 0.75619(14)
H1B H 0.60210 0.42980 0.74300
C4B C 0.97981(12) 0.55027(13) 0.37440(15)
H2B H 0.98930 0.59120 0.39450
H3B H 0.95940 0.54600 0.32960
N4B N 0.68285(11) 0.48884(10) 0.77972(12)
C5B C 0.71705(13) 0.39464(13) 0.74782(14)
H4B H 0.75160 0.43670 0.74680
C6B C 0.98081(13) 0.43167(13) 0.37434(15)
H5B H 1.00130 0.42980 0.41710
H6B H 0.96890 0.39260 0.34840
C7B C 0.71581(14) 0.51883(13) 0.47709(15)
C8B C 0.93519(13) 0.49718(12) 0.42070(14)
H7B H 0.95620 0.50320 0.46600
C9B C 0.76555(14) 0.50968(14) 0.45940(14)
H8B H 0.76710 0.49490 0.41510
C10B C 0.80990(14) 0.54334(14) 0.57096(14)
H9B H 0.84150 0.55070 0.60360
C11B C 1.04141(15) 0.54938(15) 0.36428(17)
H10B H 1.07000 0.58470 0.33410
H11B H 1.06260 0.55510 0.40880
C12B C 0.68587(14) 0.65971(15) 0.83399(16)
H12B H 0.72800 0.67920 0.85570
H13B H 0.67050 0.69010 0.83720
C13B C 0.86735(14) 0.51332(13) 0.48948(15)
H14B H 0.89590 0.51850 0.52500
C14B C 0.66393(13) 0.53676(13) 0.78770(13)
H15B H 0.62140 0.52090 0.76660
C15B C 0.75816(13) 0.57550(13) 0.65865(15)
H16B H 0.79180 0.58470 0.68920
C16B C 0.71379(14) 0.54122(14) 0.54167(14)
H17B H 0.67990 0.54780 0.55340
C17B C 0.76069(13) 0.55410(13) 0.58898(14)
C18B C 0.69197(14) 0.64689(14) 0.75914(14)
H18B H 0.72350 0.68660 0.73690
H19B H 0.65100 0.63210 0.73600
C19B C 0.66028(15) 0.54902(15) 0.86348(15)
H20B H 0.70180 0.56350 0.88510
H21B H 0.62900 0.50950 0.88610
C20B C 0.64087(16) 0.59982(16) 0.87231(16)
H22B H 0.59750 0.58340 0.85490
H23B H 0.64110 0.60950 0.92140
C21B C 0.92064(13) 0.43315(13) 0.39265(13)
H24B H 0.89370 0.42330 0.35110
C22B C 0.66419(14) 0.50260(14) 0.42731(14)
H25B H 0.66900 0.49260 0.38170
C23B C 0.71204(13) 0.59725(12) 0.75102(13)
H26B H 0.75500 0.61320 0.77110
C24B C 1.02815(14) 0.48732(15) 0.33285(16)
H27B H 1.01180 0.48420 0.28600
H28B H 1.06800 0.48630 0.32980
#END
