
#######################################################################
#
#                 Cambridge Crystallographic Data Centre
#                                CCDC
#
#######################################################################
#
# If this CIF has been generated from an entry in the Cambridge
# Structural Database, then it will include bibliographic, chemical,
# crystal, experimental, refinement or atomic coordinate data resulting
# from the CCDC's data processing and validation procedures.
#
#######################################################################

data_CSD_CIF_MAGJUC
_audit_creation_date 2016-03-01
_audit_creation_method CSD-ConQuest-V1
_database_code_CSD MAGJUC
_database_code_depnum_ccdc_archive 'CCDC 1437443'
_chemical_formula_sum 'C72 H87 F7.5 N12 O1.5 S1.25'
_chemical_formula_moiety
;
C72 H84 N12,1.25(F6 S1),1.5(H2 O1)
;
_journal_coden_Cambridge 4
_journal_volume 138
_journal_year 2016
_journal_page_first 1653
_journal_name_full 'J.Am.Chem.Soc. '
loop_
_publ_author_name
"T.Hasell"
"M.Miklitz"
"A.Stephenson"
"M.A.Little"
"Samantha Y.Chong"
"R.Clowes"
"Linjiang Chen"
"D.Holden"
"G.A.Tribello"
"K.E.Jelfs"
"A.I.Cooper"
_chemical_name_systematic
;
5,12,20,27,35,42,50,57,62,69,74,81-Dodeca-azatridecacyclo[29.29.10.10^16,46^.1
^3,59^.1^14,18^.1^29,33^.1^44,48^.0^6,11^.0^21,26^.0^36,41^.0^51,56^.0^63,68^.
0^75,80^]tetraoctaconta-1,3(71),4,12,14(84),15,17,19,27,29(83),30,32,34,42,44(
72),45,47,49,57,59,61,69,73,81-tetracosaene sulfur hexafluoride sesquihydrate
;
_cell_volume   3768.377
_exptl_crystal_colour 'colorless'
_exptl_crystal_density_diffrn 1.17
_exptl_crystal_description 'prism'
_diffrn_ambient_temperature 100
_diffrn_special_details
;
twin

;
_refine_special_details
;
The structure is disordered.

;
#These two values have been output from a single CSD field.
_refine_ls_R_factor_gt 0.0894
_refine_ls_wR_factor_gt 0.0894
_symmetry_cell_setting triclinic
_symmetry_space_group_name_H-M 'P 1'
_symmetry_Int_Tables_number 1
loop_
_symmetry_equiv_pos_site_id
_symmetry_equiv_pos_as_xyz
1 x,y,z
_cell_length_a 17.385(5)
_cell_length_b 17.425(6)
_cell_length_c 17.479(6)
_cell_angle_alpha 60.384(3)
_cell_angle_beta 60.308(3)
_cell_angle_gamma 60.168(3)
_cell_formula_units_Z 2
loop_
_atom_type_symbol
_atom_type_radius_bond
C 0.68
H 0.23
F 0.64
N 0.68
O 0.68
S 1.02
loop_
_atom_site_label
_atom_site_type_symbol
_atom_site_fract_x
_atom_site_fract_y
_atom_site_fract_z
S1 S 0.9241(3) 0.8736(3) 0.1224(3)
F1 F 0.9830(8) 0.9381(8) 0.0607(8)
F2 F 0.9825(8) 0.8160(8) 0.1838(8)
F3 F 0.9866(8) 0.8130(8) 0.0619(7)
F4 F 0.8615(8) 0.8150(8) 0.1827(7)
F5 F 0.8588(7) 0.9344(7) 0.0629(7)
F6 F 0.8595(9) 0.9357(8) 0.1837(7)
S2 S 0.6762(3) 0.6239(3) 0.8700(3)
F7 F 0.7349(9) 0.6866(9) 0.8124(10)
F8 F 0.6146(8) 0.6848(8) 0.8069(8)
F9 F 0.6125(8) 0.5607(8) 0.9321(9)
F10 F 0.7366(9) 0.5609(8) 0.8086(8)
F11 F 0.6120(9) 0.6831(9) 0.9358(9)
F12 F 0.7336(9) 0.5632(9) 0.9360(9)
N1 N 1.1257(5) 1.1152(5) -0.1754(5)
N2 N 1.1283(5) 1.1008(5) -0.0034(5)
N3 N 0.7810(5) 1.0725(5) -0.1778(5)
N4 N 1.1683(5) 0.7268(5) -0.1757(5)
C1 C 0.9641(6) 0.9389(6) -0.1706(6)
H1 H 0.92310 0.91760 -0.17020
C2 C 0.9939(6) 1.0595(5) -0.1709(6)
H2 H 0.97310 1.12110 -0.17040
C3 C 0.8377(6) 1.0925(5) -0.1702(5)
H3 H 0.81670 1.15110 -0.16300
N5 N 0.7457(6) 1.1188(5) 0.3502(6)
C4 C 1.1466(6) 1.0319(6) -0.1691(5)
H4 H 1.20590 0.98760 -0.16330
N6 N 0.6206(5) 1.0788(5) -0.0113(5)
N7 N 0.6266(6) 0.6998(5) 0.3483(5)
N8 N 1.1658(6) 0.5803(5) 0.3514(5)
N9 N 1.1507(5) 0.5709(5) -0.0051(5)
C5 C 0.9327(6) 1.0302(6) -0.1721(6)
C6 C 1.1139(6) 0.9110(6) -0.1706(6)
H5 H 1.17620 0.87130 -0.17130
N10 N 1.1180(5) 0.7536(5) 0.3762(5)
C7 C 1.1988(7) 0.6718(6) 0.3934(6)
H6 H 1.25490 0.67530 0.33540
C8 C 1.1896(6) 0.6343(5) -0.1751(5)
H7 H 1.13230 0.62730 -0.16760
N11 N 0.5975(6) 1.0721(5) 0.3687(6)
N12 N 0.8011(5) 0.5544(6) 0.3707(5)
C9 C 1.0844(6) 0.7832(6) -0.1688(5)
H8 H 1.03950 0.76290 -0.16270
C10 C 0.9017(7) 1.0146(6) 0.2985(6)
C11 C 0.9670(7) 0.9254(6) 0.3267(6)
H9 H 0.94880 0.88270 0.38750
C12 C 1.1951(6) 1.1362(6) -0.1715(6)
H10 H 1.25170 1.07920 -0.16390
C13 C 1.0626(7) 0.5811(6) 0.2980(6)
C14 C 1.0550(6) 0.8780(6) -0.1698(5)
C15 C 1.0822(6) 1.0014(5) -0.1705(6)
C16 C 0.6254(7) 0.9205(7) 0.3204(6)
H11 H 0.62620 0.90330 0.38080
C17 C 0.9267(7) 1.0741(7) 0.2102(7)
H12 H 0.88150 1.13300 0.19080
C18 C 1.1253(7) 0.5846(6) 0.2085(6)
H13 H 1.18440 0.59030 0.18910
C19 C 1.0185(6) 1.0500(6) 0.1467(7)
C20 C 0.5785(7) 1.1541(6) 0.3877(7)
H14 H 0.58060 1.20850 0.32840
C21 C 1.2683(7) 0.6199(6) -0.2660(7)
H15 H 1.24510 0.66370 -0.31950
H16 H 1.32190 0.63340 -0.27540
C22 C 0.6878(6) 1.1404(5) -0.1769(6)
H17 H 0.67920 1.19670 -0.16760
C23 C 1.0562(6) 0.9001(6) 0.2668(6)
C24 C 0.6547(6) 1.1344(6) 0.4221(6)
H18 H 0.65620 1.07700 0.47870
C25 C 1.0828(6) 0.9622(6) 0.1752(6)
H19 H 1.14450 0.94400 0.13320
C26 C 1.0451(6) 1.1154(6) 0.0533(6)
H20 H 0.99770 1.17190 0.03400
C27 C 0.9500(6) 0.5725(6) 0.2623(5)
C28 C 1.0122(6) 0.5756(6) 0.1730(6)
H21 H 0.99470 0.57520 0.12970
C29 C 1.2260(6) 0.5630(6) -0.0926(6)
H22 H 1.27950 0.57490 -0.09830
C30 C 1.0992(6) 0.5794(6) 0.1467(6)
C31 C 0.6783(7) 1.1687(7) -0.2710(7)
H23 H 0.69500 1.11170 -0.28320
H24 H 0.72280 1.20220 -0.32130
C32 C 1.1297(6) 0.8104(6) 0.2931(7)
H25 H 1.18820 0.79440 0.24610
C33 C 1.2123(7) 1.2108(7) -0.0898(8)
H26 H 1.17940 1.23760 -0.03890
H27 H 1.26950 1.15800 -0.07830
C34 C 1.1484(6) 1.1745(5) -0.0892(6)
H28 H 1.08820 1.22680 -0.09490
C35 C 0.9762(7) 0.5774(6) 0.3250(6)
H29 H 0.93310 0.57810 0.38570
C36 C 0.6290(6) 0.9968(6) 0.0478(6)
H30 H 0.63600 0.94930 0.03050
C37 C 0.6171(6) 1.0961(5) -0.1000(6)
H31 H 0.63130 1.03540 -0.10520
C38 C 0.6299(6) 0.8541(6) 0.2943(6)
C39 C 1.2577(7) 0.4644(6) -0.0907(6)
H32 H 1.20390 0.45230 -0.08300
H33 H 1.27970 0.41950 -0.03670
C40 C 0.7199(6) 0.5341(6) 0.3896(7)
H34 H 0.72420 0.53120 0.33180
C41 C 1.3006(7) 0.5188(7) -0.2614(7)
H35 H 1.24720 0.50640 -0.25420
H36 H 1.35070 0.51040 -0.32060
C42 C 1.2216(7) 1.2150(7) -0.2645(7)
H37 H 1.25440 1.19080 -0.31740
H38 H 1.16390 1.26800 -0.27430
C43 C 0.6243(6) 1.0353(6) 0.1694(6)
H39 H 0.62460 1.09620 0.12670
C44 C 0.8605(6) 0.5649(6) 0.2881(6)
H40 H 0.84510 0.56780 0.24140
C45 C 0.6310(7) 0.7620(7) 0.3607(6)
H41 H 0.63530 0.74730 0.41870
C46 C 0.6199(7) 1.0108(6) 0.2598(7)
C47 C 0.6283(6) 0.9719(6) 0.1413(6)
C48 C 1.1669(6) 0.5812(6) 0.0531(6)
H42 H 1.22400 0.59020 0.03490
C49 C 1.1805(6) 0.5800(5) 0.4268(5)
H43 H 1.12270 0.57830 0.48310
C50 C 1.2865(7) 1.2491(7) -0.2608(8)
H44 H 1.34550 1.19670 -0.25450
H45 H 1.30260 1.29970 -0.31970
C51 C 1.2168(8) 0.6717(6) 0.4710(7)
H46 H 1.22890 0.72980 0.45070
H47 H 1.16020 0.67040 0.52750
C52 C 0.8077(7) 1.0372(6) 0.3639(6)
H48 H 0.79100 0.98880 0.42020
C53 C 0.6331(7) 1.2172(7) 0.4473(7)
H49 H 0.63730 1.27280 0.39030
H50 H 0.68040 1.20190 0.47310
C54 C 1.0852(6) 0.5864(6) 0.3666(6)
H51 H 1.03710 0.59470 0.42330
C55 C 0.6316(7) 0.8802(6) 0.2033(6)
H52 H 0.63480 0.83620 0.18390
C56 C 1.2638(7) 0.4954(6) 0.4512(6)
H53 H 1.25050 0.43740 0.47350
H54 H 1.32010 0.49510 0.39440
C57 C 1.3004(8) 0.5873(6) 0.4943(8)
H55 H 1.31030 0.58840 0.54480
H56 H 1.35770 0.59020 0.43880
C58 C 0.6106(7) 1.0843(6) 0.2872(7)
H57 H 0.61480 1.14290 0.24070
C59 C 0.5431(7) 0.5872(7) 0.4444(7)
H58 H 0.48470 0.63510 0.46780
H59 H 0.54290 0.58880 0.38700
C60 C 0.4608(7) 1.2587(9) 0.4830(9)
H60 H 0.39800 1.27060 0.53110
H61 H 0.45940 1.31550 0.42690
C61 C 1.3373(7) 0.4491(7) -0.1808(7)
H62 H 1.39240 0.45910 -0.18830
H63 H 1.35690 0.38430 -0.17860
C62 C 0.5170(7) 1.1600(7) -0.1015(7)
H64 H 0.47200 1.12710 -0.05130
H65 H 0.50060 1.21730 -0.08980
C63 C 0.4813(8) 1.1784(9) 0.4591(8)
H66 H 0.43350 1.19370 0.43390
H67 H 0.47700 1.12310 0.51640
C64 C 1.2399(7) 1.2843(7) -0.1813(9)
H68 H 1.18320 1.33940 -0.19000
H69 H 1.28320 1.30470 -0.18020
C65 C 0.5452(8) 0.4906(8) 0.5178(8)
H70 H 0.49280 0.47530 0.52720
H71 H 0.53630 0.49160 0.57790
C66 C 0.6283(6) 0.6105(6) 0.4209(6)
H72 H 0.62520 0.61370 0.47790
C67 C 0.5775(8) 1.2323(7) -0.2720(8)
H73 H 0.56320 1.29260 -0.26720
H74 H 0.57260 1.24560 -0.33180
C68 C 0.5344(8) 1.2402(8) 0.5193(8)
H75 H 0.53190 1.18720 0.57860
H76 H 0.52060 1.29620 0.53170
C69 C 0.5089(6) 1.1870(6) -0.1940(8)
H77 H 0.51910 1.13030 -0.20280
H78 H 0.44460 1.23050 -0.19410
C70 C 0.6391(7) 0.4145(7) 0.4883(8)
H79 H 0.64120 0.35380 0.53960
H80 H 0.64420 0.40710 0.43310
C71 C 1.2837(8) 0.4964(7) 0.5253(7)
H81 H 1.34000 0.44220 0.53720
H82 H 1.22990 0.49070 0.58410
C72 C 0.7215(8) 0.4416(7) 0.4647(7)
H83 H 0.71870 0.44430 0.52140
H84 H 0.78130 0.39300 0.44440
N13 N 0.4213(6) 0.9341(6) 1.0099(6)
N14 N 0.4557(6) 0.7422(5) 0.6560(6)
N15 N 0.7996(5) 0.9347(5) 0.6651(6)
N16 N 0.8432(6) 0.3984(5) 0.6330(6)
N17 N 0.9967(6) 0.3899(6) 0.6638(6)
N18 N 0.4567(5) 0.9171(5) 0.6346(5)
N19 N 0.4813(6) 0.3667(6) 1.0054(7)
C73 C 0.6237(6) 0.9197(6) 0.8015(7)
H85 H 0.66580 0.91890 0.82170
C74 C 1.0062(8) 0.3681(6) 0.5880(7)
H86 H 0.99700 0.42730 0.53420
N20 N 0.9850(6) 0.4197(6) 1.0186(6)
C75 C 0.4383(7) 0.9116(7) 0.7147(7)
H87 H 0.38020 0.90370 0.75990
N21 N 0.9743(6) 0.7760(6) 0.6466(6)
C76 C 0.5023(7) 0.9165(6) 0.7441(7)
C77 C 0.7476(7) 0.9235(6) 0.6457(7)
H88 H 0.76890 0.91660 0.58710
C78 C 0.6521(7) 0.9202(6) 0.7118(7)
C79 C 0.5037(7) 0.9223(7) 0.9554(7)
H89 H 0.54970 0.91400 0.97580
C80 C 0.9726(7) 0.4033(7) 0.9648(7)
H90 H 0.96360 0.34590 0.98510
C81 C 0.5911(7) 0.9176(7) 0.6843(7)
H91 H 0.61120 0.91660 0.62330
C82 C 0.4744(7) 0.9183(7) 0.8324(7)
H92 H 0.41300 0.91790 0.87410
C83 C 0.5339(7) 0.9205(7) 0.8611(6)
C84 C 0.6272(8) 0.4178(6) 0.8302(8)
H93 H 0.64730 0.35720 0.87250
C85 C 0.5378(7) 0.6893(6) 0.6408(6)
H94 H 0.58330 0.70940 0.58300
C86 C 0.5349(8) 0.4774(7) 0.8595(8)
C87 C 0.9727(7) 0.4427(6) 0.8074(6)
H95 H 0.97210 0.38160 0.82610
C88 C 0.4664(8) 0.4491(6) 0.9500(8)
H96 H 0.40770 0.49520 0.96800
C89 C 0.9711(7) 0.4704(7) 0.8698(7)
C90 C 0.6610(7) 0.5350(6) 0.6794(7)
H97 H 0.70340 0.55430 0.61860
C91 C 0.9821(7) 0.4747(6) 0.6482(6)
H98 H 0.97570 0.52020 0.59010
C92 C 0.9704(7) 0.5615(7) 0.8420(7)
H99 H 0.97110 0.57990 0.88440
C93 C 0.3878(7) 0.9124(6) 0.6138(6)
H100 H 0.33200 0.90470 0.67140
C94 C 0.9650(7) 0.7201(7) 0.7288(8)
H101 H 0.95550 0.74000 0.77560
C95 C 0.5058(8) 0.5677(7) 0.7968(7)
H102 H 0.44350 0.60910 0.81500
C96 C 0.3655(9) 0.8279(7) 0.5510(9)
H103 H 0.30950 0.81700 0.60560
H104 H 0.39750 0.77490 0.52690
C97 C 0.8902(7) 0.9426(7) 0.5922(7)
H105 H 0.89690 0.93440 0.53630
C98 C 0.9389(8) 0.3274(7) 0.6158(8)
H106 H 0.94250 0.27200 0.67380
C99 C 0.4059(9) 0.3477(8) 1.0884(10)
H107 H 0.34910 0.40540 1.08650
C100 C 0.9751(6) 0.5036(7) 0.7172(7)
N22 N 0.4470(7) 0.7652(9) 1.1679(7)
C101 C 0.7870(8) 0.3794(6) 0.7122(8)
H108 H 0.80680 0.32020 0.75640
C102 C 0.6891(8) 0.4439(7) 0.7431(7)
C103 C 0.4310(7) 0.8313(6) 0.5807(7)
H109 H 0.48960 0.83720 0.52640
C104 C 1.1101(9) 0.3004(9) 0.5580(8)
H110 H 1.15470 0.33340 0.53260
H111 H 1.12290 0.24550 0.61300
C105 C 0.9685(7) 0.6249(7) 0.7540(7)
C106 C 0.9737(7) 0.5933(7) 0.6907(7)
H112 H 0.97630 0.63430 0.62890
C107 C 0.5688(8) 0.5961(7) 0.7080(7)
C108 C 0.9699(7) 0.8700(7) 0.6274(8)
H113 H 0.96050 0.87540 0.68600
C109 C 0.3972(7) 0.9387(8) 1.0996(8)
H114 H 0.45390 0.93740 1.10240
N23 N 0.8107(8) 0.3991(9) 1.1722(6)
C110 C 0.3726(9) 0.8499(11) 1.1765(8)
H115 H 0.31960 0.84950 1.16870
C111 C 0.9512(11) 0.2986(10) 0.5396(12)
H116 H 0.93760 0.35480 0.48570
H117 H 0.90730 0.26510 0.56380
C112 C 1.0683(10) 0.3223(10) 1.1321(11)
H118 H 1.07360 0.38060 1.12260
H119 H 1.12520 0.29190 1.08800
C113 C 0.3577(8) 1.0050(7) 0.5388(9)
H120 H 0.41380 1.01660 0.48470
H121 H 0.32490 1.05730 0.56400
C114 C 1.1238(10) 0.2679(10) 0.4843(10)
H122 H 1.12280 0.32160 0.42570
H123 H 1.18670 0.21960 0.47190
C115 C 0.3386(12) 0.8493(14) 1.2749(10)
H124 H 0.31820 0.79420 1.31950
H125 H 0.39110 0.84360 1.28760
C116 C 0.8918(10) 1.0394(9) 0.5655(11)
H126 H 0.84180 1.08750 0.53790
H127 H 0.87790 1.04990 0.62250
C117 C 0.2600(12) 0.9351(15) 1.2890(11)
H128 H 0.20590 0.93750 1.28160
H129 H 0.24090 0.93230 1.35370
N24 N 0.4433(9) 0.3983(9) 1.1683(8)
C118 C 0.6559(10) 0.5044(12) 1.1619(9)
C119 C 0.4303(11) 0.7043(11) 1.1615(9)
H130 H 0.37170 0.71890 1.15760
C120 C 1.0575(10) 0.2316(9) 0.5082(10)
H131 H 1.06630 0.17140 0.55990
H132 H 1.06840 0.21820 0.45420
C121 C 0.2905(11) 1.0002(8) 0.5071(10)
H133 H 0.23160 0.99540 0.55990
H134 H 0.27430 1.05850 0.45590
C122 C 0.3346(11) 0.9192(10) 0.4751(11)
H135 H 0.38980 0.92720 0.41820
H136 H 0.28920 0.91610 0.45910
C123 C 0.3183(9) 1.0259(11) 1.1168(12)
H137 H 0.26560 1.03580 1.10150
H138 H 0.34000 1.08060 1.07590
C124 C 0.9825(9) 0.3456(7) 1.1127(8)
H139 H 0.98140 0.28820 1.11370
C125 C 0.3837(9) 0.2676(9) 1.0953(13)
H140 H 0.37940 0.28310 1.03460
H141 H 0.43800 0.20940 1.10380
C126 C 0.5883(11) 0.5894(12) 1.1629(9)
H142 H 0.60290 0.63360 1.16560
C127 C 0.5444(10) 0.4549(10) 1.1608(10)
C128 C 0.2816(10) 1.017(1) 1.2273(12)
H143 H 0.33100 1.01810 1.23920
H144 H 0.22500 1.07190 1.23890
C129 C 0.3484(15) 0.2952(13) 1.2615(14)
H145 H 0.29300 0.35260 1.26670
H146 H 0.36690 0.26700 1.31740
C130 C 0.895(1) 0.3847(9) 1.1839(8)
H147 H 0.89330 0.44520 1.17880
C131 C 0.4823(11) 0.5423(11) 1.1603(9)
H148 H 0.42210 0.55690 1.15980
C132 C 0.6317(12) 0.4347(10) 1.1625(9)
H149 H 0.67690 0.37400 1.16420
C133 C 0.2988(13) 0.2472(13) 1.1685(16)
H150 H 0.29230 0.19370 1.16870
H151 H 0.24130 0.30250 1.16330
C134 C 1.0621(11) 0.2542(11) 1.2358(11)
H152 H 1.06200 0.19390 1.24380
H153 H 1.11790 0.24130 1.24810
C135 C 0.5001(9) 0.6161(11) 1.1604(8)
C136 C 0.4311(10) 0.3207(9) 1.1719(10)
H154 H 0.49020 0.26540 1.17250
C137 C 1.0626(8) 0.8835(9) 0.5549(12)
H155 H 1.07280 0.87670 0.49730
H156 H 1.11480 0.83470 0.57880
C138 C 0.3221(14) 0.2220(13) 1.2556(13)
H157 H 0.37540 0.16220 1.26050
H158 H 0.26730 0.20990 1.31140
C139 C 0.5205(11) 0.3867(9) 1.1632(8)
H159 H 0.56810 0.32790 1.16080
C140 C 0.8895(12) 0.3148(13) 1.2838(10)
H160 H 0.88810 0.25580 1.29000
H161 H 0.83180 0.34180 1.32980
C141 C 0.9785(12) 0.2952(12) 1.3013(11)
H162 H 0.97940 0.35460 1.29460
H163 H 0.97610 0.25220 1.36560
C142 C 0.7494(11) 0.4777(14) 1.1690(8)
H164 H 0.76230 0.52340 1.17110
C143 C 0.9845(11) 1.0509(10) 0.4974(12)
H165 H 0.99570 1.04610 0.43840
H166 H 0.98250 1.11410 0.48370
C144 C 1.0619(11) 0.9808(11) 0.5325(13)
H167 H 1.05370 0.98750 0.58940
H168 H 1.12220 0.98920 0.48500
S3 S 0.7875(12) 1.2475(12) 0.0045(12)
F13 F 0.746(2) 1.204(2) -0.017(2)
F14 F 0.830(2) 1.291(2) 0.025(2)
F15 F 0.8734(18) 1.1569(17) 0.010(2)
F16 F 0.838(2) 1.286(2) -0.1007(15)
F17 F 0.738(2) 1.207(2) 0.1087(15)
F18 F 0.7020(18) 1.3372(17) -0.002(2)
O1 O 0.6596(13) 1.2194(10) -0.0029(12)
S4 S 0.7996(15) 0.7370(13) 0.0089(13)
F19 F 0.9069(17) 0.691(2) -0.010(2)
F20 F 0.800(2) 0.8189(18) 0.018(2)
F21 F 0.817(2) 0.786(2) -0.0959(16)
F22 F 0.785(2) 0.683(2) 0.1134(16)
F23 F 0.800(2) 0.6524(18) 0.000(2)
F24 F 0.6937(16) 0.779(2) 0.029(2)
O2 O 0.7989(16) 0.8865(14) -0.1523(16)
S5 S 0.7952(15) 0.7519(15) 0.5014(15)
F25 F 0.8995(17) 0.718(2) 0.459(2)
F26 F 0.796(3) 0.672(2) 0.592(2)
F27 F 0.803(3) 0.810(2) 0.541(2)
F28 F 0.787(3) 0.840(2) 0.413(2)
F29 F 0.781(3) 0.701(2) 0.463(2)
F30 F 0.6858(17) 0.794(2) 0.545(2)
S6 S 1.2956(19) 0.7449(17) 0.0089(17)
F31 F 1.204(2) 0.743(3) 0.016(3)
F32 F 1.343(3) 0.641(2) 0.023(3)
F33 F 1.257(3) 0.726(3) 0.1158(19)
F34 F 1.246(3) 0.854(2) -0.005(3)
F35 F 1.331(3) 0.770(3) -0.0978(19)
F36 F 1.384(2) 0.752(3) 0.002(3)
O3 O 1.3162(11) 0.7446(10) -0.1638(13)
O4? O 0.9491(12) 1.2560(13) -0.1571(15)
O5? O 0.9709(13) 0.5978(15) 0.0049(12)
O6? O 1.2692(10) 0.9158(10) 0.0009(11)
#END
