
#######################################################################
#
#                 Cambridge Crystallographic Data Centre
#                                CCDC
#
#######################################################################
#
# If this CIF has been generated from an entry in the Cambridge
# Structural Database, then it will include bibliographic, chemical,
# crystal, experimental, refinement or atomic coordinate data resulting
# from the CCDC's data processing and validation procedures.
#
#######################################################################

data_CSD_CIF_PAWSIS
_audit_creation_date 2017-06-21
_audit_creation_method CSD-ConQuest-V1
_database_code_CSD PAWSIS
_database_code_depnum_ccdc_archive 'CCDC 1525791'
_chemical_formula_sum 'C56 H87 N1 O43'
_chemical_formula_moiety
;
C56 H83 N1 O41,2(H2 O1)
;
_journal_coden_Cambridge 182
_journal_volume 53
_journal_year 2017
_journal_page_first 7561
_journal_name_full 'Chem.Commun. '
loop_
_publ_author_name
"K.J.Hartlieb"
"A.W.Peters"
"T.C.Wang"
"P.Deria"
"O.K.Farha"
"J.T.Hupp"
"J.F.Stoddart"
_chemical_name_systematic
;
2-((41,42,43,44,45,46,47,48,49,50,51,52,53,54,55,56-hexadecahydroxy-10,15,20,2
5,30,35,40-heptakis(hydroxymethyl)-2,4,7,9,12,14,17,19,22,24,27,29,32,34,37,39
-hexadecaoxanonacyclo[36.2.2.2^3,6^.2^8,11^.2^13,16^.2^18,21^.2^23,26^.2^28,31
^.2^33,36^]hexapentacontan-5-yl)methyl)-1H-isoindole-1,3(2H)-dione unknown 
solvate dihydrate
;
_chemical_name_common
;
(1,3-dioxoisoindol-2-yl)-gamma-cyclodextrin unknown solvate dihydrate
;
_cell_volume   7415.385
_exptl_crystal_colour 'colorless'
_exptl_crystal_density_diffrn 1.31
_exptl_special_details
;
Absolute configuration

;
_exptl_crystal_description 'plate'
_diffrn_ambient_temperature 99.9
_refine_special_details
;
The MASK/OLEX2 program was used to model some disordered solvent molecules.

;
#These two values have been output from a single CSD field.
_refine_ls_R_factor_gt 0.082
_refine_ls_wR_factor_gt 0.082
_symmetry_cell_setting orthorhombic
_symmetry_space_group_name_H-M 'P 21 21 21'
_symmetry_Int_Tables_number 19
loop_
_symmetry_equiv_pos_site_id
_symmetry_equiv_pos_as_xyz
1 x,y,z
2 1/2-x,-y,1/2+z
3 1/2+x,1/2-y,-z
4 -x,1/2+y,1/2-z
_cell_length_a 11.9905(8)
_cell_length_b 16.4042(11)
_cell_length_c 37.700(3)
_cell_angle_alpha 90
_cell_angle_beta 90
_cell_angle_gamma 90
_cell_formula_units_Z 4
loop_
_atom_type_symbol
_atom_type_radius_bond
C 0.68
H 0.23
N 0.68
O 0.68
loop_
_atom_site_label
_atom_site_type_symbol
_atom_site_fract_x
_atom_site_fract_y
_atom_site_fract_z
O1 O -0.2041(4) -0.0933(2) 0.05563(13)
O2 O -0.3420(4) 0.0287(3) -0.01346(14)
O3 O -0.0468(4) 0.0330(3) 0.04295(13)
H1 H -0.07700 0.03800 0.06290
O4 O -0.0672(4) 0.1187(3) -0.02224(14)
H2 H -0.02490 0.14080 -0.00730
O5 O -0.4705(5) -0.0245(4) 0.05075(17)
H3 H -0.47700 0.02410 0.04420
O6 O -0.2041(3) 0.0085(2) -0.05678(13)
O7 O -0.2969(5) -0.0670(4) -0.14274(16)
O8 O -0.2039(6) 0.1524(4) -0.0998(2)
H4 H -0.16250 0.18420 -0.11130
O9 O -0.1627(6) 0.1211(4) -0.17290(18)
H5 H -0.13510 0.09460 -0.18980
O10 O -0.3043(7) -0.2120(4) -0.1029(2)
H6 H -0.35590 -0.21990 -0.11760
O11 O -0.1209(5) -0.0497(4) -0.16793(14)
O12 O -0.1001(7) -0.2103(4) -0.23645(17)
O13 O 0.0963(5) -0.0338(3) -0.19326(13)
H7 H 0.11860 -0.02090 -0.21360
O14 O 0.1926(5) -0.1817(3) -0.21642(16)
H8 H 0.19160 -0.22980 -0.20880
O15 O -0.3061(9) -0.1155(7) -0.2376(3)
H9 H -0.25580 -0.11210 -0.25300
O16 O 0.0278(5) -0.2899(3) -0.20589(12)
O17 O -0.0050(5) -0.5117(3) -0.21773(12)
O18 O 0.2496(6) -0.3449(3) -0.20503(16)
H10 H 0.29160 -0.36990 -0.21920
O19 O 0.2778(6) -0.5116(3) -0.18212(15)
H11 H 0.27670 -0.56280 -0.18110
O20 O -0.1329(6) -0.4030(4) -0.26378(16)
H12 H -0.19500 -0.39770 -0.27380
O21 O 0.0642(5) -0.5413(3) -0.16195(11)
O22 O -0.0845(4) -0.6998(3) -0.11188(13)
O23 O 0.2365(4) -0.6165(3) -0.12557(13)
H13 H 0.27770 -0.59630 -0.10980
O24 O 0.1744(4) -0.6876(3) -0.05988(12)
H14 H 0.13480 -0.69740 -0.04200
O25 O -0.2692(8) -0.6154(8) -0.1500(4)
H15 H -0.29080 -0.65280 -0.13640
O26 O -0.0469(3) -0.6448(2) -0.05614(11)
O27 O -0.2707(3) -0.6406(3) 0.00986(13)
O28 O 0.0441(4) -0.7393(2) -0.00003(13)
H16 H 0.10730 -0.71730 0.00010
O29 O -0.0438(4) -0.6943(3) 0.06911(12)
H17 H -0.04020 -0.74050 0.07870
O30 O -0.3318(4) -0.7032(4) -0.05586(15)
H18 H -0.31610 -0.73110 -0.03790
O31 O -0.1705(4) -0.5635(3) 0.05076(13)
O32 O -0.3273(4) -0.4380(3) 0.11379(12)
O33 O -0.0272(4) -0.5582(3) 0.11108(16)
H19 H -0.03370 -0.59700 0.09670
O34 O -0.0508(5) -0.4109(4) 0.15198(17)
H20 H -0.02340 -0.37940 0.13670
O35 O -0.4386(4) -0.5778(3) 0.07840(13)
H21 H -0.41670 -0.57950 0.09960
O36 O -0.1994(4) -0.3343(2) 0.10705(12)
O37 O -0.3148(4) -0.1276(3) 0.10392(12)
O38 O -0.0163(5) -0.2391(3) 0.12777(18)
H22 H -0.03660 -0.24450 0.14900
O39 O -0.0205(4) -0.0768(3) 0.09782(17)
H23 H -0.03560 -0.02710 0.09540
O40 O -0.4962(4) -0.3194(3) 0.04524(14)
O41 O -0.5981(6) -0.1199(4) 0.12234(15)
N1 N -0.5167(5) -0.2204(3) 0.08872(14)
C1 C -0.2321(5) -0.0223(3) 0.03528(19)
H24 H -0.26350 0.02040 0.05130
C2 C -0.1278(5) 0.0096(4) 0.0177(2)
H25 H -0.09600 -0.03350 0.00200
C3 C -0.1594(6) 0.0837(4) -0.0046(2)
H26 H -0.19040 0.12590 0.01180
C4 C -0.2487(6) 0.0626(4) -0.0307(2)
H27 H -0.27280 0.11390 -0.04280
C5 C -0.3182(5) -0.0436(4) 0.0066(2)
H28 H -0.28670 -0.08620 -0.00950
C6 C -0.4292(6) -0.0732(5) 0.0217(2)
H29 H -0.48540 -0.07320 0.00240
H30 H -0.42020 -0.13020 0.02990
C7 C -0.2554(5) 0.0135(4) -0.0904(2)
H31 H -0.33470 0.03130 -0.08770
C8 C -0.1928(7) 0.0728(5) -0.1134(2)
H32 H -0.11200 0.05790 -0.11240
C9 C -0.2296(7) 0.0686(5) -0.1519(2)
H33 H -0.30820 0.08890 -0.15310
C10 C -0.2286(7) -0.0195(5) -0.1660(2)
H34 H -0.26220 -0.02020 -0.19030
C11 C -0.2505(6) -0.0718(4) -0.10666(19)
H35 H -0.17090 -0.08960 -0.10810
C12 C -0.3158(8) -0.1355(5) -0.0882(2)
H36 H -0.29190 -0.13770 -0.06310
H37 H -0.39560 -0.12000 -0.08860
C13 C -0.0893(7) -0.0920(5) -0.1991(2)
H38 H -0.10230 -0.05610 -0.22010
C14 C 0.0363(8) -0.1073(4) -0.19510(19)
H39 H 0.04840 -0.13750 -0.17240
C15 C 0.0848(8) -0.1574(5) -0.2248(2)
H40 H 0.08830 -0.12250 -0.24650
C16 C 0.0103(8) -0.2321(5) -0.2331(2)
H41 H 0.03560 -0.25640 -0.25610
C17 C -0.1494(10) -0.1764(5) -0.2053(3)
H42 H -0.13340 -0.21310 -0.18480
C18 C -0.2729(10) -0.1723(7) -0.2108(4)
H43 H -0.30030 -0.22710 -0.21740
H44 H -0.30880 -0.15690 -0.18820
C19 C 0.0548(8) -0.3730(4) -0.21594(18)
H45 H 0.07150 -0.37490 -0.24190
C20 C 0.1567(8) -0.3963(5) -0.19573(19)
H46 H 0.14150 -0.39110 -0.16970
C21 C 0.1897(8) -0.4842(4) -0.20399(18)
H47 H 0.21370 -0.48770 -0.22940
C22 C 0.0870(8) -0.5397(4) -0.19836(17)
H48 H 0.10580 -0.59610 -0.20640
C23 C -0.0416(7) -0.4305(4) -0.20787(18)
H49 H -0.05610 -0.42960 -0.18180
C24 C -0.1492(8) -0.4135(5) -0.2269(2)
H50 H -0.20150 -0.45920 -0.22290
H51 H -0.18340 -0.36350 -0.21700
C25 C 0.0448(6) -0.6175(4) -0.14452(17)
H52 H 0.06340 -0.66310 -0.16110
C26 C 0.1255(5) -0.6185(4) -0.11331(17)
H53 H 0.11180 -0.56900 -0.09850
C27 C 0.1092(6) -0.6932(3) -0.09046(16)
H54 H 0.13390 -0.74210 -0.10420
C28 C -0.0134(5) -0.7039(3) -0.08099(16)
H55 H -0.02290 -0.75880 -0.06990
C29 C -0.0745(6) -0.6267(5) -0.1320(2)
H56 H -0.09500 -0.57900 -0.11680
C30 C -0.1554(11) -0.6333(9) -0.1622(3)
H57 H -0.13430 -0.59440 -0.18120
H58 H -0.15270 -0.68910 -0.17230
C31 C -0.1103(5) -0.6738(3) -0.02625(17)
H59 H -0.13820 -0.72990 -0.03170
C32 C -0.0410(5) -0.6777(3) 0.00621(16)
H60 H -0.00410 -0.62370 0.01000
C33 C -0.1077(5) -0.6992(3) 0.03834(17)
H61 H -0.13520 -0.75640 0.03570
C34 C -0.2090(5) -0.6423(4) 0.0414(2)
H62 H -0.25820 -0.66290 0.06080
C35 C -0.2100(5) -0.6179(4) -0.0211(2)
H63 H -0.18330 -0.56040 -0.01850
C36 C -0.2935(6) -0.6221(5) -0.0510(2)
H64 H -0.35760 -0.58620 -0.04560
H65 H -0.25840 -0.60250 -0.07320
C37 C -0.2079(5) -0.5340(4) 0.08458(18)
H66 H -0.23740 -0.58070 0.09880
C38 C -0.1065(5) -0.4981(4) 0.10321(19)
H67 H -0.07120 -0.45730 0.08700
C39 C -0.1413(6) -0.4547(4) 0.1368(2)
H68 H -0.16660 -0.49660 0.15430
C40 C -0.2373(6) -0.3967(4) 0.13002(18)
H69 H -0.26250 -0.37230 0.15300
C41 C -0.2993(5) -0.4705(4) 0.07996(17)
H70 H -0.26950 -0.42530 0.06490
C42 C -0.4030(5) -0.5035(4) 0.06254(19)
H71 H -0.46350 -0.46270 0.06450
H72 H -0.38810 -0.51280 0.03700
C43 C -0.2172(6) -0.2503(4) 0.11727(18)
H73 H -0.22940 -0.24640 0.14340
C44 C -0.1074(6) -0.2091(4) 0.1071(2)
H74 H -0.09190 -0.22130 0.08150
C45 C -0.1152(6) -0.1183(4) 0.1114(2)
H75 H -0.12150 -0.10580 0.13730
C46 C -0.2209(5) -0.0861(4) 0.09267(19)
H76 H -0.23010 -0.02710 0.09860
C47 C -0.3129(5) -0.2131(4) 0.09777(17)
H77 H -0.30470 -0.22380 0.07180
C48 C -0.4242(6) -0.2458(4) 0.11057(18)
H78 H -0.42110 -0.30610 0.11090
H79 H -0.43710 -0.22700 0.13520
C49 C -0.5467(5) -0.2600(3) 0.05644(16)
C50 C -0.6370(6) -0.2159(4) 0.0412(2)
C51 C -0.6968(6) -0.2286(4) 0.0092(2)
H80 H -0.67640 -0.27130 -0.00660
C52 C -0.7847(9) -0.1781(6) 0.0014(3)
H81 H -0.82340 -0.18400 -0.02040
C53 C -0.8183(7) -0.1162(6) 0.0262(3)
H82 H -0.88250 -0.08420 0.02140
C54 C -0.7596(7) -0.1028(5) 0.0563(3)
H83 H -0.77840 -0.05900 0.07170
C55 C -0.6703(6) -0.1551(4) 0.0644(2)
C56 C -0.5946(7) -0.1596(4) 0.09560(19)
O42 O -0.5660(5) -0.6538(3) -0.09527(14)
H84 H -0.52830 -0.64000 -0.07650
H85 H -0.52010 -0.66580 -0.11240
O43 O 0.0600(6) 0.1046(3) -0.15083(15)
H86 H 0.12000 0.13070 -0.15710
H87 H 0.03020 0.08150 -0.16930
#END
