
#######################################################################
#
#                 Cambridge Crystallographic Data Centre
#                                CCDC
#
#######################################################################
#
# If this CIF has been generated from an entry in the Cambridge
# Structural Database, then it will include bibliographic, chemical,
# crystal, experimental, refinement or atomic coordinate data resulting
# from the CCDC's data processing and validation procedures.
#
#######################################################################

data_CSD_CIF_PAWSEO
_audit_creation_date 2017-06-21
_audit_creation_method CSD-ConQuest-V1
_database_code_CSD PAWSEO
_database_code_depnum_ccdc_archive 'CCDC 1525790'
_chemical_formula_sum 'C48 H79 N1 O39 Rb2'
_chemical_formula_moiety
;
C48 H79 N1 O39 2-,2(Rb1 1+)
;
_journal_coden_Cambridge 182
_journal_volume 53
_journal_year 2017
_journal_page_first 7561
_journal_name_full 'Chem.Commun. '
loop_
_publ_author_name
"K.J.Hartlieb"
"A.W.Peters"
"T.C.Wang"
"P.Deria"
"O.K.Farha"
"J.T.Hupp"
"J.F.Stoddart"
_chemical_name_systematic
;
di-rubidium monoamino-\g-cyclodextrin unknown solvate
;
_cell_volume  29847.831
_exptl_crystal_colour 'colorless'
_exptl_crystal_density_diffrn 0.979
_exptl_special_details
;
Absolute configuration

;
_exptl_crystal_description 'block'
_diffrn_ambient_temperature 100
_refine_special_details
;
The amine group is disordered over four sites by symmetry. The MASK/OLEX2 
program has been used to model some disordered solvent.
;
#These two values have been output from a single CSD field.
_refine_ls_R_factor_gt 0.0586
_refine_ls_wR_factor_gt 0.0586
_symmetry_cell_setting cubic
_symmetry_space_group_name_H-M 'I 4 3 2'
_symmetry_Int_Tables_number 211
loop_
_symmetry_equiv_pos_site_id
_symmetry_equiv_pos_as_xyz
1 x,y,z
2 -y,x,z
3 -x,-y,z
4 y,-x,z
5 x,-z,y
6 x,-y,-z
7 x,z,-y
8 z,y,-x
9 -x,y,-z
10 -z,y,x
11 z,x,y
12 y,z,x
13 -y,-z,x
14 z,-x,-y
15 -y,z,-x
16 -z,-x,y
17 -z,x,-y
18 y,-z,-x
19 y,x,-z
20 -y,-x,-z
21 -x,z,y
22 -x,-z,-y
23 z,-y,x
24 -z,-y,-x
25 1/2+x,1/2+y,1/2+z
26 1/2-y,1/2+x,1/2+z
27 1/2-x,1/2-y,1/2+z
28 1/2+y,1/2-x,1/2+z
29 1/2+x,1/2-z,1/2+y
30 1/2+x,1/2-y,1/2-z
31 1/2+x,1/2+z,1/2-y
32 1/2+z,1/2+y,1/2-x
33 1/2-x,1/2+y,1/2-z
34 1/2-z,1/2+y,1/2+x
35 1/2+z,1/2+x,1/2+y
36 1/2+y,1/2+z,1/2+x
37 1/2-y,1/2-z,1/2+x
38 1/2+z,1/2-x,1/2-y
39 1/2-y,1/2+z,1/2-x
40 1/2-z,1/2-x,1/2+y
41 1/2-z,1/2+x,1/2-y
42 1/2+y,1/2-z,1/2-x
43 1/2+y,1/2+x,1/2-z
44 1/2-y,1/2-x,1/2-z
45 1/2-x,1/2+z,1/2+y
46 1/2-x,1/2-z,1/2-y
47 1/2+z,1/2-y,1/2+x
48 1/2-z,1/2-y,1/2-x
_cell_length_a 31.0197(11)
_cell_length_b 31.0197(11)
_cell_length_c 31.0197(11)
_cell_angle_alpha 90
_cell_angle_beta 90
_cell_angle_gamma 90
_cell_formula_units_Z 12
loop_
_atom_type_symbol
_atom_type_radius_bond
C 0.68
H 0.23
N 0.68
O 0.68
Rb 2.20
loop_
_atom_site_label
_atom_site_type_symbol
_atom_site_fract_x
_atom_site_fract_y
_atom_site_fract_z
O1 O 0.33130(11) 0.85608(13) 0.58264(12)
O2 O 0.27836(13) 0.82010(12) 0.48395(11)
O3 O 0.29555(16) 0.93421(13) 0.55196(14)
H1 H 0.30150 0.95760 0.53970
O4 O 0.28442(14) 0.93563(13) 0.45932(14)
H2 H 0.28780 0.92790 0.43360
O5 O 0.2555(2) 0.7749(2) 0.5579(2)
H3 H 0.24690 0.74940 0.56130
O6 O 0.32524(11) 0.85842(14) 0.43958(13)
O7 O 0.36001(16) 0.80739(16) 0.33815(16)
O8 O 0.31193(17) 0.92570(16) 0.37820(14)
H4 H 0.29150 0.92340 0.36050
O9 O 0.36219(16) 0.9194(2) 0.30189(15)
H5 H 0.38770 0.92440 0.30940
C1 C 0.30089(16) 0.85631(17) 0.54855(16)
H6 H 0.27110 0.85520 0.56090
C2 C 0.30673(18) 0.89890(19) 0.52405(17)
H7 H 0.33750 0.90180 0.51470
C3 C 0.27774(18) 0.89959(17) 0.48496(16)
H8 H 0.24720 0.90020 0.49520
C4 C 0.28443(17) 0.85725(18) 0.45878(17)
H9 H 0.26250 0.85680 0.43520
C5 C 0.30782(18) 0.81772(17) 0.52078(17)
H10 H 0.33810 0.81810 0.50990
C6 C 0.2991(2) 0.77439(19) 0.5417(2)
H11 H 0.30260 0.75100 0.52020
H12 H 0.31970 0.76940 0.56550
C7 C 0.32631(19) 0.8509(2) 0.39435(19)
H13 H 0.29670 0.84350 0.38400
C8 C 0.3417(2) 0.8915(2) 0.37163(18)
H14 H 0.37030 0.90000 0.38380
C9 C 0.3467(2) 0.8826(3) 0.32387(19)
H15 H 0.31760 0.87550 0.31200
C10 C 0.37529(19) 0.8447(2) 0.31647(18)
H16 H 0.37660 0.83860 0.28480
C11 C 0.3567(2) 0.8138(2) 0.3844(2)
H17 H 0.38600 0.82120 0.39590
C12 C 0.3425(2) 0.7712(3) 0.4041(3)
H18 H 0.36200 0.74760 0.39490
H19 H 0.34310 0.77300 0.43600
N1 N 0.3091(9) 0.743(1) 0.3813(10)
H20 H 0.29800 0.75130 0.35660
H21 H 0.30100 0.71830 0.39290
Rb1 Rb 0.31410(2) 1.00000 0.31410(2)
O10? O 0.3123(8) 0.7422(7) 0.5098(8)
H22? H 0.31230 0.71760 0.52120
O11? O 0.3800(5) 0.7400(5) 0.3963(6)
H23? H 0.37590 0.71730 0.41050
H24? H 0.31610 0.77120 0.56850
H25? H 0.26810 0.77130 0.54870
H26? H 0.31590 0.76060 0.39010
H27? H 0.33700 0.77450 0.43540
N2? N 0.288(7) 0.7279(19) 0.548(7)
H28? H 0.28120 0.71180 0.52560
H29? H 0.28810 0.71670 0.57400
H30? H 0.32670 0.77310 0.55770
H31? H 0.27850 0.78550 0.56330
H32? H 0.33120 0.77760 0.43330
H33? H 0.36880 0.75340 0.40810
O12? O 0.2976(4) 0.7630(4) 0.3885(4)
H34? H 0.29220 0.73650 0.39010
O1G O 0.58264(11) 0.85608(13) 0.66870(12)
O2G O 0.48395(13) 0.82010(12) 0.72164(11)
O3G O 0.55196(16) 0.93421(13) 0.70445(14)
H1G H 0.53970 0.95760 0.69850
O4G O 0.45932(14) 0.93563(13) 0.71558(14)
H2G H 0.43360 0.92790 0.71220
O5G O 0.5579(2) 0.7749(2) 0.7445(2)
H3G H 0.56130 0.74940 0.75310
O6G O 0.43958(11) 0.85842(14) 0.67476(13)
O7G O 0.33815(16) 0.80739(16) 0.63999(16)
O8G O 0.37820(17) 0.92570(16) 0.68807(14)
H4G H 0.36050 0.92340 0.70850
O9G O 0.30189(16) 0.9194(2) 0.63781(15)
H5G H 0.30940 0.92440 0.61230
C1G C 0.54855(16) 0.85631(17) 0.69911(16)
H6G H 0.56090 0.85520 0.72890
C2G C 0.52405(18) 0.89890(19) 0.69327(17)
H7G H 0.51470 0.90180 0.66250
C3G C 0.48496(18) 0.89959(17) 0.72226(16)
H8G H 0.49520 0.90020 0.75280
C4G C 0.45878(17) 0.85725(18) 0.71557(17)
H9G H 0.43520 0.85680 0.73750
C5G C 0.52078(18) 0.81772(17) 0.69218(17)
H10G H 0.50990 0.81810 0.66190
C6G C 0.5417(2) 0.77439(19) 0.7009(2)
H11G H 0.52020 0.75100 0.69740
H12G H 0.56550 0.76940 0.68030
C7G C 0.39435(19) 0.8509(2) 0.67369(19)
H13G H 0.38400 0.84350 0.70330
C8G C 0.37163(20) 0.8915(2) 0.65830(18)
H14G H 0.38380 0.90000 0.62970
C9G C 0.32387(20) 0.8826(3) 0.65330(19)
H15G H 0.31200 0.87550 0.68240
C10G C 0.31647(19) 0.8447(2) 0.62471(18)
H16G H 0.28480 0.83860 0.62340
C11G C 0.3844(2) 0.8138(2) 0.6433(2)
H17G H 0.39590 0.82120 0.61400
C12G C 0.4041(2) 0.7712(3) 0.6575(3)
H18G H 0.39490 0.74760 0.63800
H19G H 0.43600 0.77300 0.65690
N1G N 0.3813(9) 0.743(1) 0.6909(10)
H20G H 0.35660 0.75130 0.70200
H21G H 0.39290 0.71830 0.69900
O1I O 0.41736(11) 0.85608(13) 0.33130(12)
O2I O 0.51605(13) 0.82010(12) 0.27836(11)
O3I O 0.44804(16) 0.93421(13) 0.29555(14)
H1I H 0.46030 0.95760 0.30150
O4I O 0.54068(14) 0.93563(13) 0.28442(14)
H2I H 0.56640 0.92790 0.28780
O5I O 0.4421(2) 0.7749(2) 0.2555(2)
H3I H 0.43870 0.74940 0.24690
O6I O 0.56042(11) 0.85842(14) 0.32524(13)
O7I O 0.66185(16) 0.80739(16) 0.36001(16)
O8I O 0.62180(17) 0.92570(16) 0.31193(14)
H4I H 0.63950 0.92340 0.29150
O9I O 0.69811(16) 0.9194(2) 0.36219(15)
H5I H 0.69060 0.92440 0.38770
C1I C 0.45145(16) 0.85631(17) 0.30089(16)
H6I H 0.43910 0.85520 0.27110
C2I C 0.47595(18) 0.89890(19) 0.30673(17)
H7I H 0.48530 0.90180 0.33750
C3I C 0.51504(18) 0.89959(17) 0.27774(16)
H8I H 0.50480 0.90020 0.24720
C4I C 0.54122(17) 0.85725(18) 0.28443(17)
H9I H 0.56480 0.85680 0.26250
C5I C 0.47922(18) 0.81772(17) 0.30782(17)
H10I H 0.49010 0.81810 0.33810
C6I C 0.4583(2) 0.77439(19) 0.2991(2)
H11I H 0.47980 0.75100 0.30260
H12I H 0.43450 0.76940 0.31970
C7I C 0.60565(19) 0.8509(2) 0.32631(19)
H13I H 0.61600 0.84350 0.29670
C8I C 0.62837(20) 0.8915(2) 0.34170(18)
H14I H 0.61620 0.90000 0.37030
C9I C 0.67613(20) 0.8826(3) 0.34670(19)
H15I H 0.68800 0.87550 0.31760
C10I C 0.68353(19) 0.8447(2) 0.37529(18)
H16I H 0.71520 0.83860 0.37660
C11I C 0.6156(2) 0.8138(2) 0.3567(2)
H17I H 0.60410 0.82120 0.38600
C12I C 0.5959(2) 0.7712(3) 0.3425(3)
H18I H 0.60510 0.74760 0.36200
H19I H 0.56400 0.77300 0.34310
N1I N 0.6187(9) 0.743(1) 0.3091(10)
H20I H 0.64340 0.75130 0.29800
H21I H 0.60710 0.71830 0.30100
O1H O 0.66870(11) 0.85608(13) 0.41736(12)
O2H O 0.72164(13) 0.82010(12) 0.51605(11)
O3H O 0.70445(16) 0.93421(13) 0.44804(14)
H1H H 0.69850 0.95760 0.46030
O4H O 0.71558(14) 0.93563(13) 0.54068(14)
H2H H 0.71220 0.92790 0.56640
O5H O 0.7445(2) 0.7749(2) 0.4421(2)
H3H H 0.75310 0.74940 0.43870
O6H O 0.67476(11) 0.85842(14) 0.56042(13)
O7H O 0.63999(16) 0.80739(16) 0.66185(16)
O8H O 0.68807(17) 0.92570(16) 0.62180(14)
H4H H 0.70850 0.92340 0.63950
O9H O 0.63781(16) 0.9194(2) 0.69811(15)
H5H H 0.61230 0.92440 0.69060
C1H C 0.69911(16) 0.85631(17) 0.45145(16)
H6H H 0.72890 0.85520 0.43910
C2H C 0.69327(18) 0.89890(19) 0.47595(17)
H7H H 0.66250 0.90180 0.48530
C3H C 0.72226(18) 0.89959(17) 0.51504(16)
H8H H 0.75280 0.90020 0.50480
C4H C 0.71557(17) 0.85725(18) 0.54122(17)
H9H H 0.73750 0.85680 0.56480
C5H C 0.69218(18) 0.81772(17) 0.47922(17)
H10H H 0.66190 0.81810 0.49010
C6H C 0.7009(2) 0.77439(19) 0.4583(2)
H11H H 0.69740 0.75100 0.47980
H12H H 0.68030 0.76940 0.43450
C7H C 0.67369(19) 0.8509(2) 0.60565(19)
H13H H 0.70330 0.84350 0.61600
C8H C 0.6583(2) 0.8915(2) 0.62837(18)
H14H H 0.62970 0.90000 0.61620
C9H C 0.6533(2) 0.8826(3) 0.67613(19)
H15H H 0.68240 0.87550 0.68800
C10H C 0.62471(19) 0.8447(2) 0.68353(18)
H16H H 0.62340 0.83860 0.71520
C11H C 0.6433(2) 0.8138(2) 0.6156(2)
H17H H 0.61400 0.82120 0.60410
C12H C 0.6575(2) 0.7712(3) 0.5959(3)
H18H H 0.63800 0.74760 0.60510
H19H H 0.65690 0.77300 0.56400
N1H N 0.6909(9) 0.743(1) 0.6187(10)
H20H H 0.70200 0.75130 0.64340
H21H H 0.69900 0.71830 0.60710
O1B O 0.66870(11) 1.14392(13) 0.58264(12)
O2B O 0.72164(13) 1.17990(12) 0.48395(11)
O3B O 0.70445(16) 1.06579(13) 0.55196(14)
H1B H 0.69850 1.04240 0.53970
O4B O 0.71558(14) 1.06437(13) 0.45932(14)
H2B H 0.71220 1.07210 0.43360
O5B O 0.7445(2) 1.2251(2) 0.5579(2)
H3B H 0.75310 1.25060 0.56130
O6B O 0.67476(11) 1.14158(14) 0.43958(13)
O7B O 0.63999(16) 1.19261(16) 0.33815(16)
O8B O 0.68807(17) 1.07430(16) 0.37820(14)
H4B H 0.70850 1.07660 0.36050
O9B O 0.63781(16) 1.0806(2) 0.30189(15)
H5B H 0.61230 1.07560 0.30940
C1B C 0.69911(16) 1.14369(17) 0.54855(16)
H6B H 0.72890 1.14480 0.56090
C2B C 0.69327(18) 1.10110(19) 0.52405(17)
H7B H 0.66250 1.09820 0.51470
C3B C 0.72226(18) 1.10041(17) 0.48496(16)
H8B H 0.75280 1.09980 0.49520
C4B C 0.71557(17) 1.14275(18) 0.45878(17)
H9B H 0.73750 1.14320 0.43520
C5B C 0.69218(18) 1.18228(17) 0.52078(17)
H10B H 0.66190 1.18190 0.50990
C6B C 0.7009(2) 1.22561(19) 0.5417(2)
H11B H 0.69740 1.24900 0.52020
H12B H 0.68030 1.23060 0.56550
C7B C 0.67369(19) 1.1491(2) 0.39435(19)
H13B H 0.70330 1.15650 0.38400
C8B C 0.6583(2) 1.1085(2) 0.37163(18)
H14B H 0.62970 1.10000 0.38380
C9B C 0.6533(2) 1.1174(3) 0.32387(19)
H15B H 0.68240 1.12450 0.31200
C10B C 0.62471(19) 1.1553(2) 0.31647(18)
H16B H 0.62340 1.16140 0.28480
C11B C 0.6433(2) 1.1862(2) 0.3844(2)
H17B H 0.61400 1.17880 0.39590
C12B C 0.6575(2) 1.2288(3) 0.4041(3)
H18B H 0.63800 1.25240 0.39490
H19B H 0.65690 1.22700 0.43600
N1B N 0.6909(9) 1.257(1) 0.3813(10)
H20B H 0.70200 1.24870 0.35660
H21B H 0.69900 1.28170 0.39290
O1W O 0.41736(11) 1.14392(13) 0.66870(12)
O2W O 0.51605(13) 1.17990(12) 0.72164(11)
O3W O 0.44804(16) 1.06579(13) 0.70445(14)
H1W H 0.46030 1.04240 0.69850
O4W O 0.54068(14) 1.06437(13) 0.71558(14)
H2W H 0.56640 1.07210 0.71220
O5W O 0.4421(2) 1.2251(2) 0.7445(2)
H3W H 0.43870 1.25060 0.75310
O6W O 0.56042(11) 1.14158(14) 0.67476(13)
O7W O 0.66185(16) 1.19261(16) 0.63999(16)
O8W O 0.62180(17) 1.07430(16) 0.68807(14)
H4W H 0.63950 1.07660 0.70850
O9W O 0.69811(16) 1.0806(2) 0.63781(15)
H5W H 0.69060 1.07560 0.61230
C1W C 0.45145(16) 1.14369(17) 0.69911(16)
H6W H 0.43910 1.14480 0.72890
C2W C 0.47595(18) 1.10110(19) 0.69327(17)
H7W H 0.48530 1.09820 0.66250
C3W C 0.51504(18) 1.10041(17) 0.72226(16)
H8W H 0.50480 1.09980 0.75280
C4W C 0.54122(17) 1.14275(18) 0.71557(17)
H9W H 0.56480 1.14320 0.73750
C5W C 0.47922(18) 1.18228(17) 0.69218(17)
H10W H 0.49010 1.18190 0.66190
C6W C 0.4583(2) 1.22561(19) 0.7009(2)
H11W H 0.47980 1.24900 0.69740
H12W H 0.43450 1.23060 0.68030
C7W C 0.60565(19) 1.1491(2) 0.67369(19)
H13W H 0.61600 1.15650 0.70330
C8W C 0.62837(20) 1.1085(2) 0.65830(18)
H14W H 0.61620 1.10000 0.62970
C9W C 0.67613(20) 1.1174(3) 0.65330(19)
H15W H 0.68800 1.12450 0.68240
C10W C 0.68353(19) 1.1553(2) 0.62471(18)
H16W H 0.71520 1.16140 0.62340
C11W C 0.6156(2) 1.1862(2) 0.6433(2)
H17W H 0.60410 1.17880 0.61400
C12W C 0.5959(2) 1.2288(3) 0.6575(3)
H18W H 0.60510 1.25240 0.63800
H19W H 0.56400 1.22700 0.65690
N1W N 0.6187(9) 1.257(1) 0.6909(10)
H20W H 0.64340 1.24870 0.70200
H21W H 0.60710 1.28170 0.69900
O1V O 0.58264(11) 1.14392(13) 0.33130(12)
O2V O 0.48395(13) 1.17990(12) 0.27836(11)
O3V O 0.55196(16) 1.06579(13) 0.29555(14)
H1V H 0.53970 1.04240 0.30150
O4V O 0.45932(14) 1.06437(13) 0.28442(14)
H2V H 0.43360 1.07210 0.28780
O5V O 0.5579(2) 1.2251(2) 0.2555(2)
H3V H 0.56130 1.25060 0.24690
O6V O 0.43958(11) 1.14158(14) 0.32524(13)
O7V O 0.33815(16) 1.19261(16) 0.36001(16)
O8V O 0.37820(17) 1.07430(16) 0.31193(14)
H4V H 0.36050 1.07660 0.29150
O9V O 0.30189(16) 1.0806(2) 0.36219(15)
H5V H 0.30940 1.07560 0.38770
C1V C 0.54855(16) 1.14369(17) 0.30089(16)
H6V H 0.56090 1.14480 0.27110
C2V C 0.52405(18) 1.10110(19) 0.30673(17)
H7V H 0.51470 1.09820 0.33750
C3V C 0.48496(18) 1.10041(17) 0.27774(16)
H8V H 0.49520 1.09980 0.24720
C4V C 0.45878(17) 1.14275(18) 0.28443(17)
H9V H 0.43520 1.14320 0.26250
C5V C 0.52078(18) 1.18228(17) 0.30782(17)
H10V H 0.50990 1.18190 0.33810
C6V C 0.5417(2) 1.22561(19) 0.2991(2)
H11V H 0.52020 1.24900 0.30260
H12V H 0.56550 1.23060 0.31970
C7V C 0.39435(19) 1.1491(2) 0.32631(19)
H13V H 0.38400 1.15650 0.29670
C8V C 0.37163(20) 1.1085(2) 0.34170(18)
H14V H 0.38380 1.10000 0.37030
C9V C 0.32387(20) 1.1174(3) 0.34670(19)
H15V H 0.31200 1.12450 0.31760
C10V C 0.31647(19) 1.1553(2) 0.37529(18)
H16V H 0.28480 1.16140 0.37660
C11V C 0.3844(2) 1.1862(2) 0.3567(2)
H17V H 0.39590 1.17880 0.38600
C12V C 0.4041(2) 1.2288(3) 0.3425(3)
H18V H 0.39490 1.25240 0.36200
H19V H 0.43600 1.22700 0.34310
N1V N 0.3813(9) 1.257(1) 0.3091(10)
H20V H 0.35660 1.24870 0.29800
H21V H 0.39290 1.28170 0.30100
O1E O 0.33130(11) 1.14392(13) 0.41736(12)
O2E O 0.27836(13) 1.17990(12) 0.51605(11)
O3E O 0.29555(16) 1.06579(13) 0.44804(14)
H1E H 0.30150 1.04240 0.46030
O4E O 0.28442(14) 1.06437(13) 0.54068(14)
H2E H 0.28780 1.07210 0.56640
O5E O 0.2555(2) 1.2251(2) 0.4421(2)
H3E H 0.24690 1.25060 0.43870
O6E O 0.32524(11) 1.14158(14) 0.56042(13)
O7E O 0.36001(16) 1.19261(16) 0.66185(16)
O8E O 0.31193(17) 1.07430(16) 0.62180(14)
H4E H 0.29150 1.07660 0.63950
O9E O 0.36219(16) 1.0806(2) 0.69811(15)
H5E H 0.38770 1.07560 0.69060
C1E C 0.30089(16) 1.14369(17) 0.45145(16)
H6E H 0.27110 1.14480 0.43910
C2E C 0.30673(18) 1.10110(19) 0.47595(17)
H7E H 0.33750 1.09820 0.48530
C3E C 0.27774(18) 1.10041(17) 0.51504(16)
H8E H 0.24720 1.09980 0.50480
C4E C 0.28443(17) 1.14275(18) 0.54122(17)
H9E H 0.26250 1.14320 0.56480
C5E C 0.30782(18) 1.18228(17) 0.47922(17)
H10E H 0.33810 1.18190 0.49010
C6E C 0.2991(2) 1.22561(19) 0.4583(2)
H11E H 0.30260 1.24900 0.47980
H12E H 0.31970 1.23060 0.43450
C7E C 0.32631(19) 1.1491(2) 0.60565(19)
H13E H 0.29670 1.15650 0.61600
C8E C 0.3417(2) 1.1085(2) 0.62837(18)
H14E H 0.37030 1.10000 0.61620
C9E C 0.3467(2) 1.1174(3) 0.67613(19)
H15E H 0.31760 1.12450 0.68800
C10E C 0.37529(19) 1.1553(2) 0.68353(18)
H16E H 0.37660 1.16140 0.71520
C11E C 0.3567(2) 1.1862(2) 0.6156(2)
H17E H 0.38600 1.17880 0.60410
C12E C 0.3425(2) 1.2288(3) 0.5959(3)
H18E H 0.36200 1.25240 0.60510
H19E H 0.34310 1.22700 0.56400
N1E N 0.3091(9) 1.257(1) 0.6187(10)
H20E H 0.29800 1.24870 0.64340
H21E H 0.30100 1.28170 0.60710
#END
