
#######################################################################
#
#                 Cambridge Crystallographic Data Centre
#                                CCDC
#
#######################################################################
#
# If this CIF has been generated from an entry in the Cambridge
# Structural Database, then it will include bibliographic, chemical,
# crystal, experimental, refinement or atomic coordinate data resulting
# from the CCDC's data processing and validation procedures.
#
#######################################################################

data_CSD_CIF_PIFHIY
_audit_creation_date 2018-07-24
_audit_creation_method CSD-ConQuest-V1
_database_code_CSD PIFHIY
_database_code_depnum_ccdc_archive 'CCDC 1827875'
_chemical_formula_sum 'C188.6 H197.2 Cl11.75 N12 O13.35'
_chemical_formula_moiety
;
C156 H132 N12,6.675(C4 H8 O2),5.875(C1 H2 Cl2)
;
_journal_coden_Cambridge 1490
_journal_volume 9
_journal_year 2018
_journal_page_first 2849
_journal_name_full 'Nat.Commun. '
loop_
_publ_author_name
"R.L.Greenaway"
"V.Santolini"
"M.J.Bennison"
"B.M.Alston"
"C.J.Pugh"
"M.A.Little"
"M.Miklitz"
"E.G.B.Eden-Rump"
"R.Clowes"
"A.Shakil"
"H.J.Cuthbertson"
"H.Armstrong"
"M.E.Briggs"
"K.E.Jelfs"
"A.I.Cooper"
_chemical_name_systematic
;
6,16,26,36(1,3,5)-tetrakis(2,4,6-trimethylbenzena)-1,11,21,31(1,3,5),2,10,12,2
0,22,30,32,40,41,48,49,53(1,4)-hexadecabenzena-4,8,14,18,24,28,34,38,43,46,51,
55-dodecaazapentacyclo[24.14.4.4^6,21^.4^11,36^.4^16,31^]hexapentacontaphane-3
,8,13,18,23,28,33,38,42,46,50,54-dodecaene ethyl acetate dichloromethane 
solvate
;
_cell_volume  37308.382
_exptl_crystal_colour 'colorless'
_exptl_crystal_density_diffrn 1.161
_exptl_crystal_description 'needle'
_diffrn_ambient_temperature 100
_refine_special_details
;
Some of the solvent was taken into account using PLATON/SQUEEZE.

;
#These two values have been output from a single CSD field.
_refine_ls_R_factor_gt 0.1667
_refine_ls_wR_factor_gt 0.1667
_symmetry_cell_setting monoclinic
_symmetry_space_group_name_H-M 'C 2/c'
_symmetry_Int_Tables_number 15
loop_
_symmetry_equiv_pos_site_id
_symmetry_equiv_pos_as_xyz
1 x,y,z
2 -x,y,1/2-z
3 1/2+x,1/2+y,z
4 1/2-x,1/2+y,1/2-z
5 -x,-y,-z
6 x,-y,-1/2+z
7 -1/2-x,-1/2-y,-z
8 -1/2+x,-1/2-y,-1/2+z
_cell_length_a 33.688(8)
_cell_length_b 33.545(8)
_cell_length_c 33.801(8)
_cell_angle_alpha 90
_cell_angle_beta 102.385(5)
_cell_angle_gamma 90
_cell_formula_units_Z 8
loop_
_atom_type_symbol
_atom_type_radius_bond
C 0.68
H 0.23
N 0.68
O 0.68
loop_
_atom_site_label
_atom_site_type_symbol
_atom_site_fract_x
_atom_site_fract_y
_atom_site_fract_z
N1 N 0.3826(3) 0.4732(3) 0.4866(3)
N2 N 0.3238(3) 0.3501(3) 0.3638(3)
N3 N 0.2646(5) 0.7305(5) 0.1666(5)
N4 N 0.2143(6) 0.6079(5) 0.0502(5)
N5 N 0.5103(4) 0.3337(3) 0.0349(3)
N6 N 0.6508(5) 0.7194(4) 0.4620(4)
C1 C 0.3747(3) 0.4010(2) 0.4836(3)
C2 C 0.3459(2) 0.3839(3) 0.4525(3)
C3 C 0.3544(3) 0.3481(3) 0.4353(2)
C4 C 0.3916(3) 0.3294(2) 0.4491(2)
C5 C 0.4203(2) 0.3465(3) 0.4802(3)
C6 C 0.4119(3) 0.3823(3) 0.4974(2)
C7 C 0.3058(4) 0.4069(4) 0.4361(4)
H1 H 0.30170 0.42690 0.45600
H2 H 0.28300 0.38820 0.43120
H3 H 0.30740 0.42020 0.41070
C8 C 0.3658(4) 0.4397(4) 0.5042(4)
H4 H 0.33610 0.44320 0.50070
H5 H 0.37790 0.43830 0.53350
C9 C 0.4450(4) 0.4072(4) 0.5267(4)
H6 H 0.44390 0.43490 0.51760
H7 H 0.47190 0.39610 0.52680
H8 H 0.43990 0.40600 0.55420
C10 C 0.4619(4) 0.3258(4) 0.4941(4)
H9 H 0.47500 0.33540 0.52140
H10 H 0.45760 0.29670 0.49590
C11 C 0.4010(4) 0.2920(4) 0.4287(4)
H11 H 0.39240 0.26890 0.44250
H12 H 0.43030 0.29050 0.43000
H13 H 0.38640 0.29230 0.40040
C12 C 0.3240(4) 0.3310(4) 0.4015(4)
H14 H 0.32990 0.30230 0.39910
H15 H 0.29670 0.33330 0.40770
C13 C 0.2736(3) 0.7482(3) 0.0767(4)
C14 C 0.2441(4) 0.7346(3) 0.0967(2)
C15 C 0.2210(3) 0.7012(4) 0.0823(3)
C16 C 0.2273(3) 0.6814(2) 0.0481(4)
C17 C 0.2567(4) 0.6950(3) 0.0282(2)
C18 C 0.2799(3) 0.7283(4) 0.0425(4)
C19 C 0.2398(5) 0.7542(5) 0.1345(4)
H16 H 0.24970 0.78210 0.13550
H17 H 0.21110 0.75430 0.13700
C20 C 0.1905(5) 0.6890(5) 0.1088(5)
H18 H 0.20530 0.67610 0.13370
H19 H 0.17050 0.67040 0.09370
H20 H 0.17660 0.71280 0.11590
C21 C 0.2010(5) 0.6465(5) 0.0338(5)
H21 H 0.17390 0.65180 0.03980
H22 H 0.19730 0.64510 0.00400
C22 C 0.2664(5) 0.6706(5) -0.0055(4)
H23 H 0.25230 0.64490 -0.00680
H24 H 0.29580 0.66600 -0.00050
H25 H 0.25750 0.68480 -0.03120
C23 C 0.3089(5) 0.7407(5) 0.0196(5)
H26 H 0.31260 0.77000 0.02140
H27 H 0.29950 0.73330 -0.00920
C24 C 0.3003(5) 0.7827(4) 0.0917(5)
H28 H 0.28360 0.80540 0.09620
H29 H 0.31610 0.78990 0.07150
H30 H 0.31890 0.77550 0.11720
C25 C 0.3606(4) 0.5014(4) 0.4726(4)
H31 H 0.33370 0.50170 0.47680
C26 C 0.3732(3) 0.5344(2) 0.4498(2)
C27 C 0.3462(2) 0.5637(3) 0.4314(3)
H32 H 0.31880 0.56310 0.43430
C28 C 0.3594(3) 0.5937(2) 0.4090(2)
H33 H 0.34090 0.61370 0.39650
C29 C 0.3995(3) 0.5945(2) 0.4048(2)
C30 C 0.4265(2) 0.5652(3) 0.4231(3)
H34 H 0.45400 0.56570 0.42030
C31 C 0.4134(2) 0.5352(2) 0.4456(2)
H35 H 0.43180 0.51520 0.45810
C32 C 0.3995(2) 0.6755(2) 0.32619(19)
C33 C 0.4384(3) 0.6910(2) 0.3389(2)
H36 H 0.44690 0.71280 0.32490
C34 C 0.46481(19) 0.6745(2) 0.3722(3)
C35 C 0.4523(2) 0.6425(2) 0.3927(2)
H37 H 0.47040 0.63130 0.41540
C36 C 0.4134(3) 0.6271(2) 0.3799(2)
C37 C 0.38695(18) 0.6436(3) 0.3467(3)
H38 H 0.36030 0.63300 0.33800
C38 C 0.5810(2) 0.7238(3) 0.4280(3)
C39 C 0.5782(2) 0.6839(3) 0.4166(3)
H39 H 0.60160 0.66750 0.42230
C40 C 0.5410(3) 0.6682(2) 0.3968(3)
H40 H 0.53910 0.64090 0.38900
C41 C 0.5067(2) 0.6923(3) 0.3885(3)
C42 C 0.5095(2) 0.7322(3) 0.3999(3)
H41 H 0.48600 0.74870 0.39420
C43 C 0.5466(3) 0.7479(2) 0.4197(3)
H42 H 0.54850 0.77520 0.42750
C44 C 0.6215(4) 0.7403(5) 0.4493(5)
H43 H 0.62410 0.76840 0.45290
C45 C 0.3191(3) 0.7263(4) 0.2231(3)
C46 C 0.3522(4) 0.7481(3) 0.2436(3)
H44 H 0.35630 0.77470 0.23550
C47 C 0.3794(3) 0.7312(3) 0.2761(3)
H45 H 0.40200 0.74610 0.29010
C48 C 0.3734(3) 0.6924(3) 0.2880(2)
C49 C 0.3402(4) 0.6706(3) 0.2675(3)
H46 H 0.33610 0.64410 0.27570
C50 C 0.3131(3) 0.6875(3) 0.2351(3)
H47 H 0.29040 0.67260 0.22110
C51 C 0.2903(5) 0.7468(6) 0.1892(4)
H48 H 0.29330 0.77470 0.18600
C52 C 0.3321(4) 0.3324(4) 0.3333(4)
H49 H 0.33880 0.30500 0.33760
C53 C 0.3332(3) 0.3469(3) 0.29248(19)
C54 C 0.3329(3) 0.32204(19) 0.2595(3)
H50 H 0.33280 0.29390 0.26280
C55 C 0.3326(3) 0.3384(3) 0.2216(2)
H51 H 0.33240 0.32140 0.19910
C56 C 0.3327(3) 0.3795(3) 0.21677(19)
C57 C 0.3331(3) 0.40433(19) 0.2498(3)
H52 H 0.33320 0.43250 0.24640
C58 C 0.3334(3) 0.3880(3) 0.2876(2)
H53 H 0.33360 0.40500 0.31020
C59 C 0.3364(3) 0.3979(2) 0.17666(18)
C60 C 0.3602(2) 0.37990(18) 0.1529(2)
H54 H 0.37410 0.35570 0.16150
C61 C 0.3638(2) 0.3973(2) 0.1165(2)
C62 C 0.3435(3) 0.4327(2) 0.10386(18)
H55 H 0.34590 0.44460 0.07900
C63 C 0.3197(2) 0.45066(18) 0.1277(2)
C64 C 0.3161(2) 0.4333(2) 0.1641(2)
H56 H 0.29980 0.44560 0.18030
C65 C 0.2624(3) 0.5616(2) 0.0858(3)
C66 C 0.3029(3) 0.5545(2) 0.0852(3)
H57 H 0.31830 0.57420 0.07490
C67 C 0.3209(2) 0.5186(3) 0.0997(3)
H58 H 0.34860 0.51370 0.09930
C68 C 0.2984(3) 0.4898(2) 0.1149(3)
C69 C 0.2579(3) 0.4970(3) 0.1155(3)
H59 H 0.24260 0.47730 0.12580
C70 C 0.2399(2) 0.5329(3) 0.1009(3)
H60 H 0.21220 0.53770 0.10130
C71 C 0.2408(7) 0.5981(5) 0.0662(6)
H61 H 0.25930 0.61990 0.07070
C72 C 0.4473(3) 0.3587(2) 0.0452(3)
C73 C 0.4093(3) 0.3731(2) 0.02623(18)
H62 H 0.40220 0.37520 -0.00250
C74 C 0.3815(2) 0.3845(2) 0.0492(3)
H63 H 0.35560 0.39440 0.03620
C75 C 0.3918(3) 0.3815(2) 0.0912(3)
C76 C 0.4299(3) 0.3671(2) 0.11017(18)
H64 H 0.43690 0.36510 0.13890
C77 C 0.4576(2) 0.3558(2) 0.0872(3)
H65 H 0.48350 0.34590 0.10020
C78 C 0.4753(4) 0.3495(4) 0.0184(4)
H66 H 0.46810 0.35480 -0.00980
N7 N -0.2166(4) 0.7476(3) 0.1566(4)
N8 N 0.2689(3) 0.6163(3) 0.4713(3)
N9 N 0.1272(3) 0.7252(3) 0.4645(3)
N10 N -0.1692(4) 0.4420(3) 0.4183(4)
N11 N -0.0374(4) 0.3139(3) 0.4455(4)
N12 N 0.1760(3) 0.3194(3) 0.2000(4)
C79 C -0.1070(4) 0.3740(3) 0.4851(3)
H67 H -0.10750 0.40290 0.48070
H68 H -0.07880 0.36470 0.49200
H69 H -0.12030 0.36780 0.50750
C80 C 0.2073(2) 0.75195(19) 0.4341(2)
C81 C 0.1989(2) 0.7332(2) 0.4680(3)
C82 C 0.2229(3) 0.7015(2) 0.48568(19)
C83 C 0.2552(2) 0.68856(19) 0.4694(3)
C84 C 0.2636(2) 0.7074(2) 0.4355(3)
C85 C 0.2396(3) 0.7391(2) 0.41779(19)
C86 C 0.2473(4) 0.7607(4) 0.3821(3)
H70 H 0.27530 0.75520 0.37890
H71 H 0.24470 0.78970 0.38620
C87 C 0.1786(4) 0.7878(3) 0.4138(3)
H72 H 0.16710 0.78140 0.38540
H73 H 0.19460 0.81230 0.41530
H74 H 0.15660 0.79150 0.42830
C88 C 0.1649(4) 0.7485(3) 0.4862(4)
H75 H 0.16110 0.77750 0.48150
H76 H 0.17060 0.74330 0.51580
C89 C 0.2126(4) 0.6794(3) 0.5191(3)
H77 H 0.21420 0.69720 0.54240
H78 H 0.23170 0.65720 0.52660
H79 H 0.18490 0.66890 0.51090
C90 C 0.2833(4) 0.6561(3) 0.4896(4)
H80 H 0.31130 0.66130 0.48590
H81 H 0.28390 0.65570 0.51900
C91 C 0.2962(4) 0.6908(3) 0.4169(4)
H82 H 0.32270 0.69650 0.43450
H83 H 0.29470 0.70310 0.39040
H84 H 0.29260 0.66190 0.41370
C92 C -0.1647(3) 0.37041(19) 0.4236(3)
C93 C -0.1845(2) 0.3531(3) 0.3874(3)
C94 C -0.1693(3) 0.3184(2) 0.3738(2)
C95 C -0.1343(3) 0.30090(19) 0.3965(3)
C96 C -0.1145(2) 0.3182(3) 0.4327(3)
C97 C -0.1297(3) 0.3530(2) 0.4463(2)
C98 C -0.1817(4) 0.4070(3) 0.4400(4)
H85 H -0.21170 0.40530 0.43510
H86 H -0.17080 0.40940 0.46950
C99 C -0.2239(4) 0.3729(4) 0.3647(4)
H87 H -0.24670 0.36360 0.37600
H88 H -0.22870 0.36580 0.33590
H89 H -0.22140 0.40190 0.36760
C100 C -0.1895(4) 0.2996(4) 0.3343(4)
H90 H -0.18260 0.27090 0.33480
H91 H -0.21940 0.30200 0.33060
C101 C -0.1150(4) 0.2642(3) 0.3809(4)
H92 H -0.13380 0.24160 0.37850
H93 H -0.08960 0.25750 0.40000
H94 H -0.10920 0.27020 0.35430
C102 C -0.0756(4) 0.2979(4) 0.4583(4)
H95 H -0.07380 0.30350 0.48740
H96 H -0.07740 0.26870 0.45430
C103 C 0.0954(4) 0.7459(4) 0.4494(4)
H97 H 0.09610 0.77420 0.45150
C104 C 0.0573(2) 0.7250(2) 0.4287(2)
C105 C 0.0219(3) 0.74721(17) 0.4171(3)
H98 H 0.02240 0.77520 0.42160
C106 C -0.0142(2) 0.7286(2) 0.3988(3)
H99 H -0.03840 0.74380 0.39090
C107 C -0.0150(2) 0.6876(2) 0.3922(2)
C108 C 0.0204(3) 0.66538(17) 0.4038(2)
H100 H 0.01990 0.63740 0.39930
C109 C 0.0566(2) 0.6840(2) 0.4221(2)
H101 H 0.08070 0.66880 0.43000
C110 C -0.05316(19) 0.6683(2) 0.3730(2)
C111 C -0.0622(2) 0.6315(2) 0.3878(2)
H102 H -0.04390 0.61960 0.41000
C112 C -0.0982(2) 0.61212(18) 0.3703(2)
C113 C -0.12505(19) 0.6295(2) 0.3379(2)
H103 H -0.14960 0.61620 0.32600
C114 C -0.1160(2) 0.6662(2) 0.32306(19)
C115 C -0.0800(2) 0.68562(18) 0.3406(2)
H104 H -0.07380 0.71070 0.33040
C116 C -0.1979(3) 0.7145(3) 0.2189(2)
C117 C -0.1563(3) 0.7205(3) 0.2238(3)
H105 H -0.14600 0.73510 0.20410
C118 C -0.1297(2) 0.7051(3) 0.2576(3)
H106 H -0.10130 0.70920 0.26090
C119 C -0.1447(3) 0.6837(3) 0.2864(2)
C120 C -0.1863(3) 0.6778(3) 0.2815(3)
H107 H -0.19660 0.66320 0.30130
C121 C -0.2129(2) 0.6931(3) 0.2478(3)
H108 H -0.24130 0.68900 0.24440
C122 C -0.1334(3) 0.5032(2) 0.4201(3)
C123 C -0.1113(3) 0.5319(3) 0.4453(2)
H109 H -0.10420 0.52770 0.47370
C124 C -0.0995(2) 0.5669(2) 0.4289(2)
H110 H -0.08440 0.58650 0.44600
C125 C -0.1099(3) 0.5731(2) 0.3873(3)
C126 C -0.1320(3) 0.5444(3) 0.3621(2)
H111 H -0.13910 0.54870 0.33370
C127 C -0.1437(2) 0.5095(2) 0.3785(3)
H112 H -0.15880 0.48990 0.36130
C128 C -0.1464(4) 0.4691(4) 0.4393(5)
H113 H -0.13830 0.46620 0.46780
C129 C -0.2258(5) 0.7307(4) 0.1836(4)
H114 H -0.25400 0.72730 0.18240
C130 C 0.2025(5) 0.3327(4) 0.2293(4)
H115 H 0.23030 0.32990 0.22800
C131 C 0.1935(3) 0.3518(3) 0.2643(2)
C132 C 0.1540(3) 0.3554(3) 0.2700(2)
H116 H 0.13170 0.34800 0.24900
C133 C 0.1471(2) 0.3698(3) 0.3065(3)
H117 H 0.12020 0.37230 0.31040
C134 C 0.1798(3) 0.3807(2) 0.3373(2)
C135 C 0.2193(3) 0.3771(3) 0.3316(2)
H118 H 0.24160 0.38450 0.35260
C136 C 0.2261(2) 0.3627(3) 0.2951(3)
H119 H 0.25310 0.36020 0.29120
C137 C 0.1289(2) 0.3964(2) 0.4258(3)
C138 C 0.1515(3) 0.4281(2) 0.4453(2)
H120 H 0.14510 0.43920 0.46900
C139 C 0.1836(2) 0.4435(2) 0.4302(2)
C140 C 0.1930(2) 0.4272(2) 0.3955(2)
H121 H 0.21490 0.43780 0.38520
C141 C 0.1704(3) 0.3955(2) 0.3760(2)
C142 C 0.1383(2) 0.3801(2) 0.3911(3)
H122 H 0.12280 0.35840 0.37770
C143 C 0.2440(2) 0.55108(19) 0.4777(3)
C144 C 0.2341(3) 0.5445(2) 0.4362(2)
H123 H 0.24040 0.56400 0.41810
C145 C 0.2148(2) 0.5093(2) 0.42102(18)
H124 H 0.20800 0.50480 0.39260
C146 C 0.2055(2) 0.48074(19) 0.4474(3)
C147 C 0.2154(3) 0.4874(2) 0.4890(2)
H125 H 0.20910 0.46780 0.50700
C148 C 0.2347(3) 0.5225(2) 0.50412(18)
H126 H 0.24150 0.52700 0.53250
C149 C 0.2605(4) 0.5897(4) 0.4932(4)
H127 H 0.26490 0.59450 0.52150
C150 C 0.0253(2) 0.3451(3) 0.4605(3)
C151 C 0.0586(3) 0.3554(3) 0.4908(2)
H128 H 0.05810 0.35080 0.51840
C152 C 0.0927(2) 0.3726(3) 0.4807(3)
H129 H 0.11540 0.37960 0.50130
C153 C 0.0935(2) 0.3794(2) 0.4403(3)
C154 C 0.0602(3) 0.3691(3) 0.4100(2)
H130 H 0.06070 0.37370 0.38240
C155 C 0.0261(2) 0.3519(3) 0.4201(3)
H131 H 0.00340 0.34490 0.39940
C156 C -0.0092(4) 0.3279(4) 0.4719(5)
H132 H -0.01060 0.32700 0.49960
O1 O 0.0054(4) 0.5845(4) 0.4653(4)
O2 O 0.0549(6) 0.5408(5) 0.4711(6)
C157 C 0.0227(6) 0.5477(6) 0.5292(5)
H133 H 0.03960 0.56640 0.54780
H134 H 0.03380 0.52070 0.53430
H135 H -0.00510 0.54840 0.53360
C158 C 0.0225(6) 0.5594(6) 0.4862(6)
C159 C 0.0632(8) 0.5523(8) 0.4326(7)
H136 H 0.06320 0.58170 0.43120
H137 H 0.04050 0.54270 0.41100
C160 C 0.1035(11) 0.5370(13) 0.4230(13)
H138 H 0.12430 0.55790 0.42940
H139 H 0.09920 0.53010 0.39420
H140 H 0.11270 0.51330 0.43940
N1A N 0.6174(3) 0.4732(3) 0.0134(3)
N2A N 0.6762(3) 0.3501(3) 0.1362(3)
N3A N 0.7354(5) 0.7305(5) 0.3334(5)
N4A N 0.7857(6) 0.6079(5) 0.4498(5)
N5A N 0.4897(4) 0.3337(3) 0.4651(3)
N6A N 0.3492(5) 0.7194(4) 0.0380(4)
C1A C 0.6253(3) 0.4010(2) 0.0164(3)
C2A C 0.6541(2) 0.3839(3) 0.0475(3)
C3A C 0.6456(3) 0.3481(3) 0.0647(2)
C4A C 0.6084(3) 0.3294(2) 0.0509(2)
C5A C 0.5797(2) 0.3465(3) 0.0198(3)
C6A C 0.5881(3) 0.3823(3) 0.0026(2)
C7A C 0.6942(4) 0.4069(4) 0.0639(4)
H1A H 0.69830 0.42690 0.04400
H2A H 0.71700 0.38820 0.06880
H3A H 0.69260 0.42020 0.08930
C8A C 0.6342(4) 0.4397(4) -0.0042(4)
H4A H 0.66390 0.44320 -0.00070
H5A H 0.62210 0.43830 -0.03350
C9A C 0.5550(4) 0.4072(4) -0.0267(4)
H6A H 0.55610 0.43490 -0.01760
H7A H 0.52810 0.39610 -0.02680
H8A H 0.56010 0.40600 -0.05420
C10A C 0.5381(4) 0.3258(4) 0.0059(4)
H9A H 0.52500 0.33540 -0.02140
H10A H 0.54240 0.29670 0.00410
C11A C 0.5990(4) 0.2920(4) 0.0713(4)
H11A H 0.60760 0.26890 0.05750
H12A H 0.56970 0.29050 0.07000
H13A H 0.61360 0.29230 0.09960
C12A C 0.6760(4) 0.3310(4) 0.0985(4)
H14A H 0.67010 0.30230 0.10090
H15A H 0.70330 0.33330 0.09230
C13A C 0.7264(3) 0.7482(3) 0.4233(4)
C14A C 0.7559(4) 0.7346(3) 0.4033(2)
C15A C 0.7790(3) 0.7012(4) 0.4177(3)
C16A C 0.7727(3) 0.6814(2) 0.4519(4)
C17A C 0.7433(4) 0.6950(3) 0.4718(2)
C18A C 0.7201(3) 0.7283(4) 0.4575(4)
C19A C 0.7602(5) 0.7542(5) 0.3655(4)
H16A H 0.75030 0.78210 0.36450
H17A H 0.78890 0.75430 0.36300
C20A C 0.8095(5) 0.6890(5) 0.3912(5)
H18A H 0.79470 0.67610 0.36630
H19A H 0.82950 0.67040 0.40630
H20A H 0.82340 0.71280 0.38410
C21A C 0.7990(5) 0.6465(5) 0.4662(5)
H21A H 0.82610 0.65180 0.46020
H22A H 0.80270 0.64510 0.49600
C22A C 0.7336(5) 0.6706(5) 0.5055(4)
H23A H 0.74770 0.64490 0.50680
H24A H 0.70420 0.66600 0.50050
H25A H 0.74250 0.68480 0.53120
C23A C 0.6911(5) 0.7407(5) 0.4804(5)
H26A H 0.68740 0.77000 0.47860
H27A H 0.70050 0.73330 0.50920
C24A C 0.6997(5) 0.7827(4) 0.4083(5)
H28A H 0.71640 0.80540 0.40380
H29A H 0.68390 0.78990 0.42850
H30A H 0.68110 0.77550 0.38280
C25A C 0.6394(4) 0.5014(4) 0.0274(4)
H31A H 0.66630 0.50170 0.02320
C26A C 0.6268(3) 0.5344(2) 0.0502(2)
C27A C 0.6538(2) 0.5637(3) 0.0686(3)
H32A H 0.68120 0.56310 0.06570
C28A C 0.6406(3) 0.5937(2) 0.0910(2)
H33A H 0.65910 0.61370 0.10350
C29A C 0.6005(3) 0.5945(2) 0.0952(2)
C30A C 0.5735(2) 0.5652(3) 0.0769(3)
H34A H 0.54600 0.56570 0.07970
C31A C 0.5866(2) 0.5352(2) 0.0544(2)
H35A H 0.56820 0.51520 0.04190
C32A C 0.6005(2) 0.6755(2) 0.17381(19)
C33A C 0.5616(3) 0.6910(2) 0.1611(2)
H36A H 0.55310 0.71280 0.17510
C34A C 0.53519(19) 0.6745(2) 0.1278(3)
C35A C 0.5477(2) 0.6425(2) 0.1073(2)
H37A H 0.52960 0.63130 0.08460
C36A C 0.5866(3) 0.6271(2) 0.1201(2)
C37A C 0.61305(18) 0.6436(3) 0.1533(3)
H38A H 0.63970 0.63300 0.16200
C38A C 0.4190(2) 0.7238(3) 0.0720(3)
C39A C 0.4218(2) 0.6839(3) 0.0834(3)
H39A H 0.39840 0.66750 0.07770
C40A C 0.4590(3) 0.6682(2) 0.1032(3)
H40A H 0.46090 0.64090 0.11100
C41A C 0.4933(2) 0.6923(3) 0.1115(3)
C42A C 0.4905(2) 0.7322(3) 0.1001(3)
H41A H 0.51400 0.74870 0.10580
C43A C 0.4534(3) 0.7479(2) 0.0803(3)
H42A H 0.45150 0.77520 0.07250
C44A C 0.3785(4) 0.7403(5) 0.0507(5)
H43A H 0.37590 0.76840 0.04710
C45A C 0.6809(3) 0.7263(4) 0.2769(3)
C46A C 0.6478(4) 0.7481(3) 0.2564(3)
H44A H 0.64370 0.77470 0.26450
C47A C 0.6206(3) 0.7312(3) 0.2239(3)
H45A H 0.59800 0.74610 0.20990
C48A C 0.6266(3) 0.6924(3) 0.2120(2)
C49A C 0.6598(4) 0.6706(3) 0.2325(3)
H46A H 0.66390 0.64410 0.22430
C50A C 0.6869(3) 0.6875(3) 0.2649(3)
H47A H 0.70960 0.67260 0.27890
C51A C 0.7097(5) 0.7468(6) 0.3108(4)
H48A H 0.70670 0.77470 0.31400
C52A C 0.6679(4) 0.3324(4) 0.1667(4)
H49A H 0.66120 0.30500 0.16240
C53A C 0.6668(3) 0.3469(3) 0.20752(19)
C54A C 0.6671(3) 0.32204(19) 0.2405(3)
H50A H 0.66720 0.29390 0.23720
C55A C 0.6674(3) 0.3384(3) 0.2784(2)
H51A H 0.66760 0.32140 0.30090
C56A C 0.6673(3) 0.3795(3) 0.28323(19)
C57A C 0.6669(3) 0.40433(19) 0.2502(3)
H52A H 0.66680 0.43250 0.25360
C58A C 0.6666(3) 0.3880(3) 0.2124(2)
H53A H 0.66640 0.40500 0.18980
C59A C 0.6636(3) 0.3979(2) 0.32334(18)
C60A C 0.6398(2) 0.37990(18) 0.3471(2)
H54A H 0.62590 0.35570 0.33850
C61A C 0.6362(2) 0.3973(2) 0.3835(2)
C62A C 0.6565(3) 0.4327(2) 0.39614(18)
H55A H 0.65410 0.44460 0.42100
C63A C 0.6803(2) 0.45066(18) 0.3723(2)
C64A C 0.6839(2) 0.4333(2) 0.3359(2)
H56A H 0.70020 0.44560 0.31970
C65A C 0.7376(3) 0.5616(2) 0.4142(3)
C66A C 0.6971(3) 0.5545(2) 0.4148(3)
H57A H 0.68170 0.57420 0.42510
C67A C 0.6791(2) 0.5186(3) 0.4003(3)
H58A H 0.65140 0.51370 0.40070
C68A C 0.7016(3) 0.4898(2) 0.3851(3)
C69A C 0.7421(3) 0.4970(3) 0.3845(3)
H59A H 0.75740 0.47730 0.37420
C70A C 0.7601(2) 0.5329(3) 0.3991(3)
H60A H 0.78780 0.53770 0.39870
C71A C 0.7592(7) 0.5981(5) 0.4338(6)
H61A H 0.74070 0.61990 0.42930
C72A C 0.5527(3) 0.3587(2) 0.4548(3)
C73A C 0.5907(3) 0.3731(2) 0.47377(18)
H62A H 0.59780 0.37520 0.50250
C74A C 0.6185(2) 0.3845(2) 0.4508(3)
H63A H 0.64440 0.39440 0.46380
C75A C 0.6082(3) 0.3815(2) 0.4088(3)
C76A C 0.5701(3) 0.3671(2) 0.38983(18)
H64A H 0.56310 0.36510 0.36110
C77A C 0.5424(2) 0.3558(2) 0.4128(3)
H65A H 0.51650 0.34590 0.39980
C78A C 0.5247(4) 0.3495(4) 0.4816(4)
H66A H 0.53190 0.35480 0.50980
N7A N 0.2166(4) 0.7476(3) 0.3434(4)
N8A N -0.2689(3) 0.6163(3) 0.0287(3)
N9A N -0.1272(3) 0.7252(3) 0.0355(3)
N10A N 0.1692(4) 0.4420(3) 0.0817(4)
N11A N 0.0374(4) 0.3139(3) 0.0545(4)
N12A N -0.1760(3) 0.3194(3) 0.3000(4)
C79A C 0.1070(4) 0.3740(3) 0.0149(3)
H67A H 0.10750 0.40290 0.01930
H68A H 0.07880 0.36470 0.00800
H69A H 0.12030 0.36780 -0.00750
C80A C -0.2073(2) 0.75195(19) 0.0659(2)
C81A C -0.1989(2) 0.7332(2) 0.0320(3)
C82A C -0.2229(3) 0.7015(2) 0.01432(19)
C83A C -0.2552(2) 0.68856(19) 0.0306(3)
C84A C -0.2636(2) 0.7074(2) 0.0645(3)
C85A C -0.2396(3) 0.7391(2) 0.08221(19)
C86A C -0.2473(4) 0.7607(4) 0.1179(3)
H70A H -0.27530 0.75520 0.12110
H71A H -0.24470 0.78970 0.11380
C87A C -0.1786(4) 0.7878(3) 0.0862(3)
H72A H -0.16710 0.78140 0.11460
H73A H -0.19460 0.81230 0.08470
H74A H -0.15660 0.79150 0.07170
C88A C -0.1649(4) 0.7485(3) 0.0138(4)
H75A H -0.16110 0.77750 0.01850
H76A H -0.17060 0.74330 -0.01580
C89A C -0.2126(4) 0.6794(3) -0.0191(3)
H77A H -0.21420 0.69720 -0.04240
H78A H -0.23170 0.65720 -0.02660
H79A H -0.18490 0.66890 -0.01090
C90A C -0.2833(4) 0.6561(3) 0.0104(4)
H80A H -0.31130 0.66130 0.01410
H81A H -0.28390 0.65570 -0.01900
C91A C -0.2962(4) 0.6908(3) 0.0831(4)
H82A H -0.32270 0.69650 0.06550
H83A H -0.29470 0.70310 0.10960
H84A H -0.29260 0.66190 0.08630
C92A C 0.1647(3) 0.37041(19) 0.0764(3)
C93A C 0.1845(2) 0.3531(3) 0.1126(3)
C94A C 0.1693(3) 0.3184(2) 0.1262(2)
C95A C 0.1343(3) 0.30090(19) 0.1035(3)
C96A C 0.1145(2) 0.3182(3) 0.0673(3)
C97A C 0.1297(3) 0.3530(2) 0.0537(2)
C98A C 0.1817(4) 0.4070(3) 0.0600(4)
H85A H 0.21170 0.40530 0.06490
H86A H 0.17080 0.40940 0.03050
C99A C 0.2239(4) 0.3729(4) 0.1353(4)
H87A H 0.24670 0.36360 0.12400
H88A H 0.22870 0.36580 0.16410
H89A H 0.22140 0.40190 0.13240
C100A C 0.1895(4) 0.2996(4) 0.1657(4)
H90A H 0.18260 0.27090 0.16520
H91A H 0.21940 0.30200 0.16940
C101A C 0.1150(4) 0.2642(3) 0.1191(4)
H92A H 0.13380 0.24160 0.12150
H93A H 0.08960 0.25750 0.10000
H94A H 0.10920 0.27020 0.14570
C102A C 0.0756(4) 0.2979(4) 0.0417(4)
H95A H 0.07380 0.30350 0.01260
H96A H 0.07740 0.26870 0.04570
C103A C -0.0954(4) 0.7459(4) 0.0506(4)
H97A H -0.09610 0.77420 0.04850
C104A C -0.0573(2) 0.7250(2) 0.0713(2)
C105A C -0.0219(3) 0.74721(17) 0.0829(3)
H98A H -0.02240 0.77520 0.07840
C106A C 0.0142(2) 0.7286(2) 0.1012(3)
H99A H 0.03840 0.74380 0.10910
C107A C 0.0150(2) 0.6876(2) 0.1078(2)
C108A C -0.0204(3) 0.66538(17) 0.0962(2)
H100A H -0.01990 0.63740 0.10070
C109A C -0.0566(2) 0.6840(2) 0.0779(2)
H101A H -0.08070 0.66880 0.07000
C110A C 0.05316(19) 0.6683(2) 0.1270(2)
C111A C 0.0622(2) 0.6315(2) 0.1122(2)
H102A H 0.04390 0.61960 0.09000
C112A C 0.0982(2) 0.61212(18) 0.1297(2)
C113A C 0.12505(19) 0.6295(2) 0.1621(2)
H103A H 0.14960 0.61620 0.17400
C114A C 0.1160(2) 0.6662(2) 0.17694(19)
C115A C 0.0800(2) 0.68562(18) 0.1594(2)
H104A H 0.07380 0.71070 0.16960
C116A C 0.1979(3) 0.7145(3) 0.2811(2)
C117A C 0.1563(3) 0.7205(3) 0.2762(3)
H105A H 0.14600 0.73510 0.29590
C118A C 0.1297(2) 0.7051(3) 0.2424(3)
H106A H 0.10130 0.70920 0.23910
C119A C 0.1447(3) 0.6837(3) 0.2136(2)
C120A C 0.1863(3) 0.6778(3) 0.2185(3)
H107A H 0.19660 0.66320 0.19870
C121A C 0.2129(2) 0.6931(3) 0.2522(3)
H108A H 0.24130 0.68900 0.25560
C122A C 0.1334(3) 0.5032(2) 0.0799(3)
C123A C 0.1113(3) 0.5319(3) 0.0547(2)
H109A H 0.10420 0.52770 0.02630
C124A C 0.0995(2) 0.5669(2) 0.0711(2)
H110A H 0.08440 0.58650 0.05400
C125A C 0.1099(3) 0.5731(2) 0.1127(3)
C126A C 0.1320(3) 0.5444(3) 0.1379(2)
H111A H 0.13910 0.54870 0.16630
C127A C 0.1437(2) 0.5095(2) 0.1215(3)
H112A H 0.15880 0.48990 0.13870
C128A C 0.1464(4) 0.4691(4) 0.0607(5)
H113A H 0.13830 0.46620 0.03220
C129A C 0.2258(5) 0.7307(4) 0.3164(4)
H114A H 0.25400 0.72730 0.31760
C130A C -0.2025(5) 0.3327(4) 0.2707(4)
H115A H -0.23030 0.32990 0.27200
C131A C -0.1935(3) 0.3518(3) 0.2357(2)
C132A C -0.1540(3) 0.3554(3) 0.2300(2)
H116A H -0.13170 0.34800 0.25100
C133A C -0.1471(2) 0.3698(3) 0.1935(3)
H117A H -0.12020 0.37230 0.18960
C134A C -0.1798(3) 0.3807(2) 0.1627(2)
C135A C -0.2193(3) 0.3771(3) 0.1684(2)
H118A H -0.24160 0.38450 0.14740
C136A C -0.2261(2) 0.3627(3) 0.2049(3)
H119A H -0.25310 0.36020 0.20880
C137A C -0.1289(2) 0.3964(2) 0.0742(3)
C138A C -0.1515(3) 0.4281(2) 0.0547(2)
H120A H -0.14510 0.43920 0.03100
C139A C -0.1836(2) 0.4435(2) 0.0698(2)
C140A C -0.1930(2) 0.4272(2) 0.1045(2)
H121A H -0.21490 0.43780 0.11480
C141A C -0.1704(3) 0.3955(2) 0.1240(2)
C142A C -0.1383(2) 0.3801(2) 0.1089(3)
H122A H -0.12280 0.35840 0.12230
C143A C -0.2440(2) 0.55108(19) 0.0223(3)
C144A C -0.2341(3) 0.5445(2) 0.0638(2)
H123A H -0.24040 0.56400 0.08190
C145A C -0.2148(2) 0.5093(2) 0.07898(18)
H124A H -0.20800 0.50480 0.10740
C146A C -0.2055(2) 0.48074(19) 0.0526(3)
C147A C -0.2154(3) 0.4874(2) 0.0110(2)
H125A H -0.20910 0.46780 -0.00700
C148A C -0.2347(3) 0.5225(2) -0.00412(18)
H126A H -0.24150 0.52700 -0.03250
C149A C -0.2605(4) 0.5897(4) 0.0068(4)
H127A H -0.26490 0.59450 -0.02150
C150A C -0.0253(2) 0.3451(3) 0.0395(3)
C151A C -0.0586(3) 0.3554(3) 0.0092(2)
H128A H -0.05810 0.35080 -0.01840
C152A C -0.0927(2) 0.3726(3) 0.0193(3)
H129A H -0.11540 0.37960 -0.00130
C153A C -0.0935(2) 0.3794(2) 0.0597(3)
C154A C -0.0602(3) 0.3691(3) 0.0900(2)
H130A H -0.06070 0.37370 0.11760
C155A C -0.0261(2) 0.3519(3) 0.0799(3)
H131A H -0.00340 0.34490 0.10060
C156A C 0.0092(4) 0.3279(4) 0.0281(5)
H132A H 0.01060 0.32700 0.00040
#END
