
#######################################################################
#
#                 Cambridge Crystallographic Data Centre
#                                CCDC
#
#######################################################################
#
# If this CIF has been generated from an entry in the Cambridge
# Structural Database, then it will include bibliographic, chemical,
# crystal, experimental, refinement or atomic coordinate data resulting
# from the CCDC's data processing and validation procedures.
#
#######################################################################

data_CSD_CIF_PIFHUK
_audit_creation_date 2018-07-24
_audit_creation_method CSD-ConQuest-V1
_database_code_CSD PIFHUK
_database_code_depnum_ccdc_archive 'CCDC 1827877'
_chemical_formula_sum 'C60.75 H57.98 D0.75 Cl2.25 N6 O1.99 S3'
_chemical_formula_moiety
;
C60 H54 N6 S3,0.75(C1 D1 Cl3),1.99(H2 O1)
;
_journal_coden_Cambridge 1490
_journal_volume 9
_journal_year 2018
_journal_page_first 2849
_journal_name_full 'Nat.Commun. '
loop_
_publ_author_name
"R.L.Greenaway"
"V.Santolini"
"M.J.Bennison"
"B.M.Alston"
"C.J.Pugh"
"M.A.Little"
"M.Miklitz"
"E.G.B.Eden-Rump"
"R.Clowes"
"A.Shakil"
"H.J.Cuthbertson"
"H.Armstrong"
"M.E.Briggs"
"K.E.Jelfs"
"A.I.Cooper"
_chemical_name_systematic
;
2,16,18,32,45,47-hexamethyl-9,25,38-tris(thiophen-3-yl)-5,13,21,29,34,42-hexa-
azaheptacyclo[15.15.11.1^3,31^.1^7,11^.1^15,19^.1^23,27^.1^36,40^]octatetracon
ta-1,3(45),5,7(48),8,10,12,15(47),16,18,21,23(46),24,26,28,31,34,36(44),37,39,
41-henicosaene deuterochloroform solvate hydrate
;
_cell_volume   2813.757
_exptl_crystal_colour 'colorless'
_exptl_crystal_density_diffrn 1.277
_exptl_crystal_description 'needle'
_diffrn_ambient_temperature 100
_refine_special_details
;
C36,C48,C62,C64,C65,Cl1,Cl2,Cl3,Cl4,Cl5,S2,S3,S6 and 
C35,C47,C61,O1,O2,O3,O4,S1,S4,S5 disordered over two sites with occupancies 
0.580,0.596,0.437,0.503,0.25,0.503,0.503,0.503,0.25,0.5,0.596,0.580,0.437:0.42
0,0.404,0.563,0.497,0.497,0.497,0.5,0.404,0.420,0.563.
;
#These two values have been output from a single CSD field.
_refine_ls_R_factor_gt 0.0824
_refine_ls_wR_factor_gt 0.0824
_symmetry_cell_setting triclinic
_symmetry_space_group_name_H-M 'P -1'
_symmetry_Int_Tables_number 2
loop_
_symmetry_equiv_pos_site_id
_symmetry_equiv_pos_as_xyz
1 x,y,z
2 -x,-y,-z
_cell_length_a 12.3943(9)
_cell_length_b 12.4852(9)
_cell_length_c 18.2566(12)
_cell_angle_alpha 94.0179(19)
_cell_angle_beta 92.5322(19)
_cell_angle_gamma 91.790(2)
_cell_formula_units_Z 2
loop_
_atom_type_symbol
_atom_type_radius_bond
C 0.68
H 0.23
Cl 0.99
D 0.23
N 0.68
O 0.68
S 1.02
loop_
_atom_site_label
_atom_site_type_symbol
_atom_site_fract_x
_atom_site_fract_y
_atom_site_fract_z
C1 C 0.0897(4) 0.1136(4) 0.4661(2)
C2 C 0.0758(4) 0.0278(4) 0.4114(2)
C3 C -0.0165(4) 0.0237(4) 0.3637(2)
C4 C -0.0906(4) 0.1050(4) 0.3676(2)
C5 C -0.0767(4) 0.1909(4) 0.4207(2)
C6 C 0.0162(4) 0.1955(4) 0.4697(2)
C7 C 0.1832(4) 0.1149(4) 0.5222(2)
H1 H 0.15670 0.14220 0.57010
H2 H 0.20340 0.03960 0.52720
C8 C 0.1603(4) -0.0559(4) 0.4042(3)
H3 H 0.23140 -0.02320 0.41930
H4 H 0.16080 -0.08490 0.35300
H5 H 0.14360 -0.11400 0.43570
C9 C -0.0373(4) -0.0739(4) 0.3098(2)
H6 H -0.00680 -0.13670 0.33260
H7 H -0.11640 -0.08730 0.30390
C10 C -0.1870(4) 0.1020(4) 0.3129(3)
H8 H -0.16810 0.06440 0.26650
H9 H -0.20660 0.17560 0.30400
H10 H -0.24830 0.06420 0.33290
C11 C -0.1600(4) 0.2754(4) 0.4288(3)
H11 H -0.23190 0.23990 0.41750
H12 H -0.15790 0.30270 0.48110
C12 C 0.0351(4) 0.2911(4) 0.5251(3)
H13 H -0.00470 0.27900 0.56910
H14 H 0.00970 0.35600 0.50350
H15 H 0.11240 0.30010 0.53840
C13 C 0.4064(4) 0.5791(4) 0.1335(2)
C14 C 0.3196(4) 0.5683(3) 0.0804(2)
C15 C 0.3108(4) 0.4775(4) 0.0310(2)
C16 C 0.3908(4) 0.4012(4) 0.0313(2)
C17 C 0.4777(4) 0.4117(4) 0.0841(2)
C18 C 0.4857(4) 0.5026(4) 0.1334(2)
C19 C 0.4118(5) 0.6745(4) 0.1903(3)
H16 H 0.45600 0.73290 0.17250
H17 H 0.44430 0.65290 0.23660
H18 H 0.33870 0.69920 0.19830
C20 C 0.2375(4) 0.6549(4) 0.0763(3)
H19 H 0.27590 0.72470 0.09010
H20 H 0.21200 0.65620 0.02420
C21 C 0.2129(4) 0.4628(4) -0.0229(2)
H21 H 0.14960 0.49300 0.00020
H22 H 0.19890 0.38600 -0.03630
H23 H 0.22730 0.49990 -0.06720
C22 C 0.3864(4) 0.3086(4) -0.0272(2)
H24 H 0.35780 0.33570 -0.07360
H25 H 0.46150 0.28730 -0.03520
C23 C 0.5589(4) 0.3253(4) 0.0876(3)
H26 H 0.52340 0.25540 0.07300
H27 H 0.58980 0.32490 0.13790
H28 H 0.61660 0.33930 0.05420
C24 C 0.5836(4) 0.5207(5) 0.1866(2)
H29 H 0.64560 0.48690 0.16290
H30 H 0.60020 0.59890 0.19250
C25 C -0.0747(4) 0.3767(4) 0.3411(2)
H31 H -0.02240 0.32280 0.33820
C26 C -0.0651(4) 0.4689(3) 0.2955(2)
C27 C -0.1434(4) 0.5455(3) 0.2945(2)
H32 H -0.20510 0.53780 0.32300
C28 C -0.1330(4) 0.6340(3) 0.2522(2)
C29 C -0.0420(4) 0.6433(3) 0.2101(2)
H33 H -0.03360 0.70360 0.18160
C30 C 0.0355(4) 0.5667(3) 0.2093(2)
C31 C 0.0243(4) 0.4790(3) 0.2519(2)
H34 H 0.07750 0.42580 0.25140
C32 C 0.1313(4) 0.5745(4) 0.1633(2)
H35 H 0.18540 0.52250 0.16590
C33 C -0.2164(4) 0.7164(4) 0.2521(3)
C34 C -0.2838(4) 0.7384(4) 0.3102(3)
H36 H -0.28170 0.69940 0.35300
C35 C -0.3172(18) 0.8504(18) 0.2137(8)
H37 H -0.34340 0.90140 0.18150
C36 C -0.2363(4) 0.7818(4) 0.1949(3)
H38 H -0.20000 0.77960 0.15010
C37 C 0.0581(4) 0.0104(4) 0.2189(2)
H39 H 0.07020 0.06970 0.25410
C38 C 0.1020(4) 0.0158(3) 0.1453(2)
C39 C 0.1622(4) 0.1061(4) 0.1286(2)
H40 H 0.17360 0.16470 0.16450
C40 C 0.2060(4) 0.1118(3) 0.0600(2)
C41 C 0.1871(4) 0.0263(3) 0.0072(2)
H41 H 0.21560 0.03040 -0.04000
C42 C 0.1272(4) -0.0650(3) 0.0223(2)
C43 C 0.0867(4) -0.0690(3) 0.0922(2)
H42 H 0.04750 -0.13170 0.10380
C44 C 0.1061(4) -0.1548(4) -0.0338(2)
C45 C 0.1599(5) -0.1685(4) -0.0990(3)
H43 H 0.21300 -0.11810 -0.11260
C46 C 0.0327(17) -0.3123(15) -0.0875(8)
H44 H -0.01280 -0.37530 -0.09290
C47 C 0.0311(4) -0.2390(4) -0.0278(2)
H45 H -0.01490 -0.24490 0.01210
C48 C 0.2718(4) 0.2069(3) 0.0447(2)
H46 H 0.27660 0.26700 0.07980
C49 C 0.2905(4) 0.2225(4) 0.4503(2)
H47 H 0.23280 0.21420 0.41410
C50 C 0.3869(4) 0.2879(4) 0.4355(2)
C51 C 0.3971(4) 0.3261(4) 0.3660(2)
H48 H 0.34180 0.30990 0.32880
C52 C 0.4881(4) 0.3878(4) 0.3508(2)
C53 C 0.5681(4) 0.4099(4) 0.4050(2)
H49 H 0.63090 0.45040 0.39430
C54 C 0.5591(4) 0.3742(4) 0.4750(2)
C55 C 0.4686(4) 0.3128(4) 0.4896(2)
H50 H 0.46210 0.28740 0.53710
C56 C 0.4963(4) 0.4285(4) 0.2770(2)
H51 H 0.43840 0.41400 0.24150
C57 C 0.6463(4) 0.3995(4) 0.5325(2)
C58 C 0.7281(4) 0.4773(4) 0.5278(2)
H52 H 0.73230 0.52000 0.48690
C59 C 0.749(2) 0.388(2) 0.6362(13)
H53 H 0.77270 0.36060 0.68140
C60 C 0.6584(4) 0.3473(5) 0.5970(3)
H54 H 0.61110 0.29230 0.61170
N1 N 0.3222(3) 0.2111(3) -0.0138(2)
N2 N -0.1517(3) 0.3681(3) 0.3843(2)
N3 N 0.2821(3) 0.1772(3) 0.5095(2)
N4 N 0.1414(3) 0.6496(3) 0.1208(2)
N5 N 0.0050(3) -0.0711(3) 0.2358(2)
N6 N 0.5782(3) 0.4817(4) 0.2603(2)
S1 S 0.1242(3) -0.2802(2) -0.15157(16)
S2 S -0.3682(3) 0.8380(3) 0.29932(16)
S3 S 0.8185(5) 0.4908(5) 0.5987(3)
C61 C 0.4337(9) 0.0495(9) 0.1782(6)
D1 D 0.38010 0.10310 0.16340
Cl1 Cl 0.3640(6) -0.0469(5) 0.2252(6)
Cl2 Cl 0.4769(7) -0.0144(5) 0.0985(4)
Cl3 Cl 0.5372(4) 0.1206(3) 0.2319(2)
O1 O 0.4441(15) -0.0353(15) 0.5496(7)
H55? H -0.28330 0.70600 0.35570
C62? C -0.3511(18) 0.8169(17) 0.2880(8)
H56? H -0.40560 0.84290 0.31890
H57? H -0.19480 0.77770 0.15240
H58? H 0.22270 -0.12920 -0.11100
C63? C 0.1060(18) -0.2493(14) -0.1431(8)
H59? H 0.11630 -0.25960 -0.19430
H60? H -0.01060 -0.24400 0.01440
H61? H 0.73380 0.52320 0.48870
C64? C 0.7997(16) 0.4785(17) 0.5878(8)
H62? H 0.86190 0.52520 0.59380
H63? H 0.60910 0.29260 0.60960
S4? S 0.0189(6) -0.3300(5) -0.0986(3)
S5? S -0.3351(6) 0.8672(6) 0.2037(3)
S6? S 0.7668(4) 0.3884(5) 0.6508(2)
O2? O 0.4405(19) -0.0700(19) 0.0322(14)
O3? O 0.4376(19) 0.1475(19) 0.2056(12)
O4? O 0.3544(14) 0.0195(19) 0.2737(9)
C65? C 0.4763(13) 0.0419(13) 0.5415(8)
D2? D 0.42560 0.10030 0.55430
Cl4? Cl 0.5457(8) -0.0073(9) 0.6159(6)
Cl5? Cl 0.4148(7) -0.0802(6) 0.5088(6)
#END
