
#######################################################################
#
#                 Cambridge Crystallographic Data Centre
#                                CCDC
#
#######################################################################
#
# If this CIF has been generated from an entry in the Cambridge
# Structural Database, then it will include bibliographic, chemical,
# crystal, experimental, refinement or atomic coordinate data resulting
# from the CCDC's data processing and validation procedures.
#
#######################################################################

data_CSD_CIF_PIFJUM
_audit_creation_date 2018-07-24
_audit_creation_method CSD-ConQuest-V1
_database_code_CSD PIFJUM
_database_code_depnum_ccdc_archive 'CCDC 1827882'
_chemical_formula_sum 'C55.5 H57.5 Cl1 N6 O0.25 S6'
_chemical_formula_moiety
;
C54 H54 N6 S6,0.5(C1 H2 Cl2),0.25(C4 H10 O1)
;
_journal_coden_Cambridge 1490
_journal_volume 9
_journal_year 2018
_journal_page_first 2849
_journal_name_full 'Nat.Commun. '
loop_
_publ_author_name
"R.L.Greenaway"
"V.Santolini"
"M.J.Bennison"
"B.M.Alston"
"C.J.Pugh"
"M.A.Little"
"M.Miklitz"
"E.G.B.Eden-Rump"
"R.Clowes"
"A.Shakil"
"H.J.Cuthbertson"
"H.Armstrong"
"M.E.Briggs"
"K.E.Jelfs"
"A.I.Cooper"
_chemical_name_systematic
;
2,17,19,34,49,52-hexaethyl-8,25,39,47,50,53-hexathia-5,14,22,31,36,45-hexa-aza
decacyclo[16.16.12.1^3,33^.1^7,10^.1^9,12^.1^16,20^.1^24,27^.1^26,29^.1^38,41^
.1^40,43^]tetrapentaconta-1,3(49),5,7(54),9,11,13,16(52),17,19,22,24(51),26,28
,30,33,36,38(48),40,42,44-henicosaene dichloromethane diethyl ether solvate
;
_cell_volume   2660.786
_exptl_crystal_colour 'yellow'
_exptl_crystal_density_diffrn 1.299
_exptl_crystal_description 'block'
_diffrn_ambient_temperature 100
_diffrn_radiation_probe x-ray
_diffrn_source synchrotron
_refine_special_details
;
The structure is disordered.

;
#These two values have been output from a single CSD field.
_refine_ls_R_factor_gt 0.0626
_refine_ls_wR_factor_gt 0.0626
_symmetry_cell_setting triclinic
_symmetry_space_group_name_H-M 'P -1'
_symmetry_Int_Tables_number 2
loop_
_symmetry_equiv_pos_site_id
_symmetry_equiv_pos_as_xyz
1 x,y,z
2 -x,-y,-z
_cell_length_a 12.9001(1)
_cell_length_b 12.9988(1)
_cell_length_c 17.1966(1)
_cell_angle_alpha 87.075(1)
_cell_angle_beta 68.588(1)
_cell_angle_gamma 82.365(1)
_cell_formula_units_Z 2
loop_
_atom_type_symbol
_atom_type_radius_bond
C 0.68
H 0.23
Cl 0.99
N 0.68
O 0.68
S 1.02
loop_
_atom_site_label
_atom_site_type_symbol
_atom_site_fract_x
_atom_site_fract_y
_atom_site_fract_z
Cl1 Cl -0.1359(2) 0.2051(2) 0.93027(15)
Cl2 Cl -0.2474(2) 0.15927(14) 0.82047(13)
C1 C -0.2239(5) 0.2377(5) 0.8787(4)
H1 H -0.29770 0.26270 0.92120
H2 H -0.19720 0.29840 0.84340
S1 S 0.64541(5) 0.21064(5) 0.19416(4)
S2 S 0.70303(5) 0.19180(5) 0.35966(4)
S3 S 0.19757(5) 0.08972(5) 0.38446(4)
S4 S 0.24687(5) 0.07782(5) 0.55067(4)
S5 S 0.11525(5) 0.61144(4) 0.39743(3)
S6 S 0.18699(5) 0.59797(4) 0.55617(3)
N1 N 0.09532(17) 0.54420(15) 0.22790(12)
N2 N 0.10714(18) 0.10676(16) 0.25346(13)
N3 N 0.51175(17) 0.25046(16) 0.07085(14)
N4 N 0.67248(16) 0.20067(15) 0.55533(13)
N5 N 0.27568(17) 0.51173(15) 0.69737(12)
N6 N 0.24256(19) 0.08156(18) 0.71959(15)
C2 C 0.3213(3) 0.0423(2) -0.00849(18)
H3 H 0.35870 0.08600 -0.05600
H4 H 0.24390 0.03990 -0.00440
H5 H 0.36160 -0.02810 -0.01650
C3 C 0.3209(2) 0.08786(19) 0.07205(16)
H6 H 0.28330 0.04340 0.11990
H7 H 0.39920 0.08790 0.06850
C4 C 0.2610(2) 0.19774(18) 0.08724(14)
C5 C 0.14481(19) 0.21489(18) 0.13328(14)
C6 C 0.0833(2) 0.12370(19) 0.17699(16)
H8 H 0.00160 0.14030 0.19000
H9 H 0.11100 0.06110 0.14130
C7 C 0.0284(2) 0.12497(18) 0.32471(16)
H10 H -0.047(2) 0.142(2) 0.3301(16)
C8 C 0.0555(2) 0.11905(18) 0.39943(16)
C9 C -0.0116(2) 0.13447(19) 0.48182(16)
H11 H -0.082(3) 0.148(2) 0.496(2)
C10 C 0.0515(2) 0.12137(18) 0.53550(16)
C11 C 0.1656(2) 0.09744(18) 0.49075(15)
C12 C 0.0304(2) 0.12412(19) 0.62354(17)
H12 H -0.04210 0.13940 0.66510
C13 C 0.1260(2) 0.10234(19) 0.64040(17)
C14 C 0.1435(2) 0.1022(2) 0.71919(18)
H13 H 0.08160 0.11730 0.76990
C15 C 0.2644(2) 0.0959(2) 0.79566(17)
H14 H 0.30010 0.03040 0.81180
H15 H 0.19360 0.11850 0.84230
C16 C 0.3428(2) 0.17917(18) 0.77478(15)
C17 C 0.4590(2) 0.15167(18) 0.73179(16)
C18 C 0.5083(2) 0.03800(19) 0.7151(2)
H16 H 0.44900 -0.00240 0.71390
H17 H 0.56870 0.03240 0.65930
C19 C 0.5530(3) -0.0072(3) 0.7760(3)
H18 H 0.60890 0.03450 0.77990
H19 H 0.58850 -0.07800 0.75920
H20 H 0.49220 -0.00880 0.83050
C20 C 0.5296(2) 0.23002(18) 0.70303(15)
C21 C 0.6520(2) 0.20149(18) 0.64613(15)
H21 H 0.69760 0.25140 0.65600
H22 H 0.67890 0.13180 0.66240
C22 C 0.5889(2) 0.2301(2) 0.53338(16)
H23 H 0.51940 0.25110 0.57680
C23 C 0.5890(2) 0.2348(2) 0.44874(16)
C24 C 0.4960(2) 0.2718(2) 0.43062(18)
H24 H 0.42680 0.29950 0.47150
C25 C 0.5132(2) 0.2647(2) 0.34517(17)
C26 C 0.6222(2) 0.22336(18) 0.29866(15)
C27 C 0.4475(2) 0.2857(2) 0.29435(17)
H25 H 0.37070 0.31390 0.31510
C28 C 0.5057(2) 0.26111(19) 0.21297(16)
C29 C 0.4572(2) 0.27078(19) 0.14867(16)
H26 H 0.37920 0.29390 0.16520
C30 C 0.4481(2) 0.2636(2) 0.01392(16)
H27 H 0.46710 0.20040 -0.02080
H28 H 0.47300 0.32260 -0.02410
C31 C 0.32104(19) 0.28276(19) 0.05740(14)
C32 C 0.2674(2) 0.38467(18) 0.07635(14)
C33 C 0.3337(2) 0.47689(19) 0.05050(15)
H29 H 0.41180 0.45480 0.04700
H30 H 0.30030 0.53140 0.09380
C34 C 0.3353(2) 0.5223(2) -0.03345(16)
H31 H 0.37130 0.46950 -0.07700
H32 H 0.37750 0.58230 -0.04690
H33 H 0.25820 0.54410 -0.03030
C35 C 0.15081(19) 0.40125(17) 0.12055(13)
C36 C 0.08915(19) 0.31684(18) 0.14894(14)
C37 C -0.03641(19) 0.33524(19) 0.19551(15)
H34 H -0.05640 0.40390 0.22310
H35 H -0.05890 0.28170 0.23950
C38 C -0.0998(2) 0.3315(2) 0.13671(18)
H36 H -0.08210 0.38790 0.09580
H37 H -0.18070 0.33930 0.16890
H38 H -0.07750 0.26470 0.10760
C39 C 0.0944(2) 0.51099(18) 0.14667(14)
H39 H 0.13250 0.55990 0.10270
H40 H 0.01560 0.51590 0.15020
C40 C 0.10263(19) 0.47321(18) 0.28045(14)
H41 H 0.10110 0.40400 0.26610
C41 C 0.11307(19) 0.48871(17) 0.35990(14)
C42 C 0.1358(2) 0.40962(18) 0.40849(14)
H42 H 0.134(3) 0.338(3) 0.395(2)
C43 C 0.15971(19) 0.44467(17) 0.47608(14)
C44 C 0.15169(19) 0.55308(17) 0.47746(14)
C45 C 0.1956(2) 0.39852(18) 0.54022(15)
H43 H 0.201(2) 0.319(2) 0.5481(18)
C46 C 0.21524(19) 0.46966(17) 0.58706(14)
C47 C 0.26038(19) 0.44461(18) 0.65263(14)
H44 H 0.27980 0.37340 0.66280
C48 C 0.3190(2) 0.47478(18) 0.76378(15)
H45 H 0.25680 0.48580 0.81840
H46 H 0.37690 0.51840 0.76270
C49 C 0.3695(2) 0.36193(17) 0.75835(14)
C50 C 0.4850(2) 0.33536(17) 0.71582(14)
C51 C 0.5621(2) 0.41942(18) 0.68395(16)
H47 H 0.52060 0.48180 0.66870
H48 H 0.62610 0.39450 0.63320
C52 C 0.6064(2) 0.4482(2) 0.75079(18)
H49 H 0.65600 0.50220 0.72880
H50 H 0.64840 0.38660 0.76540
H51 H 0.54320 0.47400 0.80070
C53 C 0.29826(19) 0.28458(19) 0.78788(14)
C54 C 0.1729(2) 0.3147(2) 0.83076(15)
H52 H 0.13250 0.26330 0.81650
H53 H 0.15130 0.38320 0.80940
C55 C 0.1367(2) 0.3203(2) 0.92550(16)
H54 H 0.17670 0.37080 0.94000
H55 H 0.15440 0.25180 0.94740
H56 H 0.05570 0.34190 0.95000
H57? H 0.58220 0.03010 0.72130
H58? H 0.45940 -0.00360 0.76010
C56? C 0.5227(6) -0.0046(6) 0.6438(5)
H59? H 0.44980 -0.00400 0.63800
H60? H 0.55800 -0.07640 0.64230
H61? H 0.57100 0.03470 0.59770
H62? H -0.04510 0.13600 0.86960
H63? H -0.16700 0.16520 0.93910
C57? C -0.1032(6) 0.1108(4) 0.9189(4)
H64? H -0.12810 0.04920 0.90400
O1? O 0.0096(12) -0.0176(10) 0.9730(8)
C58? C -0.0552(8) 0.0827(8) 0.9877(5)
H65? H -0.00720 0.13540 0.98930
H66? H -0.11740 0.08290 1.04250
#END
