
#######################################################################
#
#                 Cambridge Crystallographic Data Centre
#                                CCDC
#
#######################################################################
#
# If this CIF has been generated from an entry in the Cambridge
# Structural Database, then it will include bibliographic, chemical,
# crystal, experimental, refinement or atomic coordinate data resulting
# from the CCDC's data processing and validation procedures.
#
#######################################################################

data_CSD_CIF_PIFJIA
_audit_creation_date 2018-07-24
_audit_creation_method CSD-ConQuest-V1
_database_code_CSD PIFJIA
_database_code_depnum_ccdc_archive 'CCDC 1827880'
_chemical_formula_sum 'C86 H88 N6 O2'
_chemical_formula_moiety
;
C78 H72 N6,2(C4 H8 O1)
;
_journal_coden_Cambridge 1490
_journal_volume 9
_journal_year 2018
_journal_page_first 2849
_journal_name_full 'Nat.Commun. '
loop_
_publ_author_name
"R.L.Greenaway"
"V.Santolini"
"M.J.Bennison"
"B.M.Alston"
"C.J.Pugh"
"M.A.Little"
"M.Miklitz"
"E.G.B.Eden-Rump"
"R.Clowes"
"A.Shakil"
"H.J.Cuthbertson"
"H.Armstrong"
"M.E.Briggs"
"K.E.Jelfs"
"A.I.Cooper"
_chemical_name_systematic
;
2,19,21,38,59,66-hexaethyl-5,16,24,35,40,51-hexa-azatridecacyclo[18.18.14.6^7,
14^.6^26,33^.6^42,49^.1^3,37^.1^18,22^.0^8,13^.0^27,32^.0^43,48^.0^53,58^.0^60
,65^.0^67,72^]doheptaconta-1,3(59),5,7,9,11,13,15,18(66),19,21,24,26,28,30,32,
34,37,40,42,44,46,48,50,53(58),54,56,60(65),61,63,67,69,71-tritriacontaene 
tetrahydrofuran solvate
;
_cell_volume   3230.832
_exptl_crystal_colour 'colorless'
_exptl_crystal_density_diffrn 1.272
_exptl_crystal_description 'block'
_diffrn_ambient_temperature 100
_refine_special_details
;
The structure is disordered.

;
#These two values have been output from a single CSD field.
_refine_ls_R_factor_gt 0.079
_refine_ls_wR_factor_gt 0.079
_symmetry_cell_setting triclinic
_symmetry_space_group_name_H-M 'P -1'
_symmetry_Int_Tables_number 2
loop_
_symmetry_equiv_pos_site_id
_symmetry_equiv_pos_as_xyz
1 x,y,z
2 -x,-y,-z
_cell_length_a 13.2233(10)
_cell_length_b 13.3938(10)
_cell_length_c 19.8291(16)
_cell_angle_alpha 75.682(3)
_cell_angle_beta 81.032(3)
_cell_angle_gamma 72.388(3)
_cell_formula_units_Z 2
loop_
_atom_type_symbol
_atom_type_radius_bond
C 0.68
H 0.23
N 0.68
O 0.68
loop_
_atom_site_label
_atom_site_type_symbol
_atom_site_fract_x
_atom_site_fract_y
_atom_site_fract_z
N1 N 0.9291(2) 0.5695(2) 0.07863(16)
N2 N 0.9446(2) 0.5884(2) 0.36309(15)
N3 N 1.1145(2) 0.8807(2) 0.16644(15)
N4 N 0.5649(2) 1.2667(2) 0.18141(17)
C1 C 0.3385(2) 1.0917(3) 0.32347(18)
C2 C 0.3152(2) 1.0455(3) 0.27364(18)
C3 C 0.3267(2) 1.0930(3) 0.20191(18)
C4 C 0.3670(2) 1.1822(3) 0.18044(18)
C5 C 0.3935(2) 1.2261(3) 0.23068(18)
C6 C 0.3783(2) 1.1821(3) 0.30211(18)
C7 C 0.3303(3) 1.0367(3) 0.40035(19)
H1 H 0.30410 1.09470 0.42670
H2 H 0.27270 1.00130 0.40650
C8 C 0.2739(3) 0.9468(3) 0.29664(19)
H3 H 0.30500 0.90180 0.34020
H4 H 0.29580 0.90380 0.26010
C9 C 0.1522(3) 0.9808(3) 0.3092(2)
H5 H 0.12150 1.02120 0.26520
H6 H 0.13070 1.02600 0.34380
H7 H 0.12640 0.91690 0.32650
C10 C 0.3039(3) 1.0397(3) 0.14890(19)
H8 H 0.29430 1.08930 0.10270
H9 H 0.23970 1.01390 0.16470
C11 C 0.3814(3) 1.2337(3) 0.10360(18)
H10 H 0.39350 1.17930 0.07510
H11 H 0.44460 1.26160 0.09480
C12 C 0.2825(3) 1.3255(3) 0.08219(19)
H12 H 0.29500 1.36160 0.03350
H13 H 0.26790 1.37690 0.11250
H14 H 0.22130 1.29670 0.08680
C13 C 0.4519(3) 1.3130(3) 0.20496(19)
H15 H 0.41610 1.36690 0.16580
H16 H 0.44860 1.34970 0.24320
C14 C 0.4010(3) 1.2333(3) 0.35647(19)
H17 H 0.41980 1.17820 0.39960
H18 H 0.46250 1.26290 0.33850
C15 C 0.3051(3) 1.3220(3) 0.3734(2)
H19 H 0.28280 1.37340 0.33010
H20 H 0.32370 1.35880 0.40470
H21 H 0.24670 1.29150 0.39620
C16 C 0.6121(3) 0.8696(3) 0.4274(2)
C17 C 0.7019(3) 0.9099(3) 0.40848(19)
C18 C 0.8065(3) 0.8379(3) 0.40172(17)
C19 C 0.8193(3) 0.7261(3) 0.41623(17)
C20 C 0.7309(3) 0.6857(3) 0.44213(17)
C21 C 0.6261(3) 0.7587(3) 0.44762(19)
C22 C 0.6912(3) 1.0224(3) 0.3933(2)
H22 H 0.62270 1.07080 0.39880
C23 C 0.7765(3) 1.0617(3) 0.3711(2)
H23 H 0.76750 1.13680 0.36200
C24 C 0.8789(3) 0.9910(3) 0.3616(2)
H24 H 0.93820 1.01900 0.34430
C25 C 0.8931(3) 0.8834(3) 0.37709(19)
H25 H 0.96280 0.83720 0.37130
C26 C 0.7427(3) 0.5727(3) 0.46466(19)
H26 H 0.81100 0.52320 0.46060
C27 C 0.6564(3) 0.5362(3) 0.4917(2)
H27 H 0.66530 0.46130 0.50720
C28 C 0.5536(3) 0.6077(3) 0.4973(2)
H28 H 0.49450 0.58030 0.51660
C29 C 0.5383(3) 0.7146(3) 0.4754(2)
H29 H 0.46830 0.76130 0.47850
C30 C 0.9275(3) 0.6538(3) 0.40248(18)
H30 H 0.98540 0.65710 0.42410
C31 C 0.6135(3) 1.1811(3) 0.2172(2)
H31 H 0.57690 1.15660 0.26030
C32 C 0.7472(3) 0.7804(3) 0.25023(19)
H32 H 0.75360 0.70570 0.26400
C33 C 0.6468(3) 0.8537(3) 0.2529(3)
H33 H 0.58490 0.82910 0.26640
C34 C 0.6379(3) 0.9605(3) 0.2363(2)
H34 H 0.56900 1.00960 0.23860
C35 C 0.7287(3) 1.0014(3) 0.21535(18)
C36 C 0.8305(2) 0.9257(3) 0.20682(17)
C37 C 0.8356(3) 0.8146(3) 0.22819(18)
H35 H 0.90300 0.76300 0.22690
C38 C 0.7208(3) 1.1118(3) 0.20168(18)
C39 C 0.8115(3) 1.1488(3) 0.17682(17)
C40 C 0.9121(3) 1.0741(3) 0.16318(16)
C41 C 0.9206(2) 0.9633(3) 0.17905(17)
C42 C 0.8068(3) 1.2595(3) 0.16394(19)
H36 H 0.74200 1.30950 0.17540
C43 C 0.8933(3) 1.2949(3) 0.1355(2)
H37 H 0.88810 1.36920 0.12700
C44 C 0.9906(3) 1.2224(3) 0.11866(19)
H38 H 1.04990 1.24840 0.09730
C45 C 1.0003(3) 1.1159(3) 0.13263(18)
H39 H 1.06700 1.06800 0.12190
C46 C 1.0194(3) 0.8807(3) 0.16404(17)
H40 H 1.01040 0.82040 0.15100
C47 C 0.7399(3) 1.0641(3) 0.03031(18)
H41 H 0.73250 1.13880 0.02190
C48 C 0.6534(3) 1.0267(3) 0.05219(19)
H42 H 0.58570 1.07630 0.05800
C49 C 0.6609(3) 0.9150(3) 0.06687(18)
C50 C 0.7645(2) 0.8416(3) 0.06011(16)
C51 C 0.8524(3) 0.8848(3) 0.03499(17)
H43 H 0.92120 0.83750 0.02840
C52 C 0.8401(3) 0.9928(3) 0.02011(18)
H44 H 0.90000 1.01960 0.00270
C53 C 0.5711(3) 0.8757(3) 0.0887(2)
C54 C 0.5819(3) 0.7650(3) 0.10050(18)
C55 C 0.6862(2) 0.6907(3) 0.09574(16)
C56 C 0.7768(2) 0.7298(3) 0.07904(16)
C57 C 0.4912(3) 0.7231(3) 0.1165(2)
H45 H 0.42190 0.77120 0.11950
C58 C 0.5021(3) 0.6165(3) 0.1275(2)
H46 H 0.44060 0.59090 0.13820
C59 C 0.6045(3) 0.5429(3) 0.12324(19)
H47 H 0.61130 0.46850 0.13010
C60 C 0.6932(3) 0.5787(3) 0.10931(18)
H48 H 0.76130 0.52810 0.10860
C61 C 0.8867(3) 0.6605(3) 0.09078(18)
H49 H 0.93010 0.68940 0.11010
C62 C 1.1414(2) 0.6426(2) 0.24825(17)
C63 C 1.1611(2) 0.6815(2) 0.17641(17)
C64 C 1.1310(2) 0.6398(2) 0.12683(17)
C65 C 1.0801(2) 0.5563(2) 0.15023(17)
C66 C 1.0576(2) 0.5195(2) 0.22211(17)
C67 C 1.0890(2) 0.5615(2) 0.27106(17)
C68 C 1.0567(3) 0.5267(3) 0.34874(17)
H50 H 1.06310 0.44890 0.36080
H51 H 1.10370 0.54120 0.37720
C69 C 1.1758(3) 0.6902(3) 0.29968(18)
H52 H 1.12870 0.68380 0.34360
H53 H 1.16810 0.76740 0.28010
C70 C 1.2917(3) 0.6341(3) 0.3160(2)
H54 H 1.33860 0.63960 0.27260
H55 H 1.29890 0.55840 0.33750
H56 H 1.31160 0.66850 0.34820
C71 C 1.1503(2) 0.6846(3) 0.04949(17)
H57 H 1.13590 0.76340 0.04150
H58 H 1.10000 0.66950 0.02390
C72 C 1.2641(3) 0.6372(3) 0.02033(19)
H59 H 1.27350 0.67090 -0.02920
H60 H 1.27730 0.55980 0.02530
H61 H 1.31440 0.65050 0.04620
C73 C 1.0404(2) 0.5145(2) 0.09772(18)
H62 H 1.08890 0.51950 0.05440
H63 H 1.04590 0.43760 0.11670
C74 C 0.9984(3) 0.4342(3) 0.24699(18)
H64 H 0.94880 0.44280 0.21210
H65 H 0.95530 0.44570 0.29130
C75 C 1.0713(3) 0.3200(3) 0.2585(2)
H66 H 1.11480 0.30790 0.21500
H67 H 1.02810 0.26910 0.27300
H68 H 1.11790 0.30940 0.29510
C76 C 1.1988(2) 0.7827(2) 0.15466(18)
H69 H 1.25970 0.77320 0.18130
H70 H 1.22440 0.79260 0.10450
N5 N 0.4053(7) 0.9455(5) 0.1462(4)
N6 N 0.4149(5) 0.9610(6) 0.4354(4)
C77 C 0.5069(8) 0.9510(6) 0.3987(5)
H71 H 0.51040 0.99450 0.35310
C78 C 0.4651(6) 0.9525(5) 0.0903(4)
H72 H 0.44220 1.00610 0.05020
H73? H 0.26670 1.00940 0.41300
H74? H 0.32870 1.08520 0.43110
H75? H 0.24790 1.00460 0.17210
H76? H 0.27090 1.09860 0.11090
N7? N 0.3811(8) 0.9640(8) 0.1159(6)
N8? N 0.4397(8) 0.9394(6) 0.4038(4)
C79? C 0.5093(7) 0.9423(7) 0.4363(6)
H77? H 0.49580 0.99100 0.46640
C80? C 0.475(1) 0.9540(7) 0.1268(7)
H78? H 0.48890 0.99230 0.15710
C81 C 0.7188(3) 0.4957(3) 0.3046(2)
H79 H 0.74990 0.51250 0.25580
H80 H 0.75740 0.51680 0.33520
C82 C 0.5966(3) 0.5552(4) 0.3110(2)
H81 H 0.57470 0.58540 0.35350
H82 H 0.57470 0.61210 0.26920
C83 C 0.5552(4) 0.4577(4) 0.3161(3)
H83 H 0.54220 0.45290 0.26930
H84 H 0.48810 0.46260 0.34680
O1 O 0.6453(10) 0.3580(8) 0.3476(7)
C84 C 0.7250(16) 0.3756(14) 0.3278(10)
H85 H 0.75610 0.34090 0.28780
H86 H 0.77390 0.34280 0.36520
H87? H 0.74410 0.48900 0.25580
H88? H 0.76080 0.53460 0.32000
H89? H 0.50210 0.45320 0.35700
H90? H 0.51840 0.46910 0.27380
O2? O 0.7280(9) 0.3858(9) 0.3525(7)
C85? C 0.6305(17) 0.3649(16) 0.3220(14)
H91? H 0.65340 0.34500 0.27600
H92? H 0.60460 0.30690 0.35450
O3 O 0.8801(3) 0.3019(2) 0.51361(16)
C86 C 0.9556(4) 0.2879(4) 0.4548(2)
H93 H 1.02460 0.29410 0.46420
H94 H 0.93010 0.34390 0.41330
C87 C 0.9691(5) 0.1795(4) 0.4416(3)
H95 H 1.04440 0.13630 0.44330
H96 H 0.94550 0.18510 0.39550
C88 C 0.8985(4) 0.1300(4) 0.5006(2)
H97 H 0.86270 0.08670 0.48400
H98 H 0.94020 0.08440 0.54000
C89 C 0.8198(3) 0.2263(4) 0.5215(2)
H99 H 0.76070 0.25520 0.49080
H100 H 0.79000 0.20840 0.57050
#END
