
#######################################################################
#
#                 Cambridge Crystallographic Data Centre
#                                CCDC
#
#######################################################################
#
# If this CIF has been generated from an entry in the Cambridge
# Structural Database, then it will include bibliographic, chemical,
# crystal, experimental, refinement or atomic coordinate data resulting
# from the CCDC's data processing and validation procedures.
#
#######################################################################

data_CSD_CIF_PIFJOG
_audit_creation_date 2018-07-24
_audit_creation_method CSD-ConQuest-V1
_database_code_CSD PIFJOG
_database_code_depnum_ccdc_archive 'CCDC 1827881'
_chemical_formula_sum 'C57 H63 Br3 Cl6 N6'
_chemical_formula_moiety
;
C54 H57 Br3 N6,3(C1 H2 Cl2)
;
_journal_coden_Cambridge 1490
_journal_volume 9
_journal_year 2018
_journal_page_first 2849
_journal_name_full 'Nat.Commun. '
loop_
_publ_author_name
"R.L.Greenaway"
"V.Santolini"
"M.J.Bennison"
"B.M.Alston"
"C.J.Pugh"
"M.A.Little"
"M.Miklitz"
"E.G.B.Eden-Rump"
"R.Clowes"
"A.Shakil"
"H.J.Cuthbertson"
"H.Armstrong"
"M.E.Briggs"
"K.E.Jelfs"
"A.I.Cooper"
_chemical_name_systematic
;
9,25,38-tribromo-2,16,18,32,45,47-hexaethyl-5,13,21,29,34,42-hexa-azaheptacycl
o[15.15.11.1^3,31^.1^7,11^.1^15,19^.1^23,27^.1^36,40^]octatetraconta-1,3(45),5
,7(48),8,10,12,15(47),16,18,21,23(46),24,26,28,31,34,36(44),37,39,41-henicosae
ne dichloromethane solvate
;
_cell_volume   2869.991
_exptl_crystal_colour 'colorless'
_exptl_crystal_density_diffrn 1.486
_exptl_crystal_description 'needle'
_diffrn_ambient_temperature 150
_refine_special_details
;
C55,C57,Cl7,Cl8 and C55B,C57A,Cl5,Cl6 disordered over two sites with 
occupancies 0.758:0.242.
;
#These two values have been output from a single CSD field.
_refine_ls_R_factor_gt 0.0592
_refine_ls_wR_factor_gt 0.0592
_symmetry_cell_setting triclinic
_symmetry_space_group_name_H-M 'P -1'
_symmetry_Int_Tables_number 2
loop_
_symmetry_equiv_pos_site_id
_symmetry_equiv_pos_as_xyz
1 x,y,z
2 -x,-y,-z
_cell_length_a 13.9893(7)
_cell_length_b 15.0462(7)
_cell_length_c 16.1794(8)
_cell_angle_alpha 117.2705(11)
_cell_angle_beta 104.1249(13)
_cell_angle_gamma 93.9722(14)
_cell_formula_units_Z 2
loop_
_atom_type_symbol
_atom_type_radius_bond
C 0.68
H 0.23
Br 1.21
Cl 0.99
N 0.68
loop_
_atom_site_label
_atom_site_type_symbol
_atom_site_fract_x
_atom_site_fract_y
_atom_site_fract_z
Br1 Br 0.92989(3) 0.50349(4) 0.82968(5)
Br2 Br 0.06925(5) 0.76607(4) 1.07243(4)
Br3 Br -0.03011(3) 0.16773(3) 0.20702(2)
N1 N 0.6663(2) 0.71797(19) 0.73888(19)
N2 N 0.2815(2) 0.8411(2) 0.86345(19)
N3 N 0.2238(2) 0.54165(19) 0.42659(18)
N4 N 0.5973(2) 0.2890(2) 0.8192(2)
N5 N 0.2079(2) 0.4135(2) 0.9447(2)
N6 N 0.1621(2) 0.1140(2) 0.5102(2)
C1 C 0.4480(2) 0.7165(2) 0.5858(2)
C2 C 0.5103(2) 0.7795(2) 0.6831(2)
C3 C 0.4674(2) 0.8337(2) 0.7573(2)
C4 C 0.3629(2) 0.8271(2) 0.7333(2)
C5 C 0.3005(2) 0.7644(2) 0.6366(2)
C6 C 0.3433(2) 0.7099(2) 0.5624(2)
C7 C 0.4946(3) 0.6590(2) 0.5060(2)
H1 H 0.44650 0.59500 0.45420
H2 H 0.55610 0.64050 0.53380
C8 C 0.5220(3) 0.7236(3) 0.4609(2)
H3 H 0.55060 0.68410 0.40900
H4 H 0.57160 0.78590 0.51160
H5 H 0.46120 0.74210 0.43340
C9 C 0.6234(2) 0.7890(2) 0.7087(2)
H6 H 0.64310 0.78030 0.65110
H7 H 0.65550 0.85960 0.76220
C10 C 0.5349(3) 0.9003(2) 0.8620(2)
H8 H 0.59400 0.87010 0.87340
H9 H 0.49730 0.90160 0.90700
C11 C 0.5714(3) 1.0102(2) 0.8854(2)
H10 H 0.60940 1.00940 0.84170
H11 H 0.61490 1.05030 0.95350
H12 H 0.51310 1.04110 0.87600
C12 C 0.3166(3) 0.8890(2) 0.8121(2)
H13 H 0.36700 0.95230 0.86170
H14 H 0.25860 0.90980 0.78170
C13 C 0.1870(2) 0.7565(2) 0.6114(2)
H15 H 0.16600 0.76440 0.66820
H16 H 0.15300 0.68740 0.55590
C14 C 0.1524(3) 0.8369(3) 0.5843(3)
H17 H 0.17200 0.82880 0.52750
H18 H 0.18420 0.90550 0.63970
H19 H 0.07900 0.82780 0.56840
C15 C 0.2747(2) 0.6456(2) 0.4576(2)
H20 H 0.22220 0.68340 0.44670
H21 H 0.31530 0.64030 0.41380
C16 C 0.3771(2) 0.2639(2) 0.8731(2)
C17 C 0.4203(2) 0.2078(2) 0.7999(2)
C18 C 0.3596(2) 0.1464(2) 0.7026(2)
C19 C 0.2544(2) 0.1369(2) 0.6782(2)
C20 C 0.2099(2) 0.1914(2) 0.7512(2)
C21 C 0.2717(2) 0.2539(2) 0.8485(2)
C22 C 0.2242(3) 0.3123(2) 0.9276(2)
H22 H 0.15820 0.26930 0.91110
H23 H 0.26740 0.32010 0.99000
C23 C 0.4437(3) 0.3328(2) 0.9779(2)
H24 H 0.41220 0.39100 1.01010
H25 H 0.50980 0.36090 0.97770
C24 C 0.4606(3) 0.2764(3) 1.0367(2)
H26 H 0.49210 0.21890 1.00520
H27 H 0.39560 0.25070 1.03920
H28 H 0.50480 0.32350 1.10330
C25 C 0.5331(2) 0.2133(2) 0.8267(2)
H29 H 0.55700 0.22670 0.89500
H30 H 0.54440 0.14500 0.78470
C26 C 0.4078(3) 0.0906(2) 0.6234(2)
H31 H 0.47540 0.13190 0.64170
H32 H 0.36640 0.08460 0.56130
C27 C 0.4190(3) -0.0168(3) 0.6065(3)
H33 H 0.45280 -0.04730 0.55680
H34 H 0.35210 -0.05970 0.58420
H35 H 0.45910 -0.01180 0.66790
C28 C 0.1874(3) 0.0683(2) 0.5732(2)
H36 H 0.22080 0.01160 0.54160
H37 H 0.12350 0.03770 0.57500
C29 C 0.0966(3) 0.1803(2) 0.7250(3)
H38 H 0.06950 0.16880 0.65760
H39 H 0.08050 0.24460 0.76980
C30 C 0.0451(3) 0.0912(3) 0.7316(3)
H40 H 0.05910 0.02700 0.68600
H41 H -0.02790 0.08720 0.71470
H42 H 0.07110 0.10260 0.79850
C31 C 0.2912(2) 0.7519(2) 0.8446(2)
H43 H 0.32400 0.71560 0.79810
C32 C 0.2521(2) 0.7031(2) 0.8944(2)
C33 C 0.1948(3) 0.7520(2) 0.9547(2)
H44 H 0.18470 0.81840 0.96770
C34 C 0.1529(3) 0.7024(3) 0.9954(2)
C35 C 0.1676(3) 0.6069(2) 0.9801(2)
H45 H 0.13830 0.57470 1.00930
C36 C 0.2263(2) 0.5586(2) 0.9210(2)
C37 C 0.2672(2) 0.6066(2) 0.8783(2)
H46 H 0.30640 0.57310 0.83730
C38 C 0.2422(2) 0.4553(2) 0.9032(2)
H47 H 0.27870 0.42050 0.85980
C39 C 0.2522(2) 0.4989(2) 0.4770(2)
H48 H 0.30620 0.53480 0.53650
C40 C 0.2019(2) 0.3930(2) 0.4442(2)
C41 C 0.2295(2) 0.3480(2) 0.5025(2)
H49 H 0.28120 0.38550 0.56360
C42 C 0.1819(2) 0.2483(2) 0.4720(2)
C43 C 0.1067(2) 0.1932(2) 0.3816(2)
H50 H 0.07550 0.12460 0.35900
C44 C 0.0781(2) 0.2396(2) 0.3253(2)
C45 C 0.1241(2) 0.3387(2) 0.3550(2)
H51 H 0.10320 0.36920 0.31550
C46 C 0.2080(2) 0.2025(2) 0.5360(2)
H52 H 0.25980 0.23980 0.59710
C47 C 0.6095(2) 0.6495(2) 0.7393(2)
H53 H 0.53860 0.64480 0.72120
C48 C 0.6513(2) 0.5763(2) 0.7677(2)
C49 C 0.5884(2) 0.5037(2) 0.7727(2)
H54 H 0.51830 0.50300 0.75990
C50 C 0.6274(2) 0.4326(2) 0.7961(2)
C51 C 0.7302(2) 0.4336(2) 0.8139(2)
H55 H 0.75760 0.38480 0.82900
C52 C 0.7916(2) 0.5059(3) 0.8095(2)
C53 C 0.7540(2) 0.5778(2) 0.7872(2)
H56 H 0.79780 0.62750 0.78530
C54 C 0.5614(2) 0.3559(2) 0.8022(2)
H57 H 0.49190 0.35700 0.79320
Cl1 Cl 0.2006(2) 0.81916(15) 0.34554(15)
Cl2 Cl 0.2735(3) 0.99075(16) 0.32338(18)
C55 C 0.2876(8) 0.8725(7) 0.3139(9)
H58 H 0.28360 0.82440 0.24560
H59 H 0.35570 0.88080 0.35630
Cl3? Cl 0.3318(8) 0.9887(5) 0.3425(6)
Cl4? Cl 0.2834(11) 0.8346(6) 0.3745(6)
C56? C 0.2437(16) 0.8675(14) 0.2780(13)
H60? H 0.17260 0.87480 0.26480
H61? H 0.25550 0.81890 0.21660
Cl5 Cl 0.10194(9) 0.55318(8) 0.63879(9)
Cl6 Cl 0.07289(11) 0.37295(9) 0.66227(9)
C57 C 0.0271(4) 0.4340(3) 0.5972(4)
H62 H -0.04140 0.44320 0.60080
H63 H 0.02130 0.38940 0.52760
C58? C 0.0306(13) 0.4874(10) 0.6759(14)
H64? H -0.04110 0.46940 0.63630
H65? H 0.03580 0.53220 0.74530
Cl7 Cl 0.86001(8) 0.98862(7) 0.91536(8)
Cl8 Cl 0.79434(10) 0.89922(10) 1.02356(9)
C59 C 0.8599(3) 0.8859(3) 0.9392(3)
H66 H 0.93030 0.88240 0.96590
H67 H 0.82770 0.82120 0.87730
#END
