
#######################################################################
#
#                 Cambridge Crystallographic Data Centre
#                                CCDC
#
#######################################################################
#
# If this CIF has been generated from an entry in the Cambridge
# Structural Database, then it will include bibliographic, chemical,
# crystal, experimental, refinement or atomic coordinate data resulting
# from the CCDC's data processing and validation procedures.
#
#######################################################################

data_CSD_CIF_PIFJEW
_audit_creation_date 2018-07-24
_audit_creation_method CSD-ConQuest-V1
_database_code_CSD PIFJEW
_database_code_depnum_ccdc_archive 'CCDC 1827879'
_chemical_formula_sum 'C249.7 H322.3 Cl7.34 N24 O31.5'
_chemical_formula_moiety
;
C240 H288 N24 O24,6(C1 H4 O1),3.67(C1 H2 Cl2),1.5(H2 O1)
;
_journal_coden_Cambridge 1490
_journal_volume 9
_journal_year 2018
_journal_page_first 2849
_journal_name_full 'Nat.Commun. '
loop_
_publ_author_name
"R.L.Greenaway"
"V.Santolini"
"M.J.Bennison"
"B.M.Alston"
"C.J.Pugh"
"M.A.Little"
"M.Miklitz"
"E.G.B.Eden-Rump"
"R.Clowes"
"A.Shakil"
"H.J.Cuthbertson"
"H.Armstrong"
"M.E.Briggs"
"K.E.Jelfs"
"A.I.Cooper"
_chemical_name_systematic
;
1,9,17,25,33,41,49,57(1,3,5)-octakis(2,4,6-triethylbenzena)-5,13,21,29,37,45,5
3,61,68,75,82,8(1,4)-dodecakis(2,5-dimethoxybenzena)-3,7,11,15,19,23,27,31,35,
39,43,47,51,55,59,63,66,70,73,77,80,84,87,91-tetracosaazapentacyclo[47.15.7.7^
9,25^.7^17,33^.7^41,57^]dononacontaphane-3,6,11,14,19,22,27,30,35,38,43,46,51,
54,59,62,66,69,73,76,80,83,87,90-tetracosaene dichloromethane methanol 
solvate sesquihydrate
;
_cell_volume   6123.028
_exptl_crystal_colour 'light yellow'
_exptl_crystal_density_diffrn 1.199
_exptl_crystal_description 'plate'
_diffrn_ambient_temperature 100
_refine_special_details
;
C125,O15 and C132,O126 disordered over two sites with occupancies 0.5:0.5; 
C128,C129,C42,C69,Cl5,Cl6,O10,O17,O19,O7 and O2W and 
C124,C43,C70,Cl7,Cl8,O18,O1W,O8,O9 disordered over three sites with 
occupancies 
0.5,0.5,0.7,0.5,0.5,0.5,0.5,0.5,0.7,0.5:0.5:0.3333,0.3,0.5,0.3333,0.3333,0.3,0
.25,0.5,0.5; C72 and C73 disordered over two sites with occupancies 0.5:0.5; 
Cl1,Cl3 and Cl2,Cl4 disordered over two sites with occupancies 0.5:0.5.
;
#These two values have been output from a single CSD field.
_refine_ls_R_factor_gt 0.1465
_refine_ls_wR_factor_gt 0.1465
_symmetry_cell_setting triclinic
_symmetry_space_group_name_H-M 'P -1'
_symmetry_Int_Tables_number 2
loop_
_symmetry_equiv_pos_site_id
_symmetry_equiv_pos_as_xyz
1 x,y,z
2 -x,-y,-z
_cell_length_a 18.078(2)
_cell_length_b 18.632(2)
_cell_length_c 20.282(2)
_cell_angle_alpha 109.669(3)
_cell_angle_beta 95.102(3)
_cell_angle_gamma 104.266(3)
_cell_formula_units_Z 1
loop_
_atom_type_symbol
_atom_type_radius_bond
C 0.68
H 0.23
Cl 0.99
N 0.68
O 0.68
loop_
_atom_site_label
_atom_site_type_symbol
_atom_site_fract_x
_atom_site_fract_y
_atom_site_fract_z
Cl1 Cl 0.3401(7) 0.1393(6) -0.0348(6)
Cl2 Cl 0.372(1) 0.1649(10) 0.0993(8)
C1 C 0.298(1) 0.1710(14) 0.0419(5)
H1 H 0.29430 0.22600 0.05410
H2 H 0.24680 0.13390 0.03820
Cl3? Cl 0.3433(14) 0.1099(13) -0.0133(9)
Cl4? Cl 0.3458(5) 0.1921(6) 0.1288(5)
H3? H 0.24200 0.14350 0.03510
H4? H 0.30380 0.22070 0.03230
Cl5 Cl 0.2257(4) 0.3149(7) 0.0754(5)
Cl6 Cl 0.2956(12) 0.3810(8) 0.2050(9)
C2 C 0.2188(9) 0.342(1) 0.1477(10)
H5 H 0.18710 0.29610 0.15700
H6 H 0.18920 0.38140 0.15500
Cl7? Cl 0.1769(12) 0.5658(13) 0.4241(10)
Cl8? Cl 0.1783(12) 0.7140(14) 0.4414(13)
C3? C 0.120(3) 0.629(2) 0.450(4)
H7? H 0.11330 0.63930 0.50010
H8? H 0.06890 0.60860 0.41840
O1? O 0.1745(14) 0.6552(17) 0.4586(14)
O2 O 0.4879(3) 0.4188(3) 0.0730(3)
O3 O 0.3911(3) 0.6861(4) 0.1087(4)
O4 O 0.6878(5) 1.0927(5) 0.4547(6)
O5 O 0.8998(5) 0.9571(6) 0.5424(6)
O6 O 0.8004(6) 0.3475(6) 0.3172(6)
O7 O 0.5970(5) 0.4816(5) 0.4666(5)
O8 O 0.2974(13) 0.3882(14) 0.4336(12)
O9 O 0.0543(10) 0.2219(10) 0.4621(9)
O10 O 0.5525(8) 0.7637(5) 0.6729(6)
O11 O 0.3834(5) 0.6352(4) 0.8405(5)
O12 O 0.1136(5) -0.0566(5) -0.0943(5)
O13 O 0.1049(5) 0.1686(5) 0.1588(5)
N1 N 0.4389(6) 0.8974(5) 0.7878(7)
N2 N 0.7018(7) 1.0956(7) 0.6523(8)
N3 N 0.5037(5) 0.5020(4) 0.7242(4)
N4 N 0.6329(6) 0.2850(6) 0.4883(5)
N5 N 0.2773(7) 0.2328(7) 0.4792(6)
N6 N 0.0285(7) 0.3916(7) 0.3009(6)
N7 N 0.2235(4) 0.4891(4) 0.0831(4)
N8 N -0.0167(5) 0.1701(5) -0.0140(5)
N9 N 0.6501(4) 0.6230(5) 0.0993(4)
N10 N 0.8189(5) 0.5686(6) 0.3333(5)
N11 N 0.8511(6) 0.9076(6) 0.3366(7)
N12 N 0.2233(6) -0.0632(5) 0.0802(6)
C4 C 0.5291(6) 0.2735(6) 0.5660(6)
C5 C 0.4535(7) 0.2286(6) 0.5322(6)
C6 C 0.3922(6) 0.2476(6) 0.5622(5)
C7 C 0.4061(6) 0.3125(6) 0.6279(5)
C8 C 0.4812(6) 0.3571(5) 0.6601(5)
C9 C 0.5426(6) 0.3375(5) 0.6285(5)
C10 C 0.5964(7) 0.2486(6) 0.5361(6)
H9 H 0.63740 0.25950 0.57690
H10 H 0.57830 0.19010 0.51000
C11 C 0.4383(8) 0.1541(7) 0.4647(7)
H11 H 0.47770 0.16330 0.43520
H12 H 0.38640 0.14270 0.43630
C12 C 0.4421(10) 0.0807(8) 0.4857(9)
H13 H 0.42400 0.03160 0.44300
H14 H 0.40880 0.07670 0.52070
H15 H 0.49580 0.08810 0.50640
C13 C 0.3070(6) 0.1960(7) 0.5264(6)
H16 H 0.30550 0.14060 0.49820
H17 H 0.27460 0.19490 0.56310
C14 C 0.3407(6) 0.3287(7) 0.6650(6)
H18 H 0.29300 0.31450 0.62940
H19 H 0.35380 0.38610 0.69500
C15 C 0.3267(7) 0.2773(8) 0.7124(7)
H20 H 0.31830 0.22110 0.68300
H21 H 0.28090 0.28320 0.73360
H22 H 0.37230 0.29540 0.75040
C16 C 0.4968(6) 0.4251(5) 0.7317(5)
H23 H 0.45380 0.41380 0.75730
H24 H 0.54540 0.42850 0.76080
C17 C 0.6252(6) 0.3847(6) 0.6672(6)
H25 H 0.62690 0.44010 0.69550
H26 H 0.65930 0.38650 0.63180
C18 C 0.6563(7) 0.3468(8) 0.7176(7)
H27 H 0.66790 0.29820 0.68910
H28 H 0.61670 0.33350 0.74510
H29 H 0.70370 0.38490 0.75030
C19 C 0.5377(6) 1.0298(6) 0.8018(7)
C20 C 0.5567(7) 1.0556(6) 0.7447(7)
C21 C 0.6303(7) 1.1032(6) 0.7530(7)
C22 C 0.6866(7) 1.1226(6) 0.8122(7)
C23 C 0.6678(7) 1.0974(6) 0.8660(7)
C24 C 0.5936(7) 1.0510(6) 0.8618(7)
C25 C 0.4541(6) 0.9819(6) 0.7970(8)
H30 H 0.43650 1.00910 0.84110
H31 H 0.42110 0.98450 0.75670
C26 C 0.4969(7) 1.0348(8) 0.6804(7)
H32 H 0.46180 0.98070 0.66940
H33 H 0.52330 1.03320 0.63940
C27 C 0.4468(7) 1.0941(7) 0.6882(7)
H34 H 0.41030 1.07740 0.64340
H35 H 0.48100 1.14800 0.69940
H36 H 0.41780 1.09370 0.72670
C28 C 0.6532(8) 1.1362(8) 0.6953(8)
H37 H 0.60540 1.13070 0.66370
H38 H 0.68150 1.19380 0.71840
C29 C 0.7698(7) 1.1742(6) 0.8174(8)
H39 H 0.78160 1.16410 0.76890
H40 H 0.80750 1.15900 0.84440
C30 C 0.7788(7) 1.2639(6) 0.8548(9)
H41 H 0.73830 1.27800 0.83080
H42 H 0.83000 1.29540 0.85270
H43 H 0.77370 1.27520 0.90480
C31 C 0.7299(7) 1.1237(7) 0.9331(7)
H44 H 0.70500 1.12520 0.97480
H45 H 0.76470 1.17780 0.94280
C32 C 0.5723(8) 1.0266(7) 0.9234(7)
H46 H 0.61740 1.01640 0.94600
H47 H 0.52890 0.97650 0.90500
C33 C 0.5483(11) 1.0912(8) 0.9796(9)
H48 H 0.49810 1.09430 0.96000
H49 H 0.58770 1.14280 0.99260
H50 H 0.54370 1.07770 1.02200
C34 C 0.8576(5) 0.6489(6) 0.2586(5)
C35 C 0.8868(6) 0.7308(6) 0.2913(6)
C36 C 0.8677(6) 0.7795(6) 0.2553(6)
C37 C 0.8160(6) 0.7430(6) 0.1893(6)
C38 C 0.7858(5) 0.6604(6) 0.1581(5)
C39 C 0.8068(5) 0.6127(5) 0.1929(5)
C40 C 0.8805(6) 0.5958(6) 0.2939(6)
H51 H 0.93040 0.62540 0.32780
H52 H 0.88800 0.54870 0.25730
C41 C 0.9389(7) 0.7691(7) 0.3655(7)
H53 H 0.92450 0.73410 0.39260
H54 H 0.93030 0.82080 0.39160
C42 C 1.0258(7) 0.7826(9) 0.3606(8)
H55 H 1.03650 0.80260 0.32250
H56 H 1.03820 0.73200 0.35020
H57 H 1.05780 0.82160 0.40610
C43 C 0.9022(6) 0.8710(6) 0.2913(7)
H58 H 0.95370 0.88390 0.32100
H59 H 0.90980 0.89400 0.25410
C44 C 0.7878(6) 0.7962(6) 0.1550(6)
H60 H 0.74230 0.81220 0.16300
C45 C 0.8386(9) 0.8193(10) 0.1091(9)
H61 H 0.89220 0.84300 0.13560
H62 H 0.82220 0.85840 0.09360
H63 H 0.83550 0.77210 0.06730
C46 C 0.7282(5) 0.6197(6) 0.0870(5)
H64 H 0.74420 0.64690 0.05400
H65 H 0.72790 0.56340 0.06490
C47 C 0.7743(5) 0.5216(5) 0.1596(5)
H66 H 0.72060 0.50690 0.13320
H67 H 0.77190 0.50000 0.19800
C48 C 0.8238(6) 0.4834(6) 0.1084(6)
H68 H 0.82330 0.50160 0.06840
H69 H 0.80240 0.42520 0.09040
H70 H 0.87740 0.49910 0.13390
C49 C 0.0865(5) 0.4429(6) 0.0992(6)
C50 C 0.0466(5) 0.3698(6) 0.0443(6)
C51 C -0.0107(5) 0.3141(6) 0.0570(6)
C52 C -0.0284(5) 0.3308(6) 0.1259(6)
C53 C 0.0110(5) 0.4031(6) 0.1787(6)
C54 C 0.0692(5) 0.4581(6) 0.1670(6)
C55 C 0.1456(5) 0.5029(6) 0.0815(6)
H71 H 0.12640 0.50090 0.03350
H72 H 0.15110 0.55700 0.11610
C56 C 0.0679(5) 0.3502(6) -0.0307(5)
H73 H 0.12310 0.37890 -0.02610
H74 H 0.06140 0.29230 -0.05250
C57 C 0.0176(6) 0.3735(7) -0.0792(6)
H75 H 0.03850 0.36910 -0.12290
H76 H 0.01740 0.42860 -0.05460
H77 H -0.03570 0.33790 -0.09140
C58 C -0.0528(6) 0.2352(6) -0.0033(6)
H78 H -0.10590 0.21640 0.00540
H79 H -0.05810 0.24510 -0.04820
C59 C -0.0909(5) 0.2678(6) 0.1403(6)
H80 H -0.07790 0.27280 0.19040
H81 H -0.09120 0.21380 0.10910
C60 C -0.1725(5) 0.2779(7) 0.1265(7)
H82 H -0.18520 0.27350 0.07710
H83 H -0.17290 0.33040 0.15890
H84 H -0.21100 0.23620 0.13490
C61 C -0.0096(6) 0.4227(7) 0.2536(6)
H85 H 0.00410 0.48140 0.27730
H86 H -0.06660 0.40120 0.24810
C62 C 0.0858(6) 0.6048(6) 0.2373(6)
H87 H 0.09030 0.62120 0.19630
H88 H 0.11530 0.64950 0.28090
H89 H 0.03100 0.58910 0.24120
C63 C 0.1183(6) 0.5345(6) 0.2271(6)
H90 H 0.17140 0.54870 0.21710
H91 H 0.12220 0.52460 0.27210
C64 C 0.2132(8) 0.2435(9) 0.4851(8)
H92 H 0.18560 0.22680 0.51760
C65 C 0.1785(6) 0.2819(6) 0.4428(5)
C66 C 0.2231(4) 0.3305(6) 0.4130(6)
C67 C 0.1871(5) 0.3622(6) 0.3708(6)
H93 H 0.21760 0.39550 0.35040
C68 C 0.1067(6) 0.3452(6) 0.3585(5)
C69 C 0.0622(4) 0.2966(6) 0.3883(6)
H94 H 0.00720 0.28500 0.37980
C70 C 0.0981(6) 0.2649(6) 0.4305(5)
C71 C 0.314(2) 0.448(2) 0.3926(18)
H95 H 0.32230 0.41980 0.34470
H96 H 0.36100 0.49240 0.41890
H97 H 0.26990 0.46890 0.38890
C72 C -0.0346(9) 0.1976(13) 0.4385(12)
H98 H -0.05990 0.16680 0.46530
H99 H -0.05150 0.24560 0.44770
H100 H -0.04900 0.16510 0.38740
C73 C 0.0931(11) 0.4087(15) 0.331(2)
H101 H 0.13200 0.45670 0.33790
C74 C 0.0313(6) 0.1739(6) 0.0376(7)
H102 H 0.04190 0.21770 0.08170
C75 C 0.0711(6) 0.1119(6) 0.0311(7)
C76 C 0.1102(7) 0.1132(7) 0.0948(7)
C77 C 0.1502(6) 0.0580(7) 0.0913(7)
H103 H 0.17750 0.05880 0.13400
C78 C 0.1512(6) 0.0017(6) 0.0267(7)
C79 C 0.1111(6) 0.0017(7) -0.0349(7)
C80 C 0.0717(6) 0.0574(6) -0.0306(7)
H104 H 0.04430 0.05660 -0.07320
C81 C 0.1969(6) -0.0548(6) 0.0230(8)
H105 H 0.20690 -0.08480 -0.02160
C82 C 0.1491(10) 0.1712(10) 0.2243(8)
H106 H 0.20470 0.18600 0.22310
H107 H 0.13320 0.11860 0.22780
H108 H 0.13880 0.21080 0.26560
C83 C 0.0727(9) -0.0597(9) -0.1625(8)
H109 H 0.08650 -0.09780 -0.20250
H110 H 0.08820 -0.00670 -0.16520
H111 H 0.01640 -0.07670 -0.16470
C84 C 0.2792(5) 0.5483(6) 0.0925(5)
H112 H 0.26750 0.59700 0.09960
C85 C 0.3616(5) 0.5511(5) 0.0937(4)
C86 C 0.3837(5) 0.4823(5) 0.0852(4)
H113 H 0.34650 0.43430 0.08100
C87 C 0.4615(5) 0.4853(5) 0.0830(5)
C88 C 0.5161(5) 0.5541(5) 0.0887(4)
C89 C 0.4940(5) 0.6227(5) 0.0983(5)
H114 H 0.53160 0.67110 0.10410
C90 C 0.4162(5) 0.6203(5) 0.0996(5)
C91 C 0.5992(5) 0.5583(6) 0.0830(5)
H115 H 0.61310 0.51020 0.06650
C92 C 0.4323(5) 0.3465(5) 0.0633(6)
H116 H 0.39420 0.33000 0.01950
H117 H 0.40570 0.35380 0.10400
H118 H 0.45820 0.30520 0.05950
C93 C 0.4472(6) 0.7579(6) 0.1150(7)
H119 H 0.46530 0.75100 0.06980
H120 H 0.49130 0.77060 0.15300
H121 H 0.42350 0.80160 0.12660
C94 C 0.8048(7) 0.4973(8) 0.3233(7)
H122 H 0.83140 0.46700 0.29190
C95 C 0.6541(4) 0.3779(4) 0.4304(4)
C96 C 0.7039(5) 0.3419(4) 0.3923(4)
H123 H 0.70600 0.29100 0.39100
C97 C 0.7506(4) 0.3803(4) 0.3561(4)
C98 C 0.7475(4) 0.4548(4) 0.3580(4)
C99 C 0.6977(4) 0.4908(3) 0.3961(4)
H124 H 0.69550 0.54170 0.39740
C100 C 0.6509(4) 0.4524(4) 0.4323(4)
C101 C 0.6134(7) 0.3420(7) 0.4763(6)
H125 H 0.57320 0.36050 0.49680
C102 C 0.8052(12) 0.2706(10) 0.3173(12)
H126 H 0.84460 0.25490 0.29010
H127 H 0.75460 0.23040 0.29540
H128 H 0.81960 0.27480 0.36650
C103 C 0.5786(8) 0.5481(7) 0.4561(7)
H129 H 0.56400 0.53580 0.40490
H130 H 0.62400 0.59540 0.47660
H131 H 0.53510 0.55840 0.47960
C104 C 0.8815(8) 0.9458(8) 0.4030(9)
H132 H 0.93280 0.94770 0.42060
C105 C 0.8361(7) 0.9866(7) 0.4517(9)
C106 C 0.7827(7) 1.0177(7) 0.4273(8)
H133 H 0.77430 1.01230 0.37880
C107 C 0.7403(7) 1.0578(7) 0.4748(9)
C108 C 0.7479(7) 1.0616(7) 0.5448(9)
C109 C 0.8024(7) 1.0266(7) 0.5677(8)
H134 H 0.80920 1.02800 0.61510
C110 C 0.8447(7) 0.9913(7) 0.5212(9)
C111 C 0.7017(8) 1.0995(8) 0.5923(9)
H135 H 0.67090 1.12790 0.57730
C112 C 0.7002(9) 1.1186(9) 0.3962(9)
H136 H 0.72380 1.08330 0.36290
H137 H 0.73490 1.17330 0.41440
H138 H 0.65030 1.11680 0.37150
C113 C 0.9074(9) 0.9590(9) 0.6128(9)
H139 H 0.85720 0.93140 0.62030
H140 H 0.92430 1.01450 0.64640
H141 H 0.94600 0.93240 0.62060
C114 C 0.4637(4) 0.6233(3) 0.7560(4)
C115 C 0.5081(4) 0.6538(4) 0.7137(4)
H142 H 0.53550 0.62280 0.68400
C116 C 0.5124(5) 0.7297(4) 0.7147(4)
C117 C 0.4723(5) 0.7751(3) 0.7581(4)
C118 C 0.4278(4) 0.7446(4) 0.8005(4)
H143 H 0.40040 0.77570 0.83010
C119 C 0.4235(4) 0.6687(4) 0.7994(4)
C120 C 0.5976(13) 0.7225(9) 0.6334(11)
H144 H 0.56400 0.67190 0.59780
H145 H 0.63390 0.71180 0.66510
H146 H 0.62680 0.75450 0.60940
C121 C 0.3628(9) 0.6869(8) 0.9009(8)
H147 H 0.32030 0.70480 0.88490
H148 H 0.40790 0.73320 0.92710
H149 H 0.34600 0.65820 0.93210
C122 C 0.4610(6) 0.5423(6) 0.7564(5)
H150 H 0.42610 0.52000 0.78160
C123 C 0.4832(7) 0.8595(6) 0.7618(7)
H151 H 0.52500 0.88380 0.74370
O14? O -0.0199(13) 0.2384(16) 0.3819(15)
O15? O 0.2358(12) 0.4011(13) 0.3278(11)
H152? H 0.80160 0.79460 0.11060
C124? C 0.740(3) 0.851(3) 0.187(3)
H153? H 0.68950 0.81890 0.18970
H154? H 0.73220 0.88030 0.15600
H155? H 0.76730 0.88830 0.23430
H156? H 0.27800 0.34210 0.42140
H157? H 0.06770 0.23160 0.45090
C125? C 0.3138(19) 0.395(2) 0.3215(19)
H158? H 0.31060 0.34280 0.28650
H159? H 0.34180 0.40220 0.36790
H160? H 0.34150 0.43700 0.30570
H161? H -0.08850 0.16350 0.42650
H162? H 0.00080 0.16530 0.43790
H163? H -0.02530 0.23900 0.48610
C126? C 0.0782(13) 0.3584(15) 0.2938(9)
H164? H 0.09750 0.34220 0.25080
C127 C 0.7876(7) 0.9888(8) 0.7621(8)
H165 H 0.83020 0.97110 0.74190
H166 H 0.79160 0.99170 0.81140
H167 H 0.79060 1.04170 0.76100
O16 O 0.7143(9) 0.9330(8) 0.7205(11)
H168 H 0.68330 0.95810 0.71420
H169? H 0.78090 0.93540 0.76290
H170? H 0.76260 1.01830 0.79860
H171? H 0.84310 1.01730 0.77170
O17? O 0.7527(19) 0.9825(19) 0.6936(12)
H172? H 0.70500 0.97100 0.68930
O18? O 0.759(2) 0.024(4) 0.233(3)
O19 O 0.0452(10) 0.8387(10) 0.2002(10)
H173 H 0.06490 0.81100 0.16890
C128 C 0.048(4) 0.913(2) 0.190(3)
H174 H 0.07530 0.91510 0.15070
H175 H 0.07620 0.95790 0.23380
H176 H -0.00470 0.91500 0.17860
O20? O 0.061(3) 0.9281(17) 0.1742(19)
H177? H 0.09620 0.94720 0.15490
C129? C 0.0425(12) 0.9882(14) 0.2223(13)
H178? H -0.01420 0.97500 0.21730
H179? H 0.06240 1.03750 0.21370
H180? H 0.06550 0.99550 0.27050
O21 O 0.0166(10) 0.4344(12) 0.5489(9)
H181 H -0.03110 0.42180 0.53240
C130 C 0.0553(19) 0.5094(18) 0.545(2)
H182 H 0.01820 0.52680 0.52040
H183 H 0.09780 0.50360 0.51870
H184 H 0.07640 0.54920 0.59340
O22 O 0.6848(11) 0.1074(12) 0.1331(13)
H185 H 0.70690 0.13080 0.11150
C131 C 0.7278(16) 0.0777(17) 0.1580(16)
H186 H 0.71180 0.01990 0.13150
H187 H 0.72460 0.08850 0.20830
H188 H 0.78140 0.10080 0.15420
O2A O 0.5121(3) 0.5812(3) 0.9270(3)
O3A O 0.6089(3) 0.3139(4) 0.8913(4)
O4A O 0.3122(5) -0.0927(5) 0.5453(6)
O5A O 0.1002(5) 0.0429(6) 0.4576(6)
O6A O 0.1996(6) 0.6525(6) 0.6828(6)
O7A O 0.4030(5) 0.5184(5) 0.5334(5)
O8A O 0.7026(13) 0.6118(14) 0.5664(12)
O9A O 0.9457(10) 0.7781(10) 0.5379(9)
O10A O 0.4475(8) 0.2363(5) 0.3271(6)
O11A O 0.6166(5) 0.3648(4) 0.1595(5)
O12A O 0.8864(5) 1.0566(5) 1.0943(5)
O13A O 0.8951(5) 0.8314(5) 0.8412(5)
N1A N 0.5611(6) 0.1026(5) 0.2122(7)
N2A N 0.2982(7) -0.0956(7) 0.3477(8)
N3A N 0.4963(5) 0.4980(4) 0.2758(4)
N4A N 0.3671(6) 0.7150(6) 0.5117(5)
N5A N 0.7227(7) 0.7672(7) 0.5208(6)
N6A N 0.9715(7) 0.6084(7) 0.6991(6)
N7A N 0.7765(4) 0.5109(4) 0.9169(4)
N8A N 1.0167(5) 0.8299(5) 1.0140(5)
N9A N 0.3499(4) 0.3770(5) 0.9007(4)
N10A N 0.1811(5) 0.4314(6) 0.6667(5)
N11A N 0.1489(6) 0.0924(6) 0.6634(7)
N12A N 0.7767(6) 1.0632(5) 0.9198(6)
C4A C 0.4709(6) 0.7265(6) 0.4340(6)
C5A C 0.5465(7) 0.7714(6) 0.4678(6)
C6A C 0.6078(6) 0.7524(6) 0.4378(5)
C7A C 0.5939(6) 0.6875(6) 0.3721(5)
C8A C 0.5188(6) 0.6429(5) 0.3399(5)
C9A C 0.4574(6) 0.6625(5) 0.3715(5)
C10A C 0.4036(7) 0.7514(6) 0.4639(6)
H9A H 0.36260 0.74050 0.42310
H10A H 0.42170 0.80990 0.49000
C11A C 0.5617(8) 0.8459(7) 0.5353(7)
H11A H 0.52230 0.83670 0.56480
H12A H 0.61360 0.85730 0.56370
C12A C 0.5579(10) 0.9193(8) 0.5143(9)
H13A H 0.57600 0.96840 0.55700
H14A H 0.59120 0.92330 0.47930
H15A H 0.50420 0.91190 0.49360
C13A C 0.6930(6) 0.8040(7) 0.4736(6)
H16A H 0.69450 0.85940 0.50180
H17A H 0.72540 0.80510 0.43690
C14A C 0.6593(6) 0.6713(7) 0.3350(6)
H18A H 0.70700 0.68550 0.37060
H19A H 0.64620 0.61390 0.30500
C15A C 0.6733(7) 0.7227(8) 0.2876(7)
H20A H 0.68170 0.77890 0.31700
H21A H 0.71910 0.71680 0.26640
H22A H 0.62770 0.70460 0.24960
C16A C 0.5032(6) 0.5749(5) 0.2683(5)
H23A H 0.54620 0.58620 0.24270
H24A H 0.45460 0.57150 0.23920
C17A C 0.3748(6) 0.6153(6) 0.3328(6)
H25A H 0.37310 0.55990 0.30450
H26A H 0.34070 0.61350 0.36820
C18A C 0.3437(7) 0.6532(8) 0.2824(7)
H27A H 0.33210 0.70180 0.31090
H28A H 0.38330 0.66650 0.25490
H29A H 0.29630 0.61510 0.24970
C19A C 0.4623(6) -0.0298(6) 0.1982(7)
C20A C 0.4433(7) -0.0556(6) 0.2553(7)
C21A C 0.3697(7) -0.1032(6) 0.2470(7)
C22A C 0.3134(7) -0.1226(6) 0.1878(7)
C23A C 0.3322(7) -0.0974(6) 0.1340(7)
C24A C 0.4064(7) -0.0510(6) 0.1382(7)
C25A C 0.5459(6) 0.0181(6) 0.2030(8)
H30A H 0.56350 -0.00910 0.15890
H31A H 0.57890 0.01550 0.24330
C26A C 0.5031(7) -0.0348(8) 0.3196(7)
H32A H 0.53820 0.01930 0.33060
H33A H 0.47670 -0.03320 0.36060
C27A C 0.5532(7) -0.0941(7) 0.3118(7)
H34A H 0.58970 -0.07740 0.35660
H35A H 0.51900 -0.14800 0.30060
H36A H 0.58220 -0.09370 0.27330
C28A C 0.3468(8) -0.1362(8) 0.3047(8)
H37A H 0.39460 -0.13070 0.33630
H38A H 0.31850 -0.19380 0.28160
C29A C 0.2302(7) -0.1742(6) 0.1826(8)
H39A H 0.21840 -0.16410 0.23110
H40A H 0.19250 -0.15900 0.15560
C30A C 0.2212(7) -0.2639(6) 0.1452(9)
H41A H 0.26170 -0.27800 0.16920
H42A H 0.17000 -0.29540 0.14730
H43A H 0.22630 -0.27520 0.09520
C31A C 0.2701(7) -0.1237(7) 0.0669(7)
H44A H 0.29500 -0.12520 0.02520
H45A H 0.23530 -0.17780 0.05720
C32A C 0.4277(8) -0.0266(7) 0.0766(7)
H46A H 0.38260 -0.01640 0.05400
H47A H 0.47110 0.02350 0.09500
C33A C 0.4517(11) -0.0912(8) 0.0204(9)
H48A H 0.50190 -0.09430 0.04000
H49A H 0.41230 -0.14280 0.00740
H50A H 0.45630 -0.07770 -0.02200
C34A C 0.1424(5) 0.3511(6) 0.7414(5)
C35A C 0.1132(6) 0.2692(6) 0.7087(6)
C36A C 0.1323(6) 0.2205(6) 0.7447(6)
C37A C 0.1840(6) 0.2570(6) 0.8107(6)
C38A C 0.2142(5) 0.3396(6) 0.8419(5)
C39A C 0.1932(5) 0.3873(5) 0.8071(5)
C40A C 0.1195(6) 0.4042(6) 0.7061(6)
H51A H 0.06960 0.37460 0.67220
H52A H 0.11200 0.45130 0.74270
C41A C 0.0611(7) 0.2309(7) 0.6345(7)
H53A H 0.07550 0.26590 0.60740
H54A H 0.06970 0.17920 0.60840
C42A C -0.0258(7) 0.2174(9) 0.6394(8)
H55A H -0.03650 0.19740 0.67750
H56A H -0.03820 0.26800 0.64980
H57A H -0.05780 0.17840 0.59390
C43A C 0.0978(6) 0.1290(6) 0.7087(7)
H58A H 0.04630 0.11610 0.67900
H59A H 0.09020 0.10600 0.74590
C44A C 0.2122(6) 0.2038(6) 0.8450(6)
H60A H 0.25770 0.18780 0.83700
C45A C 0.1614(9) 0.1807(10) 0.8909(9)
H61A H 0.10780 0.15700 0.86440
H62A H 0.17780 0.14160 0.90640
H63A H 0.16450 0.22790 0.93270
C46A C 0.2718(5) 0.3803(6) 0.9130(5)
H64A H 0.25580 0.35310 0.94600
H65A H 0.27210 0.43660 0.93510
C47A C 0.2257(5) 0.4784(5) 0.8404(5)
H66A H 0.27940 0.49310 0.86680
H67A H 0.22810 0.50000 0.80200
C48A C 0.1762(6) 0.5166(6) 0.8916(6)
H68A H 0.17670 0.49840 0.93160
H69A H 0.19760 0.57480 0.90960
H70A H 0.12260 0.50090 0.86610
C49A C 0.9135(5) 0.5571(6) 0.9008(6)
C50A C 0.9534(5) 0.6302(6) 0.9557(6)
C51A C 1.0107(5) 0.6859(6) 0.9430(6)
C52A C 1.0284(5) 0.6692(6) 0.8741(6)
C53A C 0.9890(5) 0.5969(6) 0.8213(6)
C54A C 0.9308(5) 0.5419(6) 0.8330(6)
C55A C 0.8544(5) 0.4971(6) 0.9185(6)
H71A H 0.87360 0.49910 0.96650
H72A H 0.84890 0.44300 0.88390
C56A C 0.9321(5) 0.6498(6) 1.0307(5)
H73A H 0.87690 0.62110 1.02610
H74A H 0.93860 0.70770 1.05250
C57A C 0.9824(6) 0.6265(7) 1.0792(6)
H75A H 0.96150 0.63090 1.12290
H76A H 0.98260 0.57140 1.05460
H77A H 1.03570 0.66210 1.09140
C58A C 1.0528(6) 0.7648(6) 1.0033(6)
H78A H 1.10590 0.78360 0.99460
H79A H 1.05810 0.75490 1.04820
C59A C 1.0909(5) 0.7322(6) 0.8597(6)
H80A H 1.07790 0.72720 0.80960
H81A H 1.09120 0.78620 0.89090
C60A C 1.1725(5) 0.7221(7) 0.8735(7)
H82A H 1.18520 0.72650 0.92290
H83A H 1.17290 0.66960 0.84110
H84A H 1.21100 0.76380 0.86510
C61A C 1.0096(6) 0.5773(7) 0.7464(6)
H85A H 0.99590 0.51860 0.72270
H86A H 1.06660 0.59880 0.75190
C62A C 0.9142(6) 0.3952(6) 0.7627(6)
H87A H 0.90970 0.37880 0.80370
H88A H 0.88470 0.35050 0.71910
H89A H 0.96900 0.41090 0.75880
C63A C 0.8817(6) 0.4655(6) 0.7729(6)
H90A H 0.82860 0.45130 0.78290
H91A H 0.87780 0.47540 0.72790
C64A C 0.7868(8) 0.7565(9) 0.5149(8)
H92A H 0.81440 0.77320 0.48240
C65A C 0.8215(6) 0.7181(6) 0.5572(5)
C66A C 0.7769(4) 0.6695(6) 0.5870(6)
C67A C 0.8129(5) 0.6378(6) 0.6292(6)
H93A H 0.78240 0.60450 0.64960
C68A C 0.8933(6) 0.6548(6) 0.6415(5)
C69A C 0.9378(4) 0.7034(6) 0.6117(6)
H94A H 0.99280 0.71500 0.62020
C70A C 0.9019(6) 0.7351(6) 0.5695(5)
C71A C 0.686(2) 0.552(2) 0.6074(18)
H95A H 0.67770 0.58020 0.65530
H96A H 0.63900 0.50760 0.58110
H97A H 0.73010 0.53110 0.61110
C72A C 1.0346(9) 0.8024(13) 0.5615(12)
H98A H 1.05990 0.83320 0.53470
H99A H 1.05150 0.75440 0.55230
H100A H 1.04900 0.83490 0.61260
C73A C 0.9069(11) 0.5913(15) 0.669(2)
H101A H 0.86800 0.54330 0.66210
C74A C 0.9687(6) 0.8261(6) 0.9624(7)
H102A H 0.95810 0.78230 0.91830
C75A C 0.9289(6) 0.8881(6) 0.9689(7)
C76A C 0.8898(7) 0.8868(7) 0.9052(7)
C77A C 0.8498(6) 0.9420(7) 0.9087(7)
H103A H 0.82250 0.94120 0.86600
C78A C 0.8488(6) 0.9983(6) 0.9733(7)
C79A C 0.8889(6) 0.9983(7) 1.0349(7)
C80A C 0.9283(6) 0.9426(6) 1.0306(7)
H104A H 0.95570 0.94340 1.07320
C81A C 0.8031(6) 1.0548(6) 0.9770(8)
H105A H 0.79310 1.08480 1.02160
C82A C 0.8509(10) 0.8288(10) 0.7757(8)
H106A H 0.79530 0.81400 0.77690
H107A H 0.86680 0.88140 0.77220
H108A H 0.86120 0.78920 0.73440
C83A C 0.9273(9) 1.0597(9) 1.1625(8)
H109A H 0.91350 1.09780 1.20250
H110A H 0.91180 1.00670 1.16520
H111A H 0.98360 1.07670 1.16470
C84A C 0.7208(5) 0.4517(6) 0.9075(5)
H112A H 0.73250 0.40300 0.90040
C85A C 0.6384(5) 0.4489(5) 0.9063(4)
C86A C 0.6163(5) 0.5177(5) 0.9148(4)
H113A H 0.65350 0.56570 0.91900
C87A C 0.5385(5) 0.5147(5) 0.9170(5)
C88A C 0.4839(5) 0.4459(5) 0.9113(4)
C89A C 0.5060(5) 0.3773(5) 0.9017(5)
H114A H 0.46840 0.32890 0.89590
C90A C 0.5838(5) 0.3797(5) 0.9004(5)
C91A C 0.4008(5) 0.4417(6) 0.9170(5)
H115A H 0.38690 0.48980 0.93350
C92A C 0.5677(5) 0.6535(5) 0.9367(6)
H116A H 0.60580 0.67000 0.98050
H117A H 0.59430 0.64620 0.89600
H118A H 0.54180 0.69480 0.94050
C93A C 0.5528(6) 0.2421(6) 0.8850(7)
H119A H 0.53470 0.24900 0.93020
H120A H 0.50870 0.22940 0.84700
H121A H 0.57650 0.19840 0.87340
C94A C 0.1952(7) 0.5027(8) 0.6767(7)
H122A H 0.16860 0.53300 0.70810
C95A C 0.3459(4) 0.6221(4) 0.5696(4)
C96A C 0.2961(5) 0.6581(4) 0.6077(4)
H123A H 0.29400 0.70900 0.60900
C97A C 0.2494(4) 0.6197(4) 0.6439(4)
C98A C 0.2525(4) 0.5452(4) 0.6420(4)
C99A C 0.3023(4) 0.5092(3) 0.6039(4)
H124A H 0.30450 0.45830 0.60260
C100A C 0.3491(4) 0.5476(4) 0.5677(4)
C101A C 0.3866(7) 0.6580(7) 0.5237(6)
H125A H 0.42680 0.63950 0.50320
C102A C 0.1948(12) 0.7294(10) 0.6827(12)
H126A H 0.15540 0.74510 0.70990
H127A H 0.24540 0.76960 0.70460
H128A H 0.18040 0.72520 0.63350
C103A C 0.4214(8) 0.4519(7) 0.5439(7)
H129A H 0.43600 0.46420 0.59510
H130A H 0.37600 0.40460 0.52340
H131A H 0.46490 0.44160 0.52040
C104A C 0.1185(8) 0.0542(8) 0.5970(9)
H132A H 0.06720 0.05230 0.57940
C105A C 0.1639(7) 0.0134(7) 0.5483(9)
C106A C 0.2173(7) -0.0177(7) 0.5727(8)
H133A H 0.22570 -0.01230 0.62120
C107A C 0.2597(7) -0.0578(7) 0.5252(9)
C108A C 0.2521(7) -0.0616(7) 0.4552(9)
C109A C 0.1976(7) -0.0266(7) 0.4323(8)
H134A H 0.19080 -0.02800 0.38490
C110A C 0.1553(7) 0.0087(7) 0.4788(9)
C111A C 0.2983(8) -0.0995(8) 0.4077(9)
H135A H 0.32910 -0.12790 0.42270
C112A C 0.2998(9) -0.1186(9) 0.6038(9)
H136A H 0.27620 -0.08330 0.63710
H137A H 0.26510 -0.17330 0.58560
H138A H 0.34970 -0.11680 0.62850
C113A C 0.0926(9) 0.0410(9) 0.3872(9)
H139A H 0.14280 0.06860 0.37970
H140A H 0.07570 -0.01450 0.35360
H141A H 0.05400 0.06760 0.37940
C114A C 0.5363(4) 0.3767(3) 0.2440(4)
C115A C 0.4919(4) 0.3462(4) 0.2863(4)
H142A H 0.46450 0.37720 0.31600
C116A C 0.4876(5) 0.2703(4) 0.2853(4)
C117A C 0.5277(5) 0.2249(3) 0.2419(4)
C118A C 0.5722(4) 0.2554(4) 0.1995(4)
H143A H 0.59960 0.22430 0.16990
C119A C 0.5765(4) 0.3313(4) 0.2006(4)
C120A C 0.4024(13) 0.2775(9) 0.3666(11)
H144A H 0.43600 0.32810 0.40220
H145A H 0.36610 0.28820 0.33490
H146A H 0.37320 0.24550 0.39060
C121A C 0.6372(9) 0.3131(8) 0.0991(8)
H147A H 0.67970 0.29520 0.11510
H148A H 0.59210 0.26680 0.07290
H149A H 0.65400 0.34180 0.06790
C122A C 0.5390(6) 0.4577(6) 0.2436(5)
H150A H 0.57390 0.48000 0.21840
C123A C 0.5168(7) 0.1405(6) 0.2382(7)
H151A H 0.47500 0.11620 0.25630
#END
