
#######################################################################
#
#                 Cambridge Crystallographic Data Centre
#                                CCDC
#
#######################################################################
#
# If this CIF has been generated from an entry in the Cambridge
# Structural Database, then it will include bibliographic, chemical,
# crystal, experimental, refinement or atomic coordinate data resulting
# from the CCDC's data processing and validation procedures.
#
#######################################################################

data_CSD_CIF_PIFJAS
_audit_creation_date 2018-07-24
_audit_creation_method CSD-ConQuest-V1
_database_code_CSD PIFJAS
_database_code_depnum_ccdc_archive 'CCDC 1827878'
_chemical_formula_sum 'C62.25 H71 Cl0.5 N6 O0.25'
_chemical_formula_moiety
;
C54 H60 N6,C8 H10,0.25(C1 H2 Cl2),0.25(H2 O1)
;
_journal_coden_Cambridge 1490
_journal_volume 9
_journal_year 2018
_journal_page_first 2849
_journal_name_full 'Nat.Commun. '
loop_
_publ_author_name
"R.L.Greenaway"
"V.Santolini"
"M.J.Bennison"
"B.M.Alston"
"C.J.Pugh"
"M.A.Little"
"M.Miklitz"
"E.G.B.Eden-Rump"
"R.Clowes"
"A.Shakil"
"H.J.Cuthbertson"
"H.Armstrong"
"M.E.Briggs"
"K.E.Jelfs"
"A.I.Cooper"
_chemical_name_systematic
;
2,16,18,32,45,47-hexaethyl-5,13,21,29,34,42-hexa-azaheptacyclo[15.15.11.1^3,31
^.1^7,11^.1^15,19^.1^23,27^.1^36,40^]octatetraconta-1,3(45),5,7(48),8,10,12,15
(47),16,18,21,23(46),24,26,28,31,34,36(44),37,39,41-henicosaene 
dichloromethane m-xylene solvate hydrate
;
_cell_volume   2973.736
_exptl_crystal_colour 'colorless'
_exptl_crystal_density_diffrn 1.034
_exptl_crystal_description 'block'
_diffrn_ambient_temperature 100
_refine_special_details
;
The solvent molecules are disordered.

;
#These two values have been output from a single CSD field.
_refine_ls_R_factor_gt 0.0977
_refine_ls_wR_factor_gt 0.0977
_symmetry_cell_setting triclinic
_symmetry_space_group_name_H-M 'P -1'
_symmetry_Int_Tables_number 2
loop_
_symmetry_equiv_pos_site_id
_symmetry_equiv_pos_as_xyz
1 x,y,z
2 -x,-y,-z
_cell_length_a 15.0024(6)
_cell_length_b 15.2730(7)
_cell_length_c 15.2779(6)
_cell_angle_alpha 60.8167(16)
_cell_angle_beta 81.7670(16)
_cell_angle_gamma 76.8256(17)
_cell_formula_units_Z 2
loop_
_atom_type_symbol
_atom_type_radius_bond
C 0.68
H 0.23
Cl 0.99
N 0.68
O 0.68
loop_
_atom_site_label
_atom_site_type_symbol
_atom_site_fract_x
_atom_site_fract_y
_atom_site_fract_z
N1 N 0.2442(2) 0.8720(2) 0.4373(2)
N2 N 0.2493(2) 0.5887(2) 0.9094(2)
C1 C 0.3352(2) 0.4301(3) 0.6180(3)
H1 H 0.36590 0.44570 0.55160
H2 H 0.37520 0.37110 0.66880
N3 N -0.2438(2) 0.6813(2) 0.9344(2)
C2 C 0.3323(2) 0.5874(3) 0.7506(3)
C3 C -0.3269(2) 0.6497(3) 0.6655(3)
N4 N -0.2440(2) 0.4944(2) 0.6434(2)
C4 C -0.3267(2) 0.7147(3) 0.7823(3)
C5 C -0.3351(2) 0.9370(3) 0.5150(3)
H3 H -0.37620 0.94360 0.46600
H4 H -0.36480 0.98600 0.53980
N5 N 0.2491(2) 0.3977(2) 0.6211(2)
C6 C 0.3356(2) 0.5715(3) 0.8567(3)
H5 H 0.36680 0.50050 0.89830
H6 H 0.37480 0.61700 0.85400
C7 C 0.3293(2) 0.7015(3) 0.5708(3)
N6 N -0.2490(2) 0.9689(2) 0.4605(2)
C8 C 0.0806(2) 0.9125(3) 0.4338(3)
C9 C 0.3312(2) 0.8061(3) 0.4817(3)
H7 H 0.36200 0.84380 0.50210
H8 H 0.37050 0.79650 0.42800
C10 C 0.0857(2) 0.4186(3) 0.6309(3)
C11 C -0.0803(2) 0.4520(3) 0.6367(3)
C12 C 0.3310(2) 0.5209(3) 0.6354(3)
C13 C -0.3247(2) 0.6330(3) 0.7641(3)
C14 C -0.3238(2) 0.5262(3) 0.8512(3)
H9 H -0.28960 0.51770 0.90640
H10 H -0.29140 0.47560 0.82920
C15 C -0.1728(2) 0.9149(3) 0.4945(3)
H11 H -0.17120 0.85280 0.55560
C16 C -0.0857(2) 0.9454(3) 0.4421(3)
C17 C -0.3307(2) 0.5617(3) 0.6471(3)
H12 H -0.37100 0.51860 0.70050
H13 H -0.36070 0.59040 0.58270
C18 C -0.1679(2) 0.5185(3) 0.6404(3)
H14 H -0.16700 0.58040 0.64070
C19 C -0.3294(2) 0.8306(3) 0.6027(3)
C20 C 0.0023(2) 0.4800(3) 0.6341(3)
H15 H 0.00190 0.54210 0.63450
C21 C 0.3281(2) 0.6196(3) 0.5533(3)
C22 C -0.3274(2) 0.7481(3) 0.5844(3)
C23 C -0.3277(2) 0.8138(3) 0.7014(3)
C24 C 0.3307(2) 0.6868(3) 0.6686(3)
C25 C 0.0862(2) 0.6200(3) 0.9275(3)
C26 C 0.1684(2) 0.8466(3) 0.4792(3)
H16 H 0.16770 0.78490 0.54020
C27 C -0.3301(2) 0.6988(3) 0.8886(3)
H17 H -0.37000 0.75950 0.89010
H18 H -0.36060 0.63980 0.93220
C28 C 0.3213(2) 0.6370(3) 0.4477(3)
H19 H 0.28600 0.70630 0.40790
H20 H 0.28650 0.58760 0.45090
C29 C -0.0023(2) 0.8855(3) 0.4821(3)
H21 H -0.00190 0.82460 0.54410
C30 C 0.3315(2) 0.5047(3) 0.7343(3)
C31 C 0.1724(2) 0.4510(3) 0.6277(3)
H22 H 0.17070 0.51210 0.63050
C32 C 0.1732(2) 0.6041(3) 0.8739(3)
H23 H 0.17180 0.60550 0.81130
C33 C 0.3286(2) 0.3996(3) 0.8224(3)
H24 H 0.29540 0.36280 0.80320
H25 H 0.29360 0.40720 0.87910
C34 C -0.0803(2) 0.6488(3) 0.9371(3)
C35 C -0.1675(2) 0.6664(3) 0.8916(3)
H26 H -0.16630 0.66640 0.82930
C36 C 0.3288(2) 0.7760(3) 0.6872(3)
H27 H 0.29710 0.76260 0.75280
H28 H 0.29300 0.83810 0.63470
C37 C -0.3277(2) 0.7658(3) 0.4776(3)
H29 H -0.29180 0.70490 0.47340
H30 H -0.29740 0.82450 0.43210
C38 C 0.0030(2) 0.6348(3) 0.8872(3)
H31 H 0.00300 0.63530 0.82470
C39 C -0.3271(3) 0.9023(3) 0.7202(3)
H32 H -0.29410 0.95210 0.66340
H33 H -0.29350 0.87690 0.78170
C40 C 0.0797(3) 1.0018(3) 0.3422(3)
H34 H 0.13570 1.02120 0.30820
C41 C -0.0791(3) 0.3604(3) 0.6363(3)
H35 H -0.13510 0.34070 0.63750
C42 C 0.0856(3) 0.3269(3) 0.6318(3)
H36 H 0.14200 0.28390 0.63070
C43 C -0.0851(3) 1.0341(3) 0.3505(3)
H37 H -0.14150 1.07590 0.32180
C44 C 0.4238(3) 0.3352(3) 0.8575(3)
H38 H 0.45900 0.32720 0.80180
H39 H 0.41710 0.26780 0.91320
H40 H 0.45600 0.36930 0.88000
C45 C 0.4138(3) 0.6264(3) 0.3927(3)
H41 H 0.40340 0.64250 0.32410
H42 H 0.44730 0.55630 0.42830
H43 H 0.44960 0.67360 0.39060
C46 C -0.4247(3) 0.7869(3) 0.4426(3)
H44 H -0.42140 0.79750 0.37370
H45 H -0.46020 0.84810 0.44510
H46 H -0.45460 0.72850 0.48670
C47 C -0.4208(3) 0.5052(3) 0.8901(3)
H47 H -0.45500 0.51390 0.83550
H48 H -0.45220 0.55300 0.91490
H49 H -0.41710 0.43510 0.94490
C48 C -0.0794(3) 0.6478(4) 1.0289(3)
H50 H -0.13550 0.65780 1.06340
C49 C 0.4246(3) 0.7956(3) 0.6870(3)
H51 H 0.45540 0.81180 0.62120
H52 H 0.46040 0.73440 0.73890
H53 H 0.41930 0.85290 0.70070
C50 C 0.0854(3) 0.6189(4) 1.0193(3)
H54 H 0.14160 0.60890 1.04770
C51 C 0.0035(3) 0.2983(3) 0.6343(4)
H55 H 0.00390 0.23580 0.63460
C52 C -0.4241(3) 0.9565(3) 0.7322(3)
H56 H -0.45770 0.98190 0.67140
H57 H -0.42020 1.01390 0.74270
H58 H -0.45620 0.90830 0.79010
C53 C -0.0029(3) 1.0619(3) 0.3010(3)
H59 H -0.00340 1.12240 0.23860
C54 C 0.0029(3) 0.6322(4) 1.0696(3)
H60 H 0.00300 0.63070 1.13250
C55? C -0.3797(6) 0.1831(4) 1.0826(5)
H61? H -0.36310 0.13190 1.15130
H62? H -0.42880 0.16460 1.06250
H63? H -0.40080 0.25010 1.07960
C56? C -0.2982(4) 0.1869(3) 1.0134(4)
C57? C -0.2168(5) 0.1261(4) 1.0588(4)
H64? H -0.21580 0.08570 1.12960
C58? C -0.1370(4) 0.1245(5) 1.0005(7)
C59? C -0.1385(5) 0.1837(6) 0.8968(6)
H65? H -0.08390 0.18250 0.85690
C60? C -0.2199(6) 0.2444(6) 0.8514(4)
H66? H -0.22100 0.28490 0.78050
C61? C -0.2998(5) 0.2461(4) 0.9097(4)
H67? H -0.35540 0.28760 0.87860
C62? C -0.0473(9) 0.0598(8) 1.0466(13)
H68? H -0.04230 0.05980 1.10980
H69? H 0.00340 0.08760 1.00030
H70? H -0.04480 -0.01030 1.05960
C63? C -0.2182(4) -0.0936(2) 1.0065(4)
C64? C -0.2121(4) -0.1526(4) 1.1099(4)
H71? H -0.15480 -0.19190 1.13820
C65? C -0.2897(5) -0.1540(6) 1.1720(4)
H72? H -0.28550 -0.19430 1.24270
C66? C -0.3734(4) -0.0964(6) 1.1307(6)
H73? H -0.42650 -0.09740 1.17310
C67? C -0.3795(4) -0.0375(5) 1.0273(6)
C68? C -0.3019(4) -0.0361(3) 0.9652(4)
H74? H -0.30610 0.00420 0.89450
C69? C -0.1360(5) -0.0900(3) 0.9368(5)
H75? H -0.14120 -0.12680 0.90080
H76? H -0.13270 -0.01880 0.88860
H77? H -0.08040 -0.12200 0.97570
C70? C -0.4700(8) 0.0238(8) 0.9844(13)
H78? H -0.51170 0.03050 1.03720
H79? H -0.46190 0.09170 0.93090
H80? H -0.49600 -0.01060 0.95680
Cl1? Cl -0.2147(4) -0.0718(4) 0.9159(4)
Cl2? Cl -0.3042(5) 0.1396(5) 0.8235(4)
C71? C -0.1695(8) -0.0614(7) 1.1623(9)
H81? H -0.13170 -0.12710 1.19030
C72? C -0.2625(8) -0.0515(8) 1.1528(10)
C73? C -0.3178(6) 0.0446(9) 1.112(1)
H82? H -0.38140 0.05130 1.10540
C74? C -0.2801(8) 0.1308(7) 1.0807(10)
C75? C -0.1871(9) 0.1210(8) 1.0902(11)
H83? H -0.16130 0.17990 1.06880
C76? C -0.1318(7) 0.0249(10) 1.1310(11)
H84? H -0.06820 0.01810 1.13760
C77? C -0.2062(10) 0.0520(7) 0.8824(16)
H85? H -0.15200 0.07050 0.83650
H86? H -0.19690 0.05590 0.94330
C78? C -0.3017(19) -0.1343(15) 1.176(2)
H87? H -0.28980 -0.15090 1.12090
H88? H -0.36790 -0.11780 1.18770
H89? H -0.27510 -0.19310 1.23740
C79? C -0.3445(12) 0.2319(12) 1.0468(13)
H90? H -0.36790 0.25310 0.98140
H91? H -0.31170 0.28320 1.04100
H92? H -0.39570 0.22530 1.09590
O1? O -0.2323(18) 0.1910(19) 0.8290(19)
#END
