
#######################################################################
#
#                 Cambridge Crystallographic Data Centre
#                                CCDC
#
#######################################################################
#
# If this CIF has been generated from an entry in the Cambridge
# Structural Database, then it will include bibliographic, chemical,
# crystal, experimental, refinement or atomic coordinate data resulting
# from the CCDC's data processing and validation procedures.
#
#######################################################################

data_CSD_CIF_PIFKUN
_audit_creation_date 2018-07-24
_audit_creation_method CSD-ConQuest-V1
_database_code_CSD PIFKUN
_database_code_depnum_ccdc_archive 'CCDC 1827887'
_chemical_formula_sum 'C71.63 H67.44 D4.67 Cl14.01 N6.48 S3'
_chemical_formula_moiety
;
C66 H66 N6 S3,4.67(C1 D1 Cl3),0.48(C2 H3 N1)
;
_journal_coden_Cambridge 1490
_journal_volume 9
_journal_year 2018
_journal_page_first 2849
_journal_name_full 'Nat.Commun. '
loop_
_publ_author_name
"R.L.Greenaway"
"V.Santolini"
"M.J.Bennison"
"B.M.Alston"
"C.J.Pugh"
"M.A.Little"
"M.Miklitz"
"E.G.B.Eden-Rump"
"R.Clowes"
"A.Shakil"
"H.J.Cuthbertson"
"H.Armstrong"
"M.E.Briggs"
"K.E.Jelfs"
"A.I.Cooper"
_chemical_name_systematic
;
2,16,18,32,45,47-hexaethyl-9,25,38-tris(thiophen-3-yl)-5,13,21,29,34,42-hexa-a
zaheptacyclo[15.15.11.1^3,31^.1^7,11^.1^15,19^.1^23,27^.1^36,40^]octatetracont
a-1,3(45),5,7(48),8,10,12,15(47),16,18,21,23(46),24,26,28,31,34,36(44),37,39,4
1-henicosaene acetonitrile deuterochloroform solvate
;
_cell_volume   3854.067
_exptl_crystal_colour 'light yellow'
_exptl_crystal_density_diffrn 1.397
_exptl_crystal_description 'needle'
_diffrn_ambient_temperature 100
_refine_special_details
;
The structure is disordered.

;
#These two values have been output from a single CSD field.
_refine_ls_R_factor_gt 0.0716
_refine_ls_wR_factor_gt 0.0716
_symmetry_cell_setting triclinic
_symmetry_space_group_name_H-M 'P -1'
_symmetry_Int_Tables_number 2
loop_
_symmetry_equiv_pos_site_id
_symmetry_equiv_pos_as_xyz
1 x,y,z
2 -x,-y,-z
_cell_length_a 13.6116(5)
_cell_length_b 15.8683(6)
_cell_length_c 20.3799(8)
_cell_angle_alpha 100.2965(16)
_cell_angle_beta 98.7148(16)
_cell_angle_gamma 113.3470(14)
_cell_formula_units_Z 2
loop_
_atom_type_symbol
_atom_type_radius_bond
C 0.68
H 0.23
Cl 0.99
D 0.23
N 0.68
S 1.02
loop_
_atom_site_label
_atom_site_type_symbol
_atom_site_fract_x
_atom_site_fract_y
_atom_site_fract_z
S1 S 0.45524(8) 0.89631(6) 0.92166(5)
N1 N 0.2861(2) 0.40442(19) 0.85068(15)
N2 N 0.4880(2) 0.11662(19) 0.91240(15)
N3 N 0.2322(2) 0.0447(2) 0.61569(15)
N4 N 0.8031(2) 0.68661(19) 0.78045(16)
N5 N 0.9945(2) 0.38428(19) 0.82703(15)
N6 N 0.7269(2) 0.3383(2) 0.53388(15)
C1 C 0.1918(2) 0.1720(2) 0.75795(17)
C2 C 0.2315(2) 0.2250(2) 0.82688(17)
C3 C 0.2930(2) 0.2003(2) 0.87507(17)
C4 C 0.3092(2) 0.1185(2) 0.85458(17)
C5 C 0.2687(3) 0.0642(2) 0.78582(18)
C6 C 0.2094(3) 0.0905(2) 0.73760(17)
C7 C 0.1297(3) 0.2015(2) 0.70583(19)
H1 H 0.14460 0.18370 0.66060
H2 H 0.15780 0.27150 0.71960
C8 C 0.0044(3) 0.1556(3) 0.6984(2)
H3 H -0.03150 0.17510 0.66250
H4 H -0.01130 0.17630 0.74220
H5 H -0.02390 0.08620 0.68560
C9 C 0.2066(3) 0.3092(2) 0.85026(18)
H6 H 0.13480 0.29600 0.82050
H7 H 0.19650 0.31130 0.89750
C10 C 0.3404(3) 0.2607(3) 0.94871(18)
H8 H 0.35670 0.32750 0.94950
H9 H 0.41080 0.25870 0.96730
C11 C 0.2617(4) 0.2272(3) 0.9954(2)
H10 H 0.18820 0.21950 0.97360
H11 H 0.29000 0.27470 1.04000
H12 H 0.25680 0.16630 1.00230
C12 C 0.3696(3) 0.0877(2) 0.90652(18)
H13 H 0.36050 0.11220 0.95230
H14 H 0.33230 0.01730 0.89550
C13 C 0.2887(3) -0.0233(2) 0.7643(2)
H15 H 0.36000 -0.01290 0.79310
H16 H 0.29410 -0.03210 0.71590
C14 C 0.1969(4) -0.1135(3) 0.7712(2)
H17 H 0.12740 -0.12760 0.73940
H18 H 0.18840 -0.10390 0.81850
H19 H 0.21610 -0.16690 0.76020
C15 C 0.1615(3) 0.0283(2) 0.66435(18)
H20 H 0.13670 -0.03870 0.66620
H21 H 0.09490 0.03560 0.64510
C16 C 0.9121(2) 0.6012(2) 0.73001(17)
C17 C 0.8655(2) 0.5537(2) 0.65995(17)
C18 C 0.8799(3) 0.4732(2) 0.63210(17)
C19 C 0.9380(3) 0.4387(2) 0.67417(17)
C20 C 0.9845(2) 0.4865(2) 0.74407(16)
C21 C 0.9695(2) 0.5668(2) 0.77236(16)
C22 C 0.9034(3) 0.6925(2) 0.75862(19)
H22 H 0.96720 0.73100 0.79870
H23 H 0.91220 0.72850 0.72320
C23 C 0.8030(3) 0.5911(3) 0.6141(2)
H24 H 0.76850 0.62370 0.64200
H25 H 0.74320 0.53680 0.57810
C24 C 0.8785(4) 0.6610(3) 0.5793(2)
H26 H 0.83430 0.68190 0.54950
H27 H 0.91310 0.62920 0.55180
H28 H 0.93580 0.71640 0.61470
C25 C 0.8343(3) 0.4230(2) 0.55590(18)
H29 H 0.82810 0.47000 0.53150
H30 H 0.88950 0.40410 0.53990
C26 C 0.9519(3) 0.3508(2) 0.64414(19)
H31 H 0.88710 0.30830 0.60550
H32 H 0.95390 0.31600 0.67980
C27 C 1.0579(3) 0.3741(3) 0.6180(2)
H33 H 1.05580 0.40750 0.58210
H34 H 1.06260 0.31500 0.59900
H35 H 1.12250 0.41470 0.65620
C28 C 1.0517(3) 0.4524(2) 0.78964(18)
H36 H 1.08780 0.42310 0.76060
H37 H 1.11110 0.50910 0.82400
C29 C 1.0182(3) 0.6169(2) 0.84836(17)
H38 H 1.01820 0.56940 0.87400
H39 H 0.97090 0.64540 0.86520
C30 C 1.1363(3) 0.6950(2) 0.86325(19)
H40 H 1.13600 0.74460 0.84070
H41 H 1.18310 0.66750 0.84550
H42 H 1.16530 0.72280 0.91300
C31 C 0.3710(3) 0.4147(2) 0.82858(18)
H43 H 0.38210 0.35990 0.81250
C32 C 0.4536(3) 0.5080(2) 0.82667(19)
C33 C 0.4381(3) 0.5901(2) 0.84456(18)
H44 H 0.37350 0.58620 0.85880
C34 C 0.5165(3) 0.6781(2) 0.84179(18)
C35 C 0.6106(3) 0.6820(2) 0.82050(18)
H45 H 0.66420 0.74140 0.81830
C36 C 0.6277(3) 0.6010(2) 0.80238(18)
C37 C 0.5485(3) 0.5139(2) 0.80541(18)
H46 H 0.55920 0.45810 0.79290
C38 C 0.5030(3) 0.7667(2) 0.86150(18)
C39 C 0.4506(3) 0.7852(2) 0.9104(2)
H47 H 0.41560 0.74140 0.93530
C40 C 0.5475(3) 0.8453(2) 0.83271(19)
H48 H 0.58720 0.84570 0.79820
C41 C 0.5267(3) 0.9205(2) 0.86026(18)
H49 H 0.54930 0.97830 0.84680
C42 C 0.5403(3) 0.1747(2) 0.88067(17)
H50 H 0.50310 0.19970 0.85230
C43 C 0.6595(3) 0.2031(2) 0.88805(16)
C44 C 0.7193(3) 0.2657(2) 0.85268(17)
H51 H 0.68310 0.29050 0.82340
C45 C 0.8315(3) 0.2916(2) 0.86023(16)
C46 C 0.8843(3) 0.2546(2) 0.90297(17)
H52 H 0.96080 0.27190 0.90760
C47 C 0.8263(3) 0.1925(2) 0.93902(17)
C48 C 0.7137(3) 0.1677(2) 0.93111(17)
H53 H 0.67350 0.12580 0.95560
C49 C 0.7288(3) 0.6071(2) 0.78060(18)
H54 H 0.73800 0.55090 0.76660
C50 C 0.8927(3) 0.3587(2) 0.82264(16)
H55 H 0.85430 0.38310 0.79450
C51 C 0.8803(3) 0.1541(2) 0.98557(17)
C52 C 0.8250(3) 0.0693(3) 1.0043(2)
H56 H 0.74810 0.02950 0.98700
C53 C 0.9919(3) 0.1976(2) 1.01796(18)
H57 H 1.04290 0.25620 1.01290
C54 C 0.3312(3) 0.1059(3) 0.63513(19)
H58 H 0.36080 0.14160 0.68190
C55 C 0.4022(3) 0.1230(3) 0.58606(18)
C56 C 0.5023(3) 0.2044(3) 0.60427(18)
H59 H 0.52600 0.24700 0.64880
C57 C 0.5674(3) 0.2237(3) 0.55749(18)
C58 C 0.5334(3) 0.1603(3) 0.49283(18)
H60 H 0.57800 0.17370 0.46100
C59 C 0.4345(3) 0.0770(2) 0.47397(18)
C60 C 0.3695(3) 0.0596(2) 0.52114(18)
H61 H 0.30170 0.00370 0.50890
C61 C 0.6729(3) 0.3108(3) 0.57739(19)
H62 H 0.70080 0.34710 0.62410
C62 C 0.4000(3) 0.0093(3) 0.40510(19)
C63 C 0.4661(3) 0.0137(3) 0.3599(2)
H63 H 0.54060 0.06010 0.37020
C64 C 0.2958(4) -0.0686(3) 0.3777(2)
H64 H 0.23810 -0.08440 0.40090
S2 S 0.40331(14) -0.07065(11) 0.28434(7)
C65 C 0.2876(17) -0.1188(17) 0.3135(10)
H65 H 0.22390 -0.17490 0.28780
S3 S 1.0270(2) 0.13301(17) 1.06822(15)
C66 C 0.8921(12) 0.0498(14) 1.0495(11)
H66 H 0.86730 -0.00330 1.06840
C67 C 0.627(4) 0.778(3) 0.6589(16)
N7 N 0.634(3) 0.699(3) 0.5344(15)
H67 H 0.65820 0.75350 0.69350
H68 H 0.66960 0.84670 0.66910
H69 H 0.55000 0.76290 0.66010
C68 C 0.630(3) 0.732(3) 0.5893(15)
Cl1 Cl 0.16447(13) 0.10854(11) 0.42286(7)
Cl2 Cl 0.24839(11) 0.24995(8) 0.55367(7)
Cl3 Cl 0.01343(18) 0.12275(11) 0.50528(9)
C69 C 0.1480(5) 0.1344(4) 0.5072(3)
D1 D 0.15960 0.08760 0.53060
Cl4 Cl 0.79178(8) 0.19462(7) 0.41006(5)
Cl5 Cl 0.86647(8) 0.36940(7) 0.36716(5)
Cl6 Cl 0.64196(8) 0.22609(7) 0.31039(5)
C70 C 0.7537(3) 0.2801(2) 0.38371(18)
D2 D 0.73030 0.31020 0.42190
H70? H 0.74800 0.02930 0.98800
H71? H 1.04300 0.25420 1.01040
H72? H 0.53530 0.06540 0.36440
H73? H 0.23980 -0.08140 0.40230
S4? S 0.9114(3) 0.0481(4) 1.0587(3)
C71? C 1.0208(13) 0.1514(11) 1.0615(9)
H74? H 1.09290 0.17370 1.08990
S5? S 0.2756(12) -0.1360(13) 0.3016(7)
C72? C 0.4147(17) -0.0713(15) 0.3052(11)
H75? H 0.45210 -0.09050 0.27410
Cl7? Cl 0.6099(6) 0.4606(5) 0.9773(4)
Cl8? Cl 0.5978(5) 0.4220(4) 0.9645(4)
Cl9? Cl 0.7795(2) 0.40253(18) 1.02386(12)
Cl10? Cl 0.8162(2) 0.54646(15) 0.95006(13)
C73? C 0.7455(6) 0.4915(4) 1.0065(4)
D3? D 0.77110 0.54140 1.05100
Cl11? Cl 0.3272(6) 0.3521(5) 0.6355(4)
Cl12? Cl 0.3463(6) 0.5320(5) 0.6306(5)
C74? C 0.3729(9) 0.4389(9) 0.5912(9)
D4? D 0.34020 0.41490 0.54040
N8? N -0.031(2) 0.115(2) 0.5175(15)
C75? C 0.0475(16) 0.1227(14) 0.4967(10)
C76? C 0.1337(19) 0.1080(19) 0.4678(15)
H76? H 0.10820 0.08620 0.41750
H77? H 0.14950 0.06010 0.48550
H78? H 0.20090 0.16810 0.48110
Cl13? Cl 0.5128(3) 0.4678(2) 0.61446(19)
Cl14? Cl 0.97163(11) 0.94563(10) 0.76478(8)
Cl15? Cl 0.74000(14) 0.8927(2) 0.71198(9)
Cl16? Cl 0.84194(13) 0.98315(13) 0.85432(10)
C77? C 0.8400(4) 0.9039(3) 0.7816(2)
D5? D 0.82060 0.84030 0.79100
Cl17? Cl 0.897(3) 0.908(2) 0.7118(16)
Cl18? Cl 0.989(2) 1.062(2) 0.8438(15)
C78? C 0.875(3) 0.977(4) 0.780(3)
D6? D 0.84550 0.92820 0.80540
Cl19? Cl 0.770(3) 1.014(3) 0.771(2)
Cl20? Cl 0.5539(7) 0.6632(6) 0.6239(4)
Cl21? Cl 0.3358(8) 0.5295(7) 0.5780(5)
Cl22? Cl 0.5277(5) 0.6440(4) 0.5794(3)
Cl23? Cl 0.3260(3) 0.5192(2) 0.5999(3)
Cl24? Cl 0.5122(7) 0.4651(6) 0.6090(5)
C79? C 0.4695(9) 0.5595(7) 0.6277(5)
D7? D 0.47880 0.57020 0.67860
Cl25? Cl 0.7539(4) 0.5573(3) 0.9591(2)
Cl26? Cl 0.7155(9) 0.3970(4) 1.0162(4)
Cl27? Cl 0.9288(4) 0.5038(3) 0.99478(19)
C80? C 0.8109(16) 0.5068(10) 1.0162(7)
D8? D 0.83360 0.54940 1.06380
#END
