
#######################################################################
#
#                 Cambridge Crystallographic Data Centre
#                                CCDC
#
#######################################################################
#
# If this CIF has been generated from an entry in the Cambridge
# Structural Database, then it will include bibliographic, chemical,
# crystal, experimental, refinement or atomic coordinate data resulting
# from the CCDC's data processing and validation procedures.
#
#######################################################################

data_CSD_CIF_PIFKIB
_audit_creation_date 2018-07-24
_audit_creation_method CSD-ConQuest-V1
_database_code_CSD PIFKIB
_database_code_depnum_ccdc_archive 'CCDC 1827885'
_chemical_formula_sum 'C301.2 H338.8 Cl36.75 N12 O12.25'
_chemical_formula_moiety
;
C240 H204 N12,12.25(C1 H1 Cl3),12.25(C4 H10 O1)
;
_journal_coden_Cambridge 1490
_journal_volume 9
_journal_year 2018
_journal_page_first 2849
_journal_name_full 'Nat.Commun. '
loop_
_publ_author_name
"R.L.Greenaway"
"V.Santolini"
"M.J.Bennison"
"B.M.Alston"
"C.J.Pugh"
"M.A.Little"
"M.Miklitz"
"E.G.B.Eden-Rump"
"R.Clowes"
"A.Shakil"
"H.J.Cuthbertson"
"H.Armstrong"
"M.E.Briggs"
"K.E.Jelfs"
"A.I.Cooper"
_chemical_name_systematic
;
7,19,31,43(1,3,5)-tetrakis(2,4,6-triethylbenzena)-1,13,25,37(1,3,5)-tetrabenze
na-2,3,11,12,14,15,23,24,26,27,35,36,38,39,47,48,49,50,57,58,59,60,64,65(1,4)-
tetracosabenzena-5,9,17,21,29,33,41,45,52,55,62,67-dodecaazapentacyclo[29.17.5
.5^7,25^.5^13,43^.5^19,37^]octahexacontaphane-4,9,16,21,28,33,40,45,51,55,61,6
6-dodecaene chloroform diethyl ether solvate
;
_cell_volume  35144.430
_exptl_crystal_colour 'colorless'
_exptl_crystal_density_diffrn 1.063
_exptl_crystal_description 'block'
_diffrn_ambient_temperature 100
_refine_special_details
;
C35,C36,C37,C38,C39,C40 and C1B,C2B,C3B,C4B,C5B,C6B disordered over two sites 
with occupancies 0.5:0.5; C45,C46,C48,C49 and C45B,C46B,C48B,C49B disordered 
over two sites with occupancies 0.75:0.25. Disordered solvent molecules were 
not modelled and the disordered density was taken into account using the 
SQUEEZE/PLATON procedure.
;
#These two values have been output from a single CSD field.
_refine_ls_R_factor_gt 0.1257
_refine_ls_wR_factor_gt 0.1257
_symmetry_cell_setting tetragonal
_symmetry_space_group_name_H-M 'I 41/a'
_symmetry_Int_Tables_number 88
loop_
_symmetry_equiv_pos_site_id
_symmetry_equiv_pos_as_xyz
1 x,y,z
2 3/4-y,1/4+x,1/4+z
3 -x,1/2-y,z
4 1/4+y,1/4-x,1/4+z
5 1/2+x,1/2+y,1/2+z
6 1/4-y,3/4+x,3/4+z
7 1/2-x,-y,1/2+z
8 3/4+y,3/4-x,3/4+z
9 -x,-y,-z
10 -3/4+y,-1/4-x,-1/4-z
11 x,-1/2+y,-z
12 -1/4-y,-1/4+x,-1/4-z
13 -1/2-x,-1/2-y,-1/2-z
14 -1/4+y,-3/4-x,-3/4-z
15 -1/2+x,y,-1/2-z
16 -3/4-y,-3/4+x,-3/4-z
_cell_length_a 41.493(9)
_cell_length_b 41.493(9)
_cell_length_c 20.413(4)
_cell_angle_alpha 90
_cell_angle_beta 90
_cell_angle_gamma 90
_cell_formula_units_Z 4
loop_
_atom_type_symbol
_atom_type_radius_bond
C 0.68
H 0.23
N 0.68
loop_
_atom_site_label
_atom_site_type_symbol
_atom_site_fract_x
_atom_site_fract_y
_atom_site_fract_z
N1 N 0.30734(14) 0.59142(18) 0.1436(2)
N2 N 0.3268(2) 0.4902(2) 0.3321(4)
N3 N 0.2639(2) 0.8224(3) 1.1233(4)
C1 C 0.32612(17) 0.49463(14) 0.2123(2)
C2 C 0.30797(11) 0.51959(16) 0.1858(3)
C3 C 0.31949(15) 0.53664(12) 0.1320(3)
C4 C 0.34915(17) 0.52872(14) 0.1048(2)
C5 C 0.36730(11) 0.50376(16) 0.1313(3)
C6 C 0.35578(16) 0.48672(12) 0.1850(3)
C7 C 0.3765(3) 0.4598(3) 0.2134(5)
H1 H 0.37320 0.45870 0.26130
H2 H 0.39950 0.46470 0.20530
C8 C 0.3676(3) 0.4252(3) 0.1808(6)
H3 H 0.35050 0.42810 0.14810
H4 H 0.36020 0.41040 0.21500
H5 H 0.38680 0.41620 0.15950
C9 C 0.4001(2) 0.4950(2) 0.0998(4)
H6 H 0.40430 0.47180 0.10670
H7 H 0.39870 0.49880 0.05200
C10 C 0.3618(2) 0.5480(2) 0.0460(3)
H8 H 0.38560 0.54870 0.04770
H9 H 0.35370 0.57040 0.04880
C11 C 0.3511(2) 0.5330(2) -0.0201(3)
H10 H 0.36070 0.54510 -0.05630
H11 H 0.32750 0.53390 -0.02350
H12 H 0.35820 0.51050 -0.02220
C12 C 0.2987(3) 0.5624(2) 0.1010(4)
H13 H 0.27550 0.55710 0.10420
H14 H 0.30450 0.56610 0.05460
C13 C 0.2756(2) 0.5296(2) 0.2169(5)
H15 H 0.27220 0.55300 0.21030
H16 H 0.27630 0.52540 0.26460
C14 C 0.2462(3) 0.5102(3) 0.1855(6)
H17 H 0.24240 0.51790 0.14080
H18 H 0.22680 0.51370 0.21200
H19 H 0.25140 0.48720 0.18450
C15 C 0.3136(2) 0.4755(2) 0.2692(4)
H20 H 0.32060 0.45280 0.26550
H21 H 0.28980 0.47600 0.26970
C16 C 0.3202(3) 0.4792(3) 0.3810(5)
H22 H 0.30620 0.46110 0.38030
C17 C 0.33178(16) 0.49055(18) 0.4476(2)
C18 C 0.34933(16) 0.51903(17) 0.4511(3)
H23 H 0.35520 0.53000 0.41210
C19 C 0.35826(15) 0.53139(15) 0.5118(4)
H24 H 0.37030 0.55090 0.51420
C20 C 0.34964(16) 0.51527(18) 0.5688(3)
C21 C 0.33209(17) 0.48679(18) 0.5653(3)
H25 H 0.32620 0.47580 0.60430
C22 C 0.32316(16) 0.47443(14) 0.5046(3)
H26 H 0.31120 0.45500 0.50220
C23 C 0.35820(16) 0.53066(19) 0.6329(3)
C24 C 0.35740(17) 0.56395(18) 0.6405(3)
H27 H 0.35230 0.57730 0.60420
C25 C 0.36409(17) 0.57765(13) 0.7011(3)
H28 H 0.36350 0.60040 0.70620
C26 C 0.37159(16) 0.55807(18) 0.7542(2)
C27 C 0.37239(19) 0.52478(17) 0.7467(3)
H29 H 0.37750 0.51140 0.78300
C28 C 0.3657(2) 0.51108(14) 0.6860(4)
H30 H 0.36620 0.48830 0.68090
C29 C 0.38108(13) 0.57336(12) 0.81816(19)
C30 C 0.36202(10) 0.59745(13) 0.8453(2)
H31 H 0.34210 0.60310 0.82540
C31 C 0.37209(12) 0.61333(11) 0.9017(3)
C32 C 0.40121(13) 0.60512(12) 0.9309(2)
H32 H 0.40810 0.61600 0.96940
C33 C 0.42027(10) 0.58102(13) 0.9037(2)
C34 C 0.41021(12) 0.56515(11) 0.8474(2)
H33 H 0.42320 0.54870 0.82880
C35 C 0.45501(16) 0.5777(2) 0.9230(5)
C36 C 0.45945(19) 0.5711(3) 0.9892(5)
H34 H 0.44140 0.56990 1.01760
C37 C 0.4903(2) 0.5663(3) 1.0137(4)
H35 H 0.49340 0.56180 1.05890
C38 C 0.51677(17) 0.5680(3) 0.9720(5)
C39 C 0.51233(17) 0.5746(3) 0.9059(5)
H36 H 0.53040 0.57580 0.87740
C40 C 0.48146(17) 0.5794(2) 0.8814(5)
H37 H 0.47840 0.58390 0.83620
C41 C 0.57497(14) 0.58274(11) 0.99498(19)
H38 H 0.57330 0.59990 0.96440
C42 C 0.54854(13) 0.56285(8) 1.00712(15)
C43 C 0.5532(2) 0.53899(16) 1.0514(2)
H39 H 0.53560 0.52510 1.06060
C44 C 0.35020(16) 0.63811(13) 0.9339(3)
C45 C 0.32724(18) 0.65409(17) 0.8965(2)
H40 H 0.32360 0.64790 0.85230
C46 C 0.30953(17) 0.67918(18) 0.9237(3)
H41 H 0.29380 0.69010 0.89810
C47 C 0.31479(17) 0.68829(15) 0.9883(3)
C48 C 0.3377(2) 0.67231(18) 1.0258(2)
H42 H 0.34130 0.67850 1.06990
C49 C 0.35546(18) 0.64722(18) 0.9986(3)
H43 H 0.37120 0.63630 1.02420
C50 C 0.2984(2) 0.71747(14) 1.0178(3)
C51 C 0.26514(19) 0.72075(16) 1.0125(3)
H44 H 0.25290 0.70480 0.99010
C52 C 0.24981(14) 0.7473(2) 1.0399(4)
H45 H 0.22710 0.74950 1.03630
C53 C 0.2677(2) 0.77056(14) 1.0727(3)
C54 C 0.3010(2) 0.76728(17) 1.0781(3)
H46 H 0.31320 0.78320 1.10050
C55 C 0.31628(14) 0.7407(2) 1.0506(4)
H47 H 0.33900 0.73850 1.05420
C56 C 0.2497(3) 0.7998(3) 1.0989(6)
H48 H 0.22690 0.80040 1.09600
C57 C 0.29383(17) 0.6131(2) 0.1384(3)
H49 H 0.27610 0.61390 0.10890
C58 C 0.32716(17) 0.6460(2) 0.2218(2)
H50 H 0.34080 0.62810 0.23040
C59 C 0.30262(15) 0.6425(2) 0.1773(2)
C60 C 0.28354(18) 0.6685(2) 0.1662(3)
H51 H 0.26630 0.66700 0.13570
C61? C 0.51286(17) 0.5627(3) 0.9924(5)
C62? C 0.4947(2) 0.5371(2) 0.9684(4)
H52? H 0.50340 0.51590 0.96890
C63? C 0.4640(2) 0.5425(2) 0.9437(5)
H53? H 0.45160 0.52500 0.92730
C64? C 0.45139(18) 0.5735(3) 0.9429(5)
C65? C 0.4695(2) 0.5991(2) 0.9669(5)
H54? H 0.46090 0.62030 0.96640
C66? C 0.5002(2) 0.5937(3) 0.9916(5)
H55? H 0.51260 0.61120 1.00800
C67? C 0.2996(3) 0.6604(2) 0.9683(3)
H56? H 0.27690 0.65840 0.97320
C68? C 0.3663(5) 0.6660(3) 0.9536(5)
H57? H 0.38900 0.66780 0.94860
C69? C 0.3481(3) 0.6913(4) 0.9812(5)
H58? H 0.35860 0.71050 0.99490
C70? C 0.3172(3) 0.6354(3) 0.9412(3)
H59? H 0.30650 0.61620 0.92760
N1M N 0.34142(14) 0.94266(18) 1.1064(2)
N2M N 0.2402(2) 0.9232(2) 0.9179(4)
N3M N 0.5724(2) 0.9861(3) 0.1267(4)
C1M C 0.24463(17) 0.92388(14) 1.0377(2)
C2M C 0.26959(11) 0.94203(16) 1.0642(3)
C3M C 0.28664(15) 0.93051(12) 1.1180(3)
C4M C 0.27872(17) 0.90085(14) 1.1452(2)
C5M C 0.25376(11) 0.88270(16) 1.1187(3)
C6M C 0.23672(16) 0.89422(12) 1.0650(3)
C7M C 0.2098(3) 0.8735(3) 1.0366(5)
H1M H 0.20870 0.87680 0.98870
H2M H 0.21470 0.85050 1.04470
C8M C 0.1752(3) 0.8824(3) 1.0692(6)
H3M H 0.17810 0.89950 1.10190
H4M H 0.16040 0.88980 1.03500
H5M H 0.16620 0.86320 1.09050
C9M C 0.2450(2) 0.8499(2) 1.1502(4)
H6M H 0.22180 0.84570 1.14330
H7M H 0.24880 0.85130 1.19800
C10M C 0.2980(2) 0.8882(2) 1.2040(3)
H8M H 0.29870 0.86440 1.20230
H9M H 0.32040 0.89630 1.20120
C11M C 0.2830(2) 0.8989(2) 1.2701(3)
H10M H 0.29510 0.88930 1.30630
H11M H 0.28390 0.92250 1.27350
H12M H 0.26050 0.89180 1.27220
C12M C 0.3124(3) 0.9513(2) 1.1490(4)
H13M H 0.30710 0.97450 1.14580
H14M H 0.31610 0.94550 1.19540
C13M C 0.2796(2) 0.9744(2) 1.0331(5)
H15M H 0.30300 0.97780 1.03970
H16M H 0.27540 0.97370 0.98540
C14M C 0.2602(3) 1.0038(3) 1.0645(6)
H17M H 0.26790 1.00760 1.10920
H18M H 0.26370 1.02320 1.03800
H19M H 0.23720 0.99860 1.06550
C15M C 0.2255(2) 0.9364(2) 0.9808(4)
H20M H 0.20280 0.92940 0.98450
H21M H 0.22600 0.96020 0.98030
C16M C 0.2292(3) 0.9298(3) 0.8690(5)
H22M H 0.21110 0.94380 0.86970
C17M C 0.24055(16) 0.91822(18) 0.8024(2)
C18M C 0.26903(16) 0.90067(17) 0.7989(3)
H23M H 0.28000 0.89480 0.83790
C19M C 0.28139(15) 0.89174(15) 0.7382(4)
H24M H 0.30090 0.87970 0.73580
C20M C 0.26527(16) 0.90036(18) 0.6812(3)
C21M C 0.23679(17) 0.91791(18) 0.6847(3)
H25M H 0.22580 0.92380 0.64570
C22M C 0.22443(16) 0.92684(14) 0.7454(3)
H26M H 0.20500 0.93880 0.74780
C23M C 0.28066(16) 0.89180(19) 0.6171(3)
C24M C 0.31395(17) 0.89260(18) 0.6095(3)
H27M H 0.32730 0.89770 0.64580
C25M C 0.32765(17) 0.88591(13) 0.5489(3)
H28M H 0.35040 0.88650 0.54380
C26M C 0.30807(16) 0.87841(18) 0.4958(2)
C27M C 0.27478(19) 0.87761(17) 0.5033(3)
H29M H 0.26140 0.87250 0.46700
C28M C 0.26108(20) 0.88430(14) 0.5640(4)
H30M H 0.23830 0.88380 0.56910
C29M C 0.32336(13) 0.86892(12) 0.43184(19)
C30M C 0.34745(10) 0.88798(13) 0.4047(2)
H31M H 0.35310 0.90790 0.42460
C31M C 0.36333(12) 0.87791(11) 0.3483(3)
C32M C 0.35512(13) 0.84879(12) 0.3191(2)
H32M H 0.36600 0.84190 0.28060
C33M C 0.33102(10) 0.82973(13) 0.3463(2)
C34M C 0.31515(12) 0.83979(11) 0.4026(2)
H33M H 0.29870 0.82680 0.42120
C35M C 0.32770(16) 0.79499(20) 0.3270(5)
C36M C 0.32110(19) 0.79055(30) 0.2608(5)
H34M H 0.31990 0.80860 0.23240
C37M C 0.3163(2) 0.7597(3) 0.2363(4)
H35M H 0.31180 0.75660 0.19110
C38M C 0.31800(17) 0.73323(30) 0.2780(5)
C39M C 0.32460(17) 0.73767(30) 0.3441(5)
H36M H 0.32580 0.71960 0.37260
C40M C 0.32940(17) 0.76854(20) 0.3686(5)
H37M H 0.33390 0.77160 0.41380
C41M C 0.33274(14) 0.67503(11) 0.25502(19)
H38M H 0.34990 0.67670 0.28560
C42M C 0.31285(13) 0.70146(8) 0.24288(15)
C43M C 0.28899(20) 0.69680(16) 0.1986(2)
H39M H 0.27510 0.71440 0.18940
C44M C 0.38811(16) 0.89980(13) 0.3161(3)
C45M C 0.40409(18) 0.92276(17) 0.3535(2)
H40M H 0.39790 0.92640 0.39770
C46M C 0.42918(17) 0.94047(18) 0.3263(3)
H41M H 0.44010 0.95620 0.35190
C47M C 0.43829(17) 0.93521(15) 0.2617(3)
C48M C 0.42231(20) 0.91230(18) 0.2242(2)
H42M H 0.42850 0.90870 0.18010
C49M C 0.39722(18) 0.89454(18) 0.2514(3)
H43M H 0.38630 0.87880 0.22580
C50M C 0.46747(20) 0.95160(14) 0.2322(3)
C51M C 0.47075(19) 0.98486(16) 0.2375(3)
H44M H 0.45480 0.99710 0.25990
C52M C 0.49730(14) 1.00019(20) 0.2101(4)
H45M H 0.49950 1.02290 0.21370
C53M C 0.52056(20) 0.98230(14) 0.1773(3)
C54M C 0.51728(20) 0.94900(17) 0.1719(3)
H46M H 0.53320 0.93680 0.14950
C55M C 0.49070(14) 0.93372(20) 0.1994(4)
H47M H 0.48850 0.91100 0.19580
C56M C 0.5498(3) 1.0003(3) 0.1511(6)
H48M H 0.55040 1.02310 0.15400
C57M C 0.36310(17) 0.95617(20) 1.1116(3)
H49M H 0.36390 0.97390 1.14110
C58M C 0.39600(17) 0.92284(20) 1.0282(2)
H50M H 0.37810 0.90920 1.01960
C59M C 0.39250(15) 0.94738(20) 1.0727(2)
C60M C 0.41850(18) 0.96646(20) 1.0838(3)
H51M H 0.41700 0.98370 1.11430
N1O N 0.65858(14) 0.55734(18) 1.1064(2)
N2O N 0.7598(2) 0.5768(2) 0.9179(4)
N3O N 0.4276(2) 0.5139(3) 0.1267(4)
C1O C 0.75537(17) 0.57612(14) 1.0377(2)
C2O C 0.73041(11) 0.55797(16) 1.0642(3)
C3O C 0.71336(15) 0.56949(12) 1.1180(3)
C4O C 0.72128(17) 0.59915(14) 1.1452(2)
C5O C 0.74624(11) 0.61730(16) 1.1187(3)
C6O C 0.76328(16) 0.60578(12) 1.0650(3)
C7O C 0.7902(3) 0.6265(3) 1.0366(5)
H1O H 0.79130 0.62320 0.98870
H2O H 0.78530 0.64950 1.04470
C8O C 0.8248(3) 0.6176(3) 1.0692(6)
H3O H 0.82190 0.60050 1.10190
H4O H 0.83960 0.61020 1.03500
H5O H 0.83380 0.63680 1.09050
C9O C 0.7550(2) 0.6501(2) 1.1502(4)
H6O H 0.77820 0.65430 1.14330
H7O H 0.75120 0.64870 1.19800
C10O C 0.7020(2) 0.6118(2) 1.2040(3)
H8O H 0.70130 0.63560 1.20230
H9O H 0.67960 0.60370 1.20120
C11O C 0.7170(2) 0.6011(2) 1.2701(3)
H10O H 0.70490 0.61070 1.30630
H11O H 0.71610 0.57750 1.27350
H12O H 0.73950 0.60820 1.27220
C12O C 0.6876(3) 0.5487(2) 1.1490(4)
H13O H 0.69290 0.52550 1.14580
H14O H 0.68390 0.55450 1.19540
C13O C 0.7204(2) 0.5256(2) 1.0331(5)
H15O H 0.69700 0.52220 1.03970
H16O H 0.72460 0.52630 0.98540
C14O C 0.7398(3) 0.4962(3) 1.0645(6)
H17O H 0.73210 0.49240 1.10920
H18O H 0.73630 0.47680 1.03800
H19O H 0.76280 0.50140 1.06550
C15O C 0.7745(2) 0.5636(2) 0.9808(4)
H20O H 0.79720 0.57060 0.98450
H21O H 0.77400 0.53980 0.98030
C16O C 0.7708(3) 0.5702(3) 0.8690(5)
H22O H 0.78890 0.55620 0.86970
C17O C 0.75945(16) 0.58178(18) 0.8024(2)
C18O C 0.73097(16) 0.59933(17) 0.7989(3)
H23O H 0.72000 0.60520 0.83790
C19O C 0.71861(15) 0.60826(15) 0.7382(4)
H24O H 0.69910 0.62030 0.73580
C20O C 0.73473(16) 0.59964(18) 0.6812(3)
C21O C 0.76321(17) 0.58209(18) 0.6847(3)
H25O H 0.77420 0.57620 0.64570
C22O C 0.77557(16) 0.57316(14) 0.7454(3)
H26O H 0.79500 0.56120 0.74780
C23O C 0.71934(16) 0.60820(19) 0.6171(3)
C24O C 0.68605(17) 0.60740(18) 0.6095(3)
H27O H 0.67270 0.60230 0.64580
C25O C 0.67235(17) 0.61409(13) 0.5489(3)
H28O H 0.64960 0.61350 0.54380
C26O C 0.69193(16) 0.62159(18) 0.4958(2)
C27O C 0.72522(19) 0.62239(17) 0.5033(3)
H29O H 0.73860 0.62750 0.46700
C28O C 0.73892(20) 0.61570(14) 0.5640(4)
H30O H 0.76170 0.61620 0.56910
C29O C 0.67664(13) 0.63108(12) 0.43184(19)
C30O C 0.65255(10) 0.61202(13) 0.4047(2)
H31O H 0.64690 0.59210 0.42460
C31O C 0.63667(12) 0.62209(11) 0.3483(3)
C32O C 0.64488(13) 0.65121(12) 0.3191(2)
H32O H 0.63400 0.65810 0.28060
C33O C 0.66898(10) 0.67027(13) 0.3463(2)
C34O C 0.68485(12) 0.66021(11) 0.4026(2)
H33O H 0.70130 0.67320 0.42120
C35O C 0.67230(16) 0.70501(20) 0.3270(5)
C36O C 0.67890(19) 0.70945(30) 0.2608(5)
H34O H 0.68010 0.69140 0.23240
C37O C 0.6837(2) 0.7403(3) 0.2363(4)
H35O H 0.68820 0.74340 0.19110
C38O C 0.68200(17) 0.76677(30) 0.2780(5)
C39O C 0.67540(17) 0.76233(30) 0.3441(5)
H36O H 0.67420 0.78040 0.37260
C40O C 0.67060(17) 0.73146(20) 0.3686(5)
H37O H 0.66610 0.72840 0.41380
C41O C 0.66726(14) 0.82497(11) 0.25502(19)
H38O H 0.65010 0.82330 0.28560
C42O C 0.68715(13) 0.79854(8) 0.24288(15)
C43O C 0.71101(20) 0.80320(16) 0.1986(2)
H39O H 0.72490 0.78560 0.18940
C44O C 0.61189(16) 0.60020(13) 0.3161(3)
C45O C 0.59591(18) 0.57724(17) 0.3535(2)
H40O H 0.60210 0.57360 0.39770
C46O C 0.57082(17) 0.55953(18) 0.3263(3)
H41O H 0.55990 0.54380 0.35190
C47O C 0.56171(17) 0.56479(15) 0.2617(3)
C48O C 0.57769(20) 0.58770(18) 0.2242(2)
H42O H 0.57150 0.59130 0.18010
C49O C 0.60278(18) 0.60546(18) 0.2514(3)
H43O H 0.61370 0.62120 0.22580
C50O C 0.53253(20) 0.54840(14) 0.2322(3)
C51O C 0.52925(19) 0.51514(16) 0.2375(3)
H44O H 0.54520 0.50290 0.25990
C52O C 0.50270(14) 0.49981(20) 0.2101(4)
H45O H 0.50050 0.47710 0.21370
C53O C 0.47944(20) 0.51770(14) 0.1773(3)
C54O C 0.48272(20) 0.55100(17) 0.1719(3)
H46O H 0.46680 0.56320 0.14950
C55O C 0.50930(14) 0.56628(20) 0.1994(4)
H47O H 0.51150 0.58900 0.19580
C56O C 0.4502(3) 0.4997(3) 0.1511(6)
H48O H 0.44960 0.47690 0.15400
C57O C 0.63690(17) 0.54383(20) 1.1116(3)
H49O H 0.63610 0.52610 1.14110
C58O C 0.60400(17) 0.57716(20) 1.0282(2)
H50O H 0.62190 0.59080 1.01960
C59O C 0.60750(15) 0.55262(20) 1.0727(2)
C60O C 0.58150(18) 0.53354(20) 1.0838(3)
H51O H 0.58300 0.51630 1.11430
N1B N 0.69266(14) 0.90858(18) 0.1436(2)
N2B N 0.6732(2) 1.0098(2) 0.3321(4)
N3B N 0.7361(2) 0.6776(3) 1.1233(4)
C1B C 0.67388(17) 1.00537(14) 0.2123(2)
C2B C 0.69203(11) 0.98041(16) 0.1858(3)
C3B C 0.68051(15) 0.96336(12) 0.1320(3)
C4B C 0.65085(17) 0.97128(14) 0.1048(2)
C5B C 0.63270(11) 0.99624(16) 0.1313(3)
C6B C 0.64422(16) 1.01328(12) 0.1850(3)
C7B C 0.6235(3) 1.0402(3) 0.2134(5)
H1B H 0.62680 1.04130 0.26130
H2B H 0.60050 1.03530 0.20530
C8B C 0.6324(3) 1.0748(3) 0.1808(6)
H3B H 0.64950 1.07190 0.14810
H4B H 0.63980 1.08960 0.21500
H5B H 0.61320 1.08380 0.15950
C9B C 0.5999(2) 1.0050(2) 0.0998(4)
H6B H 0.59570 1.02820 0.10670
H7B H 0.60130 1.00120 0.05200
C10B C 0.6382(2) 0.9520(2) 0.0460(3)
H8B H 0.61440 0.95130 0.04770
H9B H 0.64630 0.92960 0.04880
C11B C 0.6489(2) 0.9670(2) -0.0201(3)
H10B H 0.63930 0.95490 -0.05630
H11B H 0.67250 0.96610 -0.02350
H12B H 0.64180 0.98950 -0.02220
C12B C 0.7013(3) 0.9376(2) 0.1010(4)
H13B H 0.72450 0.94290 0.10420
H14B H 0.69550 0.93390 0.05460
C13B C 0.7244(2) 0.9704(2) 0.2169(5)
H15B H 0.72780 0.94700 0.21030
H16B H 0.72370 0.97460 0.26460
C14B C 0.7538(3) 0.9898(3) 0.1855(6)
H17B H 0.75760 0.98210 0.14080
H18B H 0.77320 0.98630 0.21200
H19B H 0.74860 1.01280 0.18450
C15B C 0.6864(2) 1.0245(2) 0.2692(4)
H20B H 0.67940 1.04720 0.26550
H21B H 0.71020 1.02400 0.26970
C16B C 0.6798(3) 1.0208(3) 0.3810(5)
H22B H 0.69380 1.03890 0.38030
C17B C 0.66822(16) 1.00945(18) 0.4476(2)
C18B C 0.65067(16) 0.98097(17) 0.4511(3)
H23B H 0.64480 0.97000 0.41210
C19B C 0.64174(15) 0.96861(15) 0.5118(4)
H24B H 0.62970 0.94910 0.51420
C20B C 0.65036(16) 0.98473(18) 0.5688(3)
C21B C 0.66791(17) 1.01321(18) 0.5653(3)
H25B H 0.67380 1.02420 0.60430
C22B C 0.67684(16) 1.02557(14) 0.5046(3)
H26B H 0.68880 1.04500 0.50220
C23B C 0.64180(16) 0.96934(19) 0.6329(3)
C24B C 0.64260(17) 0.93605(18) 0.6405(3)
H27B H 0.64770 0.92270 0.60420
C25B C 0.63591(17) 0.92235(13) 0.7011(3)
H28B H 0.63650 0.89960 0.70620
C26B C 0.62841(16) 0.94193(18) 0.7542(2)
C27B C 0.62761(19) 0.97522(17) 0.7467(3)
H29B H 0.62250 0.98860 0.78300
C28B C 0.6343(2) 0.98892(14) 0.6860(4)
H30B H 0.63380 1.01170 0.68090
C29B C 0.61892(13) 0.92664(12) 0.81816(19)
C30B C 0.63798(10) 0.90255(13) 0.8453(2)
H31B H 0.65790 0.89690 0.82540
C31B C 0.62791(12) 0.88667(11) 0.9017(3)
C32B C 0.59879(13) 0.89488(12) 0.9309(2)
H32B H 0.59190 0.88400 0.96940
C33B C 0.57973(10) 0.91898(13) 0.9037(2)
C34B C 0.58979(12) 0.93485(11) 0.8474(2)
H33B H 0.57680 0.95130 0.82880
C35B C 0.54499(16) 0.9223(2) 0.9230(5)
C36B C 0.54055(19) 0.9289(3) 0.9892(5)
H34B H 0.55860 0.93010 1.01760
C37B C 0.5097(2) 0.9337(3) 1.0137(4)
H35B H 0.50660 0.93820 1.05890
C38B C 0.48323(17) 0.9320(3) 0.9720(5)
C39B C 0.48767(17) 0.9254(3) 0.9059(5)
H36B H 0.46960 0.92420 0.87740
C40B C 0.51854(17) 0.9206(2) 0.8814(5)
H37B H 0.52160 0.91610 0.83620
C41B C 0.42503(14) 0.91726(11) 0.99498(19)
H38B H 0.42670 0.90010 0.96440
C42B C 0.45146(13) 0.93715(8) 1.00712(15)
C43B C 0.4468(2) 0.96101(16) 1.0514(2)
H39B H 0.46440 0.97490 1.06060
C44B C 0.64980(16) 0.86189(13) 0.9339(3)
C45B C 0.67276(18) 0.84591(17) 0.8965(2)
H40B H 0.67640 0.85210 0.85230
C46B C 0.69047(17) 0.82082(18) 0.9237(3)
H41B H 0.70620 0.80990 0.89810
C47B C 0.68521(17) 0.81171(15) 0.9883(3)
C48B C 0.6623(2) 0.82769(18) 1.0258(2)
H42B H 0.65870 0.82150 1.06990
C49B C 0.64454(18) 0.85278(18) 0.9986(3)
H43B H 0.62880 0.86370 1.02420
C50B C 0.7016(2) 0.78253(14) 1.0178(3)
C51B C 0.73486(19) 0.77925(16) 1.0125(3)
H44B H 0.74710 0.79520 0.99010
C52B C 0.75019(14) 0.7527(2) 1.0399(4)
H45B H 0.77290 0.75050 1.03630
C53B C 0.7323(2) 0.72944(14) 1.0727(3)
C54B C 0.6990(2) 0.73272(17) 1.0781(3)
H46B H 0.68680 0.71680 1.10050
C55B C 0.68372(14) 0.7593(2) 1.0506(4)
H47B H 0.66100 0.76150 1.05420
C56B C 0.7503(3) 0.7002(3) 1.0989(6)
H48B H 0.77310 0.69960 1.09600
C57B C 0.70617(17) 0.8869(2) 0.1384(3)
H49B H 0.72390 0.88610 0.10890
C58B C 0.67284(17) 0.8540(2) 0.2218(2)
H50B H 0.65920 0.87190 0.23040
C59B C 0.69738(15) 0.8575(2) 0.1773(2)
C60B C 0.71646(18) 0.8315(2) 0.1662(3)
H51B H 0.73370 0.83300 0.13570
#END
