
#######################################################################
#
#                 Cambridge Crystallographic Data Centre
#                                CCDC
#
#######################################################################
#
# If this CIF has been generated from an entry in the Cambridge
# Structural Database, then it will include bibliographic, chemical,
# crystal, experimental, refinement or atomic coordinate data resulting
# from the CCDC's data processing and validation procedures.
#
#######################################################################

data_CSD_CIF_PIFKAT
_audit_creation_date 2018-07-24
_audit_creation_method CSD-ConQuest-V1
_database_code_CSD PIFKAT
_database_code_depnum_ccdc_archive 'CCDC 1827883'
_chemical_formula_sum 'C125.4 H138.1 Cl14.24 N17.12 O0.25 S12'
_chemical_formula_moiety
;
C108 H108 N12 S12,7.12(C1 H2 Cl2),0.25(H2 O1),5.12(C2 H3 N1)
;
_journal_coden_Cambridge 1490
_journal_volume 9
_journal_year 2018
_journal_page_first 2849
_journal_name_full 'Nat.Commun. '
loop_
_publ_author_name
"R.L.Greenaway"
"V.Santolini"
"M.J.Bennison"
"B.M.Alston"
"C.J.Pugh"
"M.A.Little"
"M.Miklitz"
"E.G.B.Eden-Rump"
"R.Clowes"
"A.Shakil"
"H.J.Cuthbertson"
"H.Armstrong"
"M.E.Briggs"
"K.E.Jelfs"
"A.I.Cooper"
_chemical_name_systematic
;
5,13,21,29,36,43(2,5)-hexakis(thieno[2,3-b]thiophene)-1,9,17,25(1,3,5)-tetraki
s(2,4,6-triethylbenzena)-3,7,11,15,19,23,27,31,34,38,41,45-dodecaazatricyclo[1
5.15.7.7^9,25^]hexatetracontaphane-3,6,11,14,19,22,27,30,34,37,41,44-dodecaene
 acetonitrile dichloromethane solvate hydrate
;
_cell_volume  15233.001
_exptl_crystal_colour 'yellow'
_exptl_crystal_density_diffrn 1.212
_exptl_crystal_description 'block'
_diffrn_ambient_temperature 100
_refine_special_details
;
The structure is disordered.  Disordered solvent molecules were not modelled 
and the disordered density was taken into account using the SQUEEZE/PLATON 
procedure.
;
#These two values have been output from a single CSD field.
_refine_ls_R_factor_gt 0.0827
_refine_ls_wR_factor_gt 0.0827
_symmetry_cell_setting monoclinic
_symmetry_space_group_name_H-M 'P 21/n'
_symmetry_Int_Tables_number 14
loop_
_symmetry_equiv_pos_site_id
_symmetry_equiv_pos_as_xyz
1 x,y,z
2 1/2-x,1/2+y,1/2-z
3 -x,-y,-z
4 -1/2+x,-1/2-y,-1/2+z
_cell_length_a 18.776(9)
_cell_length_b 31.091(14)
_cell_length_c 26.235(11)
_cell_angle_alpha 90
_cell_angle_beta 95.934(12)
_cell_angle_gamma 90
_cell_formula_units_Z 4
loop_
_atom_type_symbol
_atom_type_radius_bond
C 0.68
H 0.23
Cl 0.99
N 0.68
O 0.68
S 1.02
loop_
_atom_site_label
_atom_site_type_symbol
_atom_site_fract_x
_atom_site_fract_y
_atom_site_fract_z
C1 C 1.0748(3) 0.82634(18) 0.54256(18)
C2 C 1.0743(3) 0.78160(19) 0.54413(18)
C3 C 1.0211(3) 0.76089(18) 0.56918(19)
C4 C 0.9681(3) 0.78442(18) 0.59027(18)
C5 C 0.9682(3) 0.82993(18) 0.58700(18)
C6 C 1.0216(3) 0.85159(17) 0.56260(18)
C7 C 1.1361(3) 0.84956(19) 0.5201(2)
H1 H 1.14580 0.87650 0.53980
H2 H 1.17940 0.83130 0.52640
C8 C 1.1308(3) 0.7554(2) 0.5209(2)
H3 H 1.10890 0.72800 0.50770
H4 H 1.14620 0.77130 0.49130
C9 C 1.1965(4) 0.7449(2) 0.5573(3)
H5 H 1.22750 0.72520 0.54050
H6 H 1.18180 0.73130 0.58820
H7 H 1.22270 0.77150 0.56670
C10 C 1.0222(4) 0.71207(19) 0.5739(2)
H8 H 1.07240 0.70190 0.57550
H9 H 1.00330 0.70370 0.60640
C11 C 0.9100(3) 0.76186(19) 0.6175(2)
H10 H 0.86610 0.77970 0.61450
H11 H 0.89820 0.73380 0.60090
C12 C 0.9354(4) 0.7547(2) 0.6741(2)
H12 H 0.97710 0.73550 0.67710
H13 H 0.89670 0.74160 0.69120
H14 H 0.94870 0.78230 0.69030
C13 C 0.9089(3) 0.85510(19) 0.6078(2)
H15 H 0.89950 0.84320 0.64140
H16 H 0.92370 0.88550 0.61270
C14 C 1.0221(3) 0.89957(18) 0.5577(2)
H17 H 0.97210 0.91020 0.55420
H18 H 1.04360 0.90740 0.52610
C15 C 1.0641(3) 0.92202(18) 0.6037(2)
H19 H 1.06310 0.95320 0.59830
H20 H 1.11380 0.91190 0.60720
H21 H 1.04200 0.91520 0.63500
C16 C 0.2856(3) 0.8111(2) 0.3262(2)
C17 C 0.2603(4) 0.7955(2) 0.2789(3)
C18 C 0.2613(4) 0.8213(3) 0.2351(3)
C19 C 0.2856(4) 0.8641(3) 0.2401(2)
C20 C 0.3091(3) 0.8814(2) 0.2880(2)
C21 C 0.3096(3) 0.8544(2) 0.3318(2)
C22 C 0.2944(3) 0.7819(2) 0.3722(2)
H22 H 0.33610 0.79160 0.39560
H23 H 0.30460 0.75230 0.36080
C23 C 0.2274(4) 0.7808(2) 0.4022(3)
H24 H 0.18620 0.77010 0.37970
H25 H 0.21730 0.80980 0.41400
H26 H 0.23640 0.76160 0.43190
C24 C 0.2292(4) 0.7503(2) 0.2744(3)
H27 H 0.21140 0.74200 0.30720
H28 H 0.18820 0.74970 0.24740
C25 C 0.2439(5) 0.8002(3) 0.1786(3)
H29 H 0.27100 0.81510 0.15340
H30 H 0.25660 0.76930 0.17920
C26 C 0.1671(5) 0.8060(4) 0.1660(4)
H31 H 0.15400 0.79810 0.13010
H32 H 0.15460 0.83620 0.17110
H33 H 0.14120 0.78770 0.18820
C27 C 0.2830(4) 0.8948(3) 0.1938(3)
H34 H 0.24510 0.88450 0.16750
H35 H 0.26830 0.92360 0.20510
C28 C 0.3373(3) 0.9271(2) 0.2929(2)
H36 H 0.35970 0.93450 0.26150
H37 H 0.37510 0.92850 0.32210
C29 C 0.2785(4) 0.9611(2) 0.3011(3)
H38 H 0.24370 0.96220 0.27070
H39 H 0.30090 0.98940 0.30690
H40 H 0.25420 0.95310 0.33100
C30 C 0.3335(3) 0.8726(2) 0.3841(2)
H41 H 0.32330 0.90390 0.38410
H42 H 0.30570 0.85890 0.40970
C31 C 0.6937(5) 0.4416(2) 0.2355(3)
C32 C 0.7645(6) 0.4442(2) 0.2337(3)
C33 C 0.7921(5) 0.4473(2) 0.1901(3)
C34 C 0.7475(4) 0.44818(19) 0.1434(2)
C35 C 0.6735(4) 0.44600(18) 0.1415(2)
C36 C 0.6437(4) 0.4424(2) 0.1886(3)
C37 C 0.6577(7) 0.4384(3) 0.2871(3)
H43 H 0.60850 0.45020 0.28220
H44 H 0.68570 0.45520 0.31430
C38 C 0.6553(6) 0.3891(3) 0.3034(4)
H45 H 0.60990 0.37630 0.28900
H46 H 0.65920 0.38690 0.34090
H47 H 0.69520 0.37360 0.29050
C39 C 0.8123(6) 0.4402(2) 0.2857(3)
H48 H 0.78970 0.42010 0.30860
H49 H 0.85970 0.42840 0.27980
C40 C 0.8725(5) 0.4514(3) 0.1922(3)
H50 H 0.89040 0.46740 0.22360
H51 H 0.88460 0.46840 0.16240
C41 C 0.9121(5) 0.4065(3) 0.1922(4)
H52 H 0.90400 0.39360 0.15800
H53 H 0.89320 0.38730 0.21720
H54 H 0.96350 0.41070 0.20130
C42 C 0.7833(4) 0.4518(2) 0.0950(2)
H55 H 0.83170 0.43890 0.10030
H56 H 0.75520 0.43570 0.06720
C43 C 0.6271(4) 0.4464(2) 0.0904(2)
H57 H 0.65180 0.46290 0.06510
H58 H 0.58130 0.46120 0.09460
C44 C 0.6114(4) 0.4012(2) 0.0699(2)
H59 H 0.58050 0.40280 0.03750
H60 H 0.58720 0.38470 0.09490
H61 H 0.65650 0.38690 0.06420
C45 C 0.5655(4) 0.4397(2) 0.1896(3)
H62 H 0.54090 0.43630 0.15460
H63 H 0.55240 0.41540 0.21110
C46 C 0.8766(5) 0.8611(2) -0.0207(2)
C47 C 0.9426(5) 0.8404(2) -0.0096(2)
C48 C 0.9980(4) 0.8600(2) 0.0236(2)
C49 C 0.9820(5) 0.9013(2) 0.0451(2)
C50 C 0.9182(5) 0.9212(2) 0.0341(2)
C51 C 0.8645(4) 0.9012(2) 0.0001(2)
C52 C 0.8171(4) 0.8387(2) -0.0558(2)
H64 H 0.76980 0.84810 -0.04630
H65 H 0.82070 0.80720 -0.05080
C53 C 0.8227(5) 0.8496(3) -0.1140(2)
H66 H 0.78390 0.83510 -0.13530
H67 H 0.86900 0.83960 -0.12370
H68 H 0.81870 0.88070 -0.11910
C54 C 0.9584(5) 0.7973(2) -0.0344(3)
H69 H 0.94240 0.79850 -0.07150
H70 H 1.01070 0.79210 -0.03030
C55 C 1.0689(5) 0.8389(3) 0.0352(3)
H71 H 1.06210 0.80740 0.03600
H72 H 1.09000 0.84810 0.06970
C56 C 1.1214(6) 0.8502(4) -0.0048(4)
H73 H 1.10010 0.84190 -0.03900
H74 H 1.16640 0.83460 0.00350
H75 H 1.13080 0.88120 -0.00400
C57 C 1.0434(4) 0.9250(2) 0.0769(2)
H76 H 1.08780 0.91960 0.06060
H77 H 1.03340 0.95620 0.07390
C58 C 0.9010(5) 0.9633(2) 0.0590(3)
H78 H 0.84940 0.96340 0.06380
H79 H 0.92800 0.96430 0.09340
C59 C 0.9173(6) 1.0036(3) 0.0307(3)
H80 H 0.88560 1.00540 -0.00140
H81 H 0.96730 1.00300 0.02290
H82 H 0.90960 1.02880 0.05200
C60 C 0.7992(5) 0.9259(3) -0.0168(3)
H83 H 0.81300 0.95660 -0.01740
H84 H 0.78400 0.91750 -0.05270
C61 C 0.8502(4) 0.5111(2) 0.0790(3)
H85 H 0.88990 0.49250 0.08730
C62 C 0.8644(4) 0.5565(2) 0.0655(3)
C63 C 0.9298(4) 0.5759(2) 0.0661(3)
H86 H 0.97420 0.56190 0.07540
C64 C 0.9228(4) 0.6207(2) 0.0504(3)
C65 C 0.8523(3) 0.6319(2) 0.0409(2)
C66 C 0.9694(4) 0.6544(2) 0.0406(3)
H87 H 1.02010 0.65250 0.04540
C67 C 0.9326(4) 0.6903(2) 0.0234(2)
C68 C 0.9623(4) 0.7313(2) 0.0042(2)
H88 H 1.01260 0.73410 0.00360
C69 C 0.7347(4) 0.8979(2) 0.0501(3)
H89 H 0.77410 0.87990 0.06140
C70 C 0.6703(4) 0.8979(2) 0.0759(3)
C71 C 0.6529(4) 0.8724(2) 0.1149(2)
H90 H 0.68300 0.85070 0.13100
C72 C 0.5826(4) 0.8826(2) 0.1283(2)
C73 C 0.5498(4) 0.9146(2) 0.0975(2)
C74 C 0.5350(4) 0.8674(2) 0.1638(2)
H91 H 0.54750 0.84590 0.18880
C75 C 0.4712(5) 0.8868(2) 0.1577(2)
C76 C 0.4082(4) 0.8790(3) 0.1848(3)
H92 H 0.40950 0.85950 0.21270
C77 C 0.8052(3) 0.8856(2) 0.5658(2)
H93 H 0.82050 0.91130 0.58320
C78 C 0.7371(3) 0.88546(19) 0.5322(2)
C79 C 0.6853(3) 0.91531(19) 0.5282(2)
H94 H 0.68830 0.94190 0.54620
C80 C 0.6243(3) 0.90240(19) 0.4934(2)
C81 C 0.6356(3) 0.8620(2) 0.4735(2)
C82 C 0.5560(3) 0.9194(2) 0.4743(2)
H95 H 0.53910 0.94690 0.48340
C83 C 0.5178(3) 0.89198(19) 0.4417(2)
C84 C 0.4435(3) 0.8956(2) 0.4216(2)
H96 H 0.41960 0.92210 0.42590
C85 C 1.0157(2) 0.66706(11) 0.50562(9)
H97 H 1.06650 0.66840 0.51080
C86 C 0.8878(5) 0.4981(2) 0.3194(2)
H98 H 0.92630 0.48500 0.30430
C87 C 0.98095(16) 0.63618(9) 0.46675(7)
C88 C 1.0020(7) 0.5989(2) 0.4464(3)
H99 H 1.04830 0.58800 0.45750
C89 C 0.9570(8) 0.5749(4) 0.4087(3)
C90 C 0.8979(8) 0.6008(4) 0.4040(3)
C91 C 0.9619(9) 0.5351(4) 0.3796(4)
H100 H 1.00120 0.51570 0.38100
C92 C 0.8979(7) 0.5317(4) 0.3499(4)
C93 C 1.0794(3) 0.84191(17) 0.4342(2)
H101 H 1.04760 0.82180 0.44710
C94 C 1.0743(3) 0.85146(17) 0.3801(2)
C95 C 1.0322(3) 0.83386(19) 0.3408(2)
H102 H 0.99850 0.81170 0.34510
C96 C 1.0430(3) 0.85180(17) 0.2921(2)
C97 C 1.0964(3) 0.88263(18) 0.29767(19)
C98 C 1.0144(4) 0.84781(19) 0.2395(2)
H103 H 0.97990 0.82680 0.22760
C99 C 1.0415(3) 0.87701(18) 0.2086(2)
C100 C 1.0249(4) 0.8851(2) 0.1533(2)
H104 H 0.98970 0.86850 0.13350
C101 C 0.4908(6) 0.4905(4) 0.1852(5)
H105 H 0.47470 0.47510 0.15500
C102 C 0.4469(7) 0.5279(4) 0.2009(7)
C103 C 0.3804(7) 0.5414(5) 0.1837(7)
H106 H 0.34910 0.52670 0.15880
C104 C 0.3633(7) 0.5811(5) 0.2082(7)
C105 C 0.4206(7) 0.5972(4) 0.2382(6)
C106 C 0.3037(7) 0.6106(5) 0.2046(6)
H107 H 0.26060 0.60640 0.18290
C107 C 0.3168(7) 0.6454(5) 0.2363(7)
C108 C 0.2699(8) 0.6839(5) 0.2371(7)
H108 H 0.22430 0.68240 0.21780
N1 N 0.8426(2) 0.85278(16) 0.57175(16)
N2 N 0.9800(3) 0.69097(16) 0.53122(18)
N3 N 1.1276(2) 0.86093(14) 0.46489(16)
N4 N 0.4095(3) 0.86582(17) 0.39895(18)
N5 N 0.3505(4) 0.8999(2) 0.1689(2)
N6 N 0.2852(11) 0.7185(9) 0.2613(18)
N7 N 0.8213(4) 0.4836(2) 0.3108(2)
N8 N 0.5483(7) 0.4791(4) 0.2109(5)
N9 N 0.7890(3) 0.49642(17) 0.07991(17)
N10 N 0.7366(4) 0.9229(2) 0.0113(2)
N11 N 0.9222(3) 0.76175(19) -0.01122(19)
N12 N 1.0589(3) 0.91491(17) 0.13282(18)
S1 S 0.46455(13) 0.92558(7) 0.10962(8)
S2 S 0.60382(13) 0.93351(7) 0.05359(8)
S3 S 0.56388(9) 0.84440(5) 0.43170(6)
S4 S 0.71629(9) 0.83949(5) 0.49501(6)
S5 S 1.13249(8) 0.89014(5) 0.35928(5)
S6 S 1.10811(9) 0.90891(5) 0.24077(6)
S7 S 0.84144(10) 0.68436(6) 0.02004(7)
S8 S 0.79426(9) 0.59098(6) 0.05071(7)
S9 S 0.4934(4) 0.5635(3) 0.2432(3)
S10 S 0.4038(5) 0.6463(3) 0.2655(4)
S11 S 0.9106(6) 0.6439(4) 0.4307(4)
S12 S 0.8410(5) 0.5751(3) 0.3598(3)
O1 O 0.7778(13) 0.5453(8) 0.4846(9)
C109 C 0.3748(4) 0.5138(3) 0.3330(3)
H109 H 0.36190 0.53100 0.30160
H110 H 0.40100 0.48780 0.32380
Cl1 Cl 0.4278(2) 0.54477(10) 0.37997(10)
Cl2 Cl 0.3009(5) 0.5004(3) 0.3612(4)
C110 C 0.6634(3) 0.53309(19) -0.0240(2)
H111 H 0.68200 0.52700 0.01200
H112 H 0.65370 0.56430 -0.02710
Cl3 Cl 0.58324(10) 0.50473(6) -0.03897(6)
Cl4 Cl 0.72927(10) 0.51880(5) -0.06503(6)
H113? H 0.20200 0.74500 0.30410
H114? H 0.19490 0.74880 0.24310
H115? H 0.55540 0.41840 0.21590
H116? H 0.54430 0.42860 0.15600
H117? H 1.06650 0.66870 0.50860
C111? C 0.9751(5) 0.6349(2) 0.4691(2)
C112? C 1.0169(8) 0.6081(3) 0.4426(3)
H118? H 1.06760 0.60660 0.44390
C113? C 0.9632(9) 0.5829(3) 0.4124(4)
C114? C 0.8896(9) 0.5906(3) 0.4171(3)
C115? C 0.9653(7) 0.5480(4) 0.3752(4)
H119? H 1.00800 0.53620 0.36450
C116? C 0.8978(7) 0.5347(3) 0.3580(3)
H120? H 0.92620 0.48670 0.30270
C117? C 0.9053(2) 0.67263(19) 0.5344(5)
H121? H 0.87510 0.68070 0.55960
C118? C 0.88499(16) 0.63988(14) 0.4924(4)
C119? C 0.8449(4) 0.6038(3) 0.4973(8)
H122? H 0.82550 0.59550 0.52790
C120? C 0.8359(6) 0.5798(5) 0.4493(7)
C121? C 0.8682(6) 0.5973(5) 0.4098(7)
C122? C 0.7993(7) 0.5400(5) 0.4326(7)
H123? H 0.77370 0.52300 0.45470
C123? C 0.8050(6) 0.5291(4) 0.3825(7)
C124? C 0.7800(7) 0.4932(6) 0.3447(6)
H124? H 0.73570 0.47880 0.34650
C125? C 0.4651(6) 0.4917(4) 0.1827(5)
H125? H 0.44070 0.47170 0.15960
C126? C 0.4240(8) 0.5332(5) 0.1946(8)
C127? C 0.3540(8) 0.5454(5) 0.1844(7)
H126? H 0.31870 0.52780 0.16620
C128? C 0.3389(9) 0.5874(5) 0.2037(7)
C129? C 0.3961(7) 0.6039(4) 0.2334(7)
C130? C 0.2768(9) 0.6144(5) 0.2030(9)
H127? H 0.22980 0.60740 0.18860
C131? C 0.2971(8) 0.6515(5) 0.2264(8)
C132? C 0.2502(10) 0.6863(6) 0.2448(10)
H128? H 0.19970 0.68670 0.23650
N13? N 0.2833(7) 0.7151(5) 0.272(1)
N14? N 0.5275(7) 0.4821(4) 0.2006(5)
S13? S 0.4695(5) 0.5723(3) 0.2339(4)
S14? S 0.3810(6) 0.6540(3) 0.2591(4)
S15? S 0.8561(7) 0.5679(4) 0.3541(5)
S16? S 0.8242(4) 0.55980(18) 0.3812(2)
S17? S 0.8812(3) 0.63271(18) 0.4614(2)
H129? H 0.37870 0.48320 0.34330
H130? H 0.39590 0.51660 0.30010
Cl5? Cl 0.2818(5) 0.5271(4) 0.3218(5)
S18? S 0.8958(4) 0.6468(3) 0.4392(3)
#END
