
#######################################################################
#
#                 Cambridge Crystallographic Data Centre
#                                CCDC
#
#######################################################################
#
# If this CIF has been generated from an entry in the Cambridge
# Structural Database, then it will include bibliographic, chemical,
# crystal, experimental, refinement or atomic coordinate data resulting
# from the CCDC's data processing and validation procedures.
#
#######################################################################

data_CSD_CIF_PIFKOH
_audit_creation_date 2018-07-24
_audit_creation_method CSD-ConQuest-V1
_database_code_CSD PIFKOH
_database_code_depnum_ccdc_archive 'CCDC 1827886'
_chemical_formula_sum 'C80.66 H84.2 D2.66 Cl7.98 N9 O10.6'
_chemical_formula_moiety
;
C72 H69 N9 O6,2.66(C1 D1 Cl3),1.5(C4 H8 O2),1.6(H2 O1)
;
_journal_coden_Cambridge 1490
_journal_volume 9
_journal_year 2018
_journal_page_first 2849
_journal_name_full 'Nat.Commun. '
loop_
_publ_author_name
"R.L.Greenaway"
"V.Santolini"
"M.J.Bennison"
"B.M.Alston"
"C.J.Pugh"
"M.A.Little"
"M.Miklitz"
"E.G.B.Eden-Rump"
"R.Clowes"
"A.Shakil"
"H.J.Cuthbertson"
"H.Armstrong"
"M.E.Briggs"
"K.E.Jelfs"
"A.I.Cooper"
_chemical_name_systematic
;
2,16,18,32,45,47-hexaethyl-9,25,38-tris(4-nitrophenyl)-5,13,21,29,34,42-hexaaz
aheptacyclo[15.15.11.1^3,31^.1^7,11^.1^15,19^.1^23,27^.1^36,40^]octatetraconta
-1,3(45),5,7(48),8,10,12,15(47),16,18,21,23(46),24,26,28,31,34,36(44),37,39,41
-henicosaene deuterochloroform ethyl acetate solvate hydrate
;
_cell_volume   8313.334
_exptl_crystal_colour 'light yellow'
_exptl_crystal_density_diffrn 1.308
_exptl_crystal_description 'block'
_diffrn_ambient_temperature 150
_refine_special_details
;
The structure is disordered.

;
#These two values have been output from a single CSD field.
_refine_ls_R_factor_gt 0.0958
_refine_ls_wR_factor_gt 0.0958
_symmetry_cell_setting monoclinic
_symmetry_space_group_name_H-M 'C 2/c'
_symmetry_Int_Tables_number 15
loop_
_symmetry_equiv_pos_site_id
_symmetry_equiv_pos_as_xyz
1 x,y,z
2 -x,y,1/2-z
3 1/2+x,1/2+y,z
4 1/2-x,1/2+y,1/2-z
5 -x,-y,-z
6 x,-y,-1/2+z
7 -1/2-x,-1/2-y,-z
8 -1/2+x,-1/2-y,-1/2+z
_cell_length_a 21.536(3)
_cell_length_b 15.147(2)
_cell_length_c 27.037(5)
_cell_angle_alpha 90
_cell_angle_beta 109.508(2)
_cell_angle_gamma 90
_cell_formula_units_Z 4
loop_
_atom_type_symbol
_atom_type_radius_bond
C 0.68
H 0.23
Cl 0.99
D 0.23
N 0.68
O 0.68
loop_
_atom_site_label
_atom_site_type_symbol
_atom_site_fract_x
_atom_site_fract_y
_atom_site_fract_z
O1 O 0.5325(2) 1.6356(3) 0.72626(17)
N1 N 0.2643(2) 0.7075(3) 0.70378(19)
N2 N 0.5059(2) 0.7100(3) 0.5749(2)
N3 N 0.6217(2) 1.0721(3) 0.6863(2)
N4 N 0.50000 1.5985(5) 0.75000
N5 N 0.1145(3) 0.5691(5) 0.3685(2)
C1 C 0.61739(15) 0.8759(2) 0.62295(12)
C2 C 0.66109(17) 0.92078(15) 0.66511(15)
C3 C 0.70433(15) 0.8739(2) 0.70663(12)
C4 C 0.70386(15) 0.7822(2) 0.70597(11)
C5 C 0.66016(17) 0.73726(15) 0.66381(13)
C6 C 0.61692(15) 0.7841(2) 0.62229(11)
C7 C 0.5686(3) 0.9268(4) 0.5774(3)
H1 H 0.55680 0.98290 0.59080
H2 H 0.52790 0.89160 0.56260
C8 C 0.5978(4) 0.9471(6) 0.5335(3)
H3 H 0.56670 0.98340 0.50640
H4 H 0.60580 0.89170 0.51790
H5 H 0.63950 0.97910 0.54840
C9 C 0.5715(3) 0.7347(4) 0.5749(2)
H6 H 0.56590 0.77160 0.54350
H7 H 0.59430 0.68000 0.57060
C10 C 0.6579(3) 0.6369(4) 0.6647(3)
H8 H 0.61210 0.61720 0.64640
H9 H 0.67070 0.61670 0.70160
C11 C 0.7035(4) 0.5936(5) 0.6387(3)
H10 H 0.69230 0.61520 0.60260
H11 H 0.69780 0.52940 0.63830
H12 H 0.74930 0.60850 0.65840
C12 C 0.7534(3) 0.7306(4) 0.7518(3)
H13 H 0.76450 0.67530 0.73720
H14 H 0.79430 0.76600 0.76460
C13 C 0.7520(3) 0.9218(5) 0.7537(3)
H15 H 0.75960 0.88520 0.78550
H16 H 0.73200 0.97820 0.75910
C14 C 0.8181(3) 0.9405(5) 0.7461(4)
H17 H 0.81060 0.97560 0.71410
H18 H 0.83920 0.88460 0.74280
H19 H 0.84660 0.97340 0.77640
C15 C 0.6640(3) 1.0213(4) 0.6640(3)
H20 H 0.71010 1.03910 0.68270
H21 H 0.65340 1.03960 0.62700
C16 C 0.4879(3) 0.7278(4) 0.6133(2)
H22 H 0.51800 0.75540 0.64340
C17 C 0.3202(3) 0.7254(4) 0.7017(2)
H23 H 0.35150 0.75280 0.73120
C18 C 0.5848(2) 1.0335(3) 0.7076(2)
H24 H 0.58530 0.97080 0.70920
C19 C 0.5417(2) 1.0816(3) 0.7297(2)
C20 C 0.50000 1.0387(5) 0.75000
H25 H 0.50000 0.97590 0.75000
C21 C 0.50000 1.2213(5) 0.75000
C22 C 0.5415(2) 1.1749(3) 0.7297(2)
H26 H 0.57000 1.20610 0.71570
C23 C 0.50000 1.3242(4) 0.75000
C24 C 0.5065(3) 1.3658(4) 0.7083(3)
H27 H 0.51030 1.33370 0.67920
C25 C 0.5075(3) 1.4581(4) 0.7089(3)
H28 H 0.51340 1.48970 0.68050
C26 C 0.50000 1.5023(5) 0.75000
O2 O 0.0558(5) 0.5748(9) 0.3621(5)
O3 O 0.1421(12) 0.540(2) 0.3393(8)
C27 C 0.42076(13) 0.7064(3) 0.61245(14)
C28 C 0.40309(14) 0.7233(2) 0.65651(11)
H29 H 0.43460 0.74700 0.68730
C29 C 0.33938(16) 0.7056(2) 0.65558(12)
C30 C 0.29334(12) 0.6710(3) 0.61058(14)
H30 H 0.24980 0.65890 0.60990
C31 C 0.31101(15) 0.6541(3) 0.56652(11)
C32 C 0.37472(17) 0.6719(3) 0.56745(11)
H31 H 0.38680 0.66030 0.53730
C33 C 0.2545(4) 0.6252(9) 0.5190(3)
C34 C 0.1883(5) 0.6451(6) 0.5085(3)
H32 H 0.17470 0.67530 0.53380
C35 C 0.1422(4) 0.6206(7) 0.4608(4)
H33 H 0.09690 0.63420 0.45350
C36 C 0.1622(5) 0.5763(9) 0.4236(3)
C37 C 0.2284(6) 0.5565(9) 0.4342(4)
H34 H 0.24210 0.52620 0.40880
C38 C 0.2746(4) 0.5810(9) 0.4819(4)
H35 H 0.31980 0.56740 0.48910
Cl1 Cl 0.25548(19) 0.2212(3) 0.44793(16)
Cl2 Cl 0.15916(16) 0.2367(2) 0.34288(18)
Cl3 Cl 0.1938(2) 0.0648(3) 0.3917(3)
C39 C 0.2213(5) 0.1739(8) 0.3888(5)
D1 D 0.25770 0.16890 0.37370
O4? O 0.0612(7) 0.5628(19) 0.3785(8)
O5? O 0.1324(8) 0.5629(11) 0.3291(6)
C40? C 0.2637(6) 0.6244(11) 0.5125(3)
C41? C 0.1986(7) 0.6146(13) 0.5102(4)
H36? H 0.18750 0.61930 0.54120
C42? C 0.1498(5) 0.5978(14) 0.4624(5)
H37? H 0.10530 0.59110 0.46080
C43? C 0.1661(6) 0.5908(11) 0.4169(4)
C44? C 0.2312(6) 0.6007(9) 0.4193(3)
H38? H 0.24230 0.59590 0.38820
C45? C 0.2800(5) 0.6174(10) 0.4670(4)
H39? H 0.32450 0.62410 0.46860
O6? O 0.1511(11) 0.243(2) 0.3786(15)
O7? O 0.204(3) 0.099(3) 0.4188(15)
O1A O 0.4675(2) 1.6356(3) 0.77374(17)
N1A N 0.7357(2) 0.7075(3) 0.79622(19)
N2A N 0.4941(2) 0.7100(3) 0.9251(2)
N3A N 0.3783(2) 1.0721(3) 0.8137(2)
N5A N 0.8855(3) 0.5691(5) 1.1315(2)
C1A C 0.38261(15) 0.8759(2) 0.87705(12)
C2A C 0.33891(17) 0.92078(15) 0.83489(15)
C3A C 0.29567(15) 0.8739(2) 0.79337(12)
C4A C 0.29614(15) 0.7822(2) 0.79403(11)
C5A C 0.33984(17) 0.73726(15) 0.83619(13)
C6A C 0.38308(15) 0.7841(2) 0.87771(11)
C7A C 0.4314(3) 0.9268(4) 0.9226(3)
H1A H 0.44320 0.98290 0.90920
H2A H 0.47210 0.89160 0.93740
C8A C 0.4022(4) 0.9471(6) 0.9665(3)
H3A H 0.43330 0.98340 0.99360
H4A H 0.39420 0.89170 0.98210
H5A H 0.36050 0.97910 0.95160
C9A C 0.4285(3) 0.7347(4) 0.9251(2)
H6A H 0.43410 0.77160 0.95650
H7A H 0.40570 0.68000 0.92940
C10A C 0.3421(3) 0.6369(4) 0.8353(3)
H8A H 0.38790 0.61720 0.85360
H9A H 0.32930 0.61670 0.79840
C11A C 0.2965(4) 0.5936(5) 0.8613(3)
H10A H 0.30770 0.61520 0.89740
H11A H 0.30220 0.52940 0.86170
H12A H 0.25070 0.60850 0.84160
C12A C 0.2466(3) 0.7306(4) 0.7482(3)
H13A H 0.23550 0.67530 0.76280
H14A H 0.20570 0.76600 0.73540
C13A C 0.2480(3) 0.9218(5) 0.7463(3)
H15A H 0.24040 0.88520 0.71450
H16A H 0.26800 0.97820 0.74090
C14A C 0.1819(3) 0.9405(5) 0.7539(4)
H17A H 0.18940 0.97560 0.78590
H18A H 0.16080 0.88460 0.75720
H19A H 0.15340 0.97340 0.72360
C15A C 0.3360(3) 1.0213(4) 0.8360(3)
H20A H 0.28990 1.03910 0.81730
H21A H 0.34660 1.03960 0.87300
C16A C 0.5121(3) 0.7278(4) 0.8867(2)
H22A H 0.48200 0.75540 0.85660
C17A C 0.6798(3) 0.7254(4) 0.7983(2)
H23A H 0.64850 0.75280 0.76880
C18A C 0.4152(2) 1.0335(3) 0.7924(2)
H24A H 0.41470 0.97080 0.79080
C19A C 0.4583(2) 1.0816(3) 0.7703(2)
C22A C 0.4585(2) 1.1749(3) 0.7703(2)
H26A H 0.43000 1.20610 0.78430
C24A C 0.4935(3) 1.3658(4) 0.7917(3)
H27A H 0.48970 1.33370 0.82080
C25A C 0.4925(3) 1.4581(4) 0.7911(3)
H28A H 0.48660 1.48970 0.81950
O2A O 0.9442(5) 0.5748(9) 1.1379(5)
O3A O 0.8579(12) 0.540(2) 1.1607(8)
C27A C 0.57924(13) 0.7064(3) 0.88755(14)
C28A C 0.59691(14) 0.7233(2) 0.84349(11)
H29A H 0.56540 0.74700 0.81270
C29A C 0.66062(16) 0.7056(2) 0.84442(12)
C30A C 0.70666(12) 0.6710(3) 0.88942(14)
H30A H 0.75020 0.65890 0.89010
C31A C 0.68899(15) 0.6541(3) 0.93348(11)
C32A C 0.62528(17) 0.6719(3) 0.93255(11)
H31A H 0.61320 0.66030 0.96270
C33A C 0.7455(4) 0.6252(9) 0.9810(3)
C34A C 0.8117(5) 0.6451(6) 0.9915(3)
H32A H 0.82530 0.67530 0.96620
C35A C 0.8578(4) 0.6206(7) 1.0392(4)
H33A H 0.90310 0.63420 1.04650
C36A C 0.8378(5) 0.5763(9) 1.0764(3)
C37A C 0.7716(6) 0.5565(9) 1.0658(4)
H34A H 0.75790 0.52620 1.09120
C38A C 0.7254(4) 0.5810(9) 1.0181(4)
H35A H 0.68020 0.56740 1.01090
#END
