
#######################################################################
#
#                 Cambridge Crystallographic Data Centre
#                                CCDC
#
#######################################################################
#
# If this CIF has been generated from an entry in the Cambridge
# Structural Database, then it will include bibliographic, chemical,
# crystal, experimental, refinement or atomic coordinate data resulting
# from the CCDC's data processing and validation procedures.
#
#######################################################################

data_CSD_CIF_PIFKEX
_audit_creation_date 2018-07-24
_audit_creation_method CSD-ConQuest-V1
_database_code_CSD PIFKEX
_database_code_depnum_ccdc_archive 'CCDC 1827884'
_chemical_formula_sum 'C165.5 H179.5 Cl13 N23.5'
_chemical_formula_moiety
;
C144 H144 N16,7.5(C2 H3 N1),6.5(C1 H2 Cl2)
;
_journal_coden_Cambridge 1490
_journal_volume 9
_journal_year 2018
_journal_page_first 2849
_journal_name_full 'Nat.Commun. '
loop_
_publ_author_name
"R.L.Greenaway"
"V.Santolini"
"M.J.Bennison"
"B.M.Alston"
"C.J.Pugh"
"M.A.Little"
"M.Miklitz"
"E.G.B.Eden-Rump"
"R.Clowes"
"A.Shakil"
"H.J.Cuthbertson"
"H.Armstrong"
"M.E.Briggs"
"K.E.Jelfs"
"A.I.Cooper"
_chemical_name_systematic
;
6,16,26,36(1,3,5)-tetrakis(2,4,6-triethylbenzena)-2,10,12,20,22,30,32,40,41,48
,49,53(1,4)-dodecabenzena-1,4,8,11,14,18,21,24,28,31,34,38,43,46,51,55-hexadec
aazapentacyclo[24.14.4.4^6,21^.4^11,36^.4^16,31^]hexapentacontaphane-3,8,13,18
,23,28,33,38,42,46,50,54-dodecaene acetonitrile dichloromethane solvate
;
_cell_volume  17000.103
_exptl_crystal_colour 'light yellow'
_exptl_crystal_density_diffrn 1.156
_exptl_crystal_description 'block'
_diffrn_ambient_temperature 100
_refine_special_details
;
C104,C105,C106,C107,C108,C109,C110,N3 and C100,C101,C102,C103,C97,C98,C99,N4 
disordered over two sites with occupancies 0.5:0.5; C156,H15D,H15E,H15C,H15F 
disordered over two configurations with occupancies 0.5,0.25,0.25,0.25,0.25; 
Cl5,Cl6 and Cl3,Cl4 disordered over two sites with occupancies 0.25:0.25; 
H51A,H51B and H51C,H51D disordered over two sites with occupancies 0.5:0.5. 
Disordered solvent molecules were not modelled and the disordered density was 
taken into account using the SQUEEZE/PLATON procedure.
;
#These two values have been output from a single CSD field.
_refine_ls_R_factor_gt 0.1126
_refine_ls_wR_factor_gt 0.1126
_symmetry_cell_setting monoclinic
_symmetry_space_group_name_H-M 'P 2/c'
_symmetry_Int_Tables_number 13
loop_
_symmetry_equiv_pos_site_id
_symmetry_equiv_pos_as_xyz
1 x,y,z
2 -x,y,1/2-z
3 -x,-y,-z
4 x,-y,-1/2+z
_cell_length_a 26.591(2)
_cell_length_b 16.3674(14)
_cell_length_c 39.525(4)
_cell_angle_alpha 90
_cell_angle_beta 98.7932(18)
_cell_angle_gamma 90
_cell_formula_units_Z 4
loop_
_atom_type_symbol
_atom_type_radius_bond
C 0.68
H 0.23
Cl 0.99
N 0.68
loop_
_atom_site_label
_atom_site_type_symbol
_atom_site_fract_x
_atom_site_fract_y
_atom_site_fract_z
N1 N 0.8310(2) 0.6401(4) 0.37537(17)
N2 N 0.7105(3) 0.9478(5) 0.3474(2)
N3 N 0.4519(3) 0.9058(6) 0.5813(2)
N4 N 0.5689(3) 1.1966(5) 0.5871(2)
N5 N 0.5787(3) 1.0189(5) 0.7174(2)
N6 N 1.0172(2) 1.0276(4) 0.69749(15)
N7 N 0.9854(2) 1.1491(4) 0.55467(14)
N8 N 1.1048(2) 0.8560(4) 0.59836(19)
N9 N 0.9093(3) 0.3078(4) 0.63780(16)
N10 N 0.6717(3) 0.3286(5) 0.6346(3)
N11 N 0.7936(3) 0.4863(4) 0.74266(16)
C1 C 1.0896(3) 1.0566(4) 0.58894(19)
C2 C 1.1094(3) 0.9992(5) 0.6141(2)
C3 C 0.4187(3) 0.9628(6) 0.6005(3)
H1 H 0.39100 0.98790 0.58420
H2 H 0.40330 0.93160 0.61780
C4 C 1.1006(3) 1.0065(5) 0.6480(2)
C5 C 1.0714(2) 1.0723(4) 0.65717(18)
C6 C 1.0504(2) 1.1302(4) 0.63263(19)
C7 C 1.0595(3) 1.1214(4) 0.59899(19)
C8 C 1.0982(3) 1.0508(5) 0.55250(19)
H3 H 1.06850 1.07380 0.53730
H4 H 1.10180 0.99270 0.54630
C9 C 1.1468(3) 1.0982(5) 0.5474(2)
H5 H 1.15090 1.09680 0.52320
H6 H 1.17650 1.07290 0.56120
H7 H 1.14390 1.15510 0.55460
C10 C 1.1403(3) 0.9269(4) 0.6044(2)
H8 H 1.15500 0.93930 0.58350
H9 H 1.16840 0.91440 0.62320
C11 C 1.1212(3) 0.9415(4) 0.6738(2)
H10 H 1.09850 0.93740 0.69140
H11 H 1.12060 0.88810 0.66200
C12 C 1.1748(3) 0.9588(5) 0.6913(2)
H12 H 1.19760 0.96270 0.67410
H13 H 1.18620 0.91440 0.70730
H14 H 1.17540 1.01040 0.70390
C13 C 1.0613(3) 1.0782(5) 0.69349(18)
H15 H 1.09150 1.05920 0.70940
H16 H 1.05460 1.13580 0.69910
C14 C 1.0189(3) 1.1995(4) 0.64280(19)
H17 H 1.00200 1.18190 0.66220
H18 H 0.99210 1.21300 0.62340
C15 C 1.0507(3) 1.2761(4) 0.6532(2)
H19 H 1.07220 1.28830 0.63580
H20 H 1.07220 1.26670 0.67530
H21 H 1.02800 1.32240 0.65530
C16 C 1.0344(3) 1.1823(4) 0.57196(18)
H22 H 1.02850 1.23490 0.58310
H23 H 1.05720 1.19250 0.55490
C17 C 0.5022(3) 1.1516(6) 0.6183(3)
C18 C 0.5211(3) 1.1404(6) 0.6525(3)
C19 C 0.5072(3) 1.0741(6) 0.6693(2)
C20 C 0.4736(3) 1.0149(6) 0.6524(2)
C21 C 0.4546(3) 1.0279(5) 0.6175(2)
C22 C 0.4685(3) 1.0946(6) 0.5999(2)
C23 C 0.5206(3) 1.2234(6) 0.5993(3)
H24 H 0.49470 1.23880 0.57960
H25 H 0.52720 1.27110 0.61470
C24 C 0.5607(3) 1.2048(6) 0.6710(3)
H26 H 0.58270 1.17740 0.69010
H27 H 0.58270 1.22420 0.65460
C25 C 0.5351(4) 1.2784(6) 0.6850(3)
H28 H 0.51800 1.31120 0.66590
H29 H 0.56080 1.31170 0.69910
H30 H 0.51000 1.25930 0.69900
C26 C 0.5278(3) 1.0629(6) 0.7071(2)
H31 H 0.50170 1.03290 0.71760
H32 H 0.53090 1.11790 0.71780
C27 C 0.4626(3) 0.9407(5) 0.6714(2)
H33 H 0.49200 0.92880 0.68930
H34 H 0.45800 0.89370 0.65550
C28 C 0.4137(4) 0.9514(7) 0.6885(3)
H35 H 0.38480 0.96480 0.67090
H36 H 0.41900 0.99570 0.70540
H37 H 0.40670 0.90050 0.69990
C29 C 0.4480(4) 1.1029(6) 0.5636(3)
H38 H 0.43910 1.04790 0.55410
H39 H 0.47500 1.12520 0.55150
C30 C 0.4026(4) 1.1561(8) 0.5564(3)
H40 H 0.39000 1.15600 0.53180
H41 H 0.41170 1.21190 0.56400
H42 H 0.37600 1.13550 0.56890
C31 C 0.7496(3) 0.2795(4) 0.67177(19)
C32 C 0.7527(3) 0.3266(4) 0.70174(19)
C33 C 0.8006(3) 0.3502(4) 0.71859(18)
C34 C 0.8449(3) 0.3292(4) 0.70493(18)
C35 C 0.8405(3) 0.2798(4) 0.67609(19)
C36 C 0.7935(3) 0.2558(4) 0.65886(18)
C37 C 0.7896(3) 0.2040(4) 0.62662(19)
H43 H 0.81970 0.21390 0.61530
H44 H 0.75900 0.22060 0.61060
C38 C 0.7861(4) 0.1130(4) 0.6345(2)
H45 H 0.78140 0.08200 0.61300
H46 H 0.75710 0.10330 0.64660
H47 H 0.81750 0.09540 0.64890
C39 C 0.6965(3) 0.2577(5) 0.6529(2)
H48 H 0.69950 0.21320 0.63640
H49 H 0.67520 0.23760 0.66960
C40 C 0.7041(3) 0.3519(5) 0.7157(2)
H50 H 0.71030 0.40440 0.72810
H51 H 0.67640 0.36070 0.69630
C41 C 0.6870(3) 0.2877(6) 0.7400(2)
H52 H 0.68280 0.23480 0.72830
H53 H 0.65450 0.30450 0.74660
H54 H 0.71270 0.28300 0.76050
C42 C 0.8038(3) 0.4010(4) 0.75120(19)
H55 H 0.77860 0.38070 0.76530
H56 H 0.83810 0.39560 0.76480
C43 C 0.8968(3) 0.3605(5) 0.72201(19)
H57 H 0.89220 0.41460 0.73230
H58 H 0.91890 0.36800 0.70420
C44 C 0.9240(3) 0.3028(5) 0.75025(19)
H59 H 0.92940 0.24930 0.74020
H60 H 0.90290 0.29630 0.76840
H61 H 0.95700 0.32630 0.76000
C45 C 0.8891(3) 0.2539(4) 0.66280(19)
H62 H 0.91620 0.24730 0.68280
H63 H 0.88300 0.19930 0.65210
C46 C 0.6634(3) 0.6725(5) 0.33302(19)
C47 C 0.7101(3) 0.6316(5) 0.33666(18)
C48 C 0.7544(3) 0.6753(5) 0.33447(17)
C49 C 0.7524(3) 0.7602(5) 0.32957(18)
C50 C 0.7061(3) 0.8007(5) 0.32509(17)
C51 C 0.6612(3) 0.7542(5) 0.32761(18)
C52 C 0.6151(3) 0.6234(5) 0.33574(19)
H64 H 0.58870 0.64300 0.31710
H65 H 0.62250 0.56610 0.33020
C53 C 0.7135(3) 0.5402(5) 0.3434(2)
H66 H 0.68670 0.52430 0.35700
H67 H 0.74690 0.52780 0.35730
C54 C 0.7075(4) 0.4887(5) 0.3103(2)
H68 H 0.67340 0.49690 0.29740
H69 H 0.71230 0.43080 0.31620
H70 H 0.73310 0.50570 0.29630
C55 C 0.8057(3) 0.6323(5) 0.33964(19)
H71 H 0.80080 0.57380 0.33380
H72 H 0.82760 0.65650 0.32410
C56 C 0.8010(3) 0.8102(4) 0.32751(18)
H73 H 0.79630 0.86650 0.33560
H74 H 0.82990 0.78550 0.34290
C57 C 0.8137(3) 0.8132(5) 0.29126(19)
H75 H 0.78850 0.84710 0.27690
H76 H 0.81300 0.75780 0.28180
H77 H 0.84770 0.83670 0.29170
C58 C 0.7035(3) 0.8923(5) 0.3171(2)
H78 H 0.72990 0.90530 0.30280
H79 H 0.67000 0.90410 0.30330
C59 C 0.6100(3) 0.8011(5) 0.3231(2)
H80 H 0.58680 0.77450 0.33710
H81 H 0.61610 0.85770 0.33150
C60 C 0.5848(3) 0.8031(5) 0.2860(2)
H82 H 0.60490 0.83750 0.27280
H83 H 0.55040 0.82560 0.28460
H84 H 0.58290 0.74760 0.27670
C61 C 0.8232(3) 0.5372(5) 0.7562(2)
H85 H 0.85190 0.51960 0.77180
C62 C 0.8163(3) 0.6266(5) 0.7493(2)
C63 C 0.8518(3) 0.6830(5) 0.7655(2)
H86 H 0.87930 0.66490 0.78200
C64 C 0.8467(3) 0.7642(5) 0.7575(2)
H87 H 0.87020 0.80240 0.76900
C65 C 0.8081(3) 0.7913(5) 0.7331(2)
C66 C 0.7708(3) 0.7373(5) 0.7181(2)
H88 H 0.74240 0.75620 0.70250
C67 C 0.7760(3) 0.6548(5) 0.7265(2)
H89 H 0.75110 0.61710 0.71610
N12 N 0.8032(2) 0.8753(4) 0.72388(16)
C68 C 0.8468(3) 0.9210(5) 0.71861(19)
C69 C 0.8473(3) 1.0056(5) 0.72187(19)
H90 H 0.81790 1.03310 0.72700
C70 C 0.8907(3) 1.0509(5) 0.71772(19)
H91 H 0.89060 1.10880 0.71960
C71 C 0.9332(3) 1.0111(5) 0.7110(2)
C72 C 0.9327(3) 0.9288(5) 0.7076(3)
H92 H 0.96190 0.90140 0.70200
C73 C 0.8897(3) 0.8839(5) 0.7120(3)
H93 H 0.89050 0.82600 0.71050
C74 C 0.9803(3) 1.0607(5) 0.7073(2)
H94 H 0.98140 1.11740 0.71260
C75 C 0.7542(3) 0.9116(5) 0.7179(2)
C76 C 0.7374(3) 0.9500(6) 0.6866(3)
H95 H 0.75940 0.95410 0.66980
C77 C 0.6891(3) 0.9819(6) 0.6801(3)
H96 H 0.67760 1.00740 0.65870
C78 C 0.6570(3) 0.9769(6) 0.7046(3)
C79 C 0.6731(3) 0.9396(5) 0.7348(2)
H97 H 0.65130 0.93820 0.75170
C80 C 0.7217(3) 0.9025(5) 0.7417(2)
H98 H 0.73170 0.87240 0.76220
C81 C 0.6056(4) 1.0141(6) 0.6964(3)
H99 H 0.59430 1.03430 0.67390
C82 C 0.6575(5) 0.3322(8) 0.6078(4)
H100 H 0.66230 0.28460 0.59490
C83 C 0.6306(3) 0.4027(4) 0.58745(19)
C84 C 0.6243(3) 0.3973(4) 0.55196(19)
H101 H 0.63570 0.35010 0.54130
C85 C 0.6013(3) 0.4608(5) 0.53200(13)
H102 H 0.59690 0.45710 0.50770
C86 C 0.5846(3) 0.5298(4) 0.54754(16)
C87 C 0.5910(3) 0.5353(4) 0.58303(17)
H103 H 0.57960 0.58240 0.59370
C88 C 0.6140(3) 0.4717(5) 0.60299(13)
H104 H 0.61830 0.47540 0.62720
C89 C 0.4747(2) 0.7742(4) 0.56684(17)
C90 C 0.4686(3) 0.6927(5) 0.57527(17)
H105 H 0.44550 0.67820 0.59040
C91 C 0.4964(3) 0.6324(3) 0.56161(19)
H106 H 0.49230 0.57670 0.56740
C92 C 0.5303(3) 0.6537(4) 0.53952(18)
C93 C 0.5363(3) 0.7352(4) 0.53110(17)
H107 H 0.55940 0.74970 0.51600
C94 C 0.5085(3) 0.7954(3) 0.54476(18)
H108 H 0.51260 0.85110 0.53900
C95 C 0.4457(4) 0.8380(7) 0.5833(3)
H109 H 0.42050 0.81990 0.59610
N13 N 0.5633(3) 0.5939(5) 0.52725(16)
C96 C 0.5714(4) 1.2052(8) 0.5573(3)
H110 H 0.54290 1.22830 0.54310
C97 C 0.6169(3) 1.1814(8) 0.5409(3)
C98 C 0.6167(4) 1.1962(8) 0.5072(3)
H111 H 0.58740 1.21940 0.49390
C99 C 0.6591(4) 1.1777(8) 0.4916(3)
H112 H 0.65950 1.19040 0.46820
C100 C 0.7010(3) 1.1400(7) 0.5112(2)
C101 C 0.7013(3) 1.1256(7) 0.5453(2)
H113 H 0.73020 1.10160 0.55880
C102 C 0.6587(3) 1.1465(7) 0.5602(2)
H114 H 0.65870 1.13650 0.58380
N14 N 0.7444(3) 1.1216(5) 0.49555(18)
C103 C 0.7938(3) 1.1370(6) 0.5113(2)
C104 C 0.8049(3) 1.2032(6) 0.5336(2)
H115 H 0.77840 1.23780 0.53860
C105 C 0.8541(3) 1.2181(5) 0.5480(2)
H116 H 0.86090 1.26290 0.56330
C106 C 0.8948(3) 1.1699(5) 0.54128(18)
C107 C 0.8835(3) 1.1046(5) 0.52002(19)
H117 H 0.91010 1.06940 0.51550
C108 C 0.8338(3) 1.0887(5) 0.5048(2)
H118 H 0.82720 1.04370 0.48950
C109 C 0.9466(3) 1.1911(5) 0.55718(18)
H119 H 0.95110 1.23990 0.57030
C110 C 0.7190(2) 0.9770(5) 0.40597(15)
C111 C 0.7313(2) 1.0591(5) 0.40342(14)
H120 H 0.73420 1.08200 0.38170
C112 C 0.7396(2) 1.1075(4) 0.4326(2)
H121 H 0.74810 1.16360 0.43090
C113 C 0.7355(2) 1.0739(5) 0.46439(15)
C114 C 0.7231(2) 0.9919(5) 0.46694(14)
H122 H 0.72030 0.96890 0.48860
C115 C 0.7148(2) 0.9434(4) 0.4377(2)
H123 H 0.70640 0.88730 0.43950
C116 C 0.7115(4) 0.9215(7) 0.3750(3)
H124 H 0.70770 0.86440 0.37800
C117 C 0.8464(3) 0.5756(5) 0.3915(2)
H125 H 0.84050 0.52420 0.38050
C118 C 0.8728(3) 0.5786(5) 0.4264(2)
C119 C 0.8872(3) 0.5069(5) 0.4439(2)
H126 H 0.88010 0.45590 0.43270
C120 C 0.9120(3) 0.5086(5) 0.4780(2)
H127 H 0.92010 0.45900 0.49010
C121 C 0.9245(3) 0.5817(5) 0.4936(2)
C122 C 0.9100(3) 0.6529(5) 0.4770(2)
H128 H 0.91700 0.70350 0.48860
C123 C 0.8849(3) 0.6520(5) 0.4431(2)
H129 H 0.87620 0.70210 0.43160
N15 N 0.9512(2) 0.5818(4) 0.52757(17)
C124 C 1.1033(3) 0.8197(5) 0.5705(2)
H130 H 1.12620 0.83530 0.55540
C125 C 1.0663(3) 0.7519(5) 0.5603(2)
C126 C 1.0571(3) 0.7269(5) 0.5276(2)
H131 H 1.07690 0.74860 0.51160
C127 C 1.0191(3) 0.6700(5) 0.5164(2)
H132 H 1.01320 0.65410 0.49310
C128 C 0.9905(3) 0.6369(5) 0.5387(2)
C129 C 1.0011(3) 0.6606(5) 0.5730(2)
H133 H 0.98190 0.63800 0.58910
C130 C 1.0388(3) 0.7161(5) 0.5837(2)
H134 H 1.04620 0.73030 0.60720
C131 C 0.8849(4) 0.3641(5) 0.6252(2)
H135 H 0.85270 0.37450 0.63180
C132 C 0.9031(2) 0.4191(3) 0.59944(12)
C133 C 0.95391(19) 0.4189(3) 0.59477(12)
H136 H 0.97730 0.38270 0.60770
C134 C 0.97040(16) 0.4715(3) 0.57112(13)
H137 H 1.00510 0.47130 0.56790
C135 C 0.9361(2) 0.5243(3) 0.55215(12)
C136 C 0.88538(19) 0.5246(3) 0.55682(13)
H138 H 0.86200 0.56070 0.54390
C137 C 0.86888(16) 0.4720(3) 0.58047(14)
H139 H 0.83420 0.47220 0.58370
N16 N 0.5906(5) 0.6208(13) 0.3678(3)
C138 C 0.6210(6) 0.6357(12) 0.3948(3)
H140 H 0.65440 0.65380 0.39280
C139 C 0.6081(5) 0.6267(10) 0.4282(2)
C140 C 0.6453(4) 0.6346(10) 0.4568(3)
H141 H 0.67950 0.64590 0.45410
C141 C 0.6325(5) 0.6261(11) 0.4894(2)
H142 H 0.65790 0.63150 0.50900
C142 C 0.5824(5) 0.6097(12) 0.4934(2)
C143 C 0.5452(4) 0.6018(10) 0.4648(3)
H143 H 0.51100 0.59050 0.46750
C144 C 0.5581(5) 0.6103(9) 0.4322(2)
H144 H 0.53270 0.60490 0.41260
H145? H 0.61560 0.56970 0.32430
H146? H 0.58420 0.65360 0.32570
N17? N 0.6178(5) 0.6135(12) 0.3750(3)
C145? C 0.5772(5) 0.6067(11) 0.3878(3)
H147? H 0.54650 0.60680 0.37190
C146? C 0.5719(5) 0.5991(10) 0.4221(2)
C147? C 0.6139(4) 0.6026(10) 0.4477(3)
H148? H 0.64710 0.60830 0.44190
C148? C 0.6075(5) 0.5976(12) 0.4819(3)
H149? H 0.63620 0.60000 0.49940
C149? C 0.5589(6) 0.5893(13) 0.4904(2)
C150? C 0.5169(4) 0.5858(12) 0.4648(3)
H150? H 0.48370 0.58010 0.47070
C151? C 0.5234(4) 0.5907(9) 0.4307(2)
H151? H 0.49460 0.58840 0.41310
C152 C 0.5677(5) 0.9911(8) 0.5668(2)
H152 H 0.56750 1.04600 0.57720
H153 H 0.53050 0.98330 0.56530
Cl1 Cl 0.6234(3) 0.9392(5) 0.5855(2)
Cl2 Cl 0.5613(4) 1.0024(6) 0.5220(2)
H154? H 0.53770 0.96110 0.57230
H155? H 0.57480 1.05000 0.57080
Cl3? Cl 0.5973(7) 0.9379(9) 0.6018(4)
Cl4? Cl 0.5849(5) 0.9651(8) 0.5268(3)
Cl5 Cl 1.01852(19) 0.5087(3) 0.70988(13)
Cl6 Cl 1.06962(17) 0.5191(3) 0.65239(11)
C153 C 1.0140(4) 0.5419(7) 0.6676(3)
H156 H 0.98500 0.51460 0.65330
H157 H 1.00800 0.60160 0.66640
N18 N 0.9124(4) 0.8362(7) 0.5367(3)
C154 C 0.9487(4) 0.8766(6) 0.5363(3)
C155 C 0.9903(4) 0.9279(6) 0.5372(2)
H158 H 1.00110 0.92890 0.51460
H159 H 1.01820 0.90790 0.55420
H160 H 0.98080 0.98320 0.54340
N19 N 0.7444(6) 0.499(1) 0.6522(4)
C156 C 0.7554(9) 0.5377(13) 0.6295(5)
C157 C 0.7592(9) 0.5911(13) 0.6011(6)
H161 H 0.75300 0.55980 0.57970
H162 H 0.79330 0.61510 0.60370
H163 H 0.73380 0.63470 0.60040
N20 N 1.0339(3) 0.7492(6) 0.6850(2)
C158 C 1.0206(5) 0.7968(8) 0.6633(3)
C159 C 0.9982(6) 0.8644(9) 0.6386(4)
H164 H 1.01740 0.86750 0.61940
H165 H 1.00050 0.91690 0.65070
H166 H 0.96250 0.85210 0.63010
#END
