
#######################################################################
#
#                 Cambridge Crystallographic Data Centre
#                                CCDC
#
#######################################################################
#
# If this CIF has been generated from an entry in the Cambridge
# Structural Database, then it will include bibliographic, chemical,
# crystal, experimental, refinement or atomic coordinate data resulting
# from the CCDC's data processing and validation procedures.
#
#######################################################################

data_CSD_CIF_PIFTUW
_audit_creation_date 2018-07-24
_audit_creation_method CSD-ConQuest-V1
_database_code_CSD PIFTUW
_database_code_depnum_ccdc_archive 'CCDC 1827868'
_chemical_formula_sum 'C127.5 H168 Cl9 N12'
_chemical_formula_moiety
;
C96 H96 N12,4.5(C1 H2 Cl2),4.5(C6 H14)
;
_journal_coden_Cambridge 1490
_journal_volume 9
_journal_year 2018
_journal_page_first 2849
_journal_name_full 'Nat.Commun. '
loop_
_publ_author_name
"R.L.Greenaway"
"V.Santolini"
"M.J.Bennison"
"B.M.Alston"
"C.J.Pugh"
"M.A.Little"
"M.Miklitz"
"E.G.B.Eden-Rump"
"R.Clowes"
"A.Shakil"
"H.J.Cuthbertson"
"H.Armstrong"
"M.E.Briggs"
"K.E.Jelfs"
"A.I.Cooper"
_chemical_name_systematic
;
2,15,17,30,32,45,47,60,73,76,89,92-dodecamethyl-5,12,20,27,35,42,50,57,62,69,7
8,85-dodecaazatridecacyclo[29.29.10.10^16,46^.2^7,10^.2^22,25^.2^37,40^.2^52,5
5^.2^64,67^.2^80,83^.1^3,59^.1^14,18^.1^29,33^.1^44,48^]hexanonaconta-1,3(73),
5,7,9,11,14(92),15,17,20,22,24,26,29(89),30,32,35,37,39,41,44(76),45,47,50,52,
54,56,59,62,64,66,68,71,74,78,80,82,84,87,90,93,95-dotetracontaene 
dichloromethane hexane solvate
;
_cell_volume  12839.505
_exptl_crystal_colour 'colorless'
_exptl_crystal_density_diffrn 1.132
_exptl_crystal_description 'block'
_exptl_crystal_preparation 'dichloromethane/hexane'
_diffrn_ambient_temperature 100
_refine_special_details
;
Disordered dichloromethane and hexane solvent molecules were not modelled and 
the disordered density was taken into account using the SQUEEZE/PLATON 
procedure.
;
#These two values have been output from a single CSD field.
_refine_ls_R_factor_gt 0.0508
_refine_ls_wR_factor_gt 0.0508
_symmetry_cell_setting tetragonal
_symmetry_space_group_name_H-M 'P 41'
_symmetry_Int_Tables_number 76
loop_
_symmetry_equiv_pos_site_id
_symmetry_equiv_pos_as_xyz
1 x,y,z
2 -y,x,1/4+z
3 -x,-y,1/2+z
4 y,-x,3/4+z
_cell_length_a 18.4998(8)
_cell_length_b 18.4998(8)
_cell_length_c 37.5158(18)
_cell_angle_alpha 90
_cell_angle_beta 90
_cell_angle_gamma 90
_cell_formula_units_Z 4
loop_
_atom_type_symbol
_atom_type_radius_bond
C 0.68
H 0.23
N 0.68
loop_
_atom_site_label
_atom_site_type_symbol
_atom_site_fract_x
_atom_site_fract_y
_atom_site_fract_z
N1 N 0.35923(19) 0.6184(2) 0.34698(10)
N2 N 0.56299(17) 0.34537(16) 0.34868(7)
N3 N 0.29678(16) 0.3739(2) 0.24112(9)
N4 N -0.23601(17) 0.2718(2) 0.37601(8)
N5 N -0.03436(16) 0.18307(18) 0.25648(8)
N6 N -0.10708(16) -0.04494(18) 0.38067(7)
N7 N 0.17957(18) -0.09786(15) 0.50456(8)
N8 N 0.4873(4) 0.0917(3) 0.49071(14)
N9 N 0.24383(19) 0.16800(16) 0.60629(8)
N10 N -0.1932(2) 0.6000(2) 0.48357(11)
N11 N 0.0366(2) 0.49323(17) 0.60871(9)
N12 N 0.1231(3) 0.7065(2) 0.48871(12)
C1 C 0.38553(18) 0.5088(2) 0.27714(9)
C2 C 0.40486(18) 0.4408(2) 0.26352(9)
C3 C 0.46235(19) 0.4026(2) 0.27856(9)
C4 C 0.50411(17) 0.4332(2) 0.30573(8)
C5 C 0.48540(17) 0.5016(2) 0.31946(9)
C6 C 0.42701(18) 0.5400(2) 0.30423(9)
C7 C 0.3191(2) 0.5462(3) 0.26265(11)
H1 H 0.33080 0.56920 0.23990
H2 H 0.30280 0.58290 0.27970
H3 H 0.28060 0.51050 0.25900
C8 C 0.3652(2) 0.4107(2) 0.23084(10)
H4 H 0.35420 0.45080 0.21420
H5 H 0.39700 0.37600 0.21830
C9 C 0.4804(2) 0.3273(2) 0.26546(11)
H6 H 0.51790 0.33030 0.24710
H7 H 0.43700 0.30490 0.25540
H8 H 0.49800 0.29810 0.28540
C10 C 0.57059(19) 0.3961(2) 0.31929(9)
H9 H 0.59270 0.36980 0.29910
H10 H 0.60540 0.43390 0.32670
C11 C 0.5291(2) 0.5320(2) 0.35027(10)
H11 H 0.49980 0.56730 0.36330
H12 H 0.57260 0.55560 0.34100
H13 H 0.54300 0.49260 0.36640
C12 C 0.4129(2) 0.6154(2) 0.31561(12)
H14 H 0.39300 0.64310 0.29530
H15 H 0.45900 0.63840 0.32280
C13 C 0.0294(3) 0.68337(19) 0.53457(13)
C14 C 0.0413(3) 0.64228(19) 0.56487(12)
C15 C -0.0151(3) 0.59921(19) 0.57843(10)
C16 C -0.0816(3) 0.59425(19) 0.56052(11)
C17 C -0.0923(3) 0.6381(2) 0.52973(11)
C18 C -0.0354(3) 0.68077(19) 0.51635(11)
C19 C 0.0867(3) 0.7348(2) 0.52039(14)
H16 H 0.06380 0.78160 0.51450
H17 H 0.12310 0.74370 0.53920
C20 C 0.1154(3) 0.6408(2) 0.58272(15)
H18 H 0.12070 0.59590 0.59630
H19 H 0.11980 0.68220 0.59890
H20 H 0.15320 0.64350 0.56450
C21 C -0.0079(3) 0.5597(2) 0.61323(11)
H21 H 0.01490 0.59170 0.63110
H22 H -0.05650 0.54630 0.62210
C22 C -0.1433(3) 0.5479(3) 0.57238(13)
H23 H -0.17350 0.57500 0.58920
H24 H -0.12450 0.50450 0.58410
H25 H -0.17230 0.53390 0.55160
C23 C -0.1655(3) 0.6479(3) 0.51300(13)
H26 H -0.16730 0.69800 0.50380
H27 H -0.20130 0.64510 0.53260
C24 C -0.0464(3) 0.7219(2) 0.48167(13)
H28 H -0.05120 0.77360 0.48680
H29 H -0.09030 0.70450 0.46990
H30 H -0.00470 0.71410 0.46600
C25 C 0.3058(2) 0.06302(19) 0.58051(10)
C26 C 0.3681(3) 0.0778(2) 0.56283(11)
C27 C 0.3893(3) 0.0345(2) 0.53473(11)
C28 C 0.3453(3) -0.0223(2) 0.52355(11)
C29 C 0.2806(2) -0.03837(18) 0.54177(9)
C30 C 0.2585(2) 0.00465(19) 0.57047(9)
C31 C 0.2867(3) 0.10571(19) 0.61434(10)
H31 H 0.25980 0.07400 0.63090
H32 H 0.33180 0.12110 0.62640
C32 C 0.4131(3) 0.1432(3) 0.57319(13)
H33 H 0.44790 0.12940 0.59170
H34 H 0.38130 0.18130 0.58240
H35 H 0.43910 0.16110 0.55220
C33 C 0.4627(3) 0.0437(3) 0.51850(15)
H36 H 0.49500 0.05380 0.53900
H37 H 0.47610 -0.00520 0.51010
C34 C 0.3678(3) -0.0694(3) 0.49181(13)
H38 H 0.33120 -0.06580 0.47300
H39 H 0.37210 -0.11980 0.49950
H40 H 0.41440 -0.05270 0.48260
C35 C 0.2362(2) -0.10577(19) 0.53187(11)
H41 H 0.27030 -0.14350 0.52360
H42 H 0.21300 -0.12400 0.55390
C36 C 0.1881(2) -0.0099(2) 0.58827(11)
H43 H 0.19650 -0.03540 0.61080
H44 H 0.15780 -0.03970 0.57270
H45 H 0.16340 0.03600 0.59310
C37 C -0.16854(19) 0.0463(2) 0.33842(9)
C38 C -0.12802(18) 0.0592(2) 0.30740(9)
C39 C -0.13698(18) 0.1278(2) 0.28983(9)
C40 C -0.18051(18) 0.1816(2) 0.30498(10)
C41 C -0.21823(18) 0.1648(3) 0.33688(10)
C42 C -0.21139(18) 0.1001(3) 0.35304(9)
C43 C -0.1635(2) -0.0303(2) 0.35423(10)
H46 H -0.21070 -0.04170 0.36530
H47 H -0.15660 -0.06450 0.33420
C44 C -0.0761(2) 0.0046(2) 0.29254(10)
H48 H -0.04070 0.02920 0.27740
H49 H -0.10270 -0.03110 0.27840
H50 H -0.05110 -0.01980 0.31220
C45 C -0.10106(19) 0.1395(2) 0.25448(10)
H51 H -0.08920 0.09180 0.24400
H52 H -0.13560 0.16380 0.23830
C46 C -0.1837(2) 0.2546(3) 0.28795(13)
H53 H -0.22470 0.25660 0.27150
H54 H -0.13880 0.26350 0.27480
H55 H -0.18970 0.29160 0.30640
C47 C -0.2711(2) 0.2207(3) 0.35147(11)
H56 H -0.29260 0.24790 0.33140
H57 H -0.31080 0.19560 0.36410
C48 C -0.2504(2) 0.0859(3) 0.38815(10)
H58 H -0.30110 0.07410 0.38340
H59 H -0.24780 0.12920 0.40320
H60 H -0.22730 0.04530 0.40050
C49 C 0.0172(3) 0.4367(2) 0.62465(11)
H61 H -0.02640 0.43720 0.63810
C50 C 0.0593(2) 0.37099(18) 0.62309(9)
C51 C 0.0393(3) 0.3115(2) 0.64469(12)
H62 H -0.00300 0.31400 0.65890
C52 C 0.0814(3) 0.2498(2) 0.64506(11)
H63 H 0.06800 0.21080 0.66010
C53 C 0.1438(2) 0.24333(19) 0.6237(1)
C54 C 0.1613(3) 0.3037(2) 0.60275(10)
H64 H 0.20320 0.30170 0.58820
C55 C 0.1210(2) 0.3640(2) 0.60257(10)
H65 H 0.13540 0.40320 0.58790
C56 C 0.1882(2) 0.17865(19) 0.62576(10)
H66 H 0.17510 0.14240 0.64250
C57 C 0.16558(19) -0.03849(19) 0.49136(9)
H67 H 0.19340 0.00220 0.49840
C58 C 0.10709(19) -0.02831(18) 0.46501(8)
C59 C 0.0677(2) -0.08837(19) 0.45269(7)
H68 H 0.07970 -0.13580 0.46040
C60 C 0.0104(2) -0.07688(19) 0.42870(8)
H69 H -0.01700 -0.11710 0.42060
C61 C -0.00701(18) -0.00855(19) 0.41662(9)
C62 C 0.0350(2) 0.0501(2) 0.42816(11)
H70 H 0.02470 0.09750 0.41980
C63 C 0.0924(2) 0.0387(2) 0.45201(12)
H71 H 0.12140 0.07850 0.45920
C64 C -0.06513(19) 0.0053(2) 0.39096(9)
H72 H -0.07160 0.05280 0.38190
C65 C 0.4466(4) 0.1231(2) 0.47349(13)
H73 H 0.39640 0.11700 0.47770
C66 C 0.49181(17) 0.27607(13) 0.39016(5)
C67 C 0.42225(16) 0.25662(17) 0.40037(8)
H74 H 0.38170 0.27800 0.38900
C68 C 0.41208(19) 0.20595(18) 0.42726(8)
H75 H 0.36450 0.19270 0.43420
C69 C 0.4715(2) 0.17472(13) 0.44394(6)
C70 C 0.5410(2) 0.19417(15) 0.43372(7)
H76 H 0.58160 0.17280 0.44510
C71 C 0.55119(15) 0.24485(16) 0.40683(7)
H77 H 0.59870 0.25810 0.39990
C72 C 0.5021(2) 0.3302(2) 0.36102(9)
H78 H 0.46090 0.35400 0.35150
C73 C 0.1844(4) 0.7238(2) 0.48655(15)
H79 H 0.20240 0.75460 0.50480
C74 C 0.2370(3) 0.7022(2) 0.45777(11)
C75 C 0.3005(4) 0.7407(3) 0.45407(16)
H80 H 0.31330 0.77650 0.47110
C76 C 0.3453(4) 0.7268(3) 0.42530(17)
H81 H 0.38780 0.75450 0.42130
C77 C 0.3259(3) 0.6707(3) 0.40233(12)
C78 C 0.2660(3) 0.6326(3) 0.40618(12)
H82 H 0.25420 0.59540 0.38970
C79 C 0.2199(3) 0.6483(3) 0.43525(12)
H83 H 0.17700 0.62100 0.43880
C80 C 0.3759(3) 0.6584(2) 0.37041(14)
H84 H 0.42080 0.68310 0.36930
C81 C 0.0209(2) 0.1569(2) 0.24170(9)
H85 H 0.01780 0.11030 0.23110
C82 C 0.08891(19) 0.1953(2) 0.24031(8)
C83 C 0.1476(2) 0.1662(2) 0.22190(9)
H86 H 0.14340 0.11980 0.21130
C84 C 0.2114(2) 0.2037(2) 0.21895(10)
H87 H 0.25070 0.18310 0.20620
C85 C 0.21894(19) 0.2702(2) 0.23416(9)
C86 C 0.1636(2) 0.2997(3) 0.25258(12)
H88 H 0.16930 0.34570 0.26350
C87 C 0.0965(2) 0.2621(3) 0.25565(12)
H89 H 0.05730 0.28320 0.26830
C88 C 0.2876(2) 0.3115(3) 0.22864(10)
H90 H 0.32550 0.28990 0.21530
C89 C -0.1532(3) 0.5463(2) 0.47639(11)
H91 H -0.10890 0.53890 0.48870
C90 C -0.1771(2) 0.4951(2) 0.4482(1)
C91 C -0.2394(3) 0.5072(3) 0.42878(11)
H92 H -0.26560 0.55090 0.43210
C92 C -0.2648(2) 0.4548(3) 0.40381(12)
H93 H -0.30820 0.46340 0.39100
C93 C -0.2274(2) 0.3928(2) 0.39832(9)
C94 C -0.1635(2) 0.3817(2) 0.41759(9)
H94 H -0.13600 0.33890 0.41400
C95 C -0.1403(2) 0.4329(2) 0.44181(10)
H95 H -0.09680 0.42420 0.45450
C96 C -0.2564(2) 0.3381(3) 0.37405(10)
H96 H -0.29090 0.35180 0.35660
#END
