
#######################################################################
#
#                 Cambridge Crystallographic Data Centre
#                                CCDC
#
#######################################################################
#
# If this CIF has been generated from an entry in the Cambridge
# Structural Database, then it will include bibliographic, chemical,
# crystal, experimental, refinement or atomic coordinate data resulting
# from the CCDC's data processing and validation procedures.
#
#######################################################################

data_CSD_CIF_PIFTOQ
_audit_creation_date 2018-07-24
_audit_creation_method CSD-ConQuest-V1
_database_code_CSD PIFTOQ
_database_code_depnum_ccdc_archive 'CCDC 1827867'
_chemical_formula_sum 'C51.46 H55.32 Cl0.36 N6 O1.84'
_chemical_formula_moiety
;
C48 H48 N6,0.82(C4 H8 O2),0.2(H2 O1),0.18(C1 H2 Cl2)
;
_journal_coden_Cambridge 1490
_journal_volume 9
_journal_year 2018
_journal_page_first 2849
_journal_name_full 'Nat.Commun. '
loop_
_publ_author_name
"R.L.Greenaway"
"V.Santolini"
"M.J.Bennison"
"B.M.Alston"
"C.J.Pugh"
"M.A.Little"
"M.Miklitz"
"E.G.B.Eden-Rump"
"R.Clowes"
"A.Shakil"
"H.J.Cuthbertson"
"H.Armstrong"
"M.E.Briggs"
"K.E.Jelfs"
"A.I.Cooper"
_chemical_name_systematic
;
2,16,18,32,45,47-hexamethyl-5,13,21,29,34,42-hexaazaheptacyclo[15.15.11.1^3,31
^.1^7,11^.1^15,19^.1^23,27^.1^36,40^]octatetraconta-1,3(45),5,7(48),8,10,12,15
(47),16,18,21,23(46),24,26,28,31,34,36(44),37,39,41-henicosaene 
dichloromethane ethyl acetate solvate hydrate
;
_cell_volume   2223.813
_exptl_crystal_colour 'colorless'
_exptl_crystal_density_diffrn 1.195
_exptl_crystal_description 'block'
_diffrn_ambient_temperature 100
_refine_special_details
;
C49,C50,C51,C52,O1,O2 and C54,Cl3,Cl4 and C53,Cl1,Cl2 disordered over three 
sites with occupancies 0.824:0.0879:0.0879.
;
#These two values have been output from a single CSD field.
_refine_ls_R_factor_gt 0.0572
_refine_ls_wR_factor_gt 0.0572
_symmetry_cell_setting triclinic
_symmetry_space_group_name_H-M 'P -1'
_symmetry_Int_Tables_number 2
loop_
_symmetry_equiv_pos_site_id
_symmetry_equiv_pos_as_xyz
1 x,y,z
2 -x,-y,-z
_cell_length_a 11.9249(4)
_cell_length_b 14.1652(5)
_cell_length_c 14.5526(5)
_cell_angle_alpha 73.955(1)
_cell_angle_beta 70.599(1)
_cell_angle_gamma 88.033(1)
_cell_formula_units_Z 2
loop_
_atom_type_symbol
_atom_type_radius_bond
C 0.68
H 0.23
Cl 0.99
N 0.68
O 0.68
loop_
_atom_site_label
_atom_site_type_symbol
_atom_site_fract_x
_atom_site_fract_y
_atom_site_fract_z
N1 N 0.38374(11) 0.19292(9) 0.6095(1)
N2 N 0.46837(11) 0.77054(9) 0.05773(9)
N3 N 0.61267(11) 0.26188(9) 0.13854(9)
N4 N 0.24540(11) 0.70025(9) 0.5251(1)
N5 N 0.06995(11) 0.11353(10) 0.33176(10)
N6 N -0.01901(11) 0.57563(10) 0.27685(10)
C1 C 0.31606(12) 0.53799(11) 0.55362(11)
C2 C 0.68752(12) 0.46216(11) 0.02724(11)
H1 H 0.74160 0.41390 0.01020
C3 C 0.57591(12) 0.43291(11) 0.10238(10)
C4 C 0.52862(12) 0.60493(11) 0.07506(10)
C5 C 0.44367(13) 0.67933(11) 0.10197(11)
H2 H 0.36860 0.65840 0.15370
C6 C 0.49714(12) 0.50511(11) 0.12496(10)
H3 H 0.42070 0.48600 0.17520
C7 C 0.48269(12) 0.1360(1) 0.38438(11)
C8 C 0.64121(13) 0.63219(11) 0.00100(11)
H4 H 0.66400 0.69970 -0.03330
C9 C 0.38260(13) 0.11022(10) 0.47378(11)
C10 C 0.37148(13) 0.27483(11) 0.55143(11)
H5 H 0.36840 0.27730 0.48640
C11 C 0.27590(13) 0.80526(10) 0.18343(11)
C12 C 0.27118(13) 0.08686(10) 0.46947(11)
C13 C 0.18918(13) 0.77453(11) 0.36649(11)
C14 C 0.17080(13) 0.76509(11) 0.18140(11)
C15 C 0.47152(13) 0.13422(10) 0.29146(11)
C16 C 0.36143(13) 0.10742(10) 0.28755(11)
C17 C 0.08627(13) 0.73041(11) 0.36565(11)
C18 C 0.08956(13) 0.20517(11) 0.31247(11)
H6 H 0.15090 0.22910 0.32990
C19 C 0.32940(13) 0.45116(11) 0.52464(11)
H7 H 0.31600 0.45000 0.46410
C20 C 0.54269(12) 0.32810(11) 0.15881(11)
H8 H 0.46760 0.31020 0.21110
C21 C 0.36196(12) 0.36614(11) 0.58253(11)
C22 C 0.33884(13) 0.53980(11) 0.64135(11)
H9 H 0.33180 0.59880 0.66130
C23 C 0.02027(13) 0.37372(11) 0.26258(11)
H10 H 0.06630 0.39560 0.29580
C24 C 0.07636(13) 0.72748(11) 0.27291(11)
C25 C 0.28613(13) 0.80804(11) 0.27610(11)
C26 C 0.38268(13) 0.36899(12) 0.67063(12)
H11 H 0.40450 0.31140 0.71130
C27 C 0.26177(12) 0.08211(10) 0.37738(11)
C28 C 0.27280(13) 0.62435(11) 0.49432(11)
H12 H 0.26530 0.62310 0.43170
C29 C -0.04512(13) 0.44078(12) 0.21329(11)
C30 C 0.01819(13) 0.27577(11) 0.26312(11)
C31 C 0.71981(13) 0.56094(11) -0.02254(11)
H13 H 0.79610 0.58000 -0.07300
C32 C 0.14668(13) 0.04361(11) 0.37353(12)
H14 H 0.16750 -0.00470 0.33350
H15 H 0.09840 0.00690 0.44360
C33 C 0.39648(14) 0.10392(11) 0.57495(11)
H16 H 0.33720 0.05270 0.62750
H17 H 0.47630 0.08040 0.57230
C34 C 0.60084(13) 0.16686(12) 0.38838(13)
H18 H 0.58670 0.20060 0.44130
H19 H 0.64720 0.21150 0.32250
H20 H 0.64520 0.10850 0.40390
C35 C 0.37162(14) 0.45562(12) 0.69922(12)
H21 H 0.38670 0.45710 0.75900
C36 C 0.58096(13) 0.15798(11) 0.19633(11)
H22 H 0.65000 0.13090 0.21600
H23 H 0.56950 0.12230 0.15010
C37 C 0.19897(14) 0.78313(11) 0.46518(11)
H24 H 0.25060 0.84280 0.44930
H25 H 0.11870 0.79400 0.50860
C38 C 0.38037(13) 0.84233(11) 0.08624(11)
H26 H 0.34860 0.86850 0.03000
H27 H 0.42260 0.89810 0.09220
C39 C -0.05176(13) 0.54377(12) 0.21623(12)
H28 H -0.08240 0.58880 0.17000
C40 C -0.03498(13) 0.68038(12) 0.27199(12)
H29 H -0.10370 0.68630 0.33080
H30 H -0.05170 0.71480 0.20920
C41 C 0.40250(14) 0.84192(12) 0.28157(13)
H31 H 0.46810 0.83870 0.22060
H32 H 0.41650 0.79910 0.34180
H33 H 0.39810 0.90980 0.28590
C42 C 0.16163(14) 0.06838(12) 0.56406(12)
H34 H 0.14930 -0.00220 0.59910
H35 H 0.09180 0.09110 0.54490
H36 H 0.17290 0.10430 0.60930
C43 C 0.15968(14) 0.76038(13) 0.08198(12)
H37 H 0.12340 0.81950 0.05360
H38 H 0.10950 0.70190 0.09400
H39 H 0.23890 0.75680 0.03410
C44 C 0.34858(15) 0.10622(12) 0.18754(11)
H40 H 0.40540 0.15560 0.13180
H41 H 0.26730 0.12140 0.18890
H42 H 0.36470 0.04090 0.17730
C45 C -0.10906(14) 0.40841(13) 0.16209(13)
H43 H -0.15070 0.45400 0.12600
C46 C -0.01143(14) 0.68059(13) 0.46447(12)
H44 H 0.02020 0.66750 0.52060
H45 H -0.03990 0.61840 0.46030
H46 H -0.07760 0.72370 0.47630
C47 C -0.05089(14) 0.24403(13) 0.21429(13)
H47 H -0.05510 0.17650 0.21650
C48 C -0.11277(15) 0.31030(14) 0.16306(14)
H48 H -0.15760 0.28880 0.12870
O1 O 0.11348(12) 0.08789(11) 0.87864(11)
O2 O 0.16526(16) -0.04133(15) 0.81739(16)
C49 C 0.0914(2) 0.01233(16) 0.84421(16)
C50 C -0.02963(17) 0.01606(15) 0.83466(16)
H49 H -0.08970 0.01340 0.90060
H50 H -0.04460 -0.04020 0.81250
H51 H -0.03410 0.07740 0.78460
C51 C 0.2299(2) 0.0936(2) 0.8860(2)
H52 H 0.29150 0.10420 0.81820
H53 H 0.24380 0.03150 0.93150
C52 C 0.2359(2) 0.1787(2) 0.9281(2)
H54 H 0.21930 0.23930 0.88380
H55 H 0.31570 0.18590 0.93160
H56 H 0.17670 0.16610 0.99630
Cl1? Cl 0.2766(6) 0.0258(5) 0.9003(5)
Cl2? Cl 0.1431(7) 0.2027(6) 0.9702(6)
C53? C 0.2684(16) 0.1428(19) 0.920(4)
H57? H 0.31840 0.14190 0.96240
H58? H 0.31170 0.18840 0.85250
Cl3? Cl 0.3083(12) 0.0667(10) 0.9302(10)
Cl4? Cl 0.1237(13) 0.0308(13) 0.8640(12)
C54? C 0.217(4) 0.1227(16) 0.862(4)
H59? H 0.26580 0.15730 0.79180
H60? H 0.16990 0.17120 0.89420
O3 O 0.2044(6) 0.5096(5) 0.3198(6)
H61 H 0.21490 0.53340 0.36420
H62 H 0.13730 0.52490 0.31330
#END
