
#######################################################################
#
#                 Cambridge Crystallographic Data Centre
#                                CCDC
#
#######################################################################
#
# If this CIF has been generated from an entry in the Cambridge
# Structural Database, then it will include bibliographic, chemical,
# crystal, experimental, refinement or atomic coordinate data resulting
# from the CCDC's data processing and validation procedures.
#
#######################################################################

data_CSD_CIF_PIFVOS
_audit_creation_date 2018-07-24
_audit_creation_method CSD-ConQuest-V1
_database_code_CSD PIFVOS
_database_code_depnum_ccdc_archive 'CCDC 1827872'
_chemical_formula_sum 'C146.5 H152.5 Cl16.5 N12 O3'
_chemical_formula_moiety
;
C132 H120 N12,1.5(C6 H14),5.5(C1 H1 Cl3),3(H2 O1)
;
_journal_coden_Cambridge 1490
_journal_volume 9
_journal_year 2018
_journal_page_first 2849
_journal_name_full 'Nat.Commun. '
loop_
_publ_author_name
"R.L.Greenaway"
"V.Santolini"
"M.J.Bennison"
"B.M.Alston"
"C.J.Pugh"
"M.A.Little"
"M.Miklitz"
"E.G.B.Eden-Rump"
"R.Clowes"
"A.Shakil"
"H.J.Cuthbertson"
"H.Armstrong"
"M.E.Briggs"
"K.E.Jelfs"
"A.I.Cooper"
_chemical_name_systematic
;
3,8,12,17,21,26,30,35,38,43,46,51-dodecaaza-1,10,19,28(1,3,5)-tetrakis(2,4,6-t
rimethylbenzena)-5,6,14,15,23,24,32,33,40,41,48,49(1,4)-dodecabenzenatricyclo[
17.17.8.8^10,28^]dopentacontaphane-3,7,12,16,21,25,30,34,38,42,46,50-dodecaene
 chloroform hexane solvate trihydrate
;
_cell_volume   7506.336
_exptl_crystal_colour 'colorless'
_exptl_crystal_density_diffrn 1.201
_exptl_crystal_description 'needle'
_diffrn_ambient_temperature 100
_refine_special_details
;
C48,Cl6 disordered by symmetry over two configurations with occupancy 0.5; 
C49,C50,C51 and C52,C53,C54 disordered over two sites with occupancies 
0.5:0.5.
;
#These two values have been output from a single CSD field.
_refine_ls_R_factor_gt 0.0882
_refine_ls_wR_factor_gt 0.0882
_symmetry_cell_setting hexagonal
_symmetry_space_group_name_H-M 'P -3'
_symmetry_Int_Tables_number 147
loop_
_symmetry_equiv_pos_site_id
_symmetry_equiv_pos_as_xyz
1 x,y,z
2 -y,x-y,z
3 -x+y,-x,z
4 -x,-y,-z
5 y,-x+y,-z
6 x-y,x,-z
_cell_length_a 22.9539(10)
_cell_length_b 22.9539(10)
_cell_length_c 16.4507(9)
_cell_angle_alpha 90
_cell_angle_beta 90
_cell_angle_gamma 120
_cell_formula_units_Z 2
loop_
_atom_type_symbol
_atom_type_radius_bond
C 0.68
H 0.23
Cl 0.99
N 0.68
O 0.68
loop_
_atom_site_label
_atom_site_type_symbol
_atom_site_fract_x
_atom_site_fract_y
_atom_site_fract_z
N1 N 0.37656(16) 0.47808(16) 0.7909(2)
N2 N 0.21197(15) 0.16602(15) 0.85402(18)
N3 N 0.21519(17) 0.30596(18) 0.51020(19)
N4 N 0.50375(15) 0.30823(16) -0.05176(19)
C1 C 0.19793(18) 0.3116(2) 0.6561(2)
C2 C 0.23972(18) 0.37526(19) 0.6881(2)
C3 C 0.26308(18) 0.38216(19) 0.7682(2)
C4 C 0.24551(17) 0.32487(18) 0.8149(2)
C5 C 0.20244(17) 0.26099(18) 0.7830(2)
C6 C 0.18132(17) 0.25329(19) 0.7019(2)
C7 C 0.1685(2) 0.3044(2) 0.5723(2)
H1 H 0.12550 0.26130 0.56860
H2 H 0.15910 0.34140 0.56240
C8 C 0.2605(2) 0.4375(2) 0.6363(3)
H3 H 0.22820 0.45320 0.64400
H4 H 0.26120 0.42640 0.57890
H5 H 0.30540 0.47310 0.65260
C9 C 0.30410(18) 0.45104(19) 0.8055(3)
H6 H 0.29020 0.48190 0.78180
H7 H 0.29550 0.44820 0.86480
C10 C 0.2732(2) 0.3323(2) 0.8994(2)
H8 H 0.24880 0.34600 0.93640
H9 H 0.32110 0.36640 0.89950
H10 H 0.26780 0.28910 0.91750
C11 C 0.17355(18) 0.20082(19) 0.8392(2)
H11 H 0.16560 0.21560 0.89250
H12 H 0.12900 0.16720 0.81730
C12 C 0.1424(2) 0.1845(2) 0.6641(2)
H13 H 0.14810 0.15210 0.69700
H14 H 0.15910 0.18580 0.60900
H15 H 0.09460 0.17090 0.66180
C13 C 0.55391(19) 0.19578(18) -0.1237(2)
H16 H 0.51500 0.19590 -0.09930
H17 H 0.56710 0.16920 -0.08980
H18 H 0.54200 0.17600 -0.17820
C14 C 0.61187(17) 0.26718(17) -0.1297(2)
C15 C 0.60075(16) 0.32157(17) -0.1306(2)
C16 C 0.52985(18) 0.31002(19) -0.1340(2)
H19 H 0.52960 0.34650 -0.16570
H20 H 0.50020 0.26690 -0.16190
C17 C 0.1903(2) 0.2611(2) 0.4568(2)
H21 H 0.14350 0.22940 0.45920
C18 C 0.2302(2) 0.2552(2) 0.3903(2)
C19 C 0.1981(2) 0.2107(2) 0.3285(2)
H22 H 0.15060 0.18270 0.33030
C20 C 0.2335(2) 0.20569(19) 0.2636(2)
H23 H 0.20990 0.17420 0.22160
C21 C 0.30356(19) 0.24623(18) 0.2586(2)
C22 C 0.3358(2) 0.28999(19) 0.3236(2)
H24 H 0.38350 0.31680 0.32350
C23 C 0.3001(2) 0.2950(2) 0.3875(2)
H25 H 0.32330 0.32590 0.43030
C24 C 0.34103(19) 0.24586(17) 0.1856(2)
C25 C 0.30652(19) 0.21326(18) 0.1146(2)
H26 H 0.25880 0.18750 0.11510
C26 C 0.34111(19) 0.21810(19) 0.0439(2)
H27 H 0.31660 0.19520 -0.00340
C27 C 0.41052(18) 0.25543(17) 0.0403(2)
C28 C 0.44580(19) 0.28650(18) 0.1115(2)
H28 H 0.49360 0.31120 0.11110
C29 C 0.41120(19) 0.28124(18) 0.1826(2)
H29 H 0.43580 0.30220 0.23060
C30 C 0.44458(18) 0.26256(18) -0.0380(2)
H30 H 0.42060 0.23110 -0.08000
C31 C 0.41468(18) 0.49933(18) 0.8523(3)
H31 H 0.39520 0.49640 0.90410
C32 C 0.48783(18) 0.52833(17) 0.8468(2)
C33 C 0.51916(18) 0.53033(18) 0.7734(2)
H32 H 0.49280 0.51100 0.72600
C34 C 0.58828(18) 0.56036(17) 0.7695(2)
H33 H 0.60910 0.56200 0.71900
C35 C 0.62821(17) 0.58846(17) 0.8383(2)
C36 C 0.59601(19) 0.58440(18) 0.9117(2)
H34 H 0.62200 0.60210 0.95970
C37 C 0.52669(19) 0.55501(19) 0.9155(2)
H35 H 0.50570 0.55320 0.96600
C38 C 0.26137(17) 0.17826(17) 0.8083(2)
H36 H 0.27340 0.21070 0.76630
C39 C 0.30052(17) 0.14408(16) 0.8180(2)
C40 C 0.35214(17) 0.15749(17) 0.7641(2)
H37 H 0.36230 0.18940 0.72190
C41 C 0.38917(17) 0.12508(17) 0.7710(2)
H38 H 0.42430 0.13500 0.73330
C42 C 0.37563(17) 0.07818(16) 0.8325(2)
C43 C 0.32424(18) 0.06621(17) 0.8877(2)
H39 H 0.31500 0.03550 0.93120
C44 C 0.28694(18) 0.09756(17) 0.8808(2)
H40 H 0.25190 0.08780 0.91850
C45 C 0.5779(7) 0.3709(6) 0.3297(9)
H41 H 0.59290 0.40440 0.28620
H42 H 0.54030 0.32820 0.31030
H43 H 0.61520 0.36410 0.34600
C46 C 0.5562(9) 0.3943(7) 0.399(1)
H44 H 0.50990 0.36030 0.41500
H45 H 0.55700 0.43670 0.38560
C47 C 0.6071(11) 0.4061(9) 0.4704(10)
H46 H 0.60070 0.36170 0.48630
H47 H 0.65320 0.43250 0.44820
C48 C 0.6041(12) 0.4414(12) 0.5481(11)
H48 H 0.55740 0.41770 0.56880
H49 H 0.61560 0.48790 0.53410
C49 C 0.652(1) 0.4445(10) 0.6174(11)
H50 H 0.63850 0.45730 0.66840
H51 H 0.64520 0.39870 0.62530
C50 C 0.7267(11) 0.4927(11) 0.6041(11)
H52 H 0.74190 0.47870 0.55620
H53 H 0.75190 0.49210 0.65200
H54 H 0.73450 0.53830 0.59580
Cl1 Cl 0.41729(7) 0.34581(6) 0.72943(8)
Cl2 Cl 0.34212(7) 0.26538(6) 0.59169(7)
Cl3 Cl 0.41378(9) 0.41043(7) 0.58014(10)
C51 C 0.3687(2) 0.3393(2) 0.6435(3)
H55 H 0.32770 0.33970 0.66310
Cl4 Cl 0.07903(7) 0.01634(7) 0.79751(14)
C52 C 0.00000 0.00000 0.8246(7)
H56 H 0.00000 0.00000 0.88540
Cl5 Cl 0.65326(6) 0.39816(5) 0.10302(8)
C53 C 0.66670 0.33330 0.0695(4)
H57 H 0.66670 0.33330 0.00870
O1 O 0.1385(3) 0.0920(2) 0.9956(3)
H58 H 0.10150 0.06450 0.97040
H59 H 0.16970 0.11560 0.96020
Cl6? Cl -0.0599(2) -0.0799(2) 0.5275(3)
C54? C 0.00000 0.00000 0.5604(14)
H60? H 0.00000 0.00000 0.62110
N1A N 0.52192(16) -0.10152(16) 0.7909(2)
N2A N 0.83398(15) 0.04595(15) 0.85402(18)
N3A N 0.69404(17) -0.09077(18) 0.51020(19)
N4A N 0.69177(15) 0.19552(16) -0.05176(19)
C1A C 0.68840(18) -0.11367(20) 0.6561(2)
C2A C 0.62474(18) -0.13554(19) 0.6881(2)
C3A C 0.61784(18) -0.11908(19) 0.7682(2)
C4A C 0.67513(17) -0.07936(18) 0.8149(2)
C5A C 0.73901(17) -0.05855(18) 0.7830(2)
C6A C 0.74671(17) -0.07197(19) 0.7019(2)
C7A C 0.6956(2) -0.1359(2) 0.5723(2)
H1A H 0.73870 -0.13580 0.56860
H2A H 0.65860 -0.18230 0.56240
C8A C 0.5625(2) -0.1770(2) 0.6363(3)
H3A H 0.54680 -0.22500 0.64400
H4A H 0.57360 -0.16520 0.57890
H5A H 0.52690 -0.16770 0.65260
C9A C 0.54896(18) -0.14694(19) 0.8055(3)
H6A H 0.51810 -0.19170 0.78180
H7A H 0.55180 -0.15270 0.86480
C10A C 0.6677(2) -0.0591(2) 0.8994(2)
H8A H 0.65400 -0.09720 0.93640
H9A H 0.63360 -0.04530 0.89950
H10A H 0.71090 -0.02130 0.91750
C11A C 0.79918(18) -0.02727(19) 0.8392(2)
H11A H 0.78440 -0.05000 0.89250
H12A H 0.83280 -0.03820 0.81730
C12A C 0.8155(2) -0.0421(2) 0.6641(2)
H13A H 0.84790 -0.00400 0.69700
H14A H 0.81420 -0.02670 0.60900
H15A H 0.82910 -0.07630 0.66180
C13A C 0.80422(19) 0.35813(18) -0.1237(2)
H16A H 0.80410 0.31910 -0.09930
H17A H 0.83080 0.39790 -0.08980
H18A H 0.82400 0.36600 -0.17820
C14A C 0.73282(17) 0.34469(17) -0.1297(2)
C15A C 0.67843(16) 0.27918(17) -0.1306(2)
C16A C 0.68998(18) 0.21983(19) -0.1340(2)
H19A H 0.65350 0.18310 -0.16570
H20A H 0.73310 0.23330 -0.16190
C17A C 0.7389(2) -0.0708(2) 0.4568(2)
H21A H 0.77060 -0.08590 0.45920
C18A C 0.7448(2) -0.0250(2) 0.3903(2)
C19A C 0.7893(2) -0.0126(2) 0.3285(2)
H22A H 0.81730 -0.03210 0.33030
C20A C 0.79431(20) 0.02781(19) 0.2636(2)
H23A H 0.82580 0.03570 0.22160
C21A C 0.75377(19) 0.05733(18) 0.2586(2)
C22A C 0.71001(20) 0.04581(19) 0.3236(2)
H24A H 0.68320 0.06670 0.32350
C23A C 0.7050(2) 0.0051(2) 0.3875(2)
H25A H 0.67410 -0.00260 0.43030
C24A C 0.75414(19) 0.09517(17) 0.1856(2)
C25A C 0.78674(19) 0.09326(18) 0.1146(2)
H26A H 0.81250 0.07130 0.11510
C26A C 0.78190(19) 0.12301(19) 0.0439(2)
H27A H 0.80480 0.12140 -0.00340
C27A C 0.74457(18) 0.15509(17) 0.0403(2)
C28A C 0.71350(19) 0.15930(18) 0.1115(2)
H28A H 0.68880 0.18240 0.11110
C29A C 0.71876(19) 0.12996(18) 0.1826(2)
H29A H 0.69780 0.13360 0.23060
C30A C 0.73744(18) 0.18202(18) -0.0380(2)
H30A H 0.76890 0.18950 -0.08000
C31A C 0.50067(18) -0.08465(18) 0.8523(3)
H31A H 0.50360 -0.10120 0.90410
C32A C 0.47167(18) -0.04050(17) 0.8468(2)
C33A C 0.46967(18) -0.01117(18) 0.7734(2)
H32A H 0.48900 -0.01820 0.72600
C34A C 0.43964(18) 0.02792(17) 0.7695(2)
H33A H 0.43800 0.04710 0.71900
C35A C 0.41154(17) 0.03975(17) 0.8383(2)
C36A C 0.41560(19) 0.01161(18) 0.9117(2)
H34A H 0.39790 0.01990 0.95970
C37A C 0.44499(19) -0.02832(19) 0.9155(2)
H35A H 0.44680 -0.04750 0.96600
C38A C 0.82174(17) 0.08311(17) 0.8083(2)
H36A H 0.78930 0.06270 0.76630
C39A C 0.85592(17) 0.15644(16) 0.8180(2)
C40A C 0.84251(17) 0.19465(17) 0.7641(2)
H37A H 0.81060 0.17290 0.72190
C41A C 0.87492(17) 0.26409(17) 0.7710(2)
H38A H 0.86500 0.28930 0.73330
C42A C 0.92182(17) 0.29745(16) 0.8325(2)
C43A C 0.93379(18) 0.25803(17) 0.8877(2)
H39A H 0.96450 0.27950 0.93120
C44A C 0.90244(18) 0.18938(17) 0.8808(2)
H40A H 0.91220 0.16410 0.91850
N1B N 1.10152(16) 0.62344(16) 0.7909(2)
N2B N 0.95405(15) 0.78803(15) 0.85402(18)
N3B N 1.09077(17) 0.78481(18) 0.51020(19)
N4B N 0.80448(15) 0.49625(16) -0.05176(19)
C1B C 1.11367(18) 0.80207(20) 0.6561(2)
C2B C 1.13554(18) 0.76028(19) 0.6881(2)
C3B C 1.11908(18) 0.73692(19) 0.7682(2)
C4B C 1.07936(17) 0.75449(18) 0.8149(2)
C5B C 1.05855(17) 0.79756(18) 0.7830(2)
C6B C 1.07197(17) 0.81868(19) 0.7019(2)
C7B C 1.1359(2) 0.8315(2) 0.5723(2)
H1B H 1.13580 0.87450 0.56860
H2B H 1.18230 0.84090 0.56240
C8B C 1.1770(2) 0.7395(2) 0.6363(3)
H3B H 1.22500 0.77180 0.64400
H4B H 1.16520 0.73880 0.57890
H5B H 1.16770 0.69460 0.65260
C9B C 1.14694(18) 0.69590(19) 0.8055(3)
H6B H 1.19170 0.70980 0.78180
H7B H 1.15270 0.70450 0.86480
C10B C 1.0591(2) 0.7268(2) 0.8994(2)
H8B H 1.09720 0.75120 0.93640
H9B H 1.04530 0.67890 0.89950
H10B H 1.02130 0.73220 0.91750
C11B C 1.02727(18) 0.82645(19) 0.8392(2)
H11B H 1.05000 0.83440 0.89250
H12B H 1.03820 0.87100 0.81730
C12B C 1.0421(2) 0.8576(2) 0.6641(2)
H13B H 1.00400 0.85190 0.69700
H14B H 1.02670 0.84090 0.60900
H15B H 1.07630 0.90540 0.66180
C13B C 0.64187(19) 0.44609(18) -0.1237(2)
H16B H 0.68090 0.48500 -0.09930
H17B H 0.60210 0.43290 -0.08980
H18B H 0.63400 0.45800 -0.17820
C14B C 0.65531(17) 0.38813(17) -0.1297(2)
C15B C 0.72082(16) 0.39925(17) -0.1306(2)
C16B C 0.78017(18) 0.47015(19) -0.1340(2)
H19B H 0.81690 0.47040 -0.16570
H20B H 0.76670 0.49980 -0.16190
C17B C 1.0708(2) 0.8097(2) 0.4568(2)
H21B H 1.08590 0.85650 0.45920
C18B C 1.0250(2) 0.7698(2) 0.3903(2)
C19B C 1.0126(2) 0.8019(2) 0.3285(2)
H22B H 1.03210 0.84940 0.33030
C20B C 0.97219(20) 0.76650(19) 0.2636(2)
H23B H 0.96430 0.79010 0.22160
C21B C 0.94267(19) 0.69644(18) 0.2586(2)
C22B C 0.95419(20) 0.66420(19) 0.3236(2)
H24B H 0.93330 0.61650 0.32350
C23B C 0.9949(2) 0.6999(2) 0.3875(2)
H25B H 1.00260 0.67670 0.43030
C24B C 0.90483(19) 0.65897(17) 0.1856(2)
C25B C 0.90674(19) 0.69348(18) 0.1146(2)
H26B H 0.92870 0.74120 0.11510
C26B C 0.87699(19) 0.65889(19) 0.0439(2)
H27B H 0.87860 0.68340 -0.00340
C27B C 0.84491(18) 0.58948(17) 0.0403(2)
C28B C 0.84070(19) 0.55420(18) 0.1115(2)
H28B H 0.81760 0.50640 0.11110
C29B C 0.87004(19) 0.58880(18) 0.1826(2)
H29B H 0.86640 0.56420 0.23060
C30B C 0.81798(18) 0.55542(18) -0.0380(2)
H30B H 0.81050 0.57940 -0.08000
C31B C 1.08465(18) 0.58532(18) 0.8523(3)
H31B H 1.10120 0.60480 0.90410
C32B C 1.04050(18) 0.51217(17) 0.8468(2)
C33B C 1.01117(18) 0.48084(18) 0.7734(2)
H32B H 1.01820 0.50720 0.72600
C34B C 0.97208(18) 0.41172(17) 0.7695(2)
H33B H 0.95290 0.39090 0.71900
C35B C 0.96025(17) 0.37179(17) 0.8383(2)
C36B C 0.98839(19) 0.40399(18) 0.9117(2)
H34B H 0.98010 0.37800 0.95970
C37B C 1.02832(19) 0.47331(19) 0.9155(2)
H35B H 1.04750 0.49430 0.96600
C38B C 0.91689(17) 0.73863(17) 0.8083(2)
H36B H 0.93730 0.72660 0.76630
C39B C 0.84356(17) 0.69948(16) 0.8180(2)
C40B C 0.80535(17) 0.64786(17) 0.7641(2)
H37B H 0.82710 0.63770 0.72190
C41B C 0.73591(17) 0.61083(17) 0.7710(2)
H38B H 0.71070 0.57570 0.73330
C42B C 0.70255(17) 0.62437(16) 0.8325(2)
C43B C 0.74197(18) 0.67576(17) 0.8877(2)
H39B H 0.72050 0.68500 0.93120
C44B C 0.81062(18) 0.71306(17) 0.8808(2)
H40B H 0.83590 0.74810 0.91850
Cl4A Cl -0.01634(7) 0.06269(7) 0.79751(14)
Cl4B Cl -0.06269(7) -0.07903(7) 0.79751(14)
Cl5A Cl 0.60184(6) 0.25510(5) 0.10302(8)
Cl5B Cl 0.74490(6) 0.34674(5) 0.10302(8)
#END
