
#######################################################################
#
#                 Cambridge Crystallographic Data Centre
#                                CCDC
#
#######################################################################
#
# If this CIF has been generated from an entry in the Cambridge
# Structural Database, then it will include bibliographic, chemical,
# crystal, experimental, refinement or atomic coordinate data resulting
# from the CCDC's data processing and validation procedures.
#
#######################################################################

data_CSD_CIF_PIFVUY
_audit_creation_date 2018-07-24
_audit_creation_method CSD-ConQuest-V1
_database_code_CSD PIFVUY
_database_code_depnum_ccdc_archive 'CCDC 1827873'
_chemical_formula_sum 'C50 H49 Br3 Cl4 N6'
_chemical_formula_moiety
;
C48 H45 Br3 N6,2(C1 H2 Cl2)
;
_journal_coden_Cambridge 1490
_journal_volume 9
_journal_year 2018
_journal_page_first 2849
_journal_name_full 'Nat.Commun. '
loop_
_publ_author_name
"R.L.Greenaway"
"V.Santolini"
"M.J.Bennison"
"B.M.Alston"
"C.J.Pugh"
"M.A.Little"
"M.Miklitz"
"E.G.B.Eden-Rump"
"R.Clowes"
"A.Shakil"
"H.J.Cuthbertson"
"H.Armstrong"
"M.E.Briggs"
"K.E.Jelfs"
"A.I.Cooper"
_chemical_name_systematic
;
9,25,38-tribromo-2,16,18,32,45,47-hexamethyl-5,13,21,29,34,42-hexaazaheptacycl
o[15.15.11.1^3,31^.1^7,11^.1^15,19^.1^23,27^.1^36,40^]octatetraconta-1,3(45),5
,7(48),8,10,12,15(47),16,18,21,23(46),24,26,28,31,34,36(44),37,39,41-henicosae
ne dichloromethane solvate
;
_cell_volume   3768.545
_exptl_crystal_colour 'colorless'
_exptl_crystal_density_diffrn 1.475
_exptl_crystal_description 'hexagonal'
_diffrn_ambient_temperature 150
_diffrn_special_details
;
twin

;
_refine_special_details
;
Cl1 disordered by symmetry over three configurations with occupancy 0.6667; 
Cl3 disordered by symmetry over three configurations with occupancy 0.6667; 
Cl4 disordered by symmetry over three configurations with occupancy 0.6667.
;
#These two values have been output from a single CSD field.
_refine_ls_R_factor_gt 0.082
_refine_ls_wR_factor_gt 0.082
_symmetry_cell_setting hexagonal
_symmetry_space_group_name_H-M 'P -6'
_symmetry_Int_Tables_number 174
loop_
_symmetry_equiv_pos_site_id
_symmetry_equiv_pos_as_xyz
1 x,y,z
2 -x+y,-x,-z
3 -y,x-y,z
4 x,y,-z
5 -x+y,-x,z
6 -y,x-y,-z
_cell_length_a 16.1857(6)
_cell_length_b 16.1857(6)
_cell_length_c 16.6104(7)
_cell_angle_alpha 90
_cell_angle_beta 90
_cell_angle_gamma 120
_cell_formula_units_Z 3
loop_
_atom_type_symbol
_atom_type_radius_bond
C 0.68
H 0.23
Br 1.21
Cl 0.99
N 0.68
loop_
_atom_site_label
_atom_site_type_symbol
_atom_site_fract_x
_atom_site_fract_y
_atom_site_fract_z
Br1 Br 0.5269(3) 0.5337(3) 0.50000
N1 N 0.7503(10) 0.8112(11) 0.2833(9)
C1 C 0.8581(16) 1.0634(19) 0.2192(13)
H1 H 0.85180 1.08460 0.16540
H2 H 0.88020 1.11670 0.25710
H3 H 0.79600 1.01120 0.23680
C2 C 0.7896(11) 0.8436(11) 0.351(1)
H4 H 0.85000 0.90040 0.35260
C3 C 0.7439(10) 0.7956(11) 0.4274(10)
C4 C 0.9025(13) 0.9331(14) 0.2134(9)
C5 C 0.7834(15) 0.8428(14) 0.50000
H5 H 0.83620 0.90610 0.50000
C6 C 0.6671(12) 0.7042(11) 0.4287(11)
H6 H 0.64050 0.67160 0.37960
C7 C 0.6293(16) 0.6606(18) 0.50000
C8 C 0.9312(13) 1.0281(14) 0.2163(9)
C9 C 0.8000(13) 0.8616(16) 0.2072(11)
H7 H 0.79280 0.81280 0.16750
H8 H 0.76650 0.89370 0.18520
Br2 Br 0.6526(4) 0.8000(3) 0.00000
N2 N 0.6841(9) 0.5658(9) 0.2158(7)
C10 C 0.6849(12) 0.5286(10) 0.1513(7)
H9 H 0.68770 0.47130 0.15100
C11 C 0.6834(16) 0.5212(12) 0.2942(8)
H10 H 0.63060 0.51720 0.32730
H11 H 0.74370 0.56380 0.32270
C12 C 0.6691(11) 0.6499(9) 0.0720(7)
H12 H 0.66320 0.67670 0.12100
C13 C 0.6650(19) 0.6888(16) 0.00000
C14 C 0.8593(13) 0.5054(15) 0.287(1)
H13 H 0.85290 0.55900 0.26740
H14 H 0.90170 0.49550 0.25110
H15 H 0.88630 0.51950 0.34150
C15 C 0.6859(17) 0.5314(18) 0.00000
H16 H 0.69170 0.47580 0.00000
C16 C 0.6721(13) 0.4219(10) 0.2894(7)
C17 C 0.6816(10) 0.5733(10) 0.0733(7)
C18 C 0.7596(11) 0.4137(12) 0.2889(6)
Br3 Br 0.8090(3) 1.1408(3) 0.50000
N3 N 0.5802(9) 0.8701(10) 0.2842(7)
C19 C 0.4859(11) 0.6200(13) 0.2189(9)
H17 H 0.52280 0.63870 0.16880
H18 H 0.45700 0.55100 0.22660
H19 H 0.52820 0.65350 0.26430
C20 C 0.7071(14) 1.0150(17) 0.50000
C21 C 0.5478(13) 0.8294(14) 0.50000
H20 H 0.49370 0.76690 0.50000
C22 C 0.6672(11) 0.9691(10) 0.4254(8)
H21 H 0.69320 1.00070 0.37580
C23 C 0.5333(11) 0.8208(13) 0.2095(8)
H22 H 0.57170 0.79470 0.18600
H23 H 0.53660 0.86950 0.17140
C24 C 0.4275(11) 0.7382(12) 0.2122(8)
C25 C 0.4063(11) 0.6464(13) 0.2141(7)
C26 C 0.5888(10) 0.8766(10) 0.4268(8)
C27 C 0.5470(12) 0.8312(11) 0.3510(8)
H24 H 0.49200 0.76940 0.35170
Cl1 Cl 0.6497(9) 1.0643(7) 0.0862(4)
C28 C 0.706(4) 1.054(6) 0.00000
H25 H 0.77360 1.10410 0.00000
H26 H 0.70240 0.99100 0.00000
C29? C 0.33330 0.66670 0.00000
Cl2? Cl 0.2084(10) 0.618(2) 0.00000
Cl3? Cl 0.6109(16) 0.4006(14) 0.50000
C30? C 0.66670 0.33330 0.50000
Cl4? Cl 0.9247(18) 0.8748(10) 0.00000
C31? C 1.00000 1.00000 0.00000
Br1B Br 1.4663(3) 0.9932(3) 0.50000
N1B N 1.1888(10) 0.9391(11) 0.2833(9)
C1B C 0.9366(16) 0.7947(19) 0.2192(13)
H1B H 0.91540 0.76720 0.16540
H2B H 0.88330 0.76350 0.25710
H3B H 0.98880 0.78480 0.23680
C2B C 1.1564(11) 0.9460(11) 0.351(1)
H4B H 1.09960 0.94960 0.35260
C3B C 1.2044(10) 0.9483(11) 0.4274(10)
C4B C 1.0669(13) 0.9694(14) 0.2134(9)
C5B C 1.1572(15) 0.9406(14) 0.50000
H5B H 1.09390 0.93010 0.50000
C6B C 1.2958(12) 0.9629(11) 0.4287(11)
H6B H 1.32840 0.96890 0.37960
C7B C 1.3394(16) 0.9687(18) 0.50000
C8B C 0.9719(13) 0.9031(14) 0.2163(9)
C9B C 1.1384(13) 0.9384(16) 0.2072(11)
H7B H 1.18720 0.98000 0.16750
H8B H 1.10630 0.87280 0.18520
N1C N 0.7503(10) 0.8112(11) 0.7167(9)
C1C C 0.8581(16) 1.0634(19) 0.7808(13)
H1C H 0.85180 1.08460 0.83460
H2C H 0.88020 1.11670 0.74290
H3C H 0.79600 1.01120 0.76320
C2C C 0.7896(11) 0.8436(11) 0.649(1)
H4C H 0.85000 0.90040 0.64740
C3C C 0.7439(10) 0.7956(11) 0.5726(10)
C4C C 0.9025(13) 0.9331(14) 0.7866(9)
C6C C 0.6671(12) 0.7042(11) 0.5713(11)
H6C H 0.64050 0.67160 0.62040
C8C C 0.9312(13) 1.0281(14) 0.7837(9)
C9C C 0.8000(13) 0.8616(16) 0.7928(11)
H7C H 0.79280 0.81280 0.83250
H8C H 0.76650 0.89370 0.81480
Br1A Br 1.0068(3) 1.4731(3) 0.50000
N1D N 1.0609(10) 1.2497(11) 0.2833(9)
C1D C 1.2053(16) 1.1419(19) 0.2192(13)
H1D H 1.23280 1.14820 0.16540
H2D H 1.23650 1.11980 0.25710
H3D H 1.21520 1.20400 0.23680
C2D C 1.0540(11) 1.2104(11) 0.351(1)
H4D H 1.05040 1.15000 0.35260
C3D C 1.0517(10) 1.2561(11) 0.4274(10)
C4D C 1.0306(13) 1.0975(14) 0.2134(9)
C5A C 1.0594(15) 1.2166(14) 0.50000
H5A H 1.06990 1.16380 0.50000
C6D C 1.0371(12) 1.3329(11) 0.4287(11)
H6D H 1.03110 1.35950 0.37960
C7A C 1.0313(16) 1.3707(18) 0.50000
C8D C 1.0969(13) 1.0688(14) 0.2163(9)
C9D C 1.0616(13) 1.2000(16) 0.2072(11)
H7D H 1.02000 1.20720 0.16750
H8D H 1.12720 1.23350 0.18520
N1E N 1.1888(10) 0.9391(11) 0.7167(9)
C1E C 0.9366(16) 0.7947(19) 0.7808(13)
H1E H 0.91540 0.76720 0.83460
H2E H 0.88330 0.76350 0.74290
H3E H 0.98880 0.78480 0.76320
C2E C 1.1564(11) 0.9460(11) 0.649(1)
H4E H 1.09960 0.94960 0.64740
C3E C 1.2044(10) 0.9483(11) 0.5726(10)
C4E C 1.0669(13) 0.9694(14) 0.7866(9)
C6E C 1.2958(12) 0.9629(11) 0.5713(11)
H6E H 1.32840 0.96890 0.62040
C8E C 0.9719(13) 0.9031(14) 0.7837(9)
C9E C 1.1384(13) 0.9384(16) 0.7928(11)
H7E H 1.18720 0.98000 0.83250
H8E H 1.10630 0.87280 0.81480
N1A N 1.0609(10) 1.2497(11) 0.7167(9)
C1A C 1.2053(16) 1.1419(19) 0.7808(13)
H1A H 1.23280 1.14820 0.83460
H2A H 1.23650 1.11980 0.74290
H3A H 1.21520 1.20400 0.76320
C2A C 1.0540(11) 1.2104(11) 0.649(1)
H4A H 1.05040 1.15000 0.64740
C3A C 1.0517(10) 1.2561(11) 0.5726(10)
C4A C 1.0306(13) 1.0975(14) 0.7866(9)
C6A C 1.0371(12) 1.3329(11) 0.5713(11)
H6A H 1.03110 1.35950 0.62040
C8A C 1.0969(13) 1.0688(14) 0.7837(9)
C9A C 1.0616(13) 1.2000(16) 0.7928(11)
H7A H 1.02000 1.20720 0.83250
H8A H 1.12720 1.23350 0.81480
Br2B Br 0.2000(4) -0.1474(3) 0.00000
N2B N 0.4342(9) 0.1183(9) 0.2158(7)
C10B C 0.4714(12) 0.1563(10) 0.1513(7)
H9B H 0.52870 0.21640 0.15100
C11B C 0.4788(16) 0.1622(12) 0.2942(8)
H10B H 0.48280 0.11340 0.32730
H11B H 0.43620 0.17990 0.32270
C12B C 0.3501(11) 0.0192(9) 0.0720(7)
H12B H 0.32330 -0.01350 0.12100
C13B C 0.3112(19) -0.0238(16) 0.00000
C14B C 0.4946(13) 0.3539(15) 0.287(1)
H13B H 0.44100 0.29390 0.26740
H14B H 0.50450 0.40620 0.25110
H15B H 0.48050 0.36680 0.34150
C15B C 0.4686(17) 0.1545(18) 0.00000
H16B H 0.52420 0.21590 0.00000
C16B C 0.5781(13) 0.2502(10) 0.2894(7)
C17B C 0.4267(10) 0.1083(10) 0.0733(7)
C18B C 0.5863(11) 0.3459(12) 0.2889(6)
N2C N 0.6841(9) 0.5658(9) -0.2158(7)
C10C C 0.6849(12) 0.5286(10) -0.1513(7)
H9C H 0.68770 0.47130 -0.15100
C11C C 0.6834(16) 0.5212(12) -0.2942(8)
H10C H 0.63060 0.51720 -0.32730
H11C H 0.74370 0.56380 -0.32270
C12C C 0.6691(11) 0.6499(9) -0.0720(7)
H12C H 0.66320 0.67670 -0.12100
C14C C 0.8593(13) 0.5054(15) -0.287(1)
H13C H 0.85290 0.55900 -0.26740
H14C H 0.90170 0.49550 -0.25110
H15C H 0.88630 0.51950 -0.34150
C16C C 0.6721(13) 0.4219(10) -0.2894(7)
C17C C 0.6816(10) 0.5733(10) -0.0733(7)
C18C C 0.7596(11) 0.4137(12) -0.2889(6)
Br2A Br 1.1474(4) 0.3474(3) 0.00000
N2D N 0.8817(9) 0.3159(9) 0.2158(7)
C10D C 0.8437(12) 0.3151(10) 0.1513(7)
H9D H 0.78360 0.31230 0.15100
C11D C 0.8378(16) 0.3166(12) 0.2942(8)
H10D H 0.88660 0.36940 0.32730
H11D H 0.82010 0.25630 0.32270
C12D C 0.9808(11) 0.3309(9) 0.0720(7)
H12D H 1.01350 0.33680 0.12100
C13A C 1.0238(19) 0.3350(16) 0.00000
C14D C 0.6461(13) 0.1407(15) 0.287(1)
H13D H 0.70610 0.14710 0.26740
H14D H 0.59380 0.09830 0.25110
H15D H 0.63320 0.11370 0.34150
C15A C 0.8455(17) 0.3141(18) 0.00000
H16A H 0.78410 0.30830 0.00000
C16D C 0.7498(13) 0.3279(10) 0.2894(7)
C17D C 0.8917(10) 0.3184(10) 0.0733(7)
C18D C 0.6541(11) 0.2404(12) 0.2889(6)
N2E N 0.4342(9) 0.1183(9) -0.2158(7)
C10E C 0.4714(12) 0.1563(10) -0.1513(7)
H9E H 0.52870 0.21640 -0.15100
C11E C 0.4788(16) 0.1622(12) -0.2942(8)
H10E H 0.48280 0.11340 -0.32730
H11E H 0.43620 0.17990 -0.32270
C12E C 0.3501(11) 0.0192(9) -0.0720(7)
H12E H 0.32330 -0.01350 -0.12100
C14E C 0.4946(13) 0.3539(15) -0.287(1)
H13E H 0.44100 0.29390 -0.26740
H14E H 0.50450 0.40620 -0.25110
H15E H 0.48050 0.36680 -0.34150
C16E C 0.5781(13) 0.2502(10) -0.2894(7)
C17E C 0.4267(10) 0.1083(10) -0.0733(7)
C18E C 0.5863(11) 0.3459(12) -0.2889(6)
N2A N 0.8817(9) 0.3159(9) -0.2158(7)
C10A C 0.8437(12) 0.3151(10) -0.1513(7)
H9A H 0.78360 0.31230 -0.15100
C11A C 0.8378(16) 0.3166(12) -0.2942(8)
H10A H 0.88660 0.36940 -0.32730
H11A H 0.82010 0.25630 -0.32270
C12A C 0.9808(11) 0.3309(9) -0.0720(7)
H12A H 1.01350 0.33680 -0.12100
C14A C 0.6461(13) 0.1407(15) -0.287(1)
H13A H 0.70610 0.14710 -0.26740
H14A H 0.59380 0.09830 -0.25110
H15A H 0.63320 0.11370 -0.34150
C16A C 0.7498(13) 0.3279(10) -0.2894(7)
C17A C 0.8917(10) 0.3184(10) -0.0733(7)
C18A C 0.6541(11) 0.2404(12) -0.2889(6)
Br3B Br -0.1408(3) 0.6682(3) 0.50000
N3B N 0.1299(9) 0.7101(10) 0.2842(7)
C19B C 0.3800(11) 0.8659(13) 0.2189(9)
H17B H 0.36130 0.88410 0.16880
H18B H 0.44900 0.90600 0.22660
H19B H 0.34650 0.87470 0.26430
C20B C -0.0150(14) 0.6921(17) 0.50000
C21B C 0.1706(13) 0.7184(14) 0.50000
H20B H 0.23310 0.72680 0.50000
C22B C 0.0309(11) 0.6981(10) 0.4254(8)
H21B H -0.00070 0.69250 0.37580
C23B C 0.1792(11) 0.7125(13) 0.2095(8)
H22B H 0.20530 0.77700 0.18600
H23B H 0.13050 0.66710 0.17140
C24B C 0.2618(11) 0.6893(12) 0.2122(8)
C25B C 0.3536(11) 0.7599(13) 0.2141(7)
C26B C 0.1234(10) 0.7122(10) 0.4268(8)
C27B C 0.1688(12) 0.7158(11) 0.3510(8)
H24B H 0.23060 0.72260 0.35170
N3C N 0.5802(9) 0.8701(10) 0.7158(7)
C19C C 0.4859(11) 0.6200(13) 0.7811(9)
H17C H 0.52280 0.63870 0.83120
H18C H 0.45700 0.55100 0.77340
H19C H 0.52820 0.65350 0.73570
C22C C 0.6672(11) 0.9691(10) 0.5746(8)
H21C H 0.69320 1.00070 0.62420
C23C C 0.5333(11) 0.8208(13) 0.7905(8)
H22C H 0.57170 0.79470 0.81400
H23C H 0.53660 0.86950 0.82860
C24C C 0.4275(11) 0.7382(12) 0.7878(8)
C25C C 0.4063(11) 0.6464(13) 0.7859(7)
C26C C 0.5888(10) 0.8766(10) 0.5732(8)
C27C C 0.5470(12) 0.8312(11) 0.6490(8)
H24C H 0.49200 0.76940 0.64830
Br3A Br 0.3318(3) 0.1910(3) 0.50000
N3D N 0.2899(9) 0.4198(10) 0.2842(7)
C19D C 0.1341(11) 0.5141(13) 0.2189(9)
H17D H 0.11590 0.47720 0.16880
H18D H 0.09400 0.54300 0.22660
H19D H 0.12530 0.47180 0.26430
C20A C 0.3079(14) 0.2929(17) 0.50000
C21A C 0.2816(13) 0.4522(14) 0.50000
H20A H 0.27320 0.50630 0.50000
C22D C 0.3019(11) 0.3328(10) 0.4254(8)
H21D H 0.30750 0.30680 0.37580
C23D C 0.2875(11) 0.4667(13) 0.2095(8)
H22D H 0.22300 0.42830 0.18600
H23D H 0.33290 0.46340 0.17140
C24D C 0.3107(11) 0.5725(12) 0.2122(8)
C25D C 0.2401(11) 0.5937(13) 0.2141(7)
C26D C 0.2878(10) 0.4112(10) 0.4268(8)
C27D C 0.2842(12) 0.4530(11) 0.3510(8)
H24D H 0.27740 0.50800 0.35170
N3E N 0.1299(9) 0.7101(10) 0.7158(7)
C19E C 0.3800(11) 0.8659(13) 0.7811(9)
H17E H 0.36130 0.88410 0.83120
H18E H 0.44900 0.90600 0.77340
H19E H 0.34650 0.87470 0.73570
C22E C 0.0309(11) 0.6981(10) 0.5746(8)
H21E H -0.00070 0.69250 0.62420
C23E C 0.1792(11) 0.7125(13) 0.7905(8)
H22E H 0.20530 0.77700 0.81400
H23E H 0.13050 0.66710 0.82860
C24E C 0.2618(11) 0.6893(12) 0.7878(8)
C25E C 0.3536(11) 0.7599(13) 0.7859(7)
C26E C 0.1234(10) 0.7122(10) 0.5732(8)
C27E C 0.1688(12) 0.7158(11) 0.6490(8)
H24E H 0.23060 0.72260 0.64830
N3A N 0.2899(9) 0.4198(10) 0.7158(7)
C19A C 0.1341(11) 0.5141(13) 0.7811(9)
H17A H 0.11590 0.47720 0.83120
H18A H 0.09400 0.54300 0.77340
H19A H 0.12530 0.47180 0.73570
C22A C 0.3019(11) 0.3328(10) 0.5746(8)
H21A H 0.30750 0.30680 0.62420
C23A C 0.2875(11) 0.4667(13) 0.7905(8)
H22A H 0.22300 0.42830 0.81400
H23A H 0.33290 0.46340 0.82860
C24A C 0.3107(11) 0.5725(12) 0.7878(8)
C25A C 0.2401(11) 0.5937(13) 0.7859(7)
C26A C 0.2878(10) 0.4112(10) 0.5732(8)
C27A C 0.2842(12) 0.4530(11) 0.6490(8)
H24A H 0.27740 0.50800 0.64830
Cl1C Cl 0.6497(9) 1.0643(7) -0.0862(4)
#END
