
#######################################################################
#
#                 Cambridge Crystallographic Data Centre
#                                CCDC
#
#######################################################################
#
# If this CIF has been generated from an entry in the Cambridge
# Structural Database, then it will include bibliographic, chemical,
# crystal, experimental, refinement or atomic coordinate data resulting
# from the CCDC's data processing and validation procedures.
#
#######################################################################

data_CSD_CIF_PIFVIM
_audit_creation_date 2018-07-24
_audit_creation_method CSD-ConQuest-V1
_database_code_CSD PIFVIM
_database_code_depnum_ccdc_archive 'CCDC 1827871'
_chemical_formula_sum 'C147.8 H160.5 Cl4.5 N12 O2.25'
_chemical_formula_moiety
;
C132 H120 N12,2.25(C6 H14),2.25(C1 H2 Cl2),2.25(H2 O1)
;
_journal_coden_Cambridge 1490
_journal_volume 9
_journal_year 2018
_journal_page_first 2849
_journal_name_full 'Nat.Commun. '
loop_
_publ_author_name
"R.L.Greenaway"
"V.Santolini"
"M.J.Bennison"
"B.M.Alston"
"C.J.Pugh"
"M.A.Little"
"M.Miklitz"
"E.G.B.Eden-Rump"
"R.Clowes"
"A.Shakil"
"H.J.Cuthbertson"
"H.Armstrong"
"M.E.Briggs"
"K.E.Jelfs"
"A.I.Cooper"
_chemical_name_systematic
;
3,8,12,17,21,26,30,35,38,43,46,51-dodecaaza-1,10,19,28(1,3,5)-tetrakis(2,4,6-t
rimethylbenzena)-5,6,14,15,23,24,32,33,40,41,48,49(1,4)-dodecabenzenatricyclo[
17.17.8.8^10,28^]dopentacontaphane-3,7,12,16,21,25,30,34,38,42,46,50-dodecaene
 dichloromethane hexane solvate hydrate
;
_cell_volume   7611.168
_exptl_crystal_colour 'colorless'
_exptl_crystal_density_diffrn 1.004
_exptl_crystal_description 'block'
_diffrn_ambient_temperature 100
_refine_special_details
;
The structure is disordered.

;
#These two values have been output from a single CSD field.
_refine_ls_R_factor_gt 0.1544
_refine_ls_wR_factor_gt 0.1544
_symmetry_cell_setting triclinic
_symmetry_space_group_name_H-M 'P -1'
_symmetry_Int_Tables_number 2
loop_
_symmetry_equiv_pos_site_id
_symmetry_equiv_pos_as_xyz
1 x,y,z
2 -x,-y,-z
_cell_length_a 18.8234(11)
_cell_length_b 20.8419(12)
_cell_length_c 22.4054(13)
_cell_angle_alpha 103.931(4)
_cell_angle_beta 93.490(4)
_cell_angle_gamma 114.824(3)
_cell_formula_units_Z 2
loop_
_atom_type_symbol
_atom_type_radius_bond
C 0.68
H 0.23
Cl 0.99
N 0.68
O 0.68
loop_
_atom_site_label
_atom_site_type_symbol
_atom_site_fract_x
_atom_site_fract_y
_atom_site_fract_z
N1 N 0.8017(3) 0.2507(3) -0.1300(2)
N2 N 0.8751(3) 0.5731(3) -0.0489(3)
N3 N 0.5717(3) 0.7584(3) 0.5593(3)
C1 C 0.7284(4) 0.0280(4) 0.4287(3)
C2 C 0.6966(3) -0.0690(3) 0.3330(3)
C3 C 0.7884(5) 0.0935(4) 0.4823(4)
H1 H 0.78140 0.07980 0.52160
H2 H 0.84260 0.10190 0.47530
C4 C 0.7218(4) -0.1005(5) 0.2751(3)
H3 H 0.68300 -0.15270 0.25450
H4 H 0.77490 -0.09810 0.28570
C5 C 0.5157(4) -0.1186(4) 0.4097(4)
H5 H 0.50620 -0.17080 0.39660
H6 H 0.52240 -0.10380 0.45590
C6 C -0.0997(3) 0.0746(3) 0.1354(3)
C7 C -0.0943(3) 0.0675(3) 0.0723(4)
C8 C -0.0862(3) 0.1265(3) 0.0485(4)
C9 C -0.0792(3) 0.1929(3) 0.0884(4)
C10 C -0.0879(3) 0.1984(3) 0.1503(3)
C11 C -0.0961(3) 0.1399(3) 0.1760(3)
C12 C -0.1144(3) 0.0094(3) 0.1603(4)
H7 H -0.13410 0.01640 0.20020
H8 H -0.15540 -0.03670 0.13000
C13 C -0.0962(4) -0.0017(4) 0.0313(4)
H9 H -0.07620 -0.02470 0.05690
H10 H -0.06260 0.01050 0.00000
H11 H -0.15100 -0.03610 0.01010
C14 C -0.0895(4) 0.1168(4) -0.0198(4)
H12 H -0.11470 0.14640 -0.03140
H13 H -0.12540 0.06430 -0.04210
C15 C -0.0614(4) 0.2577(3) 0.0642(4)
H14 H -0.05310 0.24560 0.02100
H15 H -0.01320 0.30020 0.09030
H16 H -0.10620 0.27010 0.06550
C16 C -0.0922(4) 0.2649(3) 0.1915(4)
H17 H -0.12510 0.27860 0.16580
H18 H -0.12180 0.24900 0.22450
C17 C -0.0986(4) 0.1481(4) 0.2437(3)
H19 H -0.15410 0.12840 0.24960
H20 H -0.07010 0.20060 0.26760
H21 H -0.07330 0.12080 0.25850
C18 C 0.8440(4) 0.8386(4) 0.6149(4)
C19 C 0.8681(5) 0.9497(4) 0.5002(4)
H22 H 0.92410 0.98270 0.52100
H23 H 0.84110 0.98130 0.49920
C20 C 0.7591(3) 0.1819(3) -0.1420(3)
H24 H 0.74130 0.15370 -0.18480
C21 C 0.5146(4) 0.7683(5) 0.5339(4)
H25 H 0.51460 0.81520 0.54210
N4 N 0.5632(3) 0.3574(3) -0.2236(3)
N5 N 0.8675(8) 0.9109(5) 0.4325(4)
N6 N 0.9079(6) 0.7608(5) 0.6394(4)
N7 N -0.0195(5) 0.3319(5) 0.2224(5)
N8 N -0.0137(3) 0.1370(3) -0.0443(3)
N9 N -0.0382(8) 0.0033(9) 0.1708(7)
N10 N 0.4439(9) -0.1185(8) 0.3872(8)
N11 N 0.7833(6) 0.1631(4) 0.4908(5)
N12 N 0.7247(6) -0.0510(7) 0.2313(5)
C22 C 0.6489(4) -0.0067(4) 0.4365(3)
C23 C 0.7527(3) -0.0015(3) 0.3761(3)
C24 C 0.6192(3) -0.1040(3) 0.3421(3)
C25 C 0.5970(3) -0.0737(3) 0.3946(3)
C26 C 0.6208(5) 0.0285(5) 0.4926(4)
H26 H 0.62020 0.00460 0.52540
H27 H 0.56700 0.02200 0.47920
H28 H 0.65730 0.08140 0.50900
C27 C 0.8351(4) 0.0362(5) 0.3649(4)
H29 H 0.85560 0.08980 0.38230
H30 H 0.83490 0.02390 0.31980
H31 H 0.86920 0.01970 0.38520
C28 C 0.5590(4) -0.1744(4) 0.2931(4)
H32 H 0.56810 -0.17050 0.25130
H33 H 0.50500 -0.18120 0.29720
H34 H 0.56530 -0.21680 0.29940
C29 C 0.8029(3) 0.3438(3) -0.1800(3)
C30 C 0.7299(3) 0.3309(4) -0.2129(3)
C31 C 0.7115(4) 0.3884(4) -0.2117(4)
C32 C 0.7638(4) 0.4604(4) -0.1741(4)
C33 C 0.8376(4) 0.4732(4) -0.1430(4)
C34 C 0.8571(3) 0.4150(3) -0.1447(3)
C35 C 0.8233(3) 0.2805(3) -0.1837(3)
H35 H 0.79410 0.24090 -0.22330
H36 H 0.88110 0.29780 -0.18320
C36 C 0.6696(4) 0.2525(4) -0.2493(4)
H37 H 0.67510 0.24300 -0.29330
H38 H 0.61560 0.24660 -0.24600
H39 H 0.67910 0.21730 -0.23190
C37 C 0.6352(4) 0.3764(4) -0.2504(4)
H40 H 0.64640 0.42220 -0.26200
H41 H 0.62330 0.33670 -0.28970
C38 C 0.7419(4) 0.5237(4) -0.1679(5)
H42 H 0.75880 0.54640 -0.20140
H43 H 0.76860 0.56070 -0.12720
H44 H 0.68410 0.50470 -0.17120
C39 C 0.8964(4) 0.5526(4) -0.1082(4)
H45 H 0.95100 0.55720 -0.10210
H46 H 0.89520 0.58580 -0.13280
C40 C 0.9331(4) 0.4281(4) -0.1075(4)
H47 H 0.92390 0.38620 -0.09130
H48 H 0.95220 0.47350 -0.07260
H49 H 0.97320 0.43330 -0.13440
C41 C 0.7505(4) 0.8793(3) 0.5485(3)
C42 C 0.8289(4) 0.8998(4) 0.5406(4)
C43 C 0.8749(4) 0.8765(4) 0.5722(4)
C44 C 0.7649(4) 0.8190(4) 0.6229(4)
C45 C 0.7187(4) 0.8401(3) 0.5891(3)
C46 C 0.6988(4) 0.8994(5) 0.5098(4)
H50 H 0.69660 0.94390 0.53490
H51 H 0.64490 0.85840 0.49670
H52 H 0.72130 0.90890 0.47270
C47 C 0.9603(4) 0.8949(4) 0.5599(5)
H53 H 0.99870 0.93850 0.59310
H54 H 0.96500 0.90500 0.51940
H55 H 0.97130 0.85280 0.55930
C48 C 0.8967(6) 0.8250(5) 0.6566(4)
H56 H 0.95000 0.86770 0.66570
H57 H 0.87690 0.82640 0.69660
C49 C 0.7306(6) 0.7713(6) 0.6668(5)
H58 H 0.74890 0.73300 0.66100
H59 H 0.67230 0.74800 0.65690
H60 H 0.74880 0.80270 0.71030
C50 C 0.6360(4) 0.8261(4) 0.6021(4)
H61 H 0.63390 0.82310 0.64550
H62 H 0.62680 0.86880 0.59940
C51 C 0.0515(3) 0.1770(4) -0.0067(4)
H63 H 0.05130 0.19100 0.03680
C52 C 0.1280(3) 0.2026(3) -0.0288(4)
C53 C 0.1307(4) 0.1777(3) -0.0917(4)
H64 H 0.08290 0.14350 -0.12060
C54 C 0.2016(3) 0.2021(3) -0.1121(3)
H65 H 0.20250 0.18460 -0.15520
C55 C 0.2732(3) 0.2525(3) -0.0708(3)
C56 C 0.2702(4) 0.2763(4) -0.0087(4)
H66 H 0.31790 0.31010 0.02030
C57 C 0.1976(4) 0.2512(4) 0.0123(4)
H67 H 0.19650 0.26800 0.05540
C58 C 0.3478(3) 0.2799(3) -0.0953(3)
C59 C 0.3497(4) 0.2955(3) -0.1515(3)
H68 H 0.30200 0.28960 -0.17420
C60 C 0.4187(3) 0.3195(3) -0.1762(3)
H69 H 0.41830 0.33070 -0.21480
C61 C 0.4890(3) 0.3271(3) -0.1437(3)
C62 C 0.4885(4) 0.3134(3) -0.0864(3)
H70 H 0.53640 0.31990 -0.06350
C63 C 0.4193(4) 0.2902(4) -0.0619(4)
H71 H 0.42020 0.28130 -0.02230
C64 C 0.5625(4) 0.3488(4) -0.1702(4)
H72 H 0.61030 0.35660 -0.14620
C65 C 0.4497(8) -0.0733(9) 0.3592(9)
H73 H 0.50050 -0.04350 0.35130
C66 C 0.3797(3) -0.0635(5) 0.3370(5)
C67 C 0.3059(4) -0.1049(5) 0.3504(4)
H74 H 0.30020 -0.14010 0.37220
C68 C 0.2405(3) -0.0948(5) 0.3317(4)
H75 H 0.19010 -0.12310 0.34080
C69 C 0.2489(4) -0.0433(5) 0.2997(4)
C70 C 0.3227(5) -0.0019(5) 0.2864(4)
H76 H 0.32850 0.03330 0.26450
C71 C 0.3882(4) -0.0120(5) 0.3050(4)
H77 H 0.43860 0.01630 0.29590
C72 C 0.0450(3) -0.0172(5) 0.2411(3)
C73 C 0.0627(4) -0.0167(5) 0.3023(3)
H78 H 0.02950 -0.01060 0.33120
C74 C 0.1290(4) -0.0253(5) 0.3214(3)
H79 H 0.14110 -0.02500 0.36330
C75 C 0.1777(3) -0.0343(4) 0.2792(3)
C76 C 0.1600(4) -0.0347(5) 0.2179(3)
H80 H 0.19320 -0.04090 0.18910
C77 C 0.0937(4) -0.0262(5) 0.1988(3)
H81 H 0.08160 -0.02650 0.15700
C78 C -0.0242(6) -0.0065(6) 0.2217(6)
H82 H -0.06010 -0.00700 0.24980
C79 C 0.7365(5) 0.1445(3) -0.0987(3)
C80 C 0.7540(5) 0.1831(3) -0.0355(4)
H83 H 0.77620 0.23550 -0.02270
C81 C 0.7389(5) 0.1449(3) 0.0089(3)
H84 H 0.75090 0.17130 0.05210
C82 C 0.7064(5) 0.0682(3) -0.0098(4)
C83 C 0.6889(5) 0.0296(3) -0.0730(4)
H85 H 0.66660 -0.02280 -0.08580
C84 C 0.7040(5) 0.0678(3) -0.1174(3)
H86 H 0.69200 0.04140 -0.16060
C85 C 0.6878(4) -0.0490(3) 0.1294(3)
C86 C 0.6963(4) 0.0228(3) 0.1469(3)
H87 H 0.69910 0.04670 0.18940
C87 C 0.7008(4) 0.0598(3) 0.1021(3)
H88 H 0.70660 0.10890 0.11410
C88 C 0.6968(4) 0.0248(3) 0.0399(3)
C89 C 0.6882(4) -0.0471(3) 0.0224(3)
H89 H 0.68550 -0.07100 -0.02010
C90 C 0.6837(4) -0.0840(3) 0.0672(4)
H90 H 0.67790 -0.13320 0.05520
C91 C 0.6912(5) -0.0859(6) 0.1769(6)
H91 H 0.66660 -0.13840 0.16510
C92 C 0.0450(6) 0.3263(6) 0.2285(5)
H92 H 0.04740 0.28170 0.20870
C93 C 0.1178(6) 0.3937(6) 0.2687(5)
C94 C 0.1810(6) 0.3827(6) 0.2904(5)
H93 H 0.18020 0.33550 0.27720
C95 C 0.2467(6) 0.4436(6) 0.3327(5)
H94 H 0.28970 0.43660 0.34940
C96 C 0.2498(5) 0.5134(6) 0.3503(5)
C97 C 0.1872(6) 0.5243(7) 0.3262(5)
H95 H 0.18890 0.57200 0.33700
C98 C 0.1194(6) 0.4610(6) 0.2843(5)
H96 H 0.07570 0.46690 0.26760
C99 C 0.4453(4) 0.6953(4) 0.4880(4)
C100 C 0.4304(5) 0.6229(5) 0.4834(4)
H97 H 0.46320 0.61340 0.51040
C101 C 0.3674(5) 0.5644(4) 0.4393(4)
H98 H 0.35720 0.51490 0.43610
C102 C 0.3195(4) 0.5784(4) 0.3997(3)
C103 C 0.3344(4) 0.6508(4) 0.4043(3)
H99 H 0.30160 0.66030 0.37730
C104 C 0.3974(4) 0.7093(4) 0.4485(4)
H100 H 0.40760 0.75880 0.45160
C105 C 0.8538(7) 0.2176(5) 0.4962(6)
H101 H 0.90000 0.20980 0.49840
C106 C 0.8604(4) 0.2929(3) 0.4989(4)
C107 C 0.7931(3) 0.3033(3) 0.4878(4)
H102 H 0.74220 0.26190 0.47330
C108 C 0.8003(4) 0.3745(4) 0.4981(4)
H103 H 0.75440 0.38160 0.49050
C109 C 0.8748(4) 0.4351(3) 0.5193(4)
C110 C 0.9421(3) 0.4247(3) 0.5303(4)
H104 H 0.99300 0.46620 0.54490
C111 C 0.9349(3) 0.3536(3) 0.5201(4)
H105 H 0.98090 0.34640 0.52770
C112 C 0.8812(5) 0.6501(3) 0.5623(4)
C113 C 0.8265(5) 0.5944(4) 0.5112(4)
H106 H 0.79040 0.60380 0.48740
C114 C 0.8246(4) 0.5249(3) 0.4950(3)
H107 H 0.78720 0.48680 0.46010
C115 C 0.8774(4) 0.5112(3) 0.5299(3)
C116 C 0.9321(4) 0.5669(3) 0.5809(3)
H108 H 0.96820 0.55750 0.60470
C117 C 0.9341(4) 0.6364(3) 0.5971(3)
H109 H 0.97150 0.67450 0.63200
C118 C 0.8788(10) 0.7192(6) 0.5854(5)
H110 H 0.85320 0.73410 0.55760
C119 C 0.9347(6) 0.6138(5) 0.0002(5)
H111 H 0.98820 0.62410 -0.00310
C120 C 0.9160(7) 0.6381(6) 0.0518(8)
C121 C 0.8388(7) 0.6104(7) 0.0667(8)
H112 H 0.79590 0.57070 0.03610
C122 C 0.8238(8) 0.6389(7) 0.1239(8)
H113 H 0.77110 0.61790 0.13190
C123 C 0.8838(7) 0.6981(7) 0.1707(7)
C124 C 0.9622(8) 0.7275(9) 0.1570(8)
H114 H 1.00510 0.76910 0.18600
C125 C 0.9736(9) 0.6924(9) 0.0985(8)
H115 H 1.02680 0.70880 0.09150
C126 C 0.8665(7) 0.7331(6) 0.2312(6)
C127 C 0.8136(9) 0.6939(8) 0.2622(7)
H116 H 0.78540 0.64180 0.24450
C128 C 0.798(1) 0.7259(8) 0.3189(8)
H117 H 0.76120 0.69650 0.34010
C129 C 0.8389(9) 0.8033(8) 0.3434(8)
C130 C 0.8928(8) 0.8429(8) 0.3098(8)
H118 H 0.92110 0.89520 0.32640
C131 C 0.9060(8) 0.8111(7) 0.2563(7)
H119 H 0.94190 0.84040 0.23460
C132 C 0.8319(7) 0.8412(5) 0.4053(6)
H120 H 0.79760 0.81110 0.42740
C133 C 0.5398(14) 0.1542(12) 0.1135(6)
H121 H 0.58640 0.20230 0.12210
H122 H 0.54900 0.12680 0.14050
H123 H 0.49290 0.16170 0.12180
C134 C 0.5257(8) 0.1103(7) 0.0449(5)
H124 H 0.56300 0.08780 0.04090
H125 H 0.47110 0.06920 0.03390
C135 C 0.5355(6) 0.1526(6) -0.0030(4)
H126 H 0.58920 0.19510 0.00820
H127 H 0.49580 0.17230 -0.00180
C136 C 0.5245(4) 0.1039(4) -0.0692(3)
H128 H 0.47070 0.06160 -0.08000
H129 H 0.56370 0.08370 -0.06980
C137 C 0.5344(4) 0.1440(4) -0.1200(4)
H130 H 0.49480 0.16350 -0.12080
H131 H 0.58820 0.18630 -0.11020
C138 C 0.5232(5) 0.0916(5) -0.1826(4)
H132 H 0.52110 0.11500 -0.21530
H133 H 0.47330 0.04660 -0.18960
H134 H 0.56780 0.07900 -0.18400
Cl1 Cl 0.3873(7) 0.4354(6) 0.5284(6)
Cl2 Cl 0.4255(5) 0.4150(5) 0.4085(5)
C139 C 0.3716(19) 0.3691(10) 0.4584(8)
H135 H 0.31430 0.34210 0.43970
H136 H 0.39000 0.33300 0.46570
Cl3 Cl 0.1383(3) 0.2055(3) 0.1683(2)
Cl4 Cl 0.2133(2) 0.1097(3) 0.1280(2)
C140 C 0.1263(6) 0.1214(6) 0.1211(6)
H137 H 0.10980 0.11730 0.07700
H138 H 0.08310 0.08110 0.13220
Cl5 Cl 0.5892(5) 0.5814(4) 0.3090(4)
Cl6 Cl 0.6134(3) 0.7208(3) 0.3897(3)
C141 C 0.5441(8) 0.6334(6) 0.3462(7)
H139 H 0.50840 0.63730 0.31440
H140 H 0.51130 0.60800 0.37390
Cl7 Cl 0.69525(14) 0.36480(18) 0.01026(15)
Cl8 Cl 0.86172(14) 0.41313(16) 0.04722(15)
C142 C 0.7868(3) 0.3947(4) -0.0129(4)
H141 H 0.79860 0.44010 -0.02540
H142 H 0.78510 0.35630 -0.04970
C143 C 0.0150(15) 0.6164(15) 0.2844(14)
H143 H 0.04750 0.59050 0.27050
H144 H -0.00540 0.62550 0.24700
C144 C -0.0916(18) 0.5139(17) 0.2373(14)
H145 H -0.05610 0.49040 0.22710
H146 H -0.08110 0.54920 0.21240
C145 C 0.0709(16) 0.6912(16) 0.3296(16)
H147 H 0.05300 0.69510 0.37040
H148 H 0.06750 0.73030 0.31350
C146 C -0.057(2) 0.563(2) 0.3046(15)
H149 H -0.09020 0.58550 0.32310
H150 H -0.04240 0.53810 0.33240
C147 C 0.1575(15) 0.705(2) 0.340(2)
H151 H 0.17160 0.69980 0.38060
H152 H 0.19200 0.75470 0.33810
H153 H 0.16440 0.66840 0.30680
C148 C -0.175(2) 0.452(3) 0.207(3)
H154 H -0.17690 0.43250 0.16220
H155 H -0.18860 0.41290 0.22680
H156 H -0.21390 0.47260 0.21190
C149 C 0.5052(14) 0.4949(13) 0.0291(9)
H157 H 0.46010 0.44770 0.02870
H158 H 0.50050 0.53490 0.06030
C150 C 0.5805(17) 0.4929(16) 0.0526(14)
H159 H 0.62450 0.54170 0.05550
H160 H 0.58710 0.45630 0.01890
C151 C 0.596(2) 0.4764(19) 0.1129(16)
H161 H 0.57320 0.49840 0.14490
H162 H 0.65380 0.49720 0.12720
H163 H 0.57190 0.42270 0.10570
O1 O 0.5640(17) 0.3031(15) 0.3175(13)
O2 O 0.289(3) 0.248(3) 0.156(2)
H164? H 0.84020 0.09210 0.48800
H165? H 0.76810 0.09550 0.52210
H166? H 0.78080 -0.07610 0.28520
H167? H 0.70510 -0.15290 0.27330
H168? H 0.52140 -0.11230 0.45530
H169? H 0.49710 -0.17170 0.38790
H170? H -0.15570 0.00520 0.18650
H171? H -0.13760 -0.03570 0.12400
H172? H -0.14170 0.24750 0.20900
H173? H -0.09650 0.29550 0.16510
H174? H 0.83080 0.96880 0.48860
H175? H 0.91600 0.99270 0.52740
H176? H 0.74260 0.15130 -0.18410
H177? H 0.52420 0.81860 0.54660
H178? H 0.87680 0.81820 0.69570
H179? H 0.95240 0.86410 0.66660
N13? N 0.8924(12) 0.9227(6) 0.4434(7)
N14? N 0.885(3) 0.7427(16) 0.6052(11)
N15? N -0.0206(13) 0.3152(10) 0.2469(13)
N16? N -0.0475(9) 0.0076(9) 0.1975(8)
N17? N 0.4522(12) -0.0941(13) 0.3897(14)
N18? N 0.7947(16) 0.1604(11) 0.4572(14)
N19? N 0.7037(10) -0.1020(11) 0.2133(8)
C152? C 0.4651(14) -0.0506(14) 0.3556(13)
H180? H 0.51680 -0.02790 0.34600
C153? C 0.4001(5) -0.0343(6) 0.3299(6)
C154? C 0.3219(5) -0.0743(6) 0.3361(5)
H181? H 0.30910 -0.11220 0.35600
C155? C 0.2623(4) -0.0591(5) 0.3131(5)
H182? H 0.20880 -0.08650 0.31740
C156? C 0.2809(5) -0.0037(6) 0.2840(5)
C157? C 0.3591(6) 0.0364(6) 0.2778(5)
H183? H 0.37190 0.07430 0.25790
C158? C 0.4187(5) 0.0211(6) 0.3008(6)
H184? H 0.47220 0.04850 0.29660
C159? C 0.0881(4) 0.0329(5) 0.2123(5)
C160? C 0.0825(4) 0.0031(6) 0.2621(5)
H185? H 0.03560 -0.01020 0.27970
C161? C 0.1455(5) -0.0071(5) 0.2861(4)
H186? H 0.14160 -0.02750 0.32010
C162? C 0.2141(4) 0.0124(5) 0.2603(4)
C163? C 0.2198(4) 0.0421(5) 0.2105(4)
H187? H 0.26670 0.05550 0.19290
C164? C 0.1568(5) 0.0524(5) 0.1865(4)
H188? H 0.16070 0.07270 0.15250
C165? C 0.0174(8) 0.0384(7) 0.1830(8)
H189? H 0.02310 0.06560 0.15360
C166? C 0.7027(8) 0.0749(6) 0.0103(6)
C167? C 0.7324(8) 0.1512(6) 0.0254(5)
H190? H 0.74280 0.17980 0.06780
C168? C 0.7468(9) 0.1858(4) -0.0215(6)
H191? H 0.76700 0.23800 -0.01110
C169? C 0.7315(9) 0.1440(6) -0.0835(6)
C170? C 0.7019(8) 0.0676(6) -0.0986(5)
H192? H 0.69150 0.03900 -0.14100
C171? C 0.6875(7) 0.0330(4) -0.0517(6)
H193? H 0.66720 -0.01920 -0.06210
C172? C 0.6844(6) -0.0200(5) 0.1601(5)
C173? C 0.6816(6) 0.0473(5) 0.1697(4)
H194? H 0.67650 0.07190 0.20960
C174? C 0.6863(6) 0.0786(4) 0.1210(5)
H195? H 0.68440 0.12460 0.12760
C175? C 0.6938(6) 0.0426(5) 0.0626(4)
C176? C 0.6966(6) -0.0247(5) 0.0529(5)
H196? H 0.70170 -0.04930 0.01300
C177? C 0.6919(6) -0.0559(5) 0.1017(5)
H197? H 0.69380 -0.10190 0.09510
C178? C 0.6854(10) -0.048(1) 0.2166(10)
H198? H 0.67260 -0.02620 0.25410
C179? C 0.0066(13) 0.3864(11) 0.2539(13)
H199? H -0.02240 0.40130 0.22870
C180? C 0.2193(8) 0.5544(6) 0.3765(8)
C181? C 0.1805(8) 0.5710(5) 0.3321(8)
H200? H 0.20190 0.61980 0.32860
C182? C 0.1103(8) 0.5162(6) 0.2929(7)
H201? H 0.08370 0.52750 0.26260
C183? C 0.0789(7) 0.4447(5) 0.2981(8)
C184? C 0.1177(8) 0.4281(5) 0.3425(8)
H202? H 0.09630 0.37930 0.34600
C185? C 0.1880(8) 0.4830(7) 0.3817(8)
H203? H 0.21450 0.47160 0.41200
C186? C 0.4413(8) 0.7217(8) 0.4914(9)
C187? C 0.4269(10) 0.6481(9) 0.4734(11)
H204? H 0.46580 0.63450 0.48740
C188? C 0.3556(10) 0.5942(7) 0.435(1)
H205? H 0.34570 0.54390 0.42270
C189? C 0.2986(8) 0.6140(7) 0.4145(8)
C190? C 0.3130(8) 0.6877(7) 0.4325(8)
H206? H 0.27410 0.70130 0.41850
C191? C 0.3844(8) 0.7415(6) 0.4709(8)
H207? H 0.39420 0.79190 0.48320
C192? C 0.8472(18) 0.2085(15) 0.4212(15)
H208? H 0.88560 0.19490 0.40410
C193? C 0.8445(11) 0.2769(7) 0.4097(11)
C194? C 0.7851(10) 0.2916(9) 0.4343(12)
H209? H 0.74310 0.25460 0.44610
C195? C 0.7872(11) 0.3606(10) 0.4417(12)
H210? H 0.74660 0.37060 0.45850
C196? C 0.8486(11) 0.4148(7) 0.4244(10)
C197? C 0.9080(9) 0.4001(8) 0.3998(8)
H211? H 0.95000 0.43710 0.38800
C198? C 0.9060(9) 0.3311(9) 0.3924(9)
H212? H 0.94660 0.32110 0.37550
C199? C 0.8507(11) 0.4961(7) 0.4409(8)
C200? C 0.7814(9) 0.5049(7) 0.4382(9)
H213? H 0.73310 0.46580 0.41290
C201? C 0.7828(9) 0.5707(9) 0.4723(9)
H214? H 0.73540 0.57670 0.47040
C202? C 0.8534(10) 0.6278(7) 0.5092(7)
C203? C 0.9227(9) 0.6191(8) 0.5120(9)
H215? H 0.97100 0.65810 0.53720
C204? C 0.9213(9) 0.5533(9) 0.4778(11)
H216? H 0.96870 0.54730 0.47970
C205? C 0.8606(16) 0.7003(10) 0.5476(9)
H217? H 0.84130 0.72220 0.52220
C206? C 0.9230(9) 0.6097(4) 0.0091(4)
H218? H 0.97450 0.61250 0.00700
C207? C 0.9204(5) 0.64624(19) 0.0742(3)
C208? C 0.9835(5) 0.7088(2) 0.1147(3)
H219? H 1.03420 0.72840 0.10300
C209? C 0.9723(6) 0.74264(18) 0.1724(3)
H220? H 1.01540 0.78540 0.20010
C210? C 0.8981(7) 0.71393(19) 0.1896(4)
C211? C 0.8351(6) 0.6514(2) 0.1491(5)
H221? H 0.78440 0.63180 0.16090
C212? C 0.8462(5) 0.61753(19) 0.0914(4)
H222? H 0.80310 0.57480 0.06370
C213? C 0.8912(7) 0.7497(2) 0.2520(4)
C214? C 0.9273(7) 0.8263(2) 0.2757(4)
H223? H 0.96250 0.85580 0.25380
C215? C 0.9117(7) 0.8598(2) 0.3315(4)
H224? H 0.93630 0.91220 0.34770
C216? C 0.8601(9) 0.8166(3) 0.3636(5)
C217? C 0.8240(8) 0.7400(3) 0.3398(5)
H225? H 0.78870 0.71050 0.36180
C218? C 0.8396(6) 0.7065(2) 0.2840(4)
H226? H 0.81490 0.65410 0.26780
C219? C 0.8524(11) 0.8523(3) 0.4255(5)
H227? H 0.82040 0.82540 0.45060
C220? C 0.843(2) 0.3652(16) 0.334(2)
H228? H 0.88440 0.39150 0.37170
H229? H 0.86670 0.37090 0.29710
H230? H 0.80430 0.38580 0.33670
C221? C 0.799(2) 0.2823(15) 0.330(2)
H231? H 0.84680 0.27320 0.33370
H232? H 0.78610 0.28770 0.37220
C222? C 0.7367(16) 0.2018(13) 0.2987(12)
H233? H 0.68590 0.20320 0.28700
H234? H 0.75260 0.18380 0.25920
C223? C 0.7187(12) 0.1434(16) 0.3324(15)
H235? H 0.73280 0.10440 0.31030
H236? H 0.74930 0.16570 0.37570
C224? C 0.6304(11) 0.1115(11) 0.3326(8)
H237? H 0.61040 0.05750 0.32520
H238? H 0.60520 0.11820 0.29610
C225? C 0.5998(9) 0.1397(8) 0.3890(7)
H239? H 0.54150 0.11310 0.38120
H240? H 0.62160 0.13170 0.42580
H241? H 0.61640 0.19270 0.39650
O3? O 0.1302(18) 0.2752(17) 0.2043(15)
H242? H 0.02650 0.69710 0.34770
H243? H 0.07650 0.71600 0.29640
C226? C 0.133(3) 0.761(2) 0.378(2)
H244? H 0.12020 0.80230 0.37840
H245? H 0.13420 0.75360 0.41900
H246? H 0.18580 0.77320 0.36600
O4? O 0.380(4) 0.379(3) 0.204(3)
O5? O 0.619(3) 0.517(3) -0.011(3)
O6? O 0.3058(17) 0.3313(16) 0.5447(14)
O7? O 0.349(3) 0.397(3) 0.472(2)
O8? O 0.388(2) 0.301(2) 0.1582(18)
C149A C 0.4948(14) 0.5051(13) -0.0291(9)
H157A H 0.53990 0.55230 -0.02870
H158A H 0.49950 0.46510 -0.06030
C150A C 0.4195(17) 0.5071(16) -0.0526(14)
H159A H 0.37550 0.45830 -0.05550
H160A H 0.41290 0.54370 -0.01890
C151A C 0.404(2) 0.5236(19) -0.1129(16)
H161A H 0.42680 0.50160 -0.14490
H162A H 0.34620 0.50280 -0.12720
H163A H 0.42810 0.57730 -0.10570
#END
