
#######################################################################
#
#                 Cambridge Crystallographic Data Centre
#                                CCDC
#
#######################################################################
#
# If this CIF has been generated from an entry in the Cambridge
# Structural Database, then it will include bibliographic, chemical,
# crystal, experimental, refinement or atomic coordinate data resulting
# from the CCDC's data processing and validation procedures.
#
#######################################################################

data_CSD_CIF_PIFVEI
_audit_creation_date 2018-07-24
_audit_creation_method CSD-ConQuest-V1
_database_code_CSD PIFVEI
_database_code_depnum_ccdc_archive 'CCDC 1827870'
_chemical_formula_sum 'C226 H295 Cl6 N24 O44.5'
_chemical_formula_moiety
;
C216 H240 N24 O24,2(C1 H1 Cl3),18.5(H2 O1),2(C4 H8 O1)
;
_journal_coden_Cambridge 1490
_journal_volume 9
_journal_year 2018
_journal_page_first 2849
_journal_name_full 'Nat.Commun. '
loop_
_publ_author_name
"R.L.Greenaway"
"V.Santolini"
"M.J.Bennison"
"B.M.Alston"
"C.J.Pugh"
"M.A.Little"
"M.Miklitz"
"E.G.B.Eden-Rump"
"R.Clowes"
"A.Shakil"
"H.J.Cuthbertson"
"H.Armstrong"
"M.E.Briggs"
"K.E.Jelfs"
"A.I.Cooper"
_chemical_name_systematic
;
5,13,21,29,37,45,53,61,68,75,82,89(1,4)-dodecakis(2,5-dimethoxybenzena)-1,9,17
,25,33,41,49,57(1,3,5)-octakis(2,4,6-trimethylbenzena)-3,7,11,15,19,23,27,31,3
5,39,43,47,51,55,59,63,66,70,73,77,80,84,87,91-tetracosa-azapentacyclo[47.15.7
.7^9,25^.7^17,33^.7^41,57^]dononacontaphane-3,6,11,14,19,22,27,30,35,38,43,46,
51,54,59,62,66,69,73,76,80,83,87,90-tetracosaene chloroform tetrahydrofuran 
solvate hydrate
;
_cell_volume   6210.943
_exptl_crystal_colour 'light yellow'
_exptl_crystal_density_diffrn 1.142
_exptl_crystal_description 'block'
_diffrn_ambient_temperature 100
_refine_special_details
;
The structure is disordered.

;
#These two values have been output from a single CSD field.
_refine_ls_R_factor_gt 0.1596
_refine_ls_wR_factor_gt 0.1596
_symmetry_cell_setting triclinic
_symmetry_space_group_name_H-M 'P -1'
_symmetry_Int_Tables_number 2
loop_
_symmetry_equiv_pos_site_id
_symmetry_equiv_pos_as_xyz
1 x,y,z
2 -x,-y,-z
_cell_length_a 17.524(2)
_cell_length_b 19.681(3)
_cell_length_c 21.948(4)
_cell_angle_alpha 112.027(4)
_cell_angle_beta 112.920(3)
_cell_angle_gamma 95.170(4)
_cell_formula_units_Z 1
loop_
_atom_type_symbol
_atom_type_radius_bond
C 0.68
H 0.23
Cl 0.99
N 0.68
O 0.68
loop_
_atom_site_label
_atom_site_type_symbol
_atom_site_fract_x
_atom_site_fract_y
_atom_site_fract_z
Cl1 Cl 0.7781(8) 0.2714(9) 0.3882(6)
Cl2 Cl 0.6863(9) 0.1183(8) 0.2819(6)
Cl3 Cl 0.6723(11) 0.2354(9) 0.2368(8)
C1 C 0.6842(13) 0.2132(8) 0.3094(8)
H1 H 0.63390 0.21960 0.31980
O1 O 0.7072(17) 0.6677(18) 0.3214(15)
O2 O 0.738(2) 0.5807(17) 0.3654(17)
O3 O 0.8235(16) 0.6836(15) 0.4455(15)
O4 O 0.7596(17) 0.7628(16) 0.2706(15)
O5 O 0.4319(3) 0.5699(3) 0.4854(2)
O6 O 0.2762(3) 0.7964(3) 0.4619(3)
O7 O 0.3784(4) 0.2649(3) 0.4465(3)
O8 O 0.5930(5) 0.2768(3) 0.7153(3)
O9 O -0.0707(4) 0.1227(4) 0.0816(3)
O10 O 0.2260(5) 0.1205(4) 0.0474(4)
O11 O 0.7941(9) 0.5018(10) 0.4528(6)
O12 O 1.0158(10) 0.7471(6) 0.7018(8)
O13 O 0.4548(16) 0.6468(10) 0.0980(15)
O14 O 0.4821(8) 0.3611(5) 0.0155(7)
O15 O -0.0835(9) 0.0924(7) 0.4010(9)
O16 O 0.2147(7) 0.0276(6) 0.5559(7)
N1 N 0.1214(11) -0.0828(9) 0.3381(10)
N2 N 0.4837(4) 0.0924(4) 0.4449(4)
N3 N 0.1544(5) -0.0267(5) 0.1153(4)
N4 N 0.5241(5) 0.4660(4) 0.7174(3)
N5 N 0.4855(4) 0.7570(3) 0.6747(3)
N6 N 0.8187(5) 0.6416(5) 0.7156(4)
N7 N 0.1661(3) 0.5920(4) 0.2883(3)
N8 N 0.0022(5) 0.2695(5) 0.0159(4)
N9 N 1.0066(6) 0.5824(6) 0.4589(5)
N10 N 0.2383(4) 0.4924(5) 0.0202(4)
N11 N 0.0417(11) 0.1904(7) 0.6222(9)
N12 N 0.7016(5) 0.5275(6) 0.1393(4)
C2 C 0.0606(5) 0.4248(5) 0.0135(4)
C3 C 0.0180(5) 0.4050(5) 0.0474(4)
C4 C 0.0312(4) 0.4567(5) 0.1187(4)
C5 C 0.0851(4) 0.5307(5) 0.1515(4)
C6 C 0.1290(4) 0.5505(5) 0.1178(4)
C7 C 0.1155(5) 0.4968(5) 0.0471(4)
C8 C 0.0507(6) 0.3646(6) -0.0601(4)
H2 H 0.04580 0.31470 -0.06000
H3 H 0.10140 0.37840 -0.06640
H4 H -0.00120 0.36240 -0.10090
C9 C -0.0453(5) 0.3256(5) 0.0085(4)
H5 H -0.08480 0.32600 0.03080
H6 H -0.08040 0.31170 -0.04450
C10 C -0.0084(5) 0.4314(5) 0.1585(4)
H7 H -0.06400 0.44290 0.14810
H8 H 0.03000 0.45830 0.21180
H9 H -0.01710 0.37630 0.14170
C11 C 0.0925(4) 0.5886(5) 0.2239(4)
H10 H 0.09900 0.63960 0.22490
H11 H 0.03870 0.57510 0.22700
C12 C 0.1909(5) 0.6274(5) 0.1560(4)
H12 H 0.16110 0.66240 0.14070
H13 H 0.23830 0.62410 0.14290
H14 H 0.21390 0.64650 0.20970
C13 C 0.1611(5) 0.5202(6) 0.0084(5)
H15 H 0.12160 0.49810 -0.04530
H16 H 0.17770 0.57640 0.02840
C14 C 0.3294(3) -0.0233(3) 0.2535(3)
C15 C 0.2443(3) -0.0656(3) 0.2043(2)
C16 C 0.1956(3) -0.1013(3) 0.2265(3)
C17 C 0.2320(3) -0.0947(3) 0.2979(3)
C18 C 0.3171(3) -0.0523(3) 0.3471(2)
C19 C 0.3658(3) -0.0166(3) 0.3249(3)
C20 C 0.1782(7) -0.1333(6) 0.3205(5)
H17 H 0.21530 -0.13920 0.36460
H18 H 0.14220 -0.18450 0.27990
C21 C 0.1003(6) -0.1441(6) 0.1761(6)
H19 H 0.07710 -0.12730 0.13750
H20 H 0.06860 -0.13350 0.20530
H21 H 0.09400 -0.19900 0.15320
C22 C 0.2069(7) -0.0784(5) 0.1246(5)
H22 H 0.25410 -0.06890 0.11210
H23 H 0.17140 -0.13190 0.09110
C23 C 0.3822(6) 0.0200(5) 0.2314(5)
H24 H 0.41990 -0.00930 0.21730
H25 H 0.41720 0.06990 0.27320
H26 H 0.34320 0.02720 0.18940
C24 C 0.4609(5) 0.0223(5) 0.3760(5)
H27 H 0.48800 -0.01500 0.39020
H28 H 0.48700 0.03560 0.34780
C25 C 0.3557(7) -0.0451(6) 0.4260(5)
H29 H 0.32400 -0.01890 0.45140
H30 H 0.41640 -0.01570 0.45310
H31 H 0.35120 -0.09600 0.42380
C26 C 0.6048(5) 0.5985(4) 0.7793(4)
C27 C 0.5568(5) 0.6478(4) 0.7626(3)
C28 C 0.5939(4) 0.7095(4) 0.7562(3)
C29 C 0.6767(4) 0.7186(4) 0.7610(3)
C30 C 0.7237(5) 0.6683(5) 0.7766(4)
C31 C 0.6887(5) 0.6086(5) 0.7849(4)
C32 C 0.5670(6) 0.5347(5) 0.7893(4)
H32 H 0.61300 0.52450 0.82580
H33 H 0.52470 0.54870 0.80790
C33 C 0.4657(5) 0.6362(5) 0.7531(5)
H34 H 0.43630 0.58150 0.72730
H35 H 0.43460 0.66130 0.72410
H36 H 0.46710 0.65820 0.80180
C34 C 0.5467(5) 0.7689(4) 0.7488(4)
H37 H 0.51490 0.77460 0.77830
H38 H 0.59070 0.81810 0.77220
C35 C 0.7114(5) 0.7816(5) 0.7489(5)
H39 H 0.66370 0.79150 0.71430
H40 H 0.75130 0.76700 0.72830
H41 H 0.74190 0.82770 0.79610
C36 C 0.8153(5) 0.6813(6) 0.7870(4)
H42 H 0.84200 0.73670 0.80860
H43 H 0.84910 0.66250 0.82210
C37 C 0.7406(6) 0.5531(6) 0.8003(5)
H44 H 0.77210 0.57040 0.85380
H45 H 0.78170 0.55130 0.78000
H46 H 0.70130 0.50210 0.77700
C38 C 0.9677(3) 0.5748(4) 0.3372(3)
C39 C 0.8951(3) 0.5284(3) 0.2706(3)
C40 C 0.8557(3) 0.5572(4) 0.2209(2)
C41 C 0.8891(4) 0.6323(4) 0.2379(3)
C42 C 0.9618(4) 0.6788(3) 0.3045(4)
C43 C 1.0011(3) 0.6500(3) 0.3541(3)
C44 C 0.8456(9) 0.6643(8) 0.1850(7)
H47 H 0.79790 0.62370 0.13990
H48 H 0.88740 0.68490 0.17260
H49 H 0.82340 0.70510 0.20830
C45 C 0.7818(5) 0.5074(7) 0.1448(5)
H50 H 0.79520 0.51380 0.10720
H51 H 0.77440 0.45320 0.13490
C46 C 0.8539(7) 0.4485(6) 0.2553(6)
H52 H 0.88060 0.41240 0.23180
H53 H 0.79200 0.43380 0.22220
H54 H 0.86270 0.44780 0.30190
C47 C 1.0158(7) 0.5452(7) 0.3907(6)
H55 H 0.99220 0.48920 0.36840
H56 H 1.07750 0.55650 0.40260
C48 C 1.0778(7) 0.7007(7) 0.4277(6)
H57 H 1.05940 0.71630 0.46650
H58 H 1.10310 0.74600 0.42600
H59 H 1.12080 0.67270 0.43840
C49 C 0.9942(12) 0.7642(8) 0.3288(8)
H60 H 1.05790 0.78070 0.35590
H61 H 0.97630 0.77370 0.28470
C50 C 0.4784(4) 0.7029(4) 0.6161(4)
H62 H 0.51380 0.66940 0.62000
C51 C 0.4161(4) 0.6920(4) 0.5428(4)
C52 C 0.3910(4) 0.6250(4) 0.4789(4)
C53 C 0.3258(4) 0.6150(4) 0.4123(4)
H63 H 0.30820 0.56840 0.36920
C54 C 0.2861(4) 0.6717(4) 0.4077(4)
C55 C 0.3153(4) 0.7413(4) 0.4712(4)
C56 C 0.3775(4) 0.7497(4) 0.5372(4)
H64 H 0.39470 0.79610 0.58040
C57 C 0.2120(4) 0.6577(5) 0.3380(4)
H65 H 0.19830 0.70040 0.33040
C58 C 0.4129(5) 0.5041(4) 0.4183(4)
H66 H 0.42030 0.52060 0.38350
H67 H 0.35320 0.47370 0.39620
H68 H 0.45210 0.47320 0.42950
C59 C 0.2975(6) 0.8638(5) 0.5271(5)
H69 H 0.26400 0.89800 0.51420
H70 H 0.35920 0.88940 0.55080
H71 H 0.28390 0.85050 0.56120
C60 C 0.5444(7) 0.4051(5) 0.7164(5)
H72 H 0.58150 0.40510 0.76150
C61 C 0.5118(6) 0.3356(5) 0.6475(4)
C62 C 0.4574(5) 0.3329(5) 0.5803(4)
H73 H 0.43760 0.37620 0.57980
C63 C 0.4311(5) 0.2686(5) 0.5136(4)
C64 C 0.4626(5) 0.2067(4) 0.5134(4)
C65 C 0.5171(5) 0.2081(5) 0.5803(4)
H74 H 0.53810 0.16520 0.58020
C66 C 0.5411(6) 0.2715(5) 0.6473(5)
C67 C 0.4395(5) 0.1369(5) 0.4450(4)
H75 H 0.38990 0.12670 0.40070
C68 C 0.3438(7) 0.3267(5) 0.4467(5)
H76 H 0.30680 0.31680 0.39570
H77 H 0.39080 0.37340 0.47080
H78 H 0.30960 0.33310 0.47370
C69 C 0.6282(9) 0.2122(6) 0.7145(6)
H79 H 0.65990 0.20420 0.68530
H80 H 0.58100 0.16630 0.69240
H81 H 0.66740 0.22270 0.76530
C70 C 0.1714(7) 0.0140(6) 0.0882(5)
H82 H 0.21750 0.01020 0.07570
C71 C 0.1219(6) 0.0680(6) 0.0751(5)
C72 C 0.1501(6) 0.1197(6) 0.0529(5)
C73 C 0.1016(6) 0.1699(6) 0.0398(4)
H83 H 0.11940 0.20510 0.02460
C74 C 0.0275(6) 0.1687(5) 0.0489(4)
C75 C 0.0022(6) 0.1181(6) 0.0725(5)
C76 C 0.0480(6) 0.0681(6) 0.0847(4)
H84 H 0.02940 0.03320 0.09980
C77 C -0.0194(6) 0.2267(6) 0.0392(5)
H85 H -0.06600 0.23070 0.05100
C78 C 0.2652(7) 0.1851(7) 0.0410(7)
H86 H 0.22570 0.18640 -0.00450
H87 H 0.31950 0.17920 0.03940
H88 H 0.27670 0.23280 0.08380
C79 C -0.0927(8) 0.0776(7) 0.1142(6)
H89 H -0.10240 0.02360 0.08290
H90 H -0.14520 0.08560 0.11830
H91 H -0.04530 0.09310 0.16350
C80 C 0.6338(5) 0.4742(7) 0.1035(5)
H92 H 0.63630 0.42290 0.08410
C81 C 0.4672(4) 0.5814(3) 0.1018(4)
C82 C 0.3916(3) 0.5221(4) 0.0615(3)
C83 C 0.3952(3) 0.4468(3) 0.0359(3)
H93 H 0.34360 0.40630 0.00840
C84 C 0.4744(4) 0.4309(3) 0.0506(3)
C85 C 0.5499(3) 0.4902(4) 0.0910(3)
C86 C 0.5463(3) 0.5654(4) 0.1166(3)
H94 H 0.59800 0.60590 0.14410
C87 C 0.3075(6) 0.5434(7) 0.0481(5)
H95 H 0.30700 0.59510 0.06080
C88 C 0.538(2) 0.704(2) 0.133(2)
H96 H 0.52720 0.75130 0.12920
H97 H 0.56960 0.71570 0.18490
H98 H 0.57190 0.68490 0.10710
C89 C 0.4013(11) 0.3002(11) -0.0343(12)
H99 H 0.36080 0.31680 -0.06760
H100 H 0.37620 0.28870 -0.00520
H101 H 0.41270 0.25450 -0.06340
C90 C 0.9454(7) 0.5470(7) 0.4605(6)
H102 H 0.90900 0.49950 0.41970
C91 C 0.8530(4) 0.5454(3) 0.5235(2)
C92 C 0.8375(3) 0.5747(4) 0.5845(3)
H103 H 0.78580 0.55180 0.58230
C93 C 0.8977(4) 0.6377(4) 0.6488(2)
C94 C 0.9734(4) 0.6713(4) 0.6521(3)
C95 C 0.9888(3) 0.6420(4) 0.5910(4)
H104 H 1.04050 0.66490 0.59330
C96 C 0.9286(4) 0.5790(4) 0.5267(3)
C97 C 0.8828(6) 0.6693(7) 0.7142(5)
H105 H 0.92470 0.71300 0.75690
C98 C 1.1015(17) 0.7745(16) 0.7083(15)
H106 H 1.09630 0.80240 0.67880
H107 H 1.12300 0.73080 0.69010
H108 H 1.14180 0.80830 0.76020
C99 C 0.7176(13) 0.4610(15) 0.4505(14)
H109 H 0.68440 0.41680 0.40200
H110 H 0.68150 0.49530 0.45880
H111 H 0.73580 0.44380 0.48910
C100 C 0.1381(13) -0.0486(7) 0.4025(11)
H112 H 0.18420 -0.06010 0.43420
C101 C 0.1023(7) 0.0079(5) 0.4435(7)
C102 C 0.0279(7) 0.0236(5) 0.4043(6)
H113 H 0.00000 -0.00140 0.35180
C103 C -0.0055(6) 0.0758(6) 0.4420(7)
C104 C 0.0354(9) 0.1123(6) 0.5189(7)
C105 C 0.1098(8) 0.0967(7) 0.5581(6)
H114 H 0.13770 0.12160 0.61060
C106 C 0.1432(6) 0.0444(6) 0.5204(7)
C107 C -0.0148(13) 0.1504(17) 0.5562(11)
H115 H -0.07490 0.14550 0.53520
C108 C -0.1289(18) 0.0552(12) 0.3199(11)
H116 H -0.10420 0.08460 0.30130
H117 H -0.19020 0.05280 0.30310
H118 H -0.12260 0.00340 0.30120
C109 C 0.2644(14) 0.0616(11) 0.6366(8)
H119 H 0.31380 0.04070 0.64980
H120 H 0.28510 0.11700 0.65640
H121 H 0.22770 0.04970 0.65740
O17 O 0.0963(18) 0.1762(16) 0.3491(17)
O18 O -0.1143(12) -0.1407(12) 0.1855(12)
C110 C -0.1131(14) -0.0875(14) 0.1553(15)
H122 H -0.10990 -0.11150 0.10820
H123 H -0.06280 -0.04220 0.19040
C111 C -0.1929(17) -0.0657(18) 0.143(2)
H124 H -0.21990 -0.06820 0.09300
H125 H -0.17980 -0.01230 0.17950
C112 C -0.2571(13) -0.1180(14) 0.1497(14)
H126 H -0.28270 -0.08890 0.18060
H127 H -0.30330 -0.15650 0.10100
C113 C -0.1957(15) -0.1508(17) 0.1861(17)
H128 H -0.18460 -0.12940 0.23840
H129 H -0.22290 -0.20620 0.16340
O19 O 0.384(2) 0.028(2) 0.0650(18)
O20 O 0.4297(14) 0.1020(13) -0.0036(12)
O21 O 0.3350(16) -0.0434(14) -0.0949(14)
O22 O 0.556(2) 0.166(2) -0.067(2)
O23 O 0.7793(11) 0.2283(10) 0.0749(10)
Cl4? Cl 0.7703(7) 0.2254(6) 0.3706(6)
Cl5? Cl 0.6356(6) 0.0844(6) 0.2708(5)
Cl6? Cl 0.6619(12) 0.1992(7) 0.2196(7)
C114? C 0.6691(11) 0.1813(9) 0.2940(8)
H130? H 0.62810 0.20550 0.31000
Cl7? Cl 0.6529(10) 0.5836(8) 0.3068(7)
Cl8? Cl 0.8190(9) 0.6476(8) 0.3952(9)
Cl9? Cl 0.7354(8) 0.7195(8) 0.3197(7)
O24? O 0.761(4) 0.713(3) 0.410(3)
C115? C 0.7423(11) 0.6287(10) 0.3079(11)
H131? H 0.75500 0.59910 0.26640
O25? O 0.482(3) 0.116(3) 0.749(3)
O26? O 0.412(3) 0.067(3) 0.728(3)
O27? O 0.3482(18) 0.0434(14) 0.6807(15)
O28? O 0.385(4) 0.089(4) 0.648(4)
O29? O 0.376(3) 0.114(2) 0.618(2)
O30? O 0.350(3) 0.139(2) 0.606(2)
O31? O 0.2202(19) 0.1342(17) 0.4199(16)
O32? O 1.0352(7) 0.7158(7) 0.7242(5)
O33? O 0.2051(13) 0.1051(11) 0.3340(12)
O34? O 0.8046(7) 0.4743(6) 0.4639(6)
O35? O 0.1677(18) 0.0881(14) 0.2788(15)
O36? O 0.100(2) 0.0675(17) 0.2701(16)
O37? O 0.4878(13) 0.3619(8) 0.0501(12)
O38? O 0.046(2) 0.110(2) 0.2943(19)
O39? O 0.096(3) 0.169(2) 0.292(3)
O40? O 0.4589(9) 0.6534(6) 0.1368(8)
O41? O 0.1447(8) 0.1041(12) 0.4147(8)
O42? O 0.0942(8) -0.0052(10) 0.5973(8)
N13? N 0.1674(11) -0.1034(10) 0.3874(7)
H132? H 0.11900 -0.15180 0.27930
H133? H 0.19730 -0.17950 0.31880
C116? C 0.5380(12) 0.7156(11) 0.1953(12)
H134? H 0.54040 0.75880 0.18340
H135? H 0.58880 0.69720 0.19800
H136? H 0.53720 0.73190 0.24300
C117? C 0.415(2) 0.2932(17) 0.015(2)
H137? H 0.36040 0.30660 -0.00110
H138? H 0.41960 0.27350 0.05080
H139? H 0.41660 0.25410 -0.02780
C118? C 1.1203(16) 0.7408(16) 0.7345(15)
H140? H 1.11700 0.74860 0.69210
H141? H 1.15070 0.70210 0.73870
H142? H 1.15160 0.78890 0.77970
C119? C 0.7321(11) 0.4269(11) 0.4608(11)
H143? H 0.69720 0.38640 0.41020
H144? H 0.69650 0.45860 0.47560
H145? H 0.75440 0.40400 0.49450
C120? C 0.166(2) -0.0354(13) 0.3954(15)
H146? H 0.17960 -0.01540 0.36640
C121? C 0.0949(7) 0.0935(8) 0.5601(7)
C122? C 0.1066(6) 0.0224(8) 0.5522(6)
C123? C 0.1305(8) -0.0195(7) 0.4992(7)
H147? H 0.13850 -0.06820 0.49380
C124? C 0.1427(8) 0.0098(7) 0.4541(7)
C125? C 0.1310(6) 0.0810(7) 0.4619(6)
C126? C 0.1071(7) 0.1228(7) 0.5150(7)
H148? H 0.09910 0.17150 0.52040
C127? C 0.0673(15) 0.1356(13) 0.6159(11)
H149? H 0.07030 0.11650 0.65040
C128? C 0.1403(14) 0.170(3) 0.404(2)
H150? H 0.15490 0.16530 0.36410
H151? H 0.08170 0.17520 0.39070
H152? H 0.18120 0.21450 0.44980
C129? C 0.1080(12) -0.0796(11) 0.5845(16)
H153? H 0.10380 -0.10520 0.53500
H154? H 0.06420 -0.11010 0.58820
H155? H 0.16540 -0.07390 0.62150
O43? O -0.1417(19) -0.1963(18) 0.1282(18)
O44? O 0.405(2) 0.055(2) -0.0283(14)
C130? C 0.4568(15) 0.0996(12) 0.0501(13)
H156? H 0.44760 0.15090 0.06690
H157? H 0.51890 0.10500 0.06440
C131? C 0.4265(16) 0.0561(11) 0.0806(10)
H158? H 0.39820 0.08620 0.10810
H159? H 0.47710 0.04960 0.11680
C132? C 0.3667(16) -0.0187(14) 0.0276(14)
H160? H 0.31750 -0.02960 0.03740
H161? H 0.39520 -0.06020 0.02370
C133? C 0.342(2) -0.002(2) -0.0369(15)
H162? H 0.33050 -0.04960 -0.08090
H163? H 0.28850 0.01350 -0.04630
O45? O 0.6391(8) 0.2603(7) 0.0835(8)
O46? O 0.618(2) 0.2408(18) 0.032(2)
O47? O 0.7359(18) 0.2954(16) 0.0259(18)
O48? O 0.6965(15) 0.2588(14) -0.0306(16)
O49? O 0.6874(10) 0.2219(10) -0.0858(11)
O50? O 0.612(3) 0.254(2) -0.025(2)
O51? O -0.209(2) -0.024(2) 0.199(2)
O5A O 0.5681(3) 0.4301(3) 0.5146(2)
O6A O 0.7238(3) 0.2036(3) 0.5381(3)
O7A O 0.6216(4) 0.7351(3) 0.5535(3)
O8A O 0.4070(5) 0.7232(3) 0.2847(3)
O9A O 1.0707(4) 0.8773(4) 0.9184(3)
O10A O 0.7740(5) 0.8795(4) 0.9526(4)
O11A O 0.2059(9) 0.4982(10) 0.5472(6)
O12A O -0.0158(10) 0.2529(6) 0.2982(8)
O13A O 0.5452(16) 0.3532(10) 0.9020(15)
O14A O 0.5179(8) 0.6389(5) 0.9845(7)
O15A O 1.0835(9) 0.9076(7) 0.5990(9)
O16A O 0.7853(7) 0.9724(6) 0.4441(7)
N1A N 0.8786(11) 1.0828(9) 0.6619(10)
N2A N 0.5163(4) 0.9076(4) 0.5551(4)
N3A N 0.8456(5) 1.0267(5) 0.8847(4)
N4A N 0.4759(5) 0.5340(4) 0.2826(3)
N5A N 0.5145(4) 0.2430(3) 0.3253(3)
N6A N 0.1813(5) 0.3584(5) 0.2844(4)
N7A N 0.8339(3) 0.4080(4) 0.7117(3)
N8A N 0.9978(5) 0.7305(5) 0.9841(4)
N9A N -0.0066(6) 0.4176(6) 0.5411(5)
N10A N 0.7617(4) 0.5076(5) 0.9798(4)
N11A N 0.9583(11) 0.8096(7) 0.3778(9)
N12A N 0.2984(5) 0.4725(6) 0.8607(4)
C2A C 0.9394(5) 0.5752(5) 0.9865(4)
C3A C 0.9820(5) 0.5950(5) 0.9526(4)
C4A C 0.9688(4) 0.5433(5) 0.8813(4)
C5A C 0.9149(4) 0.4693(5) 0.8485(4)
C6A C 0.8710(4) 0.4495(5) 0.8822(4)
C7A C 0.8845(5) 0.5032(5) 0.9529(4)
C8A C 0.9493(6) 0.6354(6) 1.0601(4)
H2A H 0.95420 0.68530 1.06000
H3A H 0.89860 0.62160 1.06640
H4A H 1.00120 0.63760 1.10090
C9A C 1.0453(5) 0.6744(5) 0.9915(4)
H5A H 1.08480 0.67400 0.96920
H6A H 1.08040 0.68830 1.04450
C10A C 1.0084(5) 0.5686(5) 0.8415(4)
H7A H 1.06400 0.55710 0.85190
H8A H 0.97000 0.54170 0.78820
H9A H 1.01710 0.62370 0.85830
C11A C 0.9075(4) 0.4114(5) 0.7761(4)
H10A H 0.90100 0.36040 0.77510
H11A H 0.96130 0.42490 0.77300
C12A C 0.8091(5) 0.3726(5) 0.8440(4)
H12A H 0.83890 0.33760 0.85930
H13A H 0.76170 0.37590 0.85710
H14A H 0.78610 0.35350 0.79030
C13A C 0.8389(5) 0.4798(6) 0.9916(5)
H15A H 0.87840 0.50190 1.04530
H16A H 0.82230 0.42360 0.97160
C14A C 0.6706(3) 1.0233(3) 0.7465(3)
C15A C 0.7557(3) 1.0656(3) 0.7957(2)
C16A C 0.8044(3) 1.1013(3) 0.7735(3)
C17A C 0.7680(3) 1.0947(3) 0.7021(3)
C18A C 0.6829(3) 1.0523(3) 0.6529(2)
C19A C 0.6342(3) 1.0166(3) 0.6751(3)
C20A C 0.8218(7) 1.1333(6) 0.6795(5)
H17A H 0.78470 1.13920 0.63540
H18A H 0.85780 1.18450 0.72010
C21A C 0.8997(6) 1.1441(6) 0.8239(6)
H19A H 0.92290 1.12730 0.86250
H20A H 0.93140 1.13350 0.79470
H21A H 0.90600 1.19900 0.84680
C22A C 0.7931(7) 1.0784(5) 0.8754(5)
H22A H 0.74590 1.06890 0.88790
H23A H 0.82860 1.13190 0.90890
C23A C 0.6178(6) 0.9800(5) 0.7686(5)
H24A H 0.58010 1.00930 0.78270
H25A H 0.58280 0.93010 0.72680
H26A H 0.65680 0.97280 0.81060
C24A C 0.5391(5) 0.9777(5) 0.6240(5)
H27A H 0.51200 1.01500 0.60980
H28A H 0.51300 0.96440 0.65220
C25A C 0.6443(7) 1.0451(6) 0.5740(5)
H29A H 0.67600 1.01890 0.54860
H30A H 0.58360 1.01570 0.54690
H31A H 0.64880 1.09600 0.57620
C26A C 0.3952(5) 0.4015(4) 0.2207(4)
C27A C 0.4432(5) 0.3522(4) 0.2374(3)
C28A C 0.4061(4) 0.2905(4) 0.2438(3)
C29A C 0.3233(4) 0.2814(4) 0.2390(3)
C30A C 0.2763(5) 0.3317(5) 0.2234(4)
C31A C 0.3113(5) 0.3914(5) 0.2151(4)
C32A C 0.4330(6) 0.4653(5) 0.2107(4)
H32A H 0.38700 0.47550 0.17420
H33A H 0.47530 0.45130 0.19210
C33A C 0.5343(5) 0.3638(5) 0.2469(5)
H34A H 0.56370 0.41850 0.27270
H35A H 0.56540 0.33870 0.27590
H36A H 0.53290 0.34180 0.19820
C34A C 0.4533(5) 0.2311(4) 0.2512(4)
H37A H 0.48510 0.22540 0.22170
H38A H 0.40930 0.18190 0.22780
C35A C 0.2886(5) 0.2184(5) 0.2511(5)
H39A H 0.33630 0.20850 0.28570
H40A H 0.24870 0.23300 0.27170
H41A H 0.25810 0.17230 0.20390
C36A C 0.1847(5) 0.3187(6) 0.2130(4)
H42A H 0.15800 0.26330 0.19140
H43A H 0.15090 0.33750 0.17790
C37A C 0.2594(6) 0.4469(6) 0.1997(5)
H44A H 0.22790 0.42960 0.14620
H45A H 0.21830 0.44870 0.22000
H46A H 0.29870 0.49790 0.22300
C38A C 0.0323(3) 0.4252(4) 0.6628(3)
C39A C 0.1049(3) 0.4716(3) 0.7294(3)
C40A C 0.1443(3) 0.4428(4) 0.7791(2)
C41A C 0.1109(4) 0.3677(4) 0.7621(3)
C42A C 0.0382(4) 0.3212(3) 0.6955(4)
C43A C -0.0011(3) 0.3500(3) 0.6459(3)
C44A C 0.1544(9) 0.3357(8) 0.8150(7)
H47A H 0.20210 0.37630 0.86010
H48A H 0.11260 0.31510 0.82740
H49A H 0.17660 0.29490 0.79170
C45A C 0.2182(5) 0.4926(7) 0.8552(5)
H50A H 0.20480 0.48620 0.89280
H51A H 0.22560 0.54680 0.86510
C46A C 0.1461(7) 0.5515(6) 0.7447(6)
H52A H 0.11940 0.58760 0.76820
H53A H 0.20800 0.56620 0.77780
H54A H 0.13730 0.55220 0.69810
C47A C -0.0158(7) 0.4548(7) 0.6093(6)
H55A H 0.00780 0.51080 0.63160
H56A H -0.07750 0.44350 0.59740
C48A C -0.0778(7) 0.2993(7) 0.5723(6)
H57A H -0.05940 0.28370 0.53350
H58A H -0.10310 0.25400 0.57400
H59A H -0.12080 0.32730 0.56160
C49A C 0.0058(12) 0.2358(8) 0.6712(8)
H60A H -0.05790 0.21930 0.64410
H61A H 0.02370 0.22630 0.71530
C50A C 0.5216(4) 0.2971(4) 0.3839(4)
H62A H 0.48620 0.33060 0.38000
C51A C 0.5839(4) 0.3080(4) 0.4572(4)
C52A C 0.6090(4) 0.3750(4) 0.5211(4)
C53A C 0.6742(4) 0.3850(4) 0.5877(4)
H63A H 0.69180 0.43160 0.63080
C54A C 0.7139(4) 0.3283(4) 0.5923(4)
C55A C 0.6847(4) 0.2587(4) 0.5288(4)
C56A C 0.6225(4) 0.2503(4) 0.4628(4)
H64A H 0.60530 0.20390 0.41960
C57A C 0.7880(4) 0.3423(5) 0.6620(4)
H65A H 0.80170 0.29960 0.66960
C58A C 0.5871(5) 0.4959(4) 0.5817(4)
H66A H 0.57970 0.47940 0.61650
H67A H 0.64680 0.52630 0.60380
H68A H 0.54790 0.52680 0.57050
C59A C 0.7025(6) 0.1362(5) 0.4729(5)
H69A H 0.73600 0.10200 0.48580
H70A H 0.64080 0.11060 0.44920
H71A H 0.71610 0.14950 0.43880
C60A C 0.4556(7) 0.5949(5) 0.2836(5)
H72A H 0.41850 0.59490 0.23850
C61A C 0.4882(6) 0.6644(5) 0.3525(4)
C62A C 0.5426(5) 0.6671(5) 0.4197(4)
H73A H 0.56240 0.62380 0.42020
C63A C 0.5689(5) 0.7314(5) 0.4864(4)
C64A C 0.5374(5) 0.7933(4) 0.4866(4)
C65A C 0.4829(5) 0.7919(5) 0.4197(4)
H74A H 0.46190 0.83480 0.41980
C66A C 0.4589(6) 0.7285(5) 0.3527(5)
C67A C 0.5605(5) 0.8631(5) 0.5550(4)
H75A H 0.61010 0.87330 0.59930
C68A C 0.6562(7) 0.6733(5) 0.5533(5)
H76A H 0.69320 0.68320 0.60430
H77A H 0.60920 0.62660 0.52920
H78A H 0.69040 0.66690 0.52630
C69A C 0.3718(9) 0.7878(6) 0.2855(6)
H79A H 0.34010 0.79580 0.31470
H80A H 0.41900 0.83370 0.30760
H81A H 0.33260 0.77730 0.23470
C70A C 0.8286(7) 0.9860(6) 0.9118(5)
H82A H 0.78250 0.98980 0.92430
C71A C 0.8781(6) 0.9320(6) 0.9249(5)
C72A C 0.8499(6) 0.8803(6) 0.9471(5)
C73A C 0.8984(6) 0.8301(6) 0.9602(4)
H83A H 0.88060 0.79490 0.97540
C74A C 0.9725(6) 0.8313(5) 0.9511(4)
C75A C 0.9978(6) 0.8819(6) 0.9275(5)
C76A C 0.9520(6) 0.9319(6) 0.9153(4)
H84A H 0.97060 0.96680 0.90020
C77A C 1.0194(6) 0.7733(6) 0.9608(5)
H85A H 1.06600 0.76930 0.94900
C78A C 0.7348(7) 0.8149(7) 0.9590(7)
H86A H 0.77430 0.81360 1.00450
H87A H 0.68050 0.82080 0.96060
H88A H 0.72330 0.76720 0.91620
C79A C 1.0927(8) 0.9224(7) 0.8858(6)
H89A H 1.10240 0.97640 0.91710
H90A H 1.14520 0.91440 0.88170
H91A H 1.04530 0.90690 0.83650
C80A C 0.3662(5) 0.5258(7) 0.8965(5)
H92A H 0.36370 0.57710 0.91590
C81A C 0.5328(4) 0.4186(3) 0.8982(4)
C82A C 0.6084(3) 0.4779(4) 0.9385(3)
C83A C 0.6048(3) 0.5532(3) 0.9641(3)
H93A H 0.65640 0.59370 0.99160
C84A C 0.5256(4) 0.5691(3) 0.9494(3)
C85A C 0.4501(3) 0.5098(4) 0.9090(3)
C86A C 0.4537(3) 0.4346(4) 0.8834(3)
H94A H 0.40200 0.39410 0.85590
C87A C 0.6925(6) 0.4566(7) 0.9519(5)
H95A H 0.69300 0.40490 0.93920
C88A C 0.462(2) 0.296(2) 0.867(2)
H96A H 0.47280 0.24870 0.87080
H97A H 0.43040 0.28430 0.81510
H98A H 0.42810 0.31510 0.89290
C89A C 0.5987(11) 0.6998(11) 1.0343(12)
H99A H 0.63920 0.68320 1.06760
H100A H 0.62380 0.71130 1.00520
H101A H 0.58730 0.74550 1.06340
C90A C 0.0546(7) 0.4530(7) 0.5395(6)
H102A H 0.09100 0.50050 0.58030
C91A C 0.1470(4) 0.4546(3) 0.4765(2)
C92A C 0.1625(3) 0.4253(4) 0.4155(3)
H103A H 0.21420 0.44820 0.41770
C93A C 0.1023(4) 0.3623(4) 0.3512(2)
C94A C 0.0266(4) 0.3287(4) 0.3479(3)
C95A C 0.0112(3) 0.3580(4) 0.4090(4)
H104A H -0.04050 0.33510 0.40670
C96A C 0.0714(4) 0.4210(4) 0.4733(3)
C97A C 0.1172(6) 0.3307(7) 0.2858(5)
H105A H 0.07530 0.28700 0.24310
C98A C -0.1015(17) 0.2255(16) 0.2917(15)
H106A H -0.09630 0.19760 0.32120
H107A H -0.12300 0.26920 0.30990
H108A H -0.14180 0.19170 0.23980
C99A C 0.2824(13) 0.5390(15) 0.5495(14)
H109A H 0.31560 0.58320 0.59800
H110A H 0.31850 0.50470 0.54120
H111A H 0.26420 0.55620 0.51090
C100A C 0.8619(13) 1.0486(7) 0.5975(11)
H112A H 0.81580 1.06010 0.56580
C101A C 0.8977(7) 0.9921(5) 0.5565(7)
C102A C 0.9721(7) 0.9764(5) 0.5957(6)
H113A H 1.00000 1.00140 0.64820
C103A C 1.0055(6) 0.9242(6) 0.5580(7)
C104A C 0.9646(9) 0.8877(6) 0.4811(7)
C105A C 0.8902(8) 0.9033(7) 0.4419(6)
H114A H 0.86230 0.87840 0.38940
C106A C 0.8568(6) 0.9556(6) 0.4796(7)
C107A C 1.0148(13) 0.8496(17) 0.4438(11)
H115A H 1.07490 0.85450 0.46480
C108A C 1.1289(18) 0.9448(12) 0.6801(11)
H116A H 1.10420 0.91540 0.69870
H117A H 1.19020 0.94720 0.69690
H118A H 1.12260 0.99660 0.69880
C109A C 0.7356(14) 0.9384(11) 0.3634(8)
H119A H 0.68620 0.95930 0.35020
H120A H 0.71490 0.88300 0.34360
H121A H 0.77230 0.95030 0.34260
#END
