
#######################################################################
#
#                 Cambridge Crystallographic Data Centre
#                                CCDC
#
#######################################################################
#
# If this CIF has been generated from an entry in the Cambridge
# Structural Database, then it will include bibliographic, chemical,
# crystal, experimental, refinement or atomic coordinate data resulting
# from the CCDC's data processing and validation procedures.
#
#######################################################################

data_CSD_CIF_PIFVAE
_audit_creation_date 2018-07-24
_audit_creation_method CSD-ConQuest-V1
_database_code_CSD PIFVAE
_database_code_depnum_ccdc_archive 'CCDC 1827869'
_chemical_formula_sum 'C96 H98.32 N12 O1.16'
_chemical_formula_moiety
;
C96 H96 N12,1.16(H2 O1)
;
_journal_coden_Cambridge 1490
_journal_volume 9
_journal_year 2018
_journal_page_first 2849
_journal_name_full 'Nat.Commun. '
loop_
_publ_author_name
"R.L.Greenaway"
"V.Santolini"
"M.J.Bennison"
"B.M.Alston"
"C.J.Pugh"
"M.A.Little"
"M.Miklitz"
"E.G.B.Eden-Rump"
"R.Clowes"
"A.Shakil"
"H.J.Cuthbertson"
"H.Armstrong"
"M.E.Briggs"
"K.E.Jelfs"
"A.I.Cooper"
_chemical_name_systematic
;
2,15,17,30,32,45,47,60,73,76,89,92-dodecamethyl-5,12,20,27,35,42,50,57,62,69,7
8,85-dodecaazatridecacyclo[29.29.10.10^16,46^.2^7,10^.2^22,25^.2^37,40^.2^52,5
5^.2^64,67^.2^80,83^.1^3,59^.1^14,18^.1^29,33^.1^44,48^]hexanonaconta-1,3(73),
5,7,9,11,14(92),15,17,20,22,24,26,29(89),30,32,35,37,39,41,44(76),45,47,50,52,
54,56,59,62,64,66,68,71,74,78,80,82,84,87,90,93,95-dotetracontaene hydrate
;
_cell_volume   4653.314
_exptl_crystal_colour 'colorless'
_exptl_crystal_density_diffrn 1.027
_exptl_crystal_description 'needle'
_diffrn_ambient_temperature 100
#These two values have been output from a single CSD field.
_refine_ls_R_factor_gt 0.0889
_refine_ls_wR_factor_gt 0.0889
_symmetry_cell_setting hexagonal
_symmetry_space_group_name_H-M 'P -3'
_symmetry_Int_Tables_number 147
loop_
_symmetry_equiv_pos_site_id
_symmetry_equiv_pos_as_xyz
1 x,y,z
2 -y,x-y,z
3 -x+y,-x,z
4 -x,-y,-z
5 y,-x+y,-z
6 x-y,x,-z
_cell_length_a 19.5104(10)
_cell_length_b 19.5104(10)
_cell_length_c 14.1156(8)
_cell_angle_alpha 90
_cell_angle_beta 90
_cell_angle_gamma 120
_cell_formula_units_Z 2
loop_
_atom_type_symbol
_atom_type_radius_bond
C 0.68
H 0.23
N 0.68
O 0.68
loop_
_atom_site_label
_atom_site_type_symbol
_atom_site_fract_x
_atom_site_fract_y
_atom_site_fract_z
O1 O 0.6619(13) 0.1493(14) 0.662(3)
N1 N 1.0366(3) 0.5430(3) 0.7322(4)
N2 N 0.8642(3) 0.1176(3) 0.8455(4)
N3 N 1.0139(3) 0.7676(3) 0.4263(3)
N4 N 0.7896(3) 0.5536(3) 0.0320(4)
C1 C 1.0732(3) 0.7106(4) 0.6240(4)
C2 C 1.0621(3) 0.6800(3) 0.7166(4)
C3 C 1.0250(3) 0.7037(3) 0.7841(4)
C4 C 1.0034(3) 0.7591(4) 0.7617(4)
C5 C 1.0153(3) 0.7908(3) 0.6683(4)
C6 C 1.0517(3) 0.7660(4) 0.6009(4)
C7 C 1.1084(4) 0.6806(4) 0.5507(4)
H1 H 1.09120 0.68610 0.48740
H2 H 1.09060 0.62470 0.56300
H3 H 1.16630 0.71140 0.55440
C8 C 1.0942(3) 0.6281(3) 0.7451(4)
H4 H 1.14210 0.64210 0.70720
H5 H 1.11020 0.63800 0.81260
C9 C 1.0083(4) 0.6662(4) 0.8829(4)
H6 H 0.99780 0.61170 0.87800
H7 H 0.96210 0.66620 0.91010
H8 H 1.05440 0.69680 0.92370
C10 C 0.9903(4) 0.8502(4) 0.6447(5)
H9 H 1.03060 0.90260 0.66720
H10 H 0.93970 0.83490 0.67560
H11 H 0.98440 0.85180 0.57590
C11 C 1.0712(4) 0.8050(4) 0.5039(4)
H12 H 1.08060 0.85950 0.51180
H13 H 1.12190 0.80980 0.48320
C12 C 1.0325(4) 0.4988(4) 0.7977(5)
H14 H 1.06430 0.52250 0.85220
C13 C 0.9815(3) 0.4113(3) 0.7969(4)
C14 C 0.9889(4) 0.3677(4) 0.8677(4)
H15 H 1.02400 0.39410 0.91890
C15 C 0.9463(3) 0.2863(4) 0.8664(4)
H16 H 0.95230 0.25720 0.91660
C16 C 0.8947(3) 0.2463(4) 0.7926(4)
C17 C 0.8850(4) 0.2905(4) 0.7228(4)
H17 H 0.84780 0.26400 0.67350
C18 C 0.9279(4) 0.3719(4) 0.7230(4)
H18 H 0.92120 0.40120 0.67360
C19 C 0.8518(3) 0.1596(4) 0.7888(4)
H19 H 0.81260 0.13410 0.74120
C20 C 0.8196(4) 0.0316(4) 0.8357(4)
H20 H 0.79510 0.00900 0.89770
H21 H 0.85790 0.01360 0.82210
C21 C 0.9601(4) 0.6966(4) 0.4338(4)
H22 H 0.95330 0.67010 0.49250
C22 C 0.9069(3) 0.6531(4) 0.3538(4)
C23 C 0.9052(4) 0.6925(4) 0.2734(4)
H23 H 0.93410 0.74860 0.27140
C24 C 0.8606(3) 0.6495(4) 0.1947(4)
H24 H 0.85930 0.67650 0.13940
C25 C 0.8188(3) 0.5680(4) 0.1977(4)
C26 C 0.8170(3) 0.5281(4) 0.2800(4)
H25 H 0.78610 0.47210 0.28300
C27 C 0.8611(4) 0.5715(4) 0.3581(4)
H26 H 0.85960 0.54470 0.41490
C28 C 0.7794(3) 0.5212(4) 0.1100(4)
H27 H 0.74590 0.46550 0.11460
C29 C 0.7552(4) 0.5060(3) -0.0533(4)
H28 H 0.79890 0.52010 -0.09880
H29 H 0.71960 0.52270 -0.08190
C30 C 0.7088(3) 0.4159(3) -0.0452(3)
C31 C 0.7492(3) 0.3736(3) -0.0438(3)
C32 C 0.8391(3) 0.4176(4) -0.0427(4)
H30 H 0.85890 0.42510 -0.10790
H31 H 0.85760 0.38680 -0.00710
H32 H 0.85880 0.46930 -0.01250
N1A N 0.4570(3) 0.4936(3) 0.7322(4)
N2A N 0.8824(3) 0.7466(3) 0.8455(4)
N3A N 0.2324(3) 0.2463(3) 0.4263(3)
N4A N 0.4464(3) 0.2360(3) 0.0320(4)
C1A C 0.2894(3) 0.3626(4) 0.6240(4)
C2A C 0.3200(3) 0.3821(3) 0.7166(4)
C3A C 0.2963(3) 0.3213(3) 0.7841(4)
C4A C 0.2409(3) 0.2443(4) 0.7617(4)
C5A C 0.2092(3) 0.2245(3) 0.6683(4)
C6A C 0.2340(3) 0.2857(4) 0.6009(4)
C7A C 0.3194(4) 0.4278(4) 0.5507(4)
H1A H 0.31390 0.40510 0.48740
H2A H 0.37530 0.46590 0.56300
H3A H 0.28860 0.45490 0.55440
C8A C 0.3719(3) 0.4661(3) 0.7451(4)
H4A H 0.35790 0.50000 0.70720
H5A H 0.36200 0.47220 0.81260
C9A C 0.3338(4) 0.3421(4) 0.8829(4)
H6A H 0.38830 0.38610 0.87800
H7A H 0.33380 0.29590 0.91010
H8A H 0.30320 0.35760 0.92370
C10A C 0.1498(4) 0.1401(4) 0.6447(5)
H9A H 0.09740 0.12800 0.66720
H10A H 0.16510 0.10480 0.67560
H11A H 0.14820 0.13260 0.57590
C11A C 0.1950(4) 0.2662(4) 0.5039(4)
H12A H 0.14050 0.22110 0.51180
H13A H 0.19020 0.31210 0.48320
C12A C 0.5012(4) 0.5337(4) 0.7977(5)
H14A H 0.47750 0.54180 0.85220
C13A C 0.5887(3) 0.5702(3) 0.7969(4)
C14A C 0.6323(4) 0.6212(4) 0.8677(4)
H15A H 0.60590 0.62990 0.91890
C15A C 0.7137(3) 0.6600(4) 0.8664(4)
H16A H 0.74280 0.69510 0.91660
C16A C 0.7537(3) 0.6484(4) 0.7926(4)
C17A C 0.7095(4) 0.5945(4) 0.7228(4)
H17A H 0.73600 0.58380 0.67350
C18A C 0.6281(4) 0.5560(4) 0.7230(4)
H18A H 0.59880 0.52000 0.67360
C19A C 0.8404(3) 0.6922(4) 0.7888(4)
H19A H 0.86590 0.67850 0.74120
C20A C 0.9684(4) 0.7880(4) 0.8357(4)
H20A H 0.99100 0.78610 0.89770
H21A H 0.98640 0.84430 0.82210
C21A C 0.3034(4) 0.2635(4) 0.4338(4)
H22A H 0.32990 0.28320 0.49250
C22A C 0.3469(3) 0.2538(4) 0.3538(4)
C23A C 0.3075(4) 0.2127(4) 0.2734(4)
H23A H 0.25140 0.18550 0.27140
C24A C 0.3505(3) 0.2111(4) 0.1947(4)
H24A H 0.32350 0.18280 0.13940
C25A C 0.4320(3) 0.2508(4) 0.1977(4)
C26A C 0.4719(3) 0.2889(4) 0.2800(4)
H25A H 0.52790 0.31400 0.28300
C27A C 0.4285(4) 0.2896(4) 0.3581(4)
H26A H 0.45530 0.31490 0.41490
C28A C 0.4788(3) 0.2582(4) 0.1100(4)
H27A H 0.53450 0.28040 0.11460
C29A C 0.4940(4) 0.2492(3) -0.0533(4)
H28A H 0.47990 0.27880 -0.09880
H29A H 0.47730 0.19690 -0.08190
C30A C 0.5841(3) 0.2929(3) -0.0452(3)
C31A C 0.6264(3) 0.3756(3) -0.0438(3)
C32A C 0.5824(3) 0.4215(4) -0.0427(4)
H30A H 0.57490 0.43380 -0.10790
H31A H 0.61320 0.47080 -0.00710
H32A H 0.53070 0.38950 -0.01250
N1B N 0.5064(3) -0.0366(3) 0.7322(4)
N2B N 0.2534(3) 0.1358(3) 0.8455(4)
N3B N 0.7537(3) -0.0139(3) 0.4263(3)
N4B N 0.7640(3) 0.2104(3) 0.0320(4)
C1B C 0.6374(3) -0.0732(4) 0.6240(4)
C2B C 0.6179(3) -0.0621(3) 0.7166(4)
C3B C 0.6787(3) -0.0250(3) 0.7841(4)
C4B C 0.7557(3) -0.0034(4) 0.7617(4)
C5B C 0.7755(3) -0.0153(3) 0.6683(4)
C6B C 0.7143(3) -0.0517(4) 0.6009(4)
C7B C 0.5722(4) -0.1084(4) 0.5507(4)
H1B H 0.59490 -0.09120 0.48740
H2B H 0.53410 -0.09060 0.56300
H3B H 0.54510 -0.16630 0.55440
C8B C 0.5339(3) -0.0942(3) 0.7451(4)
H4B H 0.50000 -0.14210 0.70720
H5B H 0.52780 -0.11020 0.81260
C9B C 0.6579(4) -0.0083(4) 0.8829(4)
H6B H 0.61390 0.00220 0.87800
H7B H 0.70410 0.03790 0.91010
H8B H 0.64240 -0.05440 0.92370
C10B C 0.8599(4) 0.0097(4) 0.6447(5)
H9B H 0.87200 -0.03060 0.66720
H10B H 0.89520 0.06030 0.67560
H11B H 0.86740 0.01560 0.57590
C11B C 0.7338(4) -0.0712(4) 0.5039(4)
H12B H 0.77890 -0.08060 0.51180
H13B H 0.68790 -0.12190 0.48320
C12B C 0.4663(4) -0.0325(4) 0.7977(5)
H14B H 0.45820 -0.06430 0.85220
C13B C 0.4298(3) 0.0185(3) 0.7969(4)
C14B C 0.3788(4) 0.0111(4) 0.8677(4)
H15B H 0.37010 -0.02400 0.91890
C15B C 0.3400(3) 0.0537(4) 0.8664(4)
H16B H 0.30490 0.04770 0.91660
C16B C 0.3516(3) 0.1053(4) 0.7926(4)
C17B C 0.4055(4) 0.1150(4) 0.7228(4)
H17B H 0.41620 0.15220 0.67350
C18B C 0.4440(4) 0.0721(4) 0.7230(4)
H18B H 0.48000 0.07880 0.67360
C19B C 0.3078(3) 0.1482(4) 0.7888(4)
H19B H 0.32150 0.18740 0.74120
C20B C 0.2120(4) 0.1804(4) 0.8357(4)
H20B H 0.21390 0.20490 0.89770
H21B H 0.15570 0.14210 0.82210
C21B C 0.7365(4) 0.0399(4) 0.4338(4)
H22B H 0.71680 0.04670 0.49250
C22B C 0.7462(3) 0.0931(4) 0.3538(4)
C23B C 0.7873(4) 0.0948(4) 0.2734(4)
H23B H 0.81450 0.06590 0.27140
C24B C 0.7889(3) 0.1394(4) 0.1947(4)
H24B H 0.81720 0.14070 0.13940
C25B C 0.7492(3) 0.1812(4) 0.1977(4)
C26B C 0.7111(3) 0.1830(4) 0.2800(4)
H25B H 0.68600 0.21390 0.28300
C27B C 0.7104(4) 0.1389(4) 0.3581(4)
H26B H 0.68510 0.14040 0.41490
C28B C 0.7418(3) 0.2206(4) 0.1100(4)
H27B H 0.71960 0.25410 0.11460
C29B C 0.7508(4) 0.2448(3) -0.0533(4)
H28B H 0.72120 0.20110 -0.09880
H29B H 0.80310 0.28040 -0.08190
C30B C 0.7071(3) 0.2912(3) -0.0452(3)
C31B C 0.6244(3) 0.2508(3) -0.0438(3)
C32B C 0.5785(3) 0.1609(4) -0.0427(4)
H30B H 0.56620 0.14110 -0.10790
H31B H 0.52920 0.14240 -0.00710
H32B H 0.61050 0.14120 -0.01250
#END
