
#######################################################################
#
#                 Cambridge Crystallographic Data Centre
#                                CCDC
#
#######################################################################
#
# If this CIF has been generated from an entry in the Cambridge
# Structural Database, then it will include bibliographic, chemical,
# crystal, experimental, refinement or atomic coordinate data resulting
# from the CCDC's data processing and validation procedures.
#
#######################################################################

data_CSD_CIF_PIFWAF
_audit_creation_date 2018-07-24
_audit_creation_method CSD-ConQuest-V1
_database_code_CSD PIFWAF
_database_code_depnum_ccdc_archive 'CCDC 1827874'
_chemical_formula_sum 'C166.8 H199.5 Cl15.5 N16 O0.5'
_chemical_formula_moiety
;
C132 H120 N16,7.75(C1 H2 Cl2),0.5(H2 O1),4.5(C6 H14)
;
_journal_coden_Cambridge 1490
_journal_volume 9
_journal_year 2018
_journal_page_first 2849
_journal_name_full 'Nat.Commun. '
loop_
_publ_author_name
"R.L.Greenaway"
"V.Santolini"
"M.J.Bennison"
"B.M.Alston"
"C.J.Pugh"
"M.A.Little"
"M.Miklitz"
"E.G.B.Eden-Rump"
"R.Clowes"
"A.Shakil"
"H.J.Cuthbertson"
"H.Armstrong"
"M.E.Briggs"
"K.E.Jelfs"
"A.I.Cooper"
_chemical_name_systematic
;
2,10,12,20,22,30,32,40,41,48,49,53(1,4)-dodecabenzena-1,4,8,11,14,18,21,24,28,
31,34,38,43,46,51,55-hexadecaaza-6,16,26,36(1,3,5)-tetrakis(2,4,6-trimethylben
zena)pentacyclo[24.14.4.4^6,21^.4^11,36^.4^16,31^]hexapentacontaphane-3,8,13,1
8,23,28,33,38,42,46,50,54-dodecaene dichloromethane hexane solvate 
;
_cell_volume   8073.223
_exptl_crystal_colour 'colorless'
_exptl_crystal_density_diffrn 1.228
_exptl_crystal_description 'block'
_diffrn_ambient_temperature 100
_refine_special_details
;
The structure is disordered. Disordered solvent molecules were not modelled 
and the disordered density was taken into account using the SQUEEZE/PLATON 
procedure.
;
#These two values have been output from a single CSD field.
_refine_ls_R_factor_gt 0.0772
_refine_ls_wR_factor_gt 0.0772
_symmetry_cell_setting triclinic
_symmetry_space_group_name_H-M 'P -1'
_symmetry_Int_Tables_number 2
loop_
_symmetry_equiv_pos_site_id
_symmetry_equiv_pos_as_xyz
1 x,y,z
2 -x,-y,-z
_cell_length_a 15.989(4)
_cell_length_b 17.472(5)
_cell_length_c 31.697(8)
_cell_angle_alpha 94.735(3)
_cell_angle_beta 102.180(3)
_cell_angle_gamma 109.008(3)
_cell_formula_units_Z 2
loop_
_atom_type_symbol
_atom_type_radius_bond
C 0.68
H 0.23
Cl 0.99
N 0.68
O 0.68
loop_
_atom_site_label
_atom_site_type_symbol
_atom_site_fract_x
_atom_site_fract_y
_atom_site_fract_z
Cl1 Cl 0.93874(8) 0.35540(8) 0.46416(4)
Cl2 Cl 0.84706(7) 0.46656(7) 0.43573(4)
C1 C 0.8714(4) 0.3833(4) 0.42021(19)
H1 H 0.90450 0.39450 0.39700
H2 H 0.81350 0.33660 0.40760
Cl3 Cl 0.8868(3) 0.7488(2) 0.21270(13)
Cl4 Cl 0.8279(5) 0.7699(4) 0.1319(3)
C2 C 0.8915(4) 0.7309(3) 0.16247(17)
H3 H 0.95540 0.75530 0.16040
H4 H 0.87030 0.67100 0.15250
O1 O 0.7368(5) -0.0325(5) 0.5317(2)
Cl5 Cl 0.43041(13) -0.00459(10) 0.29263(5)
Cl6 Cl 0.3428(6) 0.0423(9) 0.2072(4)
C3 C 0.3518(3) 0.0060(2) 0.24843(16)
H5 H 0.31250 -0.05210 0.23730
H6 H 0.31490 0.02880 0.26370
N1 N 1.0410(2) 0.57536(16) 0.12833(8)
N2 N 0.82836(14) 0.23006(12) 0.02651(6)
N3 N 0.69361(17) 0.50209(13) 0.02220(7)
N4 N 1.01332(14) 0.05408(12) 0.35374(6)
N5 N 0.71478(13) 0.00184(13) 0.17030(6)
N6 N 0.29593(13) -0.17949(12) 0.17235(7)
N7 N 0.85895(14) 0.13603(12) 0.49576(7)
N8 N 1.18716(14) 0.36818(13) 0.44673(7)
N9 N 1.01169(18) 0.58273(15) 0.32650(7)
N10 N 0.79413(14) 0.82605(12) 0.35376(6)
N11 N 0.37291(14) 0.67809(14) 0.27249(6)
N12 N 0.55382(14) 0.63986(11) 0.44918(6)
N13 N 0.36257(16) 0.41054(14) 0.11727(7)
N14 N 0.07360(16) 0.05274(14) 0.11630(7)
N15 N 0.5264(4) 0.2597(3) 0.43023(14)
N16 N 0.1696(2) -0.00885(18) 0.29825(10)
C4 C 1.16624(18) 0.42932(16) 0.45689(9)
H7 H 1.17600 0.44990 0.48690
C5 C 1.14174(15) 0.24031(13) 0.47421(7)
C6 C 1.13618(15) 0.18129(14) 0.44024(7)
C7 C 1.06796(15) 0.10350(13) 0.43228(7)
C8 C 1.00386(15) 0.08597(13) 0.45722(7)
C9 C 1.01122(15) 0.14445(13) 0.49203(7)
C10 C 1.07862(15) 0.22283(14) 0.50002(7)
C11 C 1.21462(16) 0.32507(14) 0.48155(8)
H8 H 1.22070 0.35570 0.51040
H9 H 1.27440 0.32020 0.48100
C12 C 1.20079(17) 0.20060(16) 0.41106(9)
H10 H 1.16810 0.17310 0.38100
H11 H 1.25130 0.18120 0.42150
H12 H 1.22510 0.26000 0.41170
C13 C 1.06346(16) 0.04073(14) 0.39525(7)
H13 H 1.12610 0.04560 0.39360
H14 H 1.03230 -0.01520 0.40070
C14 C 0.92450(16) 0.00551(15) 0.44638(8)
H15 H 0.93330 -0.02820 0.46900
H16 H 0.92110 -0.02350 0.41790
H17 H 0.86760 0.01610 0.44520
C15 C 0.94122(16) 0.12315(15) 0.51892(8)
H18 H 0.92630 0.06520 0.52320
H19 H 0.96630 0.15840 0.54800
C16 C 1.0830(2) 0.28733(16) 0.53587(8)
H20 H 1.02440 0.27200 0.54380
H21 H 1.09560 0.34030 0.52560
H22 H 1.13180 0.29160 0.56150
C17 C 0.47566(16) 0.76941(15) 0.33786(7)
C18 C 0.56304(16) 0.80990(14) 0.33274(7)
C19 C 0.63995(15) 0.82247(13) 0.36717(7)
C20 C 0.62943(15) 0.79219(12) 0.40575(7)
C21 C 0.54211(16) 0.75050(13) 0.41031(7)
C22 C 0.46519(16) 0.73728(14) 0.37652(7)
C23 C 0.39247(17) 0.75598(17) 0.30074(8)
H23 H 0.33940 0.75400 0.31260
H24 H 0.40450 0.80170 0.28370
C24 C 0.57650(19) 0.84110(19) 0.29052(8)
H25 H 0.58040 0.89850 0.29300
H26 H 0.52460 0.80790 0.26620
H27 H 0.63310 0.83700 0.28510
C25 C 0.73418(16) 0.87070(14) 0.36296(8)
H28 H 0.72690 0.90360 0.33940
H29 H 0.76680 0.90990 0.39050
C26 C 0.71198(16) 0.80228(14) 0.44252(7)
H30 H 0.71360 0.83970 0.46770
H31 H 0.76780 0.82490 0.43260
H32 H 0.70790 0.74880 0.45100
C27 C 0.53337(17) 0.71560(13) 0.45212(7)
H33 H 0.57670 0.75560 0.47770
H34 H 0.47060 0.70400 0.45570
C28 C 0.37051(18) 0.68833(19) 0.38010(9)
H35 H 0.37470 0.65040 0.40090
H36 H 0.33330 0.65710 0.35130
H37 H 0.34210 0.72570 0.39040
C29 C 0.11467(15) -0.12504(14) 0.14232(7)
C30 C 0.07175(15) -0.07216(14) 0.15417(7)
C31 C 0.06756(15) -0.05703(14) 0.19786(7)
C32 C 0.10208(15) -0.09928(13) 0.22843(7)
C33 C 0.14403(15) -0.15324(13) 0.21687(7)
C34 C 0.15036(15) -0.16640(13) 0.17349(8)
C35 C 0.19739(16) -0.22377(14) 0.16094(8)
H38 H 0.18320 -0.27120 0.17660
H39 H 0.17520 -0.24460 0.12910
C36 C 0.12522(19) -0.13560(18) 0.09601(8)
H40 H 0.07460 -0.18360 0.07840
H41 H 0.18330 -0.14350 0.09650
H42 H 0.12450 -0.08650 0.08320
C37 C 0.02541(18) -0.03228(16) 0.12058(8)
H43 H 0.01020 -0.06660 0.09160
H44 H -0.03320 -0.03480 0.12710
C38 C 0.02636(17) 0.00440(15) 0.21136(8)
H45 H 0.02790 0.04270 0.19040
H46 H 0.06150 0.03490 0.24060
H47 H -0.03710 -0.02440 0.21190
C39 C 0.09470(17) -0.08388(15) 0.27522(7)
H48 H 0.03530 -0.07790 0.27530
H49 H 0.09850 -0.13080 0.29000
C40 C 0.18534(18) -0.19555(15) 0.25081(8)
H50 H 0.21030 -0.15890 0.27910
H51 H 0.23440 -0.20920 0.24180
H52 H 0.13810 -0.24590 0.25350
C41 C 0.89051(17) 0.37009(13) 0.01325(7)
C42 C 0.97011(17) 0.42337(14) 0.04319(7)
C43 C 0.97947(17) 0.50571(14) 0.05432(7)
C44 C 0.90733(19) 0.53306(14) 0.03722(7)
C45 C 0.82824(18) 0.47887(14) 0.00824(7)
C46 C 0.81931(17) 0.39709(14) -0.00370(7)
C47 C 0.88016(18) 0.28108(14) 0.00015(7)
H53 H 0.84810 0.26240 -0.03120
H54 H 0.94130 0.27620 0.00460
C48 C 1.04397(18) 0.39316(16) 0.06478(8)
H55 H 1.09110 0.40320 0.04840
H56 H 1.01750 0.33420 0.06510
H57 H 1.07140 0.42240 0.09490
C49 C 1.0644(2) 0.56457(16) 0.08605(7)
H58 H 1.11450 0.54220 0.08930
H59 H 1.08450 0.61780 0.07560
C50 C 0.9148(2) 0.62018(15) 0.05182(9)
H60 H 0.93550 0.65430 0.03040
H61 H 0.95890 0.64180 0.08040
H62 H 0.85490 0.62090 0.05410
C51 C 0.7499(2) 0.50804(17) -0.00942(8)
H63 H 0.77430 0.56560 -0.01410
H64 H 0.71210 0.47370 -0.03780
C52 C 0.73182(19) 0.33779(16) -0.03401(8)
H65 H 0.67980 0.35100 -0.02830
H66 H 0.72490 0.28170 -0.02900
H67 H 0.73390 0.34210 -0.06440
C53 C 1.1268(2) 0.46976(17) 0.42309(9)
C54 C 1.10239(19) 0.53599(16) 0.43472(8)
H68 H 1.11200 0.55610 0.46480
C55 C 1.0641(2) 0.57337(16) 0.40293(8)
H69 H 1.04840 0.61930 0.41140
C56 C 1.0486(2) 0.54409(17) 0.35903(8)
C57 C 1.0691(3) 0.4747(2) 0.34731(10)
H70 H 1.05620 0.45240 0.31730
C58 C 1.1076(3) 0.4390(2) 0.37873(10)
H71 H 1.12170 0.39220 0.37030
C59 C 0.83278(17) 0.18715(16) 0.51436(8)
H72 H 0.86500 0.21360 0.54340
C60 C 0.75394(16) 0.20703(15) 0.49245(8)
C61 C 0.73060(17) 0.26794(15) 0.51207(8)
H73 H 0.76540 0.29650 0.54050
C62 C 0.65772(16) 0.28814(15) 0.49124(8)
H74 H 0.64360 0.33110 0.50510
C63 C 0.60494(16) 0.24607(15) 0.45020(9)
C64 C 0.62980(17) 0.18657(15) 0.42937(9)
H75 H 0.59630 0.15950 0.40050
C65 C 0.70254(17) 0.16696(15) 0.45038(9)
H76 H 0.71820 0.12550 0.43610
C66 C 0.94775(15) -0.00734(14) 0.33054(7)
H77 H 0.93520 -0.05860 0.34060
C67 C 0.89024(15) -0.00293(14) 0.28881(7)
C68 C 0.82213(16) -0.07432(14) 0.26512(7)
H78 H 0.81410 -0.12460 0.27600
C69 C 0.76554(16) -0.07298(15) 0.22560(8)
H79 H 0.72010 -0.12250 0.20920
C70 C 0.77525(15) 0.00045(15) 0.20993(7)
C71 C 0.84383(17) 0.07191(14) 0.23357(8)
H80 H 0.85130 0.12240 0.22290
C72 C 0.90088(16) 0.07013(14) 0.27216(7)
H81 H 0.94820 0.11930 0.28770
C73 C 0.37410(18) 0.68139(17) 0.23277(8)
H82 H 0.38170 0.73220 0.22260
C74 C 0.36415(18) 0.60974(17) 0.20215(8)
C75 C 0.34380(18) 0.53178(17) 0.21353(8)
H83 H 0.33090 0.52380 0.24110
C76 C 0.34183(18) 0.46588(17) 0.18590(8)
H84 H 0.32790 0.41320 0.19440
C77 C 0.36051(18) 0.47681(16) 0.14495(8)
C78 C 0.3797(2) 0.55465(18) 0.13339(8)
H85 H 0.39190 0.56280 0.10570
C79 C 0.38127(19) 0.61978(17) 0.16112(8)
H86 H 0.39410 0.67230 0.15240
C80 C 0.49141(16) 0.57401(14) 0.45042(7)
H87 H 0.43530 0.57640 0.45480
C81 C 0.50258(16) 0.49410(14) 0.44542(7)
C82 C 0.58583(16) 0.48684(15) 0.44301(8)
H88 H 0.63720 0.53480 0.44480
C83 C 0.59443(17) 0.41052(16) 0.43801(9)
H89 H 0.65160 0.40630 0.43670
C84 C 0.51926(16) 0.33991(14) 0.43485(8)
C85 C 0.43661(16) 0.34694(14) 0.43762(8)
H90 H 0.38540 0.29920 0.43620
C86 C 0.42861(16) 0.42348(14) 0.44237(8)
H91 H 0.37130 0.42760 0.44360
C87 C 0.77010(16) 0.74944(14) 0.35262(7)
H92 H 0.71170 0.71960 0.35660
C88 C 0.83234(18) 0.70589(15) 0.34515(7)
C89 C 0.81249(19) 0.62496(15) 0.35101(8)
H93 H 0.75750 0.59690 0.35870
C90 C 0.8721(2) 0.58408(15) 0.34570(8)
H94 H 0.85800 0.52860 0.35010
C91 C 0.9517(2) 0.62399(16) 0.33403(8)
C92 C 0.9718(2) 0.70526(19) 0.32803(10)
H95 H 1.02660 0.73330 0.32010
C93 C 0.9125(2) 0.74565(18) 0.33348(10)
H96 H 0.92680 0.80120 0.32920
C94 C 0.86574(18) 0.18732(14) 0.04850(8)
H97 H 0.92380 0.18790 0.04540
C95 C 0.82387(16) 0.13704(14) 0.07838(7)
C96 C 0.87019(17) 0.09327(15) 0.10190(8)
H98 H 0.92760 0.09440 0.09760
C97 C 0.83308(17) 0.04773(15) 0.13176(8)
H99 H 0.86500 0.01730 0.14740
C98 C 0.75069(16) 0.04618(15) 0.13890(7)
C99 C 0.70401(17) 0.09058(16) 0.11542(8)
H100 H 0.64710 0.09020 0.12010
C100 C 0.73993(18) 0.13460(16) 0.08569(8)
H101 H 0.70720 0.16410 0.06970
C101 C 0.6098(2) 0.45865(16) 0.00886(8)
H102 H 0.58680 0.43230 -0.02080
C102 C 0.5469(2) 0.44730(16) 0.03714(8)
C103 C 0.4586(2) 0.39106(16) 0.02249(8)
H103 H 0.43920 0.36050 -0.00620
C104 C 0.3984(2) 0.37854(16) 0.04862(8)
H104 H 0.33850 0.33910 0.03800
C105 C 0.42518(19) 0.42367(16) 0.09063(8)
C106 C 0.5137(2) 0.47937(17) 0.10569(8)
H105 H 0.53320 0.50960 0.13450
C107 C 0.5734(2) 0.49129(16) 0.07935(9)
H106 H 0.63370 0.53010 0.09010
C108 C 1.0941(2) 0.56705(17) 0.1616(1)
H107 H 1.14760 0.55670 0.15880
C109 C 1.0743(2) 0.57322(18) 0.20477(10)
C110 C 1.1398(2) 0.5778(2) 0.24217(11)
H108 H 1.19800 0.57720 0.24000
C111 C 1.1208(2) 0.5831(2) 0.28275(10)
H109 H 1.16660 0.58710 0.30830
C112 C 1.0369(3) 0.5827(3) 0.28651(10)
C113 C 0.9714(2) 0.5792(2) 0.2492(1)
H110 H 0.91280 0.57860 0.25130
C114 C 0.9916(2) 0.5765(2) 0.20877(9)
H111 H 0.94770 0.57690 0.18350
C115 C 0.15823(19) 0.08201(18) 0.12959(9)
H112 H 0.19020 0.04880 0.14210
C116 C 0.2104(2) 0.16773(17) 0.12634(9)
C117 C 0.3038(2) 0.1917(2) 0.12950(12)
H113 H 0.33410 0.15340 0.13460
C118 C 0.3528(2) 0.27073(19) 0.12521(12)
H114 H 0.41590 0.28560 0.12590
C119 C 0.31108(19) 0.32833(17) 0.11987(8)
C120 C 0.21845(19) 0.30518(18) 0.11739(9)
H115 H 0.18880 0.34410 0.11350
C121 C 0.1686(2) 0.22492(19) 0.12061(9)
H116 H 0.10510 0.20960 0.11880
C122 C 0.33615(16) -0.17303(15) 0.14166(8)
H117 H 0.30120 -0.19820 0.11280
C123 C 0.43393(17) -0.12855(15) 0.14898(8)
C124 C 0.48795(16) -0.08962(15) 0.19097(8)
H118 H 0.46070 -0.09290 0.21500
C125 C 0.57963(16) -0.04686(16) 0.19784(7)
H119 H 0.61540 -0.02090 0.22650
C126 C 0.62120(16) -0.04126(15) 0.16264(8)
C127 C 0.56696(18) -0.08001(17) 0.12093(8)
H120 H 0.59370 -0.07720 0.09680
C128 C 0.47517(18) -0.12222(17) 0.11459(8)
H121 H 0.43910 -0.14770 0.08590
C129 C 0.2157(2) -0.01169(17) 0.33554(10)
H122 H 0.19850 -0.06060 0.34770
C130 C 0.2951(2) 0.05915(16) 0.36021(9)
C131 C 0.34357(19) 0.05522(16) 0.40149(9)
H123 H 0.32480 0.00650 0.41370
C132 C 0.41880(19) 0.12163(16) 0.42491(9)
H124 H 0.45050 0.11890 0.45340
C133 C 0.44773(19) 0.19229(18) 0.40671(10)
C134 C 0.3999(2) 0.19668(17) 0.36555(9)
H125 H 0.41950 0.24500 0.35300
C135 C 0.3241(2) 0.13124(17) 0.34292(9)
H126 H 0.29100 0.13510 0.31500
Cl7 Cl 0.5538(6) -0.0721(5) 0.4751(3)
Cl8 Cl 0.3467(6) -0.1227(5) 0.4119(5)
H127 H 0.42710 -0.07190 0.47900
H128 H 0.42640 -0.16020 0.46550
C136 C 0.44224(6) -0.10506(5) 0.45693(3)
Cl9? Cl 0.8191(8) 0.6432(7) 0.1389(3)
O2? O 0.7333(6) 0.7323(6) 0.1311(3)
H129? H 0.87850 0.77390 0.14660
H130? H 0.95380 0.73280 0.16180
Cl10? Cl 0.40058(17) 0.09091(13) 0.22528(8)
H131? H 0.32880 -0.04410 0.22610
H132? H 0.29910 0.01180 0.25830
N17? N 1.0908(11) 0.5684(8) 0.1330(5)
N18? N 0.530(3) 0.2745(18) 0.4206(10)
N19? N 0.1825(15) -0.0316(11) 0.3108(7)
H133? H 0.06990 -0.13790 0.28430
H134? H 0.04900 -0.05690 0.27510
H135? H 1.11600 0.55820 0.07530
H136? H 1.06430 0.62000 0.08160
C137? C 1.0189(9) 0.5381(8) 0.1457(4)
H137? H 0.96330 0.50910 0.12440
C138? C 1.0174(9) 0.5459(7) 0.1922(3)
C139? C 1.0967(8) 0.5728(7) 0.2260(4)
H138? H 1.15460 0.58480 0.21960
C140? C 1.0913(8) 0.5823(8) 0.2692(3)
H139? H 1.14550 0.60070 0.29230
C141? C 1.0066(9) 0.5647(9) 0.2786(3)
C142? C 0.9273(8) 0.5378(9) 0.2448(3)
H140? H 0.86940 0.52580 0.25120
C143? C 0.9327(8) 0.5283(8) 0.2016(3)
H141? H 0.87850 0.50990 0.17850
C144? C 0.2364(12) 0.0294(10) 0.2989(6)
H142? H 0.22710 0.03550 0.26890
C145? C 0.3112(8) 0.0888(6) 0.3312(4)
C146? C 0.3446(10) 0.0757(7) 0.3731(4)
H143? H 0.31670 0.02500 0.38210
C147? C 0.4187(10) 0.1367(8) 0.4018(3)
H144? H 0.44150 0.12780 0.43050
C148? C 0.4594(8) 0.2109(7) 0.3886(4)
C149? C 0.4260(8) 0.2240(6) 0.3468(4)
H145? H 0.45380 0.27470 0.33770
C150? C 0.3519(8) 0.1630(7) 0.3180(3)
H146? H 0.32910 0.17190 0.28940
Cl11? Cl 0.64128(6) -0.03173(5) 0.47624(3)
C151? C 0.5351(3) -0.04987(19) 0.43752(12)
H147? H 0.52980 0.00330 0.43150
H148? H 0.53380 -0.08100 0.40970
Cl12? Cl 0.44224(6) -0.10506(5) 0.45693(3)
#END
