
#######################################################################
#
#                 Cambridge Crystallographic Data Centre
#                                CCDC
#
#######################################################################
#
# If this CIF has been generated from an entry in the Cambridge
# Structural Database, then it will include bibliographic, chemical,
# crystal, experimental, refinement or atomic coordinate data resulting
# from the CCDC's data processing and validation procedures.
#
#######################################################################

data_CSD_CIF_REGDUF
_audit_creation_date 2017-10-11
_audit_creation_method CSD-ConQuest-V1
_database_code_CSD REGDUF
_database_code_depnum_ccdc_archive 'CCDC 1542694'
_chemical_formula_sum 'C51 H82 Cl1 N29 O27'
_chemical_formula_moiety
;
C42 H42 N28 O14,C9 H14 N1 1+,13(H2 O1),Cl1 1-
;
_journal_coden_Cambridge 2038
_journal_volume 3
_journal_year 2017
_journal_page_first 641
_journal_name_full 'Chem Cell mPress '
loop_
_publ_author_name
"Yoonjung Jang"
"Moonjeong Jang"
"Hyoeun Kim"
"Sang Jin Lee"
"Eunyeong Jin"
"Jin Young Koo"
"In-Chul Hwang"
"Yonghwi Kim"
"Young Ho Ko"
"Ilha Hwang"
"Joon Hak Oh"
"K.Kim"
_chemical_name_systematic
;
1-phenylpropan-2-aminium chloride cucurbit[7]uril tridecahydrate
;
_cell_volume  10392.128
_exptl_crystal_colour 'colorless'
_exptl_crystal_density_diffrn 1.504
_exptl_crystal_description 'Block'
_diffrn_ambient_temperature 100
_diffrn_radiation_probe x-ray
_diffrn_source synchrotron
_refine_special_details
;
Cl2,Cl3,Cl4,O15W,O29W,O38W,O47W and O46W,O48W,O49W,O51W and Cl5 disordered 
over three sites with occupancies 
0.50,0.25,0.50,0.50,0.50,0.50,0.50:0.50,0.25,0.50,0.50:0.50.
;
#These two values have been output from a single CSD field.
_refine_ls_R_factor_gt 0.0978
_refine_ls_wR_factor_gt 0.0978
_symmetry_cell_setting triclinic
_symmetry_space_group_name_H-M 'P -1'
_symmetry_Int_Tables_number 2
loop_
_symmetry_equiv_pos_site_id
_symmetry_equiv_pos_as_xyz
1 x,y,z
2 -x,-y,-z
_cell_length_a 22.108(4)
_cell_length_b 22.470(5)
_cell_length_c 22.473(5)
_cell_angle_alpha 99.67(3)
_cell_angle_beta 103.58(3)
_cell_angle_gamma 100.83(3)
_cell_formula_units_Z 6
loop_
_atom_type_symbol
_atom_type_radius_bond
C 0.68
H 0.23
Cl 0.99
N 0.68
O 0.68
loop_
_atom_site_label
_atom_site_type_symbol
_atom_site_fract_x
_atom_site_fract_y
_atom_site_fract_z
Cl1 Cl 0.9314(2) 0.7302(2) 0.0320(2)
Cl2 Cl 0.9462(6) 0.0627(6) 0.2622(9)
Cl3 Cl 0.5964(4) 0.9018(4) 0.4658(4)
Cl4 Cl 0.5366(7) 0.5366(6) 0.4399(7)
O1 O 0.4473(10) 0.5337(8) 0.5011(9)
O2 O 0.5259(5) 0.4476(4) 0.3541(5)
O3 O 0.5552(4) 0.6443(4) 0.4584(4)
O4 O 0.3321(6) 0.5305(5) 0.4315(4)
O5 O 0.024(2) 0.0617(19) 0.056(3)
O6 O 0.5210(5) 0.4113(4) 0.0873(5)
O7 O 0.0309(5) 0.6190(6) 0.4429(5)
O8 O 0.7618(5) 0.3047(5) 0.0256(5)
O9 O 0.0935(5) 0.5300(5) 0.3943(5)
O10 O 0.2203(6) 0.0042(6) 0.3294(7)
O11 O 0.1041(5) 0.9542(5) 0.3520(5)
O12 O 0.6267(5) 0.4338(4) 0.0351(4)
O13 O 0.5575(5) 0.9452(5) 0.1355(7)
O14 O 0.6640(5) 0.9891(6) 0.2451(6)
O15 O 0.0732(6) 0.8811(8) 0.4343(6)
O16 O 0.9483(5) 0.3550(6) 0.1123(6)
O17 O 0.8514(5) 0.4158(5) 0.0751(5)
O18 O 0.0246(7) 0.7638(7) 0.3406(6)
O19 O 0.5735(7) 0.6936(7) 0.9939(6)
O20 O 0.2029(7) 0.2716(6) 0.0576(6)
O21 O 0.0175(8) 0.9639(7) 0.2472(8)
O22 O 0.9027(10) 0.1609(11) 0.0723(9)
O23 O 0.0590(8) 0.9332(8) 0.1398(8)
O24 O 0.2279(7) 0.0684(7) 0.2309(10)
O25 O 0.6354(9) 0.9221(7) 0.0532(7)
O26 O 0.9186(10) 0.0467(10) 0.1203(9)
O27 O 0.9542(10) 0.8703(9) 0.0472(11)
O28 O -0.0025(11) 0.2519(16) 0.0748(11)
O29 O 0.0132(7) 0.2971(8) 0.2156(8)
O30 O -0.0197(13) 0.342(3) 0.244(2)
O31 O 0.0857(11) 0.2737(9) 0.2152(8)
O32 O 0.0466(8) 0.1731(10) 0.2563(7)
O33 O 0.0028(6) 0.4200(7) 0.3408(11)
O34 O 0.2545(19) 0.9651(10) 0.0148(11)
O35 O 0.2238(18) 1.008(2) 0.087(3)
O36 O 0.6749(9) 0.9883(6) 0.5686(7)
O37 O 0.2673(6) 0.1372(11) 0.0093(7)
O38 O 0.8559(8) 0.9248(9) 0.0776(8)
O39 O 0.2435(6) 0.2669(6) 0.2480(6)
O40 O 0.2035(19) 0.213(2) 0.176(3)
O41 O 0.2972(6) 0.2367(10) 0.0120(6)
O42 O 0.4513(4) 0.6791(4) 0.8478(4)
O43 O 0.2725(4) 0.6752(4) 0.8412(4)
O44 O 0.1443(4) 0.6568(4) 0.7053(4)
O45 O 0.1767(4) 0.6505(4) 0.5472(4)
O46 O 0.3058(4) 0.6408(4) 0.4736(4)
O47 O 0.4738(4) 0.6549(4) 0.5585(5)
O48 O 0.5436(4) 0.6687(4) 0.7267(4)
O49 O 0.5141(4) 0.9672(4) 0.8977(4)
O50 O 0.3409(4) 0.9576(4) 0.8754(4)
O51 O 0.2134(4) 0.9386(4) 0.7277(4)
O52 O 0.2126(4) 0.9245(4) 0.5610(4)
O53 O 0.3472(4) 0.9234(4) 0.5049(4)
O54 O 0.5220(4) 0.9388(4) 0.6016(4)
O55 O 0.5880(4) 0.9532(4) 0.7668(4)
N1 N 0.5315(5) 0.7680(5) 0.8771(5)
N2 N 0.4469(5) 0.7683(4) 0.9131(4)
N3 N 0.3362(5) 0.7675(4) 0.9050(5)
N4 N 0.2327(5) 0.7614(4) 0.8618(4)
N5 N 0.1485(5) 0.7506(4) 0.7692(5)
N6 N 0.1099(5) 0.7375(4) 0.6659(4)
N7 N 0.1241(5) 0.7297(4) 0.5604(4)
N8 N 0.1702(5) 0.7205(4) 0.4835(5)
N9 N 0.2617(5) 0.7185(5) 0.4402(5)
N10 N 0.3642(5) 0.7251(4) 0.4477(5)
N11 N 0.4730(5) 0.7354(5) 0.5050(5)
N12 N 0.5522(6) 0.7471(5) 0.5921(5)
N13 N 0.5993(5) 0.7548(5) 0.7020(5)
N14 N 0.5931(5) 0.7612(5) 0.7993(5)
N15 N 0.5588(5) 0.8815(4) 0.8990(5)
N16 N 0.4726(5) 0.8829(5) 0.9340(5)
N17 N 0.3614(5) 0.8802(4) 0.9281(5)
N18 N 0.2621(5) 0.8731(5) 0.8715(5)
N19 N 0.1768(4) 0.8620(4) 0.7769(5)
N20 N 0.1374(5) 0.8487(4) 0.6737(5)
N21 N 0.1373(5) 0.8398(4) 0.5638(5)
N22 N 0.1851(5) 0.8309(5) 0.4887(5)
N23 N 0.2776(5) 0.8294(4) 0.4508(5)
N24 N 0.3808(5) 0.8380(5) 0.4645(5)
N25 N 0.4882(5) 0.8465(5) 0.5255(5)
N26 N 0.5744(5) 0.8600(4) 0.6066(5)
N27 N 0.6152(5) 0.8668(5) 0.7178(5)
N28 N 0.6101(5) 0.8731(5) 0.8154(5)
C1 C 0.4744(6) 0.7321(7) 0.8748(6)
C2 C 0.3899(5) 0.7427(5) 0.9298(6)
H1 H 0.37810 0.69700 0.91400
H2 H 0.39930 0.75120 0.97610
C3 C 0.2797(6) 0.7292(6) 0.8654(6)
C4 C 0.1673(6) 0.7344(5) 0.8287(5)
H3 H 0.14000 0.74800 0.85500
H4 H 0.15970 0.68860 0.82200
C5 C 0.1357(6) 0.7091(6) 0.7119(6)
C6 C 0.0878(6) 0.7036(6) 0.5995(6)
H5 H 0.09060 0.65990 0.59740
H6 H 0.04230 0.70360 0.58250
C7 C 0.1585(6) 0.6956(6) 0.5319(6)
C8 C 0.1952(6) 0.6899(6) 0.4363(6)
H7 H 0.16790 0.68950 0.39440
H8 H 0.19220 0.64620 0.43990
C9 C 0.3099(7) 0.6895(7) 0.4555(6)
C10 C 0.4224(6) 0.7033(6) 0.4505(6)
H9 H 0.41310 0.65830 0.45020
H10 H 0.43660 0.70860 0.41270
C11 C 0.4968(7) 0.7064(7) 0.5522(7)
C12 C 0.5963(7) 0.7263(7) 0.6394(7)
H11 H 0.58240 0.68070 0.63320
H12 H 0.63970 0.73600 0.63320
C13 C 0.5749(6) 0.7236(7) 0.7422(7)
C14 C 0.5785(6) 0.7404(6) 0.8540(6)
H13 H 0.56250 0.69470 0.84270
H14 H 0.61870 0.75050 0.88830
C15 C 0.5501(6) 0.8257(5) 0.9227(6)
H15 H 0.58840 0.82670 0.95730
C16 C 0.4900(6) 0.8266(5) 0.9480(5)
H16 H 0.50090 0.82850 0.99420
C17 C 0.3255(6) 0.8237(6) 0.9383(6)
H17 H 0.33120 0.82440 0.98390
C18 C 0.2552(6) 0.8231(6) 0.9035(6)
H18 H 0.22860 0.82920 0.93340
C19 C 0.1274(6) 0.8066(6) 0.7629(6)
H19 H 0.09440 0.81210 0.78570
C20 C 0.0988(6) 0.7968(5) 0.6890(6)
H20 H 0.05220 0.79660 0.67720
C21 C 0.1063(6) 0.7760(5) 0.5277(6)
H21 H 0.05880 0.76930 0.51160
C22 C 0.1399(6) 0.7713(5) 0.4736(6)
H22 H 0.10890 0.76260 0.43110
C23 C 0.2805(6) 0.7715(5) 0.4140(6)
H23 H 0.25630 0.76490 0.36900
C24 C 0.3507(6) 0.7775(6) 0.4221(6)
H24 H 0.36100 0.77590 0.38090
C25 C 0.5140(6) 0.7944(6) 0.5090(6)
H25 H 0.52860 0.79530 0.47020
C26 C 0.5706(6) 0.7999(6) 0.5668(6)
H26 H 0.61120 0.79960 0.55450
C27 C 0.6393(6) 0.8143(6) 0.7341(6)
H27 H 0.68430 0.81770 0.73130
C28 C 0.6352(6) 0.8181(6) 0.8029(6)
H28 H 0.67820 0.82280 0.83260
C29 C 0.5161(7) 0.9154(7) 0.9082(6)
C30 C 0.4281(6) 0.9089(6) 0.9611(6)
H29 H 0.43620 0.95390 0.96140
H30 H 0.43590 0.90460 1.00520
C31 C 0.3241(6) 0.9085(6) 0.8897(6)
C32 C 0.2097(6) 0.8970(6) 0.8408(6)
H31 H 0.22640 0.94080 0.83980
H32 H 0.17840 0.89650 0.86590
C33 C 0.1795(6) 0.8881(6) 0.7252(6)
C34 C 0.1160(6) 0.8682(6) 0.6150(6)
H33 H 0.06860 0.85840 0.60230
H34 H 0.13150 0.91390 0.62280
C35 C 0.1811(6) 0.8701(6) 0.5402(6)
C36 C 0.2208(6) 0.8512(6) 0.4464(6)
H35 H 0.19300 0.83640 0.40270
H36 H 0.23220 0.89720 0.45560
C37 C 0.3362(7) 0.8680(7) 0.4755(6)
C38 C 0.4474(6) 0.8692(6) 0.4794(6)
H37 H 0.46150 0.86400 0.44060
H38 H 0.45230 0.91420 0.49510
C39 C 0.5273(6) 0.8871(6) 0.5805(6)
C40 C 0.6241(6) 0.8893(6) 0.6632(6)
H39 H 0.62690 0.93460 0.67150
H40 H 0.66540 0.88300 0.65670
C41 C 0.6031(5) 0.9022(7) 0.7666(6)
C42 C 0.6133(6) 0.9050(6) 0.8779(7)
H41 H 0.65260 0.90130 0.90750
H42 H 0.61670 0.94970 0.87870
O56 O 0.4401(4) 0.5442(4) 0.3402(4)
O57 O 0.5231(4) 0.7001(4) 0.3575(4)
O58 O 0.4411(4) 0.8252(4) 0.3421(4)
O59 O 0.2774(4) 0.8609(4) 0.3285(4)
O60 O 0.1357(4) 0.7499(4) 0.3029(4)
O61 O 0.1310(4) 0.5709(4) 0.2950(5)
O62 O 0.2576(4) 0.4821(4) 0.3161(5)
O63 O 0.3832(4) 0.4936(4) 0.0537(4)
O64 O 0.4737(5) 0.6699(4) 0.0737(4)
O65 O 0.4240(4) 0.8161(4) 0.0713(4)
O66 O 0.2628(4) 0.8222(4) 0.0519(4)
O67 O 0.1260(4) 0.6982(4) 0.0228(4)
O68 O 0.0981(4) 0.5172(4) 0.0065(5)
O69 O 0.2245(4) 0.4324(4) 0.0292(5)
N29 N 0.3993(5) 0.4712(5) 0.2462(5)
N30 N 0.4929(5) 0.5390(5) 0.2615(5)
N31 N 0.5461(4) 0.6457(4) 0.2723(5)
N32 N 0.5505(5) 0.7455(5) 0.2796(5)
N33 N 0.5074(5) 0.8370(4) 0.2787(4)
N34 N 0.4270(4) 0.8842(4) 0.2673(4)
N35 N 0.3210(4) 0.9039(4) 0.2570(4)
N36 N 0.2155(5) 0.8700(4) 0.2332(5)
N37 N 0.1181(4) 0.7922(5) 0.2160(5)
N38 N 0.0809(4) 0.6911(4) 0.2046(5)
N39 N 0.0722(5) 0.5822(5) 0.2004(5)
N40 N 0.1051(5) 0.4949(5) 0.2053(5)
N41 N 0.1857(6) 0.4346(5) 0.2192(5)
N42 N 0.2868(5) 0.4273(5) 0.2352(5)
N43 N 0.3872(5) 0.4412(5) 0.1334(5)
N44 N 0.4616(4) 0.5269(4) 0.1482(4)
N45 N 0.5196(5) 0.6327(4) 0.1594(5)
N46 N 0.5337(4) 0.7338(5) 0.1679(4)
N47 N 0.4967(4) 0.8286(4) 0.1678(5)
N48 N 0.4258(5) 0.8859(4) 0.1589(4)
N49 N 0.3157(5) 0.8915(4) 0.1462(5)
N50 N 0.2094(5) 0.8557(5) 0.1224(5)
N51 N 0.1198(5) 0.7701(5) 0.1062(5)
N52 N 0.0704(5) 0.6712(5) 0.0917(5)
N53 N 0.0588(5) 0.5610(5) 0.0874(5)
N54 N 0.0889(5) 0.4726(5) 0.0909(5)
N55 N 0.1728(5) 0.4162(5) 0.1055(5)
N56 N 0.2741(5) 0.4074(5) 0.1217(5)
C43 C 0.4453(7) 0.5217(6) 0.2882(7)
C44 C 0.5492(6) 0.5891(6) 0.2936(6)
H43 H 0.55370 0.59710 0.33920
H44 H 0.58770 0.57590 0.28660
C45 C 0.5396(5) 0.6979(7) 0.3078(6)
C46 C 0.5570(6) 0.8100(5) 0.3121(6)
H45 H 0.55350 0.81070 0.35530
H46 H 0.59970 0.83530 0.31500
C47 C 0.4571(5) 0.8461(5) 0.3011(6)
C48 C 0.3880(5) 0.9199(6) 0.2936(6)
H47 H 0.40610 0.96460 0.29720
H48 H 0.39020 0.91360 0.33660
C49 C 0.2724(6) 0.8769(6) 0.2788(7)
C50 C 0.1537(6) 0.8546(5) 0.2461(5)
H49 H 0.16060 0.86010 0.29210
H50 H 0.12820 0.88380 0.23190
C51 C 0.1142(6) 0.7447(6) 0.2463(7)
C52 C 0.0532(6) 0.6372(6) 0.2248(6)
H51 H 0.00590 0.62950 0.21080
H52 H 0.06640 0.64580 0.27120
C53 C 0.1053(6) 0.5505(6) 0.2393(7)
C54 C 0.1293(6) 0.4478(6) 0.2350(7)
H53 H 0.13940 0.46200 0.28110
H54 H 0.09520 0.40890 0.22210
C55 C 0.2453(7) 0.4520(7) 0.2625(8)
C56 C 0.3529(6) 0.4320(6) 0.2679(6)
H55 H 0.36090 0.38980 0.26300
H56 H 0.35960 0.44860 0.31330
C57 C 0.4260(6) 0.4474(6) 0.1955(6)
H57 H 0.43880 0.40780 0.20090
C58 C 0.4841(6) 0.4991(6) 0.2014(6)
H58 H 0.52280 0.48290 0.19890
C59 C 0.5692(6) 0.6585(5) 0.2188(6)
H59 H 0.61030 0.64600 0.21850
C60 C 0.5761(6) 0.7289(6) 0.2267(5)
H60 H 0.62140 0.75220 0.23400
C61 C 0.5162(6) 0.8690(5) 0.2303(5)
H61 H 0.56000 0.89680 0.24050
C62 C 0.4617(5) 0.9060(5) 0.2256(5)
H62 H 0.47970 0.95200 0.23820
C63 C 0.2988(5) 0.9226(6) 0.1984(6)
H63 H 0.31160 0.96870 0.20400
C64 C 0.2244(5) 0.8990(6) 0.1829(6)
H64 H 0.20210 0.93370 0.18020
C65 C 0.0821(5) 0.7721(6) 0.1506(6)
H65 H 0.04880 0.79610 0.14000
C66 C 0.0514(6) 0.7033(6) 0.1440(6)
H66 H 0.00380 0.69540 0.13530
C67 C 0.0385(6) 0.5414(5) 0.1383(6)
H67 H -0.00900 0.53420 0.13040
C68 C 0.0604(6) 0.4814(6) 0.1422(7)
H68 H 0.02330 0.44580 0.13690
C69 C 0.1853(7) 0.3919(6) 0.1626(6)
H69 H 0.15550 0.35060 0.15670
C70 C 0.2554(5) 0.3859(6) 0.1721(6)
H70 H 0.25890 0.34210 0.17160
C71 C 0.4073(6) 0.4883(6) 0.1072(6)
C72 C 0.5060(6) 0.5683(6) 0.1260(6)
H71 H 0.48760 0.56530 0.08060
H72 H 0.54660 0.55460 0.13120
C73 C 0.5056(6) 0.6776(6) 0.1289(7)
C74 C 0.5386(6) 0.7908(5) 0.1468(6)
H73 H 0.52730 0.78120 0.10040
H74 H 0.58360 0.81540 0.16270
C75 C 0.4457(6) 0.8408(6) 0.1263(7)
C76 C 0.3752(6) 0.9121(6) 0.1308(6)
H75 H 0.36720 0.90110 0.08460
H76 H 0.38910 0.95790 0.14440
C77 C 0.2619(6) 0.8524(6) 0.1020(7)
C78 C 0.1456(6) 0.8249(6) 0.0846(6)
H77 H 0.14600 0.81200 0.04040
H78 H 0.11740 0.85420 0.08630
C79 C 0.1071(6) 0.7108(7) 0.0675(7)
C80 C 0.0367(6) 0.6080(5) 0.0577(6)
H79 H -0.00960 0.60300 0.05390
H80 H 0.04210 0.60170 0.01480
C81 C 0.0849(6) 0.5169(6) 0.0566(8)
C82 C 0.1099(6) 0.4177(6) 0.0698(6)
H81 H 0.10970 0.41470 0.02530
H82 H 0.07860 0.38070 0.07180
C83 C 0.2221(7) 0.4196(6) 0.0785(7)
C84 C 0.3294(6) 0.3941(6) 0.1031(6)
H83 H 0.33580 0.35400 0.11280
H84 H 0.32070 0.38940 0.05700
O70 O 0.9671(5) 0.7799(4) 0.5781(4)
O71 O 0.9441(4) 0.6104(4) 0.5190(4)
O72 O 0.9200(4) 0.5111(4) 0.3561(4)
O73 O 0.9207(4) 0.5577(4) 0.2122(4)
O74 O 0.9424(4) 0.7190(4) 0.2067(4)
O75 O 0.9646(5) 0.8620(4) 0.3276(5)
O76 O 0.9882(5) 0.9050(4) 0.4999(4)
O77 O 0.6755(4) 0.7353(4) 0.5184(4)
O78 O 0.6527(5) 0.5697(4) 0.4751(4)
O79 O 0.6308(4) 0.4854(4) 0.3134(4)
O80 O 0.6437(4) 0.5577(4) 0.1800(4)
O81 O 0.6553(4) 0.7139(4) 0.1334(4)
O82 O 0.6835(5) 0.8548(4) 0.2475(4)
O83 O 0.6909(4) 0.8605(4) 0.4164(4)
N57 N 0.8882(5) 0.8292(5) 0.5941(5)
N58 N 0.8775(5) 0.7302(5) 0.6009(5)
N59 N 0.8654(5) 0.6191(5) 0.5699(5)
N60 N 0.8485(5) 0.5354(5) 0.4946(5)
N61 N 0.8333(5) 0.4733(5) 0.3911(5)
N62 N 0.8212(5) 0.4595(4) 0.2887(5)
N63 N 0.8220(5) 0.4909(5) 0.1918(5)
N64 N 0.8326(5) 0.5609(5) 0.1356(5)
N65 N 0.8452(4) 0.6697(4) 0.1317(5)
N66 N 0.8684(5) 0.7712(5) 0.1654(5)
N67 N 0.8823(5) 0.8644(5) 0.2431(6)
N68 N 0.8965(5) 0.9258(5) 0.3350(5)
N69 N 0.9008(5) 0.9377(5) 0.4457(5)
N70 N 0.8991(5) 0.9109(5) 0.5367(5)
N71 N 0.7726(5) 0.8096(5) 0.5649(5)
N72 N 0.7607(5) 0.7147(5) 0.5862(5)
N73 N 0.7495(5) 0.6044(5) 0.5500(6)
N74 N 0.7341(5) 0.5184(5) 0.4783(5)
N75 N 0.7176(5) 0.4590(4) 0.3741(5)
N76 N 0.7072(5) 0.4500(4) 0.2713(5)
N77 N 0.7107(4) 0.4904(4) 0.1787(4)
N78 N 0.7208(4) 0.5647(4) 0.1252(4)
N79 N 0.7317(5) 0.6685(4) 0.1044(5)
N80 N 0.7550(5) 0.7709(4) 0.1366(5)
N81 N 0.7711(5) 0.8702(4) 0.2071(5)
N82 N 0.7819(5) 0.9142(5) 0.3062(5)
N83 N 0.7856(5) 0.9265(5) 0.4163(5)
N84 N 0.7826(5) 0.8855(5) 0.4995(5)
C85 C 0.9164(7) 0.7797(6) 0.5907(6)
C86 C 0.9000(6) 0.6765(6) 0.6149(6)
H85 H 0.89620 0.67210 0.65700
H86 H 0.94590 0.68350 0.61630
C87 C 0.8919(7) 0.5913(6) 0.5275(6)
C88 C 0.8690(6) 0.4872(6) 0.4569(6)
H87 H 0.91520 0.50130 0.46080
H88 H 0.86260 0.44890 0.47320
C89 C 0.8642(6) 0.4833(6) 0.3462(6)
C90 C 0.8416(6) 0.4500(6) 0.2323(6)
H89 H 0.82340 0.40630 0.20900
H90 H 0.88890 0.45720 0.24380
C91 C 0.8627(7) 0.5377(7) 0.1825(6)
C92 C 0.8620(6) 0.6113(5) 0.1120(6)
H91 H 0.84900 0.59950 0.06550
H92 H 0.90910 0.61760 0.12630
C93 C 0.8921(7) 0.7199(6) 0.1722(7)
C94 C 0.9067(7) 0.8327(7) 0.1962(8)
H93 H 0.90940 0.85770 0.16410
H94 H 0.95070 0.82980 0.21620
C95 C 0.9189(7) 0.8820(6) 0.3052(7)
C96 C 0.9284(6) 0.9589(6) 0.4004(7)
H95 H 0.97350 0.95550 0.41040
H96 H 0.92870 1.00340 0.40390
C97 C 0.9353(8) 0.9159(5) 0.4955(6)
C98 C 0.9211(6) 0.8918(6) 0.5950(6)
H97 H 0.91470 0.92110 0.62980
H98 H 0.96760 0.89420 0.60330
C99 C 0.8308(6) 0.8163(6) 0.6135(7)
H99 H 0.83320 0.84650 0.65260
C100 C 0.8254(6) 0.7485(6) 0.6239(6)
H100 H 0.83170 0.74760 0.66920
C101 C 0.8062(7) 0.5820(6) 0.5723(6)
H101 H 0.80910 0.57220 0.61450
C102 C 0.7959(6) 0.5227(6) 0.5207(6)
H102 H 0.79590 0.48510 0.53900
C103 C 0.7700(6) 0.4330(5) 0.3644(6)
H103 H 0.76760 0.39250 0.37770
C104 C 0.7618(5) 0.4235(6) 0.2924(6)
H104 H 0.75360 0.37880 0.27140
C105 C 0.7579(5) 0.4775(5) 0.1485(6)
H105 H 0.74520 0.43450 0.12150
C106 C 0.7642(6) 0.5290(5) 0.1091(6)
H106 H 0.75310 0.51100 0.06300
C107 C 0.7925(6) 0.6877(5) 0.0930(6)
H107 H 0.78980 0.67510 0.04740
C108 C 0.8095(6) 0.7582(6) 0.1153(6)
H108 H 0.81560 0.77940 0.08070
C109 C 0.8381(7) 0.9040(6) 0.2297(7)
H109 H 0.85020 0.93230 0.20220
C110 C 0.8416(7) 0.9400(6) 0.2961(6)
H110 H 0.84790 0.98570 0.29850
C111 C 0.8464(6) 0.9559(6) 0.4608(6)
H111 H 0.85310 1.00210 0.46870
C112 C 0.8415(6) 0.9328(6) 0.5215(6)
H112 H 0.84020 0.96680 0.55580
C113 C 0.7312(8) 0.7521(8) 0.5520(6)
C114 C 0.7325(6) 0.6537(6) 0.5881(7)
H113 H 0.68530 0.64760 0.57470
H114 H 0.74440 0.64950 0.63230
C115 C 0.7069(7) 0.5652(7) 0.4980(7)
C116 C 0.6997(6) 0.4633(6) 0.4316(6)
H115 H 0.70690 0.42660 0.44880
H116 H 0.65340 0.46170 0.42250
C117 C 0.6813(7) 0.4667(5) 0.3185(6)
C118 C 0.6767(6) 0.4461(6) 0.2077(6)
H117 H 0.63330 0.45310 0.20450
H118 H 0.67180 0.40350 0.18370
C119 C 0.6884(6) 0.5401(6) 0.1636(6)
C120 C 0.6947(5) 0.6044(5) 0.0860(6)
H119 H 0.69280 0.58720 0.04190
H120 H 0.65030 0.60360 0.08800
C121 C 0.7085(7) 0.7162(6) 0.1257(5)
C122 C 0.7397(6) 0.8298(6) 0.1457(6)
H121 H 0.69280 0.82320 0.13870
H122 H 0.75120 0.85130 0.11350
C123 C 0.7389(7) 0.8759(6) 0.2523(7)
C124 C 0.7590(6) 0.9436(6) 0.3576(6)
H123 H 0.77130 0.98930 0.36350
H124 H 0.71160 0.93060 0.34620
C125 C 0.7486(7) 0.8896(7) 0.4414(6)
C126 C 0.7519(6) 0.8624(6) 0.5432(6)
H125 H 0.70510 0.84970 0.52340
H126 H 0.75990 0.89660 0.58020
N85 N 0.3468(5) 0.9523(6) 0.6398(6)
H127 H 0.38110 0.98160 0.63930
H128 H 0.33060 0.96660 0.67160
H129 H 0.31620 0.94410 0.60250
C127 C 0.3790(7) 0.6874(7) 0.6983(8)
H130 H 0.39710 0.65430 0.70970
C128 C 0.3786(8) 0.7022(7) 0.6437(9)
H131 H 0.39580 0.67830 0.61580
C129 C 0.3530(7) 0.7203(8) 0.7378(7)
H132 H 0.35130 0.70940 0.77650
C130 C 0.3547(8) 0.7502(8) 0.6255(7)
H133 H 0.35490 0.75860 0.58540
C131 C 0.3297(6) 0.7685(7) 0.7221(7)
H134 H 0.31210 0.79120 0.75050
C132 C 0.3305(7) 0.7862(7) 0.6654(8)
C133 C 0.3105(8) 0.8431(8) 0.6507(10)
H135 H 0.29040 0.86010 0.68270
H136 H 0.27840 0.83220 0.60930
C134 C 0.3680(8) 0.8922(8) 0.6499(9)
H137 H 0.38370 0.87630 0.61340
C135 C 0.4255(7) 0.9087(7) 0.7109(8)
H138 H 0.46030 0.94050 0.70680
H139 H 0.44090 0.87130 0.71670
H140 H 0.41120 0.92450 0.74730
N86 N 0.3463(7) 0.6724(10) 0.0432(7)
H141 H 0.38300 0.70290 0.05770
H142 H 0.31340 0.68860 0.02580
H143 H 0.35110 0.64190 0.01370
C136 C 0.2812(8) 0.6332(6) 0.3009(6)
H144 H 0.26530 0.61290 0.32980
C137 C 0.2464(7) 0.6678(7) 0.2679(7)
H145 H 0.20840 0.67490 0.27750
C138 C 0.3378(8) 0.6285(8) 0.2914(7)
H146 H 0.36350 0.60780 0.31690
C139 C 0.2657(7) 0.6923(7) 0.2215(8)
H147 H 0.23960 0.71380 0.19770
C140 C 0.3597(7) 0.6521(7) 0.2473(7)
H148 H 0.39960 0.64660 0.24110
C141 C 0.3228(7) 0.6859(6) 0.2091(7)
C142 C 0.3425(10) 0.7050(8) 0.1530(11)
H149 H 0.38820 0.72730 0.16630
H150 H 0.31680 0.73340 0.13680
C143 C 0.3316(13) 0.6448(13) 0.0985(9)
H151 H 0.36610 0.62310 0.11280
C144 C 0.275(1) 0.6005(8) 0.0784(8)
H152 H 0.26560 0.58480 0.11410
H153 H 0.27840 0.56620 0.04710
H154 H 0.24040 0.61880 0.05950
N87 N 0.9532(6) 0.6415(7) 0.3329(6)
H155 H 0.98760 0.64640 0.36630
H156 H 0.96310 0.66810 0.30840
H157 H 0.94250 0.60170 0.31000
C145 C 0.6944(6) 0.7134(8) 0.3696(7)
H158 H 0.66380 0.72940 0.38670
C146 C 0.7253(7) 0.7456(7) 0.3353(7)
H159 H 0.71590 0.78390 0.32840
C147 C 0.7069(7) 0.6581(8) 0.3799(7)
H160 H 0.68480 0.63540 0.40360
C148 C 0.7702(7) 0.7236(7) 0.3101(6)
H161 H 0.79090 0.74600 0.28520
C149 C 0.7516(7) 0.6360(6) 0.3558(7)
H162 H 0.76010 0.59740 0.36250
C150 C 0.7846(7) 0.6688(7) 0.3216(7)
C151 C 0.8393(8) 0.6482(9) 0.3018(7)
H163 H 0.82470 0.60410 0.27910
H164 H 0.85240 0.67310 0.27260
C152 C 0.8954(8) 0.6555(10) 0.3568(10)
H165 H 0.88290 0.62070 0.37730
C153 C 0.9165(7) 0.7143(9) 0.4100(8)
H166 H 0.95380 0.71150 0.44200
H167 H 0.88130 0.71810 0.42890
H168 H 0.92780 0.75090 0.39290
O84? O 0.9634(19) 0.0801(19) 0.263(3)
Cl5? Cl 0.5456(4) 0.9696(4) 0.3790(4)
O85? O 0.5194(19) 0.5254(17) 0.4411(18)
O86? O 0.4571(10) 0.5452(8) 0.4751(9)
O87? O 0.103(4) 0.066(3) 0.161(9)
#END
