
#######################################################################
#
#                 Cambridge Crystallographic Data Centre
#                                CCDC
#
#######################################################################
#
# If this CIF has been generated from an entry in the Cambridge
# Structural Database, then it will include bibliographic, chemical,
# crystal, experimental, refinement or atomic coordinate data resulting
# from the CCDC's data processing and validation procedures.
#
#######################################################################

data_CSD_CIF_REHCIT
_audit_creation_date 2017-10-11
_audit_creation_method CSD-ConQuest-V1
_database_code_CSD REHCIT
_database_code_depnum_ccdc_archive 'CCDC 1543082'
_chemical_formula_sum 'C52.71 H90.06 N29 Na0.71 O34.45 P1.71'
_chemical_formula_moiety
;
C42 H42 N28 O14,C10 H16 N1 1+,0.71(Na1 1+),1.71(H2 O4 P1 1-),0.71(C1 H4 
O1),12.9(H2 O1)
;
_journal_coden_Cambridge 2038
_journal_volume 3
_journal_year 2017
_journal_page_first 641
_journal_name_full 'Chem Cell mPress '
loop_
_publ_author_name
"Yoonjung Jang"
"Moonjeong Jang"
"Hyoeun Kim"
"Sang Jin Lee"
"Eunyeong Jin"
"Jin Young Koo"
"In-Chul Hwang"
"Yonghwi Kim"
"Young Ho Ko"
"Ilha Hwang"
"Joon Hak Oh"
"K.Kim"
_chemical_name_systematic
;
cucurbit[7]uril methamphetamine clathrate sodium dihydrogen phosphate 
methanol solvate hydrate
;
_cell_volume  54342.667
_exptl_crystal_colour 'colorless'
_exptl_special_details
;
The exact stoichiometry is unclear from the paper and deposited cif. The 
formula reported in the CSD entry gives a charge-balanced structure that best 
fits the chemical formula sum from the deposited cif
;
_exptl_crystal_description 'block'
_diffrn_ambient_temperature 100
_diffrn_radiation_probe x-ray
_diffrn_source synchrotron
_refine_special_details
;
The structure is disordered.

;
#These two values have been output from a single CSD field.
_refine_ls_R_factor_gt 0.1545
_refine_ls_wR_factor_gt 0.1545
_symmetry_cell_setting hexagonal
_symmetry_space_group_name_H-M 'P -3 c 1'
_symmetry_Int_Tables_number 165
loop_
_symmetry_equiv_pos_site_id
_symmetry_equiv_pos_as_xyz
1 x,y,z
2 -y,x-y,z
3 -x+y,-x,z
4 y,x,1/2-z
5 x-y,-y,1/2-z
6 -x,-x+y,1/2-z
7 -x,-y,-z
8 y,-x+y,-z
9 x-y,x,-z
10 -y,-x,-1/2+z
11 -x+y,y,-1/2+z
12 x,x-y,-1/2+z
_cell_length_a 37.350(5)
_cell_length_b 37.350(5)
_cell_length_c 44.981(9)
_cell_angle_alpha 90
_cell_angle_beta 90
_cell_angle_gamma 120
_cell_formula_units_Z 24
loop_
_atom_type_symbol
_atom_type_radius_bond
C 0.68
H 0.23
N 0.68
Na 1.66
O 0.68
P 1.05
loop_
_atom_site_label
_atom_site_type_symbol
_atom_site_fract_x
_atom_site_fract_y
_atom_site_fract_z
Na1 Na 0.33330 0.66670 0.19226(13)
Na2 Na 0.00000 0.57803(16) 0.25000
Na3 Na 0.33330 0.66670 0.26546(14)
O1 O 0.1063(2) 0.5008(2) 0.13474(16)
O2 O 0.1085(2) 0.4822(2) 0.22159(16)
O3 O 0.0828(2) 0.5191(2) 0.28629(19)
O4 O 0.0507(3) 0.5963(3) 0.28815(18)
O5 O 0.0387(2) 0.6423(2) 0.22608(16)
O6 O 0.0494(2) 0.6318(2) 0.14097(17)
O7 O 0.0836(2) 0.5698(2) 0.09974(15)
O8 O 0.28029(18) 0.63684(19) 0.15670(13)
O9 O 0.29067(18) 0.60997(19) 0.23159(13)
O10 O 0.2670(2) 0.6519(2) 0.29241(15)
O11 O 0.2290(2) 0.7361(2) 0.29254(15)
O12 O 0.2127(2) 0.7898(2) 0.23487(15)
O13 O 0.2270(2) 0.77186(18) 0.15516(14)
O14 O 0.26148(19) 0.71004(19) 0.11679(14)
N1 N 0.1660(2) 0.5432(2) 0.10836(17)
N2 N 0.1703(2) 0.5139(2) 0.15064(17)
N3 N 0.1727(2) 0.5010(2) 0.20262(18)
N4 N 0.1647(2) 0.5009(2) 0.25172(17)
N5 N 0.1492(3) 0.5308(2) 0.29377(18)
N6 N 0.1305(2) 0.5717(3) 0.31576(19)
N7 N 0.1074(3) 0.6217(3) 0.3179(2)
N8 N 0.0922(3) 0.6657(3) 0.29715(19)
N9 N 0.0783(3) 0.6994(3) 0.2564(2)
N10 N 0.0821(2) 0.7082(3) 0.20674(18)
N11 N 0.0887(2) 0.7007(2) 0.15427(17)
N12 N 0.1064(2) 0.6787(2) 0.11407(18)
N13 N 0.1293(2) 0.6374(2) 0.08741(18)
N14 N 0.1507(2) 0.5920(2) 0.08422(18)
N15 N 0.2360(2) 0.5994(2) 0.11883(17)
N16 N 0.2417(2) 0.5655(2) 0.15710(16)
N17 N 0.2474(2) 0.5483(2) 0.20784(17)
N18 N 0.2381(2) 0.5529(2) 0.25555(17)
N19 N 0.2217(2) 0.5820(2) 0.29845(17)
N20 N 0.2031(2) 0.6263(2) 0.31528(17)
N21 N 0.1805(2) 0.6768(3) 0.31645(18)
N22 N 0.1627(2) 0.7222(3) 0.30134(18)
N23 N 0.1497(3) 0.7535(3) 0.25880(19)
N24 N 0.1507(2) 0.7698(2) 0.21099(19)
N25 N 0.1597(2) 0.7577(2) 0.15984(17)
N26 N 0.1774(2) 0.7344(2) 0.11979(17)
N27 N 0.2004(2) 0.6940(2) 0.09290(16)
N28 N 0.2210(2) 0.6476(2) 0.09381(17)
C1 C 0.1441(3) 0.5178(3) 0.1319(2)
C2 C 0.1580(3) 0.4838(3) 0.1729(2)
H1 H 0.16840 0.46490 0.16790
H2 H 0.12740 0.46740 0.17320
C3 C 0.1447(3) 0.4935(3) 0.2250(2)
C4 C 0.1433(3) 0.4932(3) 0.2794(2)
H3 H 0.15300 0.47900 0.29300
H4 H 0.11340 0.47450 0.27600
C5 C 0.1175(3) 0.5385(4) 0.2972(3)
C6 C 0.1022(3) 0.5828(3) 0.3280(3)
H5 H 0.10500 0.58390 0.34990
H6 H 0.07370 0.56080 0.32320
C7 C 0.0808(4) 0.6255(4) 0.2999(2)
C8 C 0.0644(3) 0.6789(4) 0.2847(2)
H7 H 0.03650 0.65440 0.28220
H8 H 0.06200 0.69790 0.29890
C9 C 0.0635(3) 0.6787(4) 0.2299(3)
C10 C 0.0631(3) 0.7010(3) 0.1781(2)
H9 H 0.05600 0.72270 0.17410
H10 H 0.03710 0.67410 0.17840
C11 C 0.0791(3) 0.6678(4) 0.1369(3)
C12 C 0.1005(3) 0.6525(3) 0.0888(2)
H11 H 0.10320 0.66830 0.07040
H12 H 0.07200 0.62860 0.08930
C13 C 0.1174(3) 0.5965(3) 0.0917(2)
C14 C 0.1467(3) 0.5513(3) 0.0833(2)
H13 H 0.11700 0.53010 0.08280
H14 H 0.15940 0.54870 0.06470
C15 C 0.2099(3) 0.5562(3) 0.1110(2)
H15 H 0.22040 0.54870 0.09300
C16 C 0.2122(2) 0.5338(3) 0.1384(2)
H16 H 0.22070 0.51310 0.13330
C17 C 0.2125(3) 0.5077(3) 0.2146(2)
H17 H 0.21780 0.48480 0.20920
C18 C 0.2073(3) 0.5105(3) 0.2486(2)
H18 H 0.21250 0.49040 0.25980
C19 C 0.1835(3) 0.5555(3) 0.3128(2)
H19 H 0.18690 0.53830 0.32840
C20 C 0.1718(3) 0.5863(3) 0.3268(2)
H20 H 0.17240 0.58560 0.34900
C21 C 0.1396(3) 0.6615(3) 0.3292(2)
H21 H 0.14040 0.66210 0.35140
C22 C 0.1258(3) 0.6912(3) 0.3165(2)
H22 H 0.11710 0.70360 0.33260
C23 C 0.1075(3) 0.7417(3) 0.2527(2)
H23 H 0.09910 0.75930 0.26410
C24 C 0.1062(3) 0.7484(3) 0.2191(2)
H24 H 0.09370 0.76610 0.21470
C25 C 0.1223(3) 0.7388(3) 0.1418(2)
H25 H 0.11300 0.75900 0.13660
C26 C 0.1347(3) 0.7231(3) 0.1136(2)
H26 H 0.13210 0.73620 0.09500
C27 C 0.1705(3) 0.6614(3) 0.0743(2)
H27 H 0.16950 0.67150 0.05390
C28 C 0.1848(3) 0.6293(3) 0.0737(2)
H28 H 0.19280 0.62580 0.05320
C29 C 0.2556(3) 0.6043(3) 0.1455(2)
C30 C 0.2664(3) 0.5586(3) 0.1790(2)
H29 H 0.27080 0.53600 0.17200
H30 H 0.29390 0.58400 0.18060
C31 C 0.2616(3) 0.5738(3) 0.2314(2)
C32 C 0.2485(3) 0.5677(3) 0.2860(2)
H31 H 0.27740 0.59070 0.28660
H32 H 0.24660 0.54510 0.29860
C33 C 0.2349(3) 0.6236(3) 0.3013(2)
C34 C 0.2082(3) 0.6640(3) 0.3275(2)
H33 H 0.20490 0.66090 0.34930
H34 H 0.23690 0.68630 0.32350
C35 C 0.1938(3) 0.7136(3) 0.3026(2)
C36 C 0.1676(3) 0.7601(3) 0.2887(2)
H35 H 0.19740 0.78100 0.28770
H36 H 0.15400 0.77110 0.30170
C37 C 0.1746(3) 0.7723(3) 0.2350(2)
C38 C 0.1661(3) 0.7865(3) 0.1825(2)
H37 H 0.15320 0.80290 0.17620
H38 H 0.19620 0.80590 0.18430
C39 C 0.1914(3) 0.7559(3) 0.1459(2)
C40 C 0.2038(3) 0.7343(3) 0.0963(2)
H39 H 0.23280 0.75510 0.10080
H40 H 0.19620 0.74220 0.07740
C41 C 0.2307(3) 0.6862(3) 0.1027(2)
C42 C 0.2500(3) 0.6331(3) 0.0978(2)
H41 H 0.25490 0.62390 0.07830
H42 H 0.27660 0.65640 0.10480
O15 O 0.1971(2) 1.0482(2) -0.01463(18)
O16 O 0.1530(3) 1.0667(3) -0.0768(2)
O17 O 0.1776(3) 1.1692(4) -0.1092(3)
O18 O 0.2467(3) 1.2801(4) -0.0899(3)
O19 O 0.3153(3) 1.3138(3) -0.02886(19)
O20 O 0.3224(3) 1.2436(3) 0.0196(2)
O21 O 0.2705(3) 1.1251(3) 0.0309(2)
O22 O 0.3376(2) 1.0635(2) -0.09267(17)
O23 O 0.2848(2) 1.0769(2) -0.16039(17)
O24 O 0.2979(3) 1.1644(3) -0.20046(19)
O25 O 0.3737(3) 1.2669(3) -0.16954(18)
O26 O 0.4494(2) 1.3041(2) -0.09946(19)
O27 O 0.4734(2) 1.2521(2) -0.04015(18)
O28 O 0.4175(2) 1.14256(19) -0.03976(15)
N29 N 0.2526(3) 1.0364(3) -0.0142(2)
N30 N 0.2112(2) 1.0166(3) -0.0529(2)
N31 N 0.1771(3) 1.0248(3) -0.0955(2)
N32 N 0.1700(3) 1.0669(4) -0.1265(3)
N33 N 0.1833(3) 1.1314(5) -0.1479(3)
N34 N 0.2126(3) 1.1996(4) -0.1527(3)
N35 N 0.2615(4) 1.2685(4) -0.1376(4)
N36 N 0.3098(5) 1.3186(5) -0.1105(3)
N37 N 0.3576(3) 1.3434(3) -0.0694(3)
N38 N 0.3834(3) 1.3310(3) -0.0293(2)
N39 N 0.3910(3) 1.2905(3) 0.0094(2)
N40 N 0.3754(3) 1.2288(3) 0.0266(2)
N41 N 0.3421(3) 1.1546(3) 0.0305(2)
N42 N 0.3030(3) 1.0886(3) 0.0186(2)
N43 N 0.3100(2) 1.0455(2) -0.0459(2)
N44 N 0.2674(3) 1.0233(3) -0.0848(2)
N45 N 0.2339(3) 1.0341(3) -0.1269(2)
N46 N 0.2196(3) 1.0673(3) -0.1615(2)
N47 N 0.2300(3) 1.1306(4) -0.1850(2)
N48 N 0.2626(3) 1.1978(5) -0.1875(3)
N49 N 0.3119(3) 1.2677(4) -0.1712(3)
N50 N 0.3607(3) 1.3094(4) -0.1395(3)
N51 N 0.4078(3) 1.3333(3) -0.0979(3)
N52 N 0.4407(3) 1.3322(3) -0.0572(3)
N53 N 0.4473(3) 1.2906(3) -0.0181(2)
N54 N 0.4375(3) 1.2339(3) 0.0043(2)
N55 N 0.4024(3) 1.1596(3) 0.00609(18)
N56 N 0.3593(3) 1.0977(2) -0.01262(19)
C43 C 0.2179(3) 1.0353(3) -0.0260(3)
C44 C 0.1732(3) 1.0025(4) -0.0693(3)
H43 H 0.16190 0.97310 -0.07460
H44 H 0.15280 1.00420 -0.05620
C45 C 0.1648(4) 1.0537(4) -0.0969(4)
C46 C 0.1517(4) 1.0905(5) -0.1374(4)
H45 H 0.13560 1.09370 -0.12120
H46 H 0.13250 1.07520 -0.15380
C47 C 0.1900(5) 1.1668(7) -0.1343(5)
C48 C 0.2196(5) 1.2407(6) -0.1464(4)
H47 H 0.20070 1.23900 -0.13040
H48 H 0.21320 1.25180 -0.16440
C49 C 0.2704(6) 1.2879(6) -0.1102(4)
C50 C 0.3298(5) 1.3500(6) -0.0872(4)
H49 H 0.34520 1.37760 -0.09660
H50 H 0.30820 1.34970 -0.07420
C51 C 0.3488(5) 1.3277(3) -0.0409(3)
C52 C 0.3864(4) 1.3263(4) 0.0023(3)
H51 H 0.36120 1.32300 0.01210
H52 H 0.41040 1.35160 0.01030
C53 C 0.3598(5) 1.2535(4) 0.0192(3)
C54 C 0.3534(4) 1.1935(4) 0.0447(3)
H53 H 0.32790 1.19260 0.05180
H54 H 0.37050 1.19650 0.06230
C55 C 0.3014(4) 1.1222(4) 0.0273(3)
C56 C 0.2650(4) 1.0474(4) 0.0159(3)
H55 H 0.27000 1.02630 0.02510
H56 H 0.24230 1.04780 0.02700
C57 C 0.2696(3) 1.0174(3) -0.0329(3)
H57 H 0.26980 0.99390 -0.02250
C58 C 0.2400(3) 1.0021(3) -0.0598(3)
H58 H 0.22570 0.97140 -0.06190
C59 C 0.1901(3) 1.0175(4) -0.1240(3)
H59 H 0.17450 0.98750 -0.12940
C60 C 0.1810(4) 1.0438(4) -0.1461(3)
H60 H 0.15800 1.02610 -0.16000
C61 C 0.1987(5) 1.1384(5) -0.1783(4)
H61 H 0.17540 1.12420 -0.19270
C62 C 0.2205(4) 1.1892(5) -0.1814(4)
H62 H 0.20860 1.19800 -0.19780
C63 C 0.2950(4) 1.2903(5) -0.1594(3)
H63 H 0.28690 1.30370 -0.17530
C64 C 0.3302(5) 1.3232(5) -0.1391(4)
H64 H 0.34190 1.35180 -0.14720
C65 C 0.4002(4) 1.3591(4) -0.0771(3)
H65 H 0.41390 1.38860 -0.08370
C66 C 0.4189(4) 1.3541(4) -0.0481(3)
H66 H 0.43840 1.38160 -0.03920
C67 C 0.4304(4) 1.2917(4) 0.0099(3)
H67 H 0.45110 1.31570 0.02190
C68 C 0.4204(4) 1.2505(3) 0.0251(3)
H68 H 0.43330 1.25500 0.04520
C69 C 0.3714(3) 1.1395(3) 0.0286(2)
H69 H 0.38390 1.14020 0.04840
C70 C 0.3439(3) 1.0949(3) 0.0173(2)
H70 H 0.34700 1.07430 0.02970
C71 C 0.3081(3) 1.0463(3) -0.0765(3)
C72 C 0.2552(4) 1.0135(3) -0.1153(3)
H71 H 0.23690 0.98330 -0.11720
H72 H 0.28020 1.02150 -0.12750
C73 C 0.2502(4) 1.0620(4) -0.1511(3)
C74 C 0.2233(4) 1.0899(5) -0.1896(3)
H73 H 0.24660 1.09170 -0.20140
H74 H 0.19770 1.07380 -0.20140
C75 C 0.2655(5) 1.1627(5) -0.1917(3)
C76 C 0.2929(5) 1.2392(6) -0.1952(3)
H75 H 0.31500 1.23820 -0.20670
H76 H 0.27970 1.25030 -0.20850
C77 C 0.3516(4) 1.2790(4) -0.1614(3)
C78 C 0.4030(4) 1.3357(4) -0.1294(3)
H77 H 0.42120 1.32760 -0.13990
H78 H 0.41200 1.36470 -0.13480
C79 C 0.4338(4) 1.3216(4) -0.0857(4)
C80 C 0.4673(4) 1.3265(3) -0.0392(3)
H79 H 0.48390 1.35200 -0.02750
H80 H 0.48670 1.32260 -0.05210
C81 C 0.4548(3) 1.2588(4) -0.0195(3)
C82 C 0.4407(3) 1.1981(3) 0.0104(2)
H81 H 0.44980 1.19940 0.03130
H82 H 0.46210 1.19830 -0.00260
C83 C 0.3956(3) 1.1338(3) -0.0181(2)
C84 C 0.3479(3) 1.0602(3) -0.0306(3)
H83 H 0.37010 1.06660 -0.04520
H84 H 0.34590 1.03810 -0.01740
N57 N 0.1303(3) 0.9276(4) 0.0324(3)
H85 H 0.10250 0.90910 0.03490
H86 H 0.13750 0.92500 0.01330
C85 C 0.2108(3) 0.8416(3) 0.1100(3)
H87 H 0.22870 0.83710 0.12240
C86 C 0.1867(3) 0.8566(3) 0.1223(3)
H88 H 0.18810 0.86210 0.14300
C87 C 0.2090(4) 0.8335(3) 0.0806(3)
H89 H 0.22510 0.82270 0.07240
C88 C 0.1605(4) 0.8636(3) 0.1044(3)
H90 H 0.14360 0.87300 0.11320
C89 C 0.1830(4) 0.8412(3) 0.0619(3)
H91 H 0.18170 0.83570 0.04120
C90 C 0.1585(3) 0.8573(3) 0.0746(3)
C91 C 0.1347(4) 0.8701(4) 0.0555(3)
H92 H 0.10620 0.85780 0.06330
H93 H 0.13310 0.85920 0.03520
C92 C 0.1546(4) 0.9185(4) 0.0540(4)
H94 H 0.14940 0.92700 0.07390
C93 C 0.1971(4) 0.9415(5) 0.0498(6)
H95 H 0.20600 0.97110 0.05020
H96 H 0.20420 0.93450 0.03050
H97 H 0.21110 0.93530 0.06570
C94 C 0.1391(5) 0.9732(4) 0.0376(5)
H98 H 0.12330 0.97950 0.02310
H99 H 0.16860 0.99270 0.03510
H100 H 0.13060 0.97570 0.05780
N58 N 0.0562(4) 0.5534(8) 0.1578(3)
H101 H 0.05660 0.52920 0.15470
H102 H 0.06340 0.56780 0.14010
C95 C 0.2141(3) 0.6711(3) 0.2366(2)
H103 H 0.23190 0.68440 0.25300
C96 C 0.2137(3) 0.6381(3) 0.2233(3)
H104 H 0.23180 0.62910 0.23030
C97 C 0.1886(4) 0.6852(3) 0.2260(3)
H105 H 0.18960 0.70880 0.23470
C98 C 0.1876(3) 0.6176(3) 0.2001(3)
H106 H 0.18840 0.59500 0.19100
C99 C 0.1616(4) 0.6646(3) 0.2027(3)
H107 H 0.14400 0.67430 0.19560
C100 C 0.1599(3) 0.6294(3) 0.1895(2)
C101 C 0.1264(3) 0.6048(4) 0.1674(3)
H108 H 0.12350 0.62420 0.15390
H109 H 0.13500 0.58830 0.15510
C102 C 0.0876(4) 0.5780(6) 0.1802(3)
H110 H 0.07830 0.59680 0.18860
C103 C 0.0860(7) 0.5543(9) 0.2035(8)
H111 H 0.05710 0.53560 0.20900
H112 H 0.10080 0.57210 0.22040
H113 H 0.09900 0.53800 0.19790
C104 C 0.0106(5) 0.5421(6) 0.1660(5)
H114 H -0.00820 0.52620 0.14980
H115 H 0.00960 0.56760 0.16910
H116 H 0.00200 0.52570 0.18430
O29 O -0.0380(7) 0.3694(8) 0.3023(6)
O30 O 0.0478(18) 0.1635(19) 0.2630(14)
O31 O 0.2738(2) 0.8681(2) 0.22513(18)
P1 P 0.3530(2) 1.2762(3) 0.0993(3)
O32 O 0.3523(5) 1.2895(5) 0.1318(3)
O33 O 0.3396(6) 1.3033(9) 0.0779(4)
O34 O 0.3153(5) 1.2332(5) 0.0931(4)
O35 O 0.3937(5) 1.2813(7) 0.0892(6)
P2 P 0.2986(4) 0.7186(3) 0.0221(2)
O36 O 0.2829(14) 0.7301(15) 0.0448(9)
O37 O 0.3423(10) 0.766(1) 0.0300(5)
O38 O 0.2924(8) 0.7227(12) -0.0068(6)
O39 O 0.3130(11) 0.6919(10) 0.037(1)
O40 O 0.447(3) 0.880(3) 0.0158(11)
O41 O 0.4321(17) 0.916(3) -0.0039(12)
O42 O 0.2619(10) 0.5857(11) 0.3783(5)
C105 C 0.2503(13) 0.5479(17) 0.3591(7)
O43 O 0.1733(4) 0.9319(4) -0.0200(4)
O44 O -0.0540(12) 0.917(1) -0.0407(10)
O45 O 0.124(3) 1.0696(18) 0.1323(15)
O46 O 0.188(2) 1.062(2) 0.1742(17)
O47 O -0.0502(13) 0.9041(17) 0.0254(14)
P3 P 0.2395(6) 0.7872(6) -0.1148(4)
O48 O 0.2272(10) 0.7562(12) -0.1374(7)
O49 O 0.2822(10) 0.8039(11) -0.1082(6)
O50 O 0.2344(10) 0.8174(12) -0.1310(7)
O51 O 0.2137(10) 0.7724(11) -0.0901(6)
O52 O 0.3867(9) 0.9283(7) -0.1126(6)
O53 O 0.015(2) 0.443(2) 0.3242(17)
O54 O 0.0370(13) 0.4375(13) 0.2849(10)
O55 O 0.017(2) 0.4885(8) 0.0759(12)
O56 O 0.3257(12) 0.7979(12) -0.0205(9)
O57 O 0.145(2) 0.253(2) 0.4049(19)
O58 O 0.1764(13) 0.2479(12) 0.3442(9)
O59 O 0.2543(9) 0.2934(15) 0.3225(6)
O60 O 0.4269(11) 1.0260(12) -0.0315(9)
O61 O 0.1764(13) 0.4418(13) 0.3264(10)
O62 O 0.1183(13) 0.4034(13) 0.3443(10)
O63 O 0.1169(7) 0.3227(7) 0.4080(5)
C106 C 0.1299(8) 0.3421(8) 0.3801(6)
O64 O 0.4264(15) 1.0954(14) 0.0457(12)
O65 O 0.0782(12) 0.4652(11) 0.3684(9)
O66 O 0.0800(9) 0.9059(8) -0.0335(6)
O67? O 0.1313(10) 0.3629(12) 0.2907(8)
O68? O 0.0935(10) 0.3588(12) 0.2885(9)
O69? O 0.3341(16) 1.2358(14) 0.1291(12)
O70? O 0.4113(13) 0.8324(18) -0.0050(8)
O71? O 0.2564(12) 0.7102(9) 0.0359(8)
O72? O 0.3622(8) 0.7902(12) -0.0014(8)
O73? O 0.367(2) 0.969(2) -0.1443(16)
O74? O 0.3657(6) 0.9659(4) -0.1454(4)
O75? O -0.0104(8) 0.4126(9) 0.2938(7)
O76? O 0.0247(11) 0.4629(9) 0.2556(17)
O77? O 0.3771(6) 0.9000(7) -0.0807(5)
O78? O 0.3823(12) 0.9767(12) -0.0709(9)
O79? O 0.0281(5) 0.4795(7) 0.1231(9)
O80? O 0.333(3) 0.7961(19) -0.0839(16)
O81? O 0.1426(19) 0.302(2) 0.3830(14)
O82? O 0.1476(13) 0.2634(17) 0.358(2)
O83? O 0.1035(19) 0.372(2) 0.3716(16)
O84? O 0.4356(14) 1.0479(14) -0.0005(11)
O85? O 0.220(2) 0.3169(11) 0.3265(9)
O86? O 0.2381(7) 0.2523(8) 0.2959(9)
O87? O 0.107(2) 0.465(2) 0.3574(18)
O88? O 0.080(2) 0.497(3) 0.3806(14)
O89? O 0.2092(9) 1.0646(8) 0.0797(5)
P4? P 0.0343(5) 0.3487(4) 0.2648(3)
O90? O 0.0802(8) 0.3920(6) 0.2647(4)
O91? O 0.0093(13) 0.3423(7) 0.2299(12)
O92? O 0.0451(9) 0.3151(7) 0.2718(6)
O93? O -0.004(3) 0.352(2) 0.2920(8)
O94? O 0.0701(16) 0.2097(18) 0.2635(12)
O95? O 0.2113(12) 0.2780(12) 0.3239(9)
O96? O 0.4419(7) 1.0742(7) 0.0283(5)
O97? O -0.0159(5) 0.5085(6) 0.2444(4)
O98? O 0.3949(7) 0.9397(8) -0.0830(5)
P5? P 0.2607(2) 0.2607(2) 0.25000
O99? O 0.2196(8) 0.2593(8) 0.2506(8)
O100? O 0.2859(8) 0.2869(8) 0.2796(8)
P6? P 0.1226(6) 0.2939(6) 0.2781(4)
O101? O 0.0730(13) 0.2845(10) 0.2714(6)
O102? O 0.1400(12) 0.3137(10) 0.3081(6)
O103? O 0.1187(12) 0.2429(11) 0.2684(6)
O104? O 0.1566(12) 0.3197(10) 0.2560(6)
#END
