
#######################################################################
#
#                 Cambridge Crystallographic Data Centre
#                                CCDC
#
#######################################################################
#
# If this CIF has been generated from an entry in the Cambridge
# Structural Database, then it will include bibliographic, chemical,
# crystal, experimental, refinement or atomic coordinate data resulting
# from the CCDC's data processing and validation procedures.
#
#######################################################################

data_CSD_CIF_RELZOA
_audit_creation_date 2017-10-12
_audit_creation_method CSD-ConQuest-V1
_database_code_CSD RELZOA
_database_code_depnum_ccdc_archive 'CCDC 1579595'
_chemical_formula_sum 'C54 H106 N7 O29'
_chemical_formula_moiety
;
C45 H60 N7 O6 3+,1.5(C6 H8 O4 2-),17(H2 O1)
;
_journal_coden_Cambridge 35
_journal_volume 82
_journal_year 2017
_journal_page_first 10007
_journal_name_full 'J.Org.Chem. '
loop_
_publ_author_name
"S.Chakraborty"
"S.Saha"
"L.M.P.Lima"
"U.Warzok"
"S.Sarkar"
"Bidyut Akhuli"
"M.Nandi"
"S.Bej"
"N.N.Adarsh"
"C.A.Schalley"
"R.Delgado"
"P.Ghosh"
_chemical_name_systematic
;
2,32,48-trimethyl-6,28,35-trioxo-8,26,37-trioxa-5,14,17,20,29,34,43-heptaazahe
xacyclo[15.15.13.2^9,12^.2^22,25^.2^38,41^.1^3,31^]dopentaconta-1,3(48),9,11,2
2,24,31,38,40,46,49,51-dodecaene-14,20,43-triium adipate clathrate 
hemikis(adipate) heptadecahydrate
;
_cell_volume   6661.281
_exptl_crystal_colour 'colorless'
_exptl_crystal_description 'block'
_diffrn_ambient_temperature 150
#These two values have been output from a single CSD field.
_refine_ls_R_factor_gt 0.09
_refine_ls_wR_factor_gt 0.09
_symmetry_cell_setting monoclinic
_symmetry_space_group_name_H-M 'P 21/c'
_symmetry_Int_Tables_number 14
loop_
_symmetry_equiv_pos_site_id
_symmetry_equiv_pos_as_xyz
1 x,y,z
2 -x,1/2+y,1/2-z
3 -x,-y,-z
4 x,-1/2-y,-1/2+z
_cell_length_a 19.851(3)
_cell_length_b 14.2576(19)
_cell_length_c 23.979(3)
_cell_angle_alpha 90
_cell_angle_beta 101.033(3)
_cell_angle_gamma 90
_cell_formula_units_Z 4
loop_
_atom_type_symbol
_atom_type_radius_bond
C 0.68
H 0.23
N 0.68
O 0.68
loop_
_atom_site_label
_atom_site_type_symbol
_atom_site_fract_x
_atom_site_fract_y
_atom_site_fract_z
N1 N 0.47313(16) 0.4270(2) 0.15668(15)
H1 H 0.46140 0.40670 0.12060
H2 H 0.43430 0.44270 0.16850
N2 N 0.32381(17) 0.5350(2) -0.01043(15)
H3 H 0.32160 0.50990 0.02360
H4 H 0.32620 0.48740 -0.03460
N3 N 0.41830(16) 0.6035(2) 0.10195(14)
N4 N 0.17556(16) 0.0202(2) 0.21370(14)
H5 H 0.18740 0.05650 0.18860
N5 N 0.01207(16) 0.3265(2) 0.25645(13)
H6 H 0.01740 0.35710 0.22670
N6 N -0.02612(17) 0.1981(2) 0.01798(13)
H7 H 0.01720 0.20320 0.03090
N7 N 0.32644(16) 0.7447(2) 0.19752(14)
H8 H 0.34990 0.79670 0.19180
H9 H 0.34650 0.72040 0.23130
O1 O 0.09210(14) 0.46927(17) 0.25017(11)
O2 O 0.30163(14) 0.0854(2) 0.21795(12)
O3 O 0.20915(14) -0.0476(2) 0.30018(12)
O4 O 0.04169(16) 0.3194(2) 0.35242(12)
O5 O 0.02930(14) 0.37050(19) -0.00572(12)
O6 O -0.11417(15) 0.2461(2) -0.04969(13)
C1 C 0.13369(19) 0.5430(3) 0.24186(16)
C2 C -0.04913(18) 0.1869(3) 0.14839(16)
C3 C 0.0476(2) 0.3546(3) 0.30685(17)
C4 C 0.49110(19) 0.5780(3) 0.10891(18)
H10 H 0.51820 0.63500 0.11420
H11 H 0.49850 0.54860 0.07410
C5 C -0.01730(18) 0.1787(3) 0.20556(15)
C6 C 0.10754(19) -0.0234(3) 0.20126(17)
H12 H 0.09900 -0.05540 0.23490
H13 H 0.10640 -0.06980 0.17150
C7 C -0.03128(19) 0.1236(3) 0.10850(15)
C8 C 0.05158(18) 0.0488(3) 0.18248(15)
C9 C 0.17844(19) 0.5877(3) 0.28487(17)
H14 H 0.18240 0.56850 0.32240
C10 C 0.1268(2) 0.5726(3) 0.18619(16)
H15 H 0.09590 0.54280 0.15770
C11 C 0.21218(19) 0.6918(3) 0.21519(17)
C12 C 0.0842(2) 0.4224(3) -0.01587(17)
C13 C 0.1659(2) 0.6467(3) 0.17293(17)
H16 H 0.16110 0.66650 0.13540
C14 C 0.3898(2) 0.1958(3) 0.26281(18)
H17 H 0.38040 0.18600 0.29890
C15 C 0.01973(19) 0.0554(3) 0.12499(16)
C16 C 0.3327(2) 0.6755(3) 0.15216(17)
H18 H 0.30710 0.69710 0.11590
H19 H 0.31410 0.61540 0.16080
C17 C 0.21734(19) 0.6618(3) 0.27092(16)
H20 H 0.24760 0.69220 0.29960
C18 C 0.4079(2) 0.6648(3) 0.14902(17)
H21 H 0.42700 0.72620 0.14420
H22 H 0.43240 0.63900 0.18460
C19 C 0.0982(2) 0.4335(3) 0.30642(15)
H23 H 0.08920 0.48310 0.33170
H24 H 0.14450 0.41070 0.31990
C20 C 0.2197(2) 0.0062(3) 0.26192(17)
C21 C 0.03289(19) 0.1097(3) 0.22286(15)
C22 C -0.0532(2) 0.2486(3) -0.02663(16)
C23 C 0.2844(2) 0.0640(3) 0.27087(17)
H25 H 0.27770 0.12160 0.29070
H26 H 0.32160 0.02930 0.29410
C24 C 0.4213(2) 0.2227(3) 0.15590(19)
H27 H 0.43270 0.22990 0.12030
C25 C 0.3541(2) 0.1471(3) 0.21636(18)
C26 C -0.0352(2) 0.2470(3) 0.24906(17)
H28 H -0.08180 0.26940 0.23660
H29 H -0.03270 0.21520 0.28510
C27 C 0.4556(2) 0.2750(3) 0.20178(19)
C28 C 0.1141(2) 0.4803(3) 0.02785(19)
H30 H 0.09640 0.48280 0.06110
C29 C 0.5173(2) 0.5124(3) 0.15800(19)
H31 H 0.56380 0.49350 0.15640
H32 H 0.51840 0.54550 0.19350
C30 C 0.0662(2) 0.1023(3) 0.28448(16)
H33 H 0.09740 0.05010 0.28970
H34 H 0.03160 0.09300 0.30690
H35 H 0.09100 0.15900 0.29620
C31 C -0.0656(2) 0.1333(3) 0.04693(16)
H36 H -0.06840 0.07240 0.02860
H37 H -0.11190 0.15700 0.04440
C32 C 0.2546(2) 0.7726(3) 0.20088(18)
H38 H 0.23260 0.79900 0.16470
H39 H 0.25610 0.82090 0.22950
C33 C 0.0413(2) -0.0076(3) 0.08124(18)
H40 H 0.08960 -0.02020 0.09170
H41 H 0.03180 0.02270 0.04480
H42 H 0.01630 -0.06550 0.07930
C34 C 0.3990(2) 0.6547(3) 0.04777(17)
H43 H 0.43470 0.69980 0.04480
H44 H 0.35710 0.68940 0.04820
C35 C -0.1000(2) 0.2647(3) 0.12820(19)
H45 H -0.14590 0.24040 0.12340
H46 H -0.09210 0.28870 0.09260
H47 H -0.09420 0.31420 0.15580
C36 C 0.4398(2) 0.2599(3) 0.25442(18)
H48 H 0.46330 0.29350 0.28540
C37 C 0.3703(2) 0.1600(3) 0.16298(19)
H49 H 0.34680 0.12660 0.13200
C38 C 0.1699(2) 0.5344(3) 0.02262(19)
H50 H 0.18980 0.57310 0.05250
C39 C -0.0042(2) 0.3112(3) -0.04997(16)
H51 H 0.02930 0.27360 -0.06440
H52 H -0.02910 0.34870 -0.08090
C40 C 0.1099(2) 0.4193(3) -0.06536(17)
H53 H 0.08980 0.38030 -0.09510
C41 C 0.5074(2) 0.3481(3) 0.1931(2)
H54 H 0.53000 0.37260 0.22970
H55 H 0.54220 0.31960 0.17510
C42 C 0.3880(2) 0.5919(3) -0.00456(17)
H56 H 0.38580 0.63050 -0.03820
H57 H 0.42690 0.55000 -0.00220
C43 C 0.2591(2) 0.5891(3) -0.0314(2)
H58 H 0.25700 0.60670 -0.07070
H59 H 0.25940 0.64610 -0.00920
C44 C 0.1970(2) 0.5319(3) -0.02659(18)
C45 C 0.1658(2) 0.4746(3) -0.07042(18)
H60 H 0.18270 0.47310 -0.10400
O7 O 0.36521(15) 0.4580(2) 0.28018(13)
O8 O 0.19002(14) 0.1257(2) 0.11536(12)
O9 O 0.34683(14) 0.4510(2) 0.18569(13)
O10 O 0.12204(16) 0.1864(2) 0.03945(12)
C46 C 0.2283(2) 0.3403(3) 0.17741(17)
H61 H 0.25820 0.30220 0.15910
H62 H 0.21360 0.39380 0.15310
C47 C 0.2675(2) 0.3743(3) 0.23383(16)
H63 H 0.28090 0.32000 0.25780
H64 H 0.23670 0.41140 0.25170
C48 C 0.14723(19) 0.1847(3) 0.09234(16)
C49 C 0.1200(2) 0.2581(3) 0.12775(18)
H65 H 0.07620 0.23650 0.13510
H66 H 0.11140 0.31500 0.10530
C50 C 0.1656(2) 0.2828(3) 0.18438(17)
H67 H 0.18080 0.22540 0.20460
H68 H 0.13900 0.31800 0.20710
C51 C 0.3309(2) 0.4319(3) 0.23257(18)
O11 O 0.50092(18) 0.7131(2) 0.47900(15)
O12 O 0.5830(2) 0.7162(3) 0.5552(2)
C52 C 0.5300(3) 0.6803(3) 0.5263(2)
C53 C 0.4713(4) 0.5250(5) 0.5132(3)
H69 H 0.43700 0.55060 0.48280
H70 H 0.44900 0.47890 0.53330
C54 C 0.4976(4) 0.5987(4) 0.5515(3)
H71 H 0.53160 0.57220 0.58190
H72 H 0.46040 0.62260 0.56840
O13 O 0.39115(15) 0.6492(2) 0.29372(12)
O14 O 0.44687(16) 0.3766(2) 0.04291(13)
O15 O 0.31624(16) 0.4001(2) 0.07156(14)
O16 O 0.24315(15) 0.8092(2) 0.04373(14)
O17 O 0.32300(18) 0.3737(2) 0.37049(14)
O18 O 0.50343(16) 0.5019(2) 0.29853(16)
O19 O 0.38253(18) 0.7087(2) 0.40102(13)
O20 O 0.27025(17) 0.9949(2) 0.07634(16)
O21 O 0.65678(18) 0.8866(2) 0.58214(14)
O22 O 0.37628(17) 0.9059(2) 0.15676(16)
O23 O 0.33723(18) 0.8678(3) 0.3370(2)
O24 O 0.26568(19) 0.6605(3) 0.43428(16)
O25 O 0.22950(19) 0.2262(3) 0.37345(16)
O26 O 0.1291(2) 0.4058(4) 0.44417(17)
O27 O 0.2517(3) 0.4717(4) 0.4365(3)
O28 O 0.3220(5) 0.1179(8) 0.0120(4)
O29 O 0.2379(3) 0.2693(4) 0.0040(2)
O11B O 0.49908(18) 0.2869(2) 0.52100(15)
O12B O 0.4170(2) 0.2838(3) 0.4448(2)
C52B C 0.4700(3) 0.3197(3) 0.4737(2)
C53B C 0.5287(4) 0.4750(5) 0.4868(3)
H69B H 0.56300 0.44940 0.51720
H70B H 0.55100 0.52110 0.46670
C54B C 0.5024(4) 0.4013(4) 0.4485(3)
H71B H 0.46840 0.42780 0.41810
H72B H 0.53960 0.37740 0.43160
#END
