
#######################################################################
#
#                 Cambridge Crystallographic Data Centre
#                                CCDC
#
#######################################################################
#
# If this CIF has been generated from an entry in the Cambridge
# Structural Database, then it will include bibliographic, chemical,
# crystal, experimental, refinement or atomic coordinate data resulting
# from the CCDC's data processing and validation procedures.
#
#######################################################################

data_CSD_CIF_RELZIU
_audit_creation_date 2017-10-12
_audit_creation_method CSD-ConQuest-V1
_database_code_CSD RELZIU
_database_code_depnum_ccdc_archive 'CCDC 1579594'
_chemical_formula_sum 'C55 H93 N7 O24'
_chemical_formula_moiety
;
H3 O1 1+,C45 H60 N7 O6 3+,2(C5 H6 O4 2-),9(H2 O1)
;
_journal_coden_Cambridge 35
_journal_volume 82
_journal_year 2017
_journal_page_first 10007
_journal_name_full 'J.Org.Chem. '
loop_
_publ_author_name
"S.Chakraborty"
"S.Saha"
"L.M.P.Lima"
"U.Warzok"
"S.Sarkar"
"Bidyut Akhuli"
"M.Nandi"
"S.Bej"
"N.N.Adarsh"
"C.A.Schalley"
"R.Delgado"
"P.Ghosh"
_chemical_name_systematic
;
oxonium 
2,32,48-trimethyl-6,28,35-trioxo-8,26,37-trioxa-5,14,17,20,29,34,43-heptaazahe
xacyclo[15.15.13.2^9,12^.2^22,25^.2^38,41^.1^3,31^]dopentaconta-1,3(48),9,11,2
2,24,31,38,40,46,49,51-dodecaene-14,20,43-triium glutarate clathrate 
glutarate nonahydrate
;
_cell_volume  12115.560
_exptl_crystal_colour 'colorless'
_exptl_crystal_density_diffrn 1.329
_exptl_crystal_description 'plate'
_diffrn_ambient_temperature 150
_refine_special_details
;
C61B,C64B,C65B,C66B,C67B,O302,O62B,O63B,O68B,O69B and 
C61,C64,C65,C66,C67,O303,O62,O63,O68,O69 disordered over two sites with 
occupancies 0.503:0.497; C91,C94,C95,C96,C97,O92,O93,O98,O99 and 
C91B,C94B,C95B,C96B,C97B,O92B,O93B,O98B,O99B disordered over two sites with 
occupancies 0.566:0.434.
;
#These two values have been output from a single CSD field.
_refine_ls_R_factor_gt 0.0753
_refine_ls_wR_factor_gt 0.0753
_symmetry_cell_setting monoclinic
_symmetry_space_group_name_H-M 'C 2/c'
_symmetry_Int_Tables_number 15
loop_
_symmetry_equiv_pos_site_id
_symmetry_equiv_pos_as_xyz
1 x,y,z
2 -x,y,1/2-z
3 1/2+x,1/2+y,z
4 1/2-x,1/2+y,1/2-z
5 -x,-y,-z
6 x,-y,-1/2+z
7 -1/2-x,-1/2-y,-z
8 -1/2+x,-1/2-y,-1/2+z
_cell_length_a 38.167(5)
_cell_length_b 16.311(2)
_cell_length_c 20.656(3)
_cell_angle_alpha 90
_cell_angle_beta 109.581(4)
_cell_angle_gamma 90
_cell_formula_units_Z 8
loop_
_atom_type_symbol
_atom_type_radius_bond
C 0.68
H 0.23
N 0.68
O 0.68
loop_
_atom_site_label
_atom_site_type_symbol
_atom_site_fract_x
_atom_site_fract_y
_atom_site_fract_z
N1 N 0.56041(8) 0.45151(17) 0.95732(15)
N2 N 0.61781(9) 0.42346(17) 0.88531(17)
H1 H 0.60225 0.40732 0.84468
H2 H 0.61721 0.38627 0.91645
N3 N 0.71222(9) -0.06784(17) 0.85720(14)
N4 N 0.61371(8) 0.39506(17) 1.09881(15)
H3 H 0.63257 0.42555 1.09641
H4 H 0.60943 0.35598 1.06703
N5 N 0.74673(8) -0.04706(17) 1.16173(15)
N6 N 0.52526(11) 0.28215(19) 0.90570(19)
H5 H 0.51942 0.25041 0.86854
H6 H 0.54986 0.28827 0.92098
N7 N 0.61228(8) -0.20674(18) 0.99125(16)
O1 O 0.72843(7) 0.13434(15) 0.85271(13)
O2 O 0.76567(7) -0.01127(15) 0.85112(13)
O3 O 0.71979(7) 0.08275(14) 1.20494(12)
O4 O 0.80604(7) -0.00810(14) 1.22193(13)
O5 O 0.56868(7) -0.08636(15) 1.00084(13)
O6 O 0.56380(8) -0.29569(16) 0.95524(16)
C1 C 0.56580(11) 0.5023(2) 0.90187(19)
H7 H 0.55783 0.55793 0.90604
H8 H 0.55019 0.48107 0.85778
C2 C 0.60545(11) 0.5039(2) 0.9035(2)
H9 H 0.60802 0.54518 0.87156
H10 H 0.62145 0.51948 0.94919
C3 C 0.65611(11) 0.4285(2) 0.8823(2)
H11 H 0.67209 0.45351 0.92446
H12 H 0.65575 0.46443 0.84468
C4 C 0.67308(10) 0.3470(2) 0.87279(19)
C5 C 0.65672(10) 0.2960(2) 0.8172(2)
H13 H 0.63382 0.31024 0.78535
C6 C 0.67404(10) 0.2236(2) 0.80807(18)
H14 H 0.66274 0.18943 0.77085
C7 C 0.7081(1) 0.2036(2) 0.85512(17)
C8 C 0.72546(10) 0.2555(2) 0.90953(18)
H15 H 0.74899 0.24284 0.93987
C9 C 0.70777(11) 0.3260(2) 0.91852(19)
H16 H 0.71923 0.35992 0.95578
C10 C 0.70919(10) 0.0677(2) 0.81055(18)
H17 H 0.70813 0.07524 0.76335
H18 H 0.68404 0.06312 0.81155
C11 C 0.73181(11) -0.0082(2) 0.84164(17)
C12 C 0.72878(11) -0.1457(2) 0.88852(19)
H19 H 0.75564 -0.14237 0.90175
H20 H 0.72035 -0.18955 0.85513
C13 C 0.57241(10) 0.4995(2) 1.02135(18)
H21 H 0.55333 0.53945 1.01986
H22 H 0.59489 0.52926 1.02426
C14 C 0.57981(10) 0.4474(2) 1.08512(19)
H23 H 0.58288 0.48280 1.12434
H24 H 0.55846 0.41242 1.07981
C15 C 0.62384(11) 0.3565(2) 1.16910(18)
H25 H 0.63492 0.39788 1.20361
H26 H 0.60133 0.33724 1.17612
C16 C 0.65054(10) 0.2858(2) 1.17898(17)
C17 C 0.68772(11) 0.2980(2) 1.18693(18)
H27 H 0.69651 0.35101 1.18605
C18 C 0.7121(1) 0.2321(2) 1.19621(17)
H28 H 0.73696 0.24086 1.20127
C19 C 0.69891(10) 0.1531(2) 1.19782(16)
C20 C 0.66225(10) 0.1400(2) 1.19211(18)
H29 H 0.65370 0.08712 1.19450
C21 C 0.63823(11) 0.2062(2) 1.18279(18)
H30 H 0.61356 0.19729 1.17902
C22 C 0.75768(10) 0.0896(2) 1.21077(19)
H31 H 0.77202 0.10992 1.25605
H32 H 0.76030 0.12814 1.17689
C23 C 0.77205(10) 0.0060(2) 1.19935(17)
C24 C 0.75764(11) -0.1289(2) 1.14424(18)
H33 H 0.75670 -0.16808 1.17893
H34 H 0.78303 -0.12675 1.14417
C25 C 0.52098(11) 0.4296(2) 0.9398(2)
H35 H 0.50606 0.47847 0.92391
H36 H 0.51668 0.41089 0.98104
C26 C 0.50789(14) 0.3639(2) 0.8852(2)
H37 H 0.48115 0.35820 0.87289
H38 H 0.51301 0.38191 0.84452
C27 C 0.51443(12) 0.2400(2) 0.9584(2)
H39 H 0.48754 0.24100 0.94542
H40 H 0.52458 0.26946 1.00143
C28 C 0.52762(11) 0.1520(2) 0.96896(19)
C29 C 0.56109(12) 0.1329(3) 1.0195(2)
H41 H 0.57520 0.17430 1.04709
C30 C 0.57366(12) 0.0528(2) 1.0290(2)
H42 H 0.59601 0.04041 1.06327
C31 C 0.55297(10) -0.0092(2) 0.98754(18)
C32 C 0.51957(10) 0.0083(2) 0.93742(19)
H43 H 0.50539 -0.03325 0.91011
C33 C 0.50734(11) 0.0898(2) 0.9283(2)
H44 H 0.48500 0.10220 0.89406
C34 C 0.54981(10) -0.1535(2) 0.95969(19)
H45 H 0.54094 -0.13772 0.91164
H46 H 0.52852 -0.16907 0.97260
C35 C 0.57613(11) -0.2249(2) 0.97008(19)
C36 C 0.64077(10) -0.2703(2) 0.9969(2)
H47 H 0.63326 -0.30485 0.95631
H48 H 0.64367 -0.30458 1.03673
C37 C 0.67702(10) -0.2282(2) 1.00378(18)
C38 C 0.68573(10) -0.2097(2) 0.94475(18)
C39 C 0.71805(10) -0.1653(2) 0.95139(18)
C40 C 0.74088(10) -0.1366(2) 1.01601(18)
C41 C 0.73229(10) -0.1571(2) 1.07469(17)
C42 C 0.7003(1) -0.2029(2) 1.06929(18)
C43 C 0.65939(11) -0.2345(2) 0.87494(19)
H49 H 0.66498 -0.20370 0.83999
H50 H 0.63427 -0.22349 0.87252
H51 H 0.66217 -0.29194 0.86794
C44 C 0.77378(10) -0.0812(2) 1.0222(2)
H52 H 0.77877 -0.04741 1.06228
H53 H 0.76816 -0.04712 0.98210
H54 H 0.79523 -0.11416 1.02599
C45 C 0.68970(13) -0.2221(2) 1.1320(2)
H55 H 0.69711 -0.27708 1.14687
H56 H 0.66327 -0.21686 1.12064
H57 H 0.70201 -0.18444 1.16820
C46 C 0.5351(2) 1.1911(4) 0.7593(4)
O7 O 0.53276(15) 1.2049(3) 0.6988(3)
O8 O 0.51309(15) 1.2214(3) 0.7866(3)
C47 C 0.5628(2) 1.1275(4) 0.7995(4)
H58 H 0.58522 1.13026 0.78751
H59 H 0.56937 1.13794 0.84840
C48 C 0.54514(19) 1.0430(4) 0.7824(4)
H60 H 0.53744 1.03444 0.73311
H61 H 0.52313 1.04047 0.79581
C49 C 0.5728(3) 0.9727(7) 0.8199(6)
H62 H 0.56365 0.91995 0.79956
H63 H 0.57541 0.97106 0.86826
C50 C 0.6112(3) 0.9933(8) 0.8107(5)
O9 O 0.6122(2) 0.9966(6) 0.7507(4)
O10 O 0.6416(4) 0.9840(9) 0.8617(7)
O11 O 0.53347(19) 0.8461(5) 0.6754(4)
C51 C 0.6660(5) -0.0051(10) 1.0268(7)
O12 O 0.6688(7) -0.0173(15) 1.0876(7)
O13 O 0.6415(2) -0.0420(4) 0.9765(4)
C52 C 0.6896(3) 0.0631(6) 1.0120(6)
H64 H 0.69266 0.05321 0.96794
H65 H 0.71406 0.06274 1.04699
C53 C 0.6713(3) 0.1483(6) 1.0111(7)
H66 H 0.66528 0.15416 1.05289
H67 H 0.68934 0.19030 1.01150
C54 C 0.6375(2) 0.1631(5) 0.9523(4)
H68 H 0.61994 0.11951 0.95087
H69 H 0.64382 0.15900 0.91067
C55 C 0.6182(2) 0.2440(4) 0.9512(4)
O14 O 0.59203(14) 0.2630(3) 0.8985(3)
O15 O 0.6309(3) 0.2887(6) 1.0040(6)
O16 O 0.65741(9) 0.4476(2) 0.65139(19)
O17 O 0.57960(9) 0.20417(19) 0.6356(2)
O18 O 0.59250(9) 0.36455(18) 0.64630(17)
O19 O 0.52860(12) 0.5602(3) 0.7214(2)
O20 O 0.5733(1) 0.4228(2) 0.75218(18)
O21 O 0.5636(2) 0.6892(5) 0.8154(3)
O22 O 0.48963(11) 0.6660(3) 0.8969(2)
O23 O 0.82506(10) 0.0635(3) 0.9492(2)
O24 O 0.63296(8) 1.0856(2) 0.66883(15)
C56? C 0.5296(2) 0.7987(7) 0.7243(5)
O25? O 0.5427(2) 0.7452(9) 0.6956(6)
O26? O 0.49575(19) 0.8041(5) 0.7202(3)
C57? C 0.5578(2) 0.8509(5) 0.7758(5)
H70? H 0.58095 0.84952 0.76602
H71? H 0.56252 0.82831 0.82132
C58? C 0.5453(2) 0.9393(6) 0.7750(5)
H72? H 0.52208 0.94045 0.78463
H73? H 0.54047 0.96162 0.72933
C59? C 0.5743(3) 0.9954(10) 0.8284(7)
H74? H 0.56906 1.05357 0.82149
H75? H 0.57884 0.98009 0.87588
C60? C 0.6050(3) 0.9644(6) 0.7992(4)
O27? O 0.5986(2) 0.9556(5) 0.7364(4)
O28? O 0.6376(4) 0.9631(10) 0.8450(7)
O29? O 0.5628(2) 1.2017(8) 0.7650(5)
C61? C 0.6628(6) -0.0122(12) 1.0107(9)
O30? O 0.6684(10) -0.024(2) 1.0726(8)
O31? O 0.6378(3) -0.0493(6) 0.9625(5)
C62? C 0.6887(4) 0.0466(7) 0.9911(7)
H76? H 0.71427 0.02875 1.01252
H77? H 0.68310 0.04543 0.94167
C63? C 0.6845(3) 0.1349(8) 1.0141(7)
H78? H 0.69082 0.13567 1.06365
H79? H 0.70196 0.17003 1.00245
C64? C 0.6463(4) 0.1689(6) 0.9823(8)
H80? H 0.63895 0.16235 0.93281
H81? H 0.62924 0.13701 0.99791
C65? C 0.6425(3) 0.2577(7) 0.9981(6)
O32? O 0.6120(2) 0.2926(6) 0.9842(5)
O33? O 0.67309(17) 0.2960(4) 1.0297(3)
#END
