
#######################################################################
#
#                 Cambridge Crystallographic Data Centre
#                                CCDC
#
#######################################################################
#
# If this CIF has been generated from an entry in the Cambridge
# Structural Database, then it will include bibliographic, chemical,
# crystal, experimental, refinement or atomic coordinate data resulting
# from the CCDC's data processing and validation procedures.
#
#######################################################################

data_CSD_CIF_RELZEQ
_audit_creation_date 2017-10-12
_audit_creation_method CSD-ConQuest-V1
_database_code_CSD RELZEQ
_database_code_depnum_ccdc_archive 'CCDC 1579593'
_chemical_formula_sum 'C55 H85 N7 O24'
_chemical_formula_moiety
;
H3 O1 1+,C45 H60 N7 O6 3+,2(C5 H4 O5 2-),7(H2 O1)
;
_journal_coden_Cambridge 35
_journal_volume 82
_journal_year 2017
_journal_page_first 10007
_journal_name_full 'J.Org.Chem. '
loop_
_publ_author_name
"S.Chakraborty"
"S.Saha"
"L.M.P.Lima"
"U.Warzok"
"S.Sarkar"
"Bidyut Akhuli"
"M.Nandi"
"S.Bej"
"N.N.Adarsh"
"C.A.Schalley"
"R.Delgado"
"P.Ghosh"
_chemical_name_systematic
;
oxonium 
2,32,48-trimethyl-6,28,35-trioxo-8,26,37-trioxa-5,14,17,20,29,34,43-heptaazahe
xacyclo[15.15.13.2^9,12^.2^22,25^.2^38,41^.1^3,31^]dopentaconta-1,3(48),9,11,2
2,24,31,38,40,46,49,51-dodecaene-14,20,43-triium \a-ketoglutarate clathrate 
\a-ketoglutarate heptahydrate
;
_cell_volume   5867.895
_exptl_crystal_colour 'colorless'
_exptl_crystal_density_diffrn 1.371
_exptl_crystal_description 'plate'
_diffrn_ambient_temperature 150
#These two values have been output from a single CSD field.
_refine_ls_R_factor_gt 0.0587
_refine_ls_wR_factor_gt 0.0587
_symmetry_cell_setting monoclinic
_symmetry_space_group_name_H-M 'P 21/c'
_symmetry_Int_Tables_number 14
loop_
_symmetry_equiv_pos_site_id
_symmetry_equiv_pos_as_xyz
1 x,y,z
2 -x,1/2+y,1/2-z
3 -x,-y,-z
4 x,-1/2-y,-1/2+z
_cell_length_a 11.8025(7)
_cell_length_b 20.7261(13)
_cell_length_c 24.3022(15)
_cell_angle_alpha 90
_cell_angle_beta 99.226(2)
_cell_angle_gamma 90
_cell_formula_units_Z 4
loop_
_atom_type_symbol
_atom_type_radius_bond
C 0.68
H 0.23
N 0.68
O 0.68
loop_
_atom_site_label
_atom_site_type_symbol
_atom_site_fract_x
_atom_site_fract_y
_atom_site_fract_z
C1 C 0.7160(4) 0.3015(2) 0.27923(19)
C2 C 0.4465(4) 0.4041(2) 0.09745(18)
H1 H 0.42260 0.44840 0.10170
H2 H 0.37800 0.37740 0.09220
C3 C 0.8947(4) 0.5201(2) 0.04579(18)
C4 C 1.2591(4) 0.3190(2) 0.16980(19)
C5 C 0.6346(4) 0.4426(2) -0.01237(19)
C6 C 0.6010(4) 0.3948(2) -0.05271(18)
C7 C 0.5387(4) 0.4227(2) 0.19371(19)
C8 C 0.8014(4) 0.2019(2) 0.3126(2)
H3 H 0.80680 0.15730 0.30940
C9 C 1.1102(4) 0.3998(2) 0.10157(19)
C10 C 0.7952(4) 0.1169(2) -0.01050(19)
C11 C 0.8606(4) 0.2993(3) 0.3606(2)
H4 H 0.90650 0.32100 0.38940
C12 C 1.2017(4) 0.2970(2) 0.1185(2)
H5 H 1.21390 0.25510 0.10700
C13 C 0.5028(4) 0.3994(2) 0.04545(19)
C14 C 1.3622(4) 0.1754(2) 0.26188(19)
H6 H 1.36180 0.19680 0.29740
H7 H 1.44070 0.17480 0.25460
C15 C 0.5181(4) 0.3491(2) -0.04328(19)
C16 C 0.6281(4) 0.4947(2) 0.08066(19)
H8 H 0.56790 0.50420 0.10170
H9 H 0.64890 0.53330 0.06290
H10 H 0.69380 0.47850 0.10520
C17 C 0.6188(4) 0.3979(2) 0.24384(19)
H11 H 0.69190 0.42010 0.24690
H12 H 0.58660 0.40670 0.27740
C18 C 1.1489(4) 0.0399(2) 0.2614(2)
H13 H 1.07120 0.04030 0.26960
H14 H 1.19340 0.01080 0.28780
C19 C 0.4846(4) 0.2959(2) -0.0856(2)
H15 H 0.40460 0.28460 -0.08640
H16 H 0.49390 0.31090 -0.12240
C20 C 1.2416(4) 0.3820(2) 0.18536(19)
H17 H 1.27990 0.39720 0.21930
C21 C 1.1832(4) 0.1268(2) 0.32660(18)
H18 H 1.23560 0.16230 0.33740
H19 H 1.20420 0.09190 0.35280
C22 C 1.1681(4) 0.4232(2) 0.15129(19)
H20 H 1.15830 0.46570 0.16190
C23 C 1.3406(4) 0.2767(2) 0.2079(2)
H21 H 1.41010 0.27050 0.19190
H22 H 1.36160 0.29820 0.24360
C24 C 0.7826(4) 0.3341(3) 0.32211(19)
H23 H 0.77590 0.37850 0.32550
C25 C 0.7792(4) 0.0531(3) 0.0011(2)
H24 H 0.71400 0.03140 -0.01620
C26 C 1.1268(4) 0.3370(2) 0.0846(2)
H25 H 1.08790 0.32200 0.05070
C27 C 0.7251(4) 0.2358(2) 0.2739(2)
H26 H 0.68030 0.21430 0.24460
C28 C 0.5869(4) 0.4444(2) 0.03683(18)
C29 C 0.9991(4) 0.4966(2) 0.08449(19)
H27 H 1.06150 0.52720 0.08510
H28 H 0.98190 0.49270 0.12210
C30 C 1.0467(5) 0.0152(2) 0.1050(2)
H29 H 1.01460 -0.02610 0.11350
H30 H 1.11450 0.00680 0.08820
C31 C 1.1457(5) 0.0122(2) 0.20296(19)
H31 H 1.22390 0.00750 0.19590
H32 H 1.11170 -0.03050 0.20160
C32 C 0.9479(4) 0.1959(3) 0.4002(2)
H33 H 0.95860 0.22050 0.43460
H34 H 0.90980 0.15590 0.40710
C33 C 0.7257(4) 0.4914(2) -0.02076(19)
H35 H 0.73520 0.49180 -0.05970
H36 H 0.70140 0.53400 -0.01120
C34 C 1.0622(4) 0.1485(2) 0.33056(19)
H37 H 1.03540 0.17870 0.30080
H38 H 1.01090 0.11160 0.32690
C35 C 0.8699(4) 0.2336(2) 0.3562(2)
C36 C 0.9761(4) 0.1152(3) 0.0502(2)
H39 H 1.04350 0.13600 0.06560
C37 C 0.3838(4) 0.2994(2) 0.0164(2)
H40 H 0.30740 0.31620 0.00710
H41 H 0.39770 0.28730 0.05500
H42 H 0.39190 0.26220 -0.00620
C38 C 0.4695(4) 0.3505(2) 0.00585(19)
C39 C 0.5362(4) 0.1828(2) -0.0954(2)
C40 C 0.6556(4) 0.3903(2) -0.1046(2)
H43 H 0.61240 0.41580 -0.13370
H44 H 0.65620 0.34620 -0.11640
H45 H 0.73290 0.40620 -0.09680
C41 C 0.8607(5) 0.0209(3) 0.0388(2)
H46 H 0.84840 -0.02200 0.04740
C42 C 0.6149(4) 0.1278(2) -0.0732(2)
H47 H 0.57900 0.10160 -0.04770
H48 H 0.63030 0.10060 -0.10360
C43 C 0.8939(4) 0.1484(3) 0.0139(2)
H49 H 0.90490 0.19170 0.00610
C44 C 1.3199(4) 0.1071(2) 0.26522(19)
H50 H 1.33110 0.08380 0.23190
H51 H 1.36450 0.08560 0.29700
C45 C 0.9596(4) 0.0512(2) 0.0639(2)
N1 N 0.5200(3) 0.38422(18) 0.14868(15)
H52 H 0.55230 0.34690 0.15010
N2 N 0.8349(3) 0.47583(19) 0.01367(15)
H53 H 0.86140 0.43720 0.01320
N3 N 0.5569(3) 0.23920(19) -0.07060(16)
H54 H 0.61530 0.24280 -0.04460
N4 N 1.0631(3) 0.18015(19) 0.38595(15)
H55 H 1.09980 0.15400 0.41260
H56 H 1.10390 0.21690 0.38670
N5 N 1.0805(4) 0.0522(2) 0.15804(16)
H57 H 1.12380 0.08620 0.15140
H58 H 1.01690 0.06740 0.16960
N6 N 1.2892(3) 0.21233(18) 0.21700(15)
H59 H 1.21910 0.21800 0.22630
H60 H 1.28100 0.18950 0.18510
O1 O 1.0316(3) 0.43587(15) 0.06548(12)
O2 O 0.4993(3) 0.47769(16) 0.19507(13)
O3 O 0.8653(3) 0.57749(16) 0.04743(13)
O4 O 0.7192(3) 0.15501(16) -0.04489(13)
O5 O 0.6359(3) 0.33099(15) 0.23903(13)
O6 O 0.4544(3) 0.17269(18) -0.13389(16)
N7 N 1.1970(3) 0.10504(18) 0.27080(15)
C46 C 0.9330(4) 0.3360(2) 0.19882(19)
C47 C 0.8797(4) 0.2998(2) 0.14786(18)
H61 H 0.83380 0.26460 0.15870
H62 H 0.93990 0.28130 0.12990
C48 C 1.0316(4) 0.3012(2) 0.23796(19)
C49 C 0.7791(4) 0.3123(2) 0.04939(19)
C50 C 0.8040(4) 0.3434(2) 0.10655(18)
H63 H 0.73240 0.35170 0.12000
H64 H 0.84240 0.38440 0.10380
O7 O 1.0548(3) 0.24470(16) 0.22498(13)
O8 O 0.8310(3) 0.32862(16) 0.01163(13)
O9 O 1.0804(3) 0.33351(16) 0.27829(14)
O10 O 0.9039(3) 0.38967(17) 0.20982(14)
O11 O 0.7018(3) 0.26583(15) 0.04240(13)
C51 C 0.5597(5) 0.1439(3) 0.0778(2)
H65 H 0.63760 0.14120 0.07000
H66 H 0.51240 0.16230 0.04520
C52 C 0.5169(5) 0.0760(3) 0.0870(2)
H67 H 0.50850 0.05330 0.05170
H68 H 0.57620 0.05390 0.11240
C53 C 0.5579(4) 0.1887(2) 0.1266(2)
C54 C 0.3087(5) 0.1160(3) 0.0904(3)
C55 C 0.4056(5) 0.0696(3) 0.1096(2)
O12 O 0.5950(3) 0.24662(17) 0.12239(13)
O13 O 0.2453(3) 0.13359(17) 0.12472(14)
O14 O 0.5172(3) 0.16905(17) 0.16787(14)
O15 O 0.3839(4) 0.02475(19) 0.13915(17)
O16 O 0.2971(4) 0.1317(2) 0.03896(17)
O17 O 0.1113(3) 0.03982(18) 0.80394(15)
O18 O 0.1646(3) 0.55299(17) 0.23140(15)
O19 O 0.0819(3) 0.63462(17) 0.31124(15)
O20 O 0.2243(4) 0.28253(19) 0.36137(17)
O21 O 0.1383(4) 0.2013(3) 0.9623(2)
O22 O 0.3492(5) 0.0577(2) 0.8342(3)
O23 O 0.3950(7) 0.0625(4) 0.9618(3)
O24 O 0.3997(4) 0.5607(3) 0.2627(2)
#END
