
#######################################################################
#
#                 Cambridge Crystallographic Data Centre
#                                CCDC
#
#######################################################################
#
# If this CIF has been generated from an entry in the Cambridge
# Structural Database, then it will include bibliographic, chemical,
# crystal, experimental, refinement or atomic coordinate data resulting
# from the CCDC's data processing and validation procedures.
#
#######################################################################

data_CSD_CIF_RELZUG
_audit_creation_date 2017-10-12
_audit_creation_method CSD-ConQuest-V1
_database_code_CSD RELZUG
_database_code_depnum_ccdc_archive 'CCDC 1579596'
_chemical_formula_sum 'C60 H103 N7 O24'
_chemical_formula_moiety
;
C45 H60 N7 O6 3+,2(C7 H11 O4 1-),H1 O1 1-,C1 H4 O1,8(H2 O1)
;
_journal_coden_Cambridge 35
_journal_volume 82
_journal_year 2017
_journal_page_first 10007
_journal_name_full 'J.Org.Chem. '
loop_
_publ_author_name
"S.Chakraborty"
"S.Saha"
"L.M.P.Lima"
"U.Warzok"
"S.Sarkar"
"Bidyut Akhuli"
"M.Nandi"
"S.Bej"
"N.N.Adarsh"
"C.A.Schalley"
"R.Delgado"
"P.Ghosh"
_chemical_name_systematic
;
2,32,48-trimethyl-6,28,35-trioxo-8,26,37-trioxa-5,14,17,20,29,34,43-heptaazahe
xacyclo[15.15.13.2^9,12^.2^22,25^.2^38,41^.1^3,31^]dopentaconta-1,3(48),9,11,2
2,24,31,38,40,46,49,51-dodecaene-14,20,43-triium (hydrogen pimelate) 
clathrate hydroxide (hydrogen pimelate) octahydrate
;
_cell_volume   3588.911
_exptl_crystal_colour 'white'
_exptl_crystal_density_diffrn 1.192
_exptl_crystal_description 'block'
_diffrn_ambient_temperature 150
#These two values have been output from a single CSD field.
_refine_ls_R_factor_gt 0.1178
_refine_ls_wR_factor_gt 0.1178
_symmetry_cell_setting triclinic
_symmetry_space_group_name_H-M 'P -1'
_symmetry_Int_Tables_number 2
loop_
_symmetry_equiv_pos_site_id
_symmetry_equiv_pos_as_xyz
1 x,y,z
2 -x,-y,-z
_cell_length_a 12.0232(16)
_cell_length_b 14.837(2)
_cell_length_c 21.708(3)
_cell_angle_alpha 100.853(4)
_cell_angle_beta 94.193(4)
_cell_angle_gamma 107.650(4)
_cell_formula_units_Z 2
loop_
_atom_type_symbol
_atom_type_radius_bond
C 0.68
H 0.23
N 0.68
O 0.68
loop_
_atom_site_label
_atom_site_type_symbol
_atom_site_fract_x
_atom_site_fract_y
_atom_site_fract_z
O1 O 0.6567(6) 0.2317(5) 0.3205(3)
C1 C 1.0166(7) 0.5059(5) 0.1629(3)
H1 H 0.99150 0.52940 0.12730
H2 H 1.06900 0.47020 0.14900
C2 C 1.0850(7) 0.5928(5) 0.2160(3)
C3 C 0.9417(7) 0.3953(6) 0.2342(4)
H3 H 0.99020 0.35570 0.22050
H4 H 0.98760 0.44690 0.26960
C4 C 0.8633(9) 0.2901(8) 0.3075(7)
H5 H 0.91590 0.34100 0.34120
H6 H 0.90590 0.24660 0.29170
C5 C 0.9136(7) 0.4400(5) 0.1806(4)
H7 H 0.87390 0.38850 0.14390
H8 H 0.85950 0.47500 0.19280
C6 C 0.8355(8) 0.3341(6) 0.2565(4)
H9 H 0.78760 0.37390 0.27080
H10 H 0.78890 0.28310 0.22090
C7 C 0.7586(9) 0.2337(6) 0.3357(5)
O2 O 1.1929(5) 0.6162(3) 0.2283(2)
O3 O 1.0288(4) 0.6402(4) 0.2460(3)
O4 O 0.7846(5) 0.1839(5) 0.3726(4)
H11 H 0.72390 0.14830 0.38140
N1 N 0.3712(4) 0.6703(3) 0.3913(2)
C8 C 0.3952(5) 0.9879(4) 0.1800(3)
C9 C 0.9213(5) 1.0245(4) 0.4182(3)
H12 H 0.94620 1.09050 0.41860
C10 C 0.2611(5) 0.9016(4) 0.2644(3)
C11 C 0.9442(5) 0.9593(5) 0.3707(3)
C12 C 0.2086(5) 0.7416(4) 0.3833(3)
H13 H 0.12330 0.72340 0.37800
H14 H 0.23940 0.79180 0.42170
C13 C 0.8980(5) 1.0322(4) 0.0812(3)
C14 C 0.8232(5) 0.8941(4) 0.4669(3)
C15 C 0.7766(5) 0.8978(5) -0.0030(3)
C16 C 0.1994(5) 0.8529(4) 0.3123(3)
H15 H 0.11680 0.82070 0.29560
H16 H 0.20440 0.90110 0.35030
C17 C 0.3225(5) 0.8926(4) 0.1616(3)
H17 H 0.31890 0.85720 0.12080
C18 C 0.5672(5) 0.7629(4) 0.4510(3)
H18 H 0.59540 0.70790 0.44880
H19 H 0.58410 0.78850 0.41350
C19 C 0.3311(5) 0.9984(4) 0.2811(3)
H20 H 0.33380 1.03470 0.32140
C20 C 0.9501(5) 0.8837(5) 0.0542(3)
C21 C 0.9716(5) 0.9778(4) 0.0916(3)
C22 C 0.3976(5) 1.0422(4) 0.2380(3)
H21 H 0.44270 1.10750 0.24910
C23 C 0.8498(5) 0.8297(5) 0.4183(3)
H22 H 0.82600 0.76380 0.41800
C24 C 0.4375(5) 0.7307(4) 0.4525(3)
H23 H 0.41970 0.69410 0.48520
H24 H 0.41230 0.78730 0.46340
C25 C 0.9097(5) 0.8623(4) 0.3719(3)
H25 H 0.92760 0.81880 0.34060
C26 C 0.8519(5) 0.8443(4) 0.0060(3)
C27 C 1.0354(6) 1.0817(5) 0.3165(3)
H26 H 1.09830 1.12020 0.35050
H27 H 0.96870 1.10500 0.32160
C28 C 0.7999(5) 0.9921(4) 0.0334(3)
C29 C 0.5472(5) 1.1156(4) 0.1521(3)
H28 H 0.59390 1.12360 0.19240
H29 H 0.50690 1.16360 0.15690
C30 C 1.0779(5) 1.0211(5) 0.1426(3)
H30 H 1.13350 0.98610 0.13430
H31 H 1.11660 1.08810 0.14120
C31 C 0.2453(5) 0.6536(4) 0.3895(3)
H32 H 0.22120 0.63400 0.42800
H33 H 0.20380 0.60040 0.35410
C32 C 0.8615(5) 0.9904(5) 0.4644(3)
H34 H 0.84580 1.03470 0.49600
C33 C 0.7617(5) 0.8594(5) 0.5186(3)
H35 H 0.79430 0.90790 0.55770
H36 H 0.77740 0.80070 0.52390
C34 C 0.2565(5) 0.8507(4) 0.2031(3)
H37 H 0.20720 0.78670 0.19020
C35 C 1.0766(5) 1.0949(5) 0.2536(3)
C36 C 0.8268(6) 0.7431(5) -0.0343(3)
H38 H 0.78170 0.73710 -0.07470
H39 H 0.90060 0.73240 -0.04250
C37 C 0.7213(6) 1.0512(5) 0.0226(3)
H40 H 0.76980 1.11760 0.02500
H41 H 0.67740 1.02570 -0.01970
C38 C 0.6248(6) 1.1303(5) 0.1030(3)
C39 C 0.7892(6) 0.5928(5) 0.0025(3)
C40 C 0.3947(6) 0.5768(4) 0.3777(3)
H42 H 0.34060 0.53070 0.39690
H43 H 0.47430 0.58610 0.39630
C41 C 0.7182(6) 0.5250(5) 0.0406(3)
H44 H 0.69240 0.45860 0.01620
H45 H 0.76650 0.52850 0.07930
C42 C 0.3803(7) 0.5368(5) 0.3076(3)
H46 H 0.30740 0.54090 0.28800
H47 H 0.44460 0.57650 0.29000
C43 C 0.5506(6) 0.5087(5) 0.0950(3)
C44 C 1.0270(6) 0.8239(5) 0.0653(3)
H48 H 1.10150 0.84990 0.05110
H49 H 0.98930 0.75820 0.04220
H50 H 1.03950 0.82530 0.10970
C45 C 0.4070(9) 0.4276(7) 0.1793(4)
C46 C 0.3876(7) 0.5020(8) 0.1526(4)
H51 H 0.32580 0.52450 0.16340
C47 C 0.4591(6) 0.5431(6) 0.1101(3)
H52 H 0.44530 0.59200 0.09270
C48 C 0.9215(6) 1.1310(5) 0.1212(3)
H53 H 0.85820 1.13120 0.14570
H54 H 0.92750 1.17660 0.09450
H55 H 0.99410 1.14910 0.14920
C49 C 0.6679(6) 0.8538(6) -0.0524(4)
H56 H 0.61140 0.88630 -0.04220
H57 H 0.63400 0.78610 -0.05300
H58 H 0.68950 0.86130 -0.09330
C50 C 0.5675(8) 0.4344(6) 0.1198(4)
H59 H 0.62770 0.41010 0.10860
C51 C 0.3261(10) 0.3890(6) 0.2231(4)
H60 H 0.31140 0.31980 0.21720
H61 H 0.25150 0.39940 0.21370
C52 C 0.4968(9) 0.3966(6) 0.1608(4)
H62 H 0.51070 0.34670 0.17700
N2 N 0.2533(4) 0.7799(3) 0.3285(2)
H63 H 0.23810 0.73080 0.29500
H64 H 0.33120 0.80740 0.33710
N3 N 0.6291(4) 0.8384(3) 0.5081(2)
H65 H 0.59940 0.81990 0.54180
H66 H 0.61480 0.89300 0.50530
N4 N 1.0456(4) 1.0169(4) 0.2060(2)
H67 H 1.00500 0.96190 0.21290
N5 N 0.6398(4) 1.0506(4) 0.0679(2)
H68 H 0.59720 0.99510 0.07300
N6 N 0.7612(5) 0.6707(4) -0.0022(2)
H69 H 0.70130 0.67900 0.01450
N7 N 0.3786(7) 0.4388(4) 0.2922(3)
H70 H 0.33650 0.40600 0.31770
H71 H 0.45190 0.43730 0.29890
O5 O 0.4638(4) 1.0218(3) 0.13526(18)
O6 O 1.0025(4) 0.9847(3) 0.32083(19)
O7 O 0.6183(4) 0.5540(3) 0.0553(2)
O8 O 1.1314(5) 1.1768(4) 0.2486(2)
O9 O 0.6766(5) 1.2126(4) 0.0966(2)
O10 O 0.8729(5) 0.5736(4) -0.0192(3)
C53 C 0.5694(6) 0.9796(5) 0.3703(3)
C54 C 0.6230(6) 0.9585(7) 0.3121(3)
H72 H 0.70230 0.95860 0.32440
H73 H 0.62950 1.01050 0.28990
C55 C 0.6006(10) 0.8542(10) 0.2004(5)
H74 H 0.54410 0.80020 0.17020
H75 H 0.60280 0.91280 0.18630
C56 C 0.5539(7) 0.8600(6) 0.2652(4)
H76 H 0.56210 0.80690 0.28320
H77 H 0.47090 0.85340 0.25900
C57 C 0.8472(9) 0.7458(8) 0.1987(5)
C58 C 0.7124(10) 0.8428(9) 0.1984(6)
H78 H 0.77740 0.89660 0.19920
O11 O 0.4862(4) 0.9163(3) 0.38359(18)
O12 O 0.6111(4) 1.0636(3) 0.4059(2)
O13 O 0.9362(6) 0.8068(4) 0.2069(3)
O14 O 0.8370(5) 0.6585(5) 0.2078(6)
H79 H 0.89470 0.64380 0.19760
C59 C 0.7271(11) 0.7582(9) 0.1955(11)
H80 H 0.66100 0.70380 0.19140
O15 O 0.3603(4) 0.9699(3) 0.47330(19)
O16 O 0.5486(6) 0.7870(4) 0.6154(2)
O17 O 0.1092(10) 0.6070(9) 0.0252(7)
O18 O 0.366(2) 0.7421(11) 0.0220(5)
O19 O 0.1843(7) 0.3444(4) 0.3425(3)
O20 O 0.4710(11) 0.4011(6) 0.4312(5)
C60 C 0.282(2) 0.4288(11) 0.5364(10)
H81 H 0.21720 0.43260 0.55860
H82 H 0.33030 0.49290 0.53470
H83 H 0.32880 0.39890 0.55810
O21 O 0.2384(17) 0.3713(10) 0.4725(8)
H84 H 0.17000 0.33710 0.47100
O22 O 0.2650(17) 0.6594(10) 0.0974(7)
O23 O 0.584(2) 0.4113(17) 0.3252(12)
O24 O 0.6432(15) 0.560(2) 0.3108(9)
#END
