
#######################################################################
#
#                 Cambridge Crystallographic Data Centre
#                                CCDC
#
#######################################################################
#
# If this CIF has been generated from an entry in the Cambridge
# Structural Database, then it will include bibliographic, chemical,
# crystal, experimental, refinement or atomic coordinate data resulting
# from the CCDC's data processing and validation procedures.
#
#######################################################################

data_CSD_CIF_REMBAP
_audit_creation_date 2017-10-12
_audit_creation_method CSD-ConQuest-V1
_database_code_CSD REMBAP
_database_code_depnum_ccdc_archive 'CCDC 1579597'
_chemical_formula_sum 'C62 H91 N7 O16'
_chemical_formula_moiety
;
H3 O1 1+,C45 H60 N7 O6 3+,2(C8 H12 O4 2-),C1 H4 O1
;
_journal_coden_Cambridge 35
_journal_volume 82
_journal_year 2017
_journal_page_first 10007
_journal_name_full 'J.Org.Chem. '
loop_
_publ_author_name
"S.Chakraborty"
"S.Saha"
"L.M.P.Lima"
"U.Warzok"
"S.Sarkar"
"Bidyut Akhuli"
"M.Nandi"
"S.Bej"
"N.N.Adarsh"
"C.A.Schalley"
"R.Delgado"
"P.Ghosh"
_chemical_name_systematic
;
oxonium 
2,32,48-trimethyl-6,28,35-trioxo-8,26,37-trioxa-5,14,17,20,29,34,43-heptaazahe
xacyclo[15.15.13.2^9,12^.2^22,25^.2^38,41^.1^3,31^]dopentaconta-1,3(48),9,11,2
2,24,31,38,40,46,49,51-dodecaene-14,20,43-triium suberate clathrate suberate 
methanol unknown solvate
;
_cell_volume   6404.697
_exptl_crystal_colour 'colorless'
_exptl_crystal_density_diffrn 1.231
_exptl_crystal_description 'plate'
_diffrn_ambient_temperature 150
_refine_special_details
;
The SQUEEZE/PLATON program has been used to model some disorder.

;
#These two values have been output from a single CSD field.
_refine_ls_R_factor_gt 0.062
_refine_ls_wR_factor_gt 0.062
_symmetry_cell_setting monoclinic
_symmetry_space_group_name_H-M 'P 21/c'
_symmetry_Int_Tables_number 14
loop_
_symmetry_equiv_pos_site_id
_symmetry_equiv_pos_as_xyz
1 x,y,z
2 -x,1/2+y,1/2-z
3 -x,-y,-z
4 x,-1/2-y,-1/2+z
_cell_length_a 12.685(2)
_cell_length_b 17.544(3)
_cell_length_c 29.713(5)
_cell_angle_alpha 90
_cell_angle_beta 104.402(7)
_cell_angle_gamma 90
_cell_formula_units_Z 4
loop_
_atom_type_symbol
_atom_type_radius_bond
C 0.68
H 0.23
N 0.68
O 0.68
loop_
_atom_site_label
_atom_site_type_symbol
_atom_site_fract_x
_atom_site_fract_y
_atom_site_fract_z
O1 O 1.0032(4) 0.5941(3) 0.5435(2)
O2 O 0.6010(4) 0.8735(3) 0.5144(2)
O3 O 0.6715(4) 0.8229(3) 0.6328(2)
O4 O 0.5241(4) 0.5326(3) 0.71784(19)
O5 O 0.9961(4) 0.5830(2) 0.6620(2)
O6 O 0.2852(5) 0.5106(3) 0.62722(17)
N1 N 0.5850(5) 0.7660(4) 0.55319(19)
H1 H 0.59220 0.74630 0.58030
N2 N 0.4647(5) 0.4952(3) 0.63091(19)
H2 H 0.52940 0.49740 0.64870
N3 N 0.8923(5) 0.5314(3) 0.58121(18)
H3 H 0.88440 0.51880 0.60810
N4 N 1.1242(4) 0.6702(3) 0.87620(18)
H4 H 1.10210 0.71210 0.85900
H5 H 1.06470 0.64220 0.87610
N5 N 0.8171(4) 0.6311(3) 0.91350(17)
H6 H 0.86920 0.60670 0.90330
H7 H 0.79620 0.67200 0.89510
N6 N 0.8922(4) 0.8461(3) 0.85405(18)
H8 H 0.83530 0.81500 0.85300
H9 H 0.94480 0.81860 0.84610
N7 N 0.9943(5) 0.7434(3) 0.93325(17)
C1 C 0.3900(6) 0.6239(4) 0.5500(2)
H10 H 0.33140 0.59640 0.52990
H11 H 0.38490 0.67690 0.54160
H12 H 0.38540 0.61850 0.58160
C2 C 0.4501(6) 0.4727(4) 0.5820(2)
H13 H 0.37540 0.48190 0.56500
H14 H 0.46490 0.41870 0.58030
C3 C 0.6579(5) 0.4054(4) 0.5743(2)
H15 H 0.63350 0.37030 0.54910
H16 H 0.62410 0.39310 0.59890
H17 H 0.73550 0.40180 0.58560
C4 C 0.8130(6) 0.5029(4) 0.5408(2)
H18 H 0.81360 0.44760 0.54130
H19 H 0.83300 0.51940 0.51290
C5 C 0.7480(6) 0.6561(4) 0.5068(2)
H20 H 0.81240 0.62800 0.50590
H21 H 0.76760 0.69920 0.52710
H22 H 0.71270 0.67340 0.47610
C6 C 0.5429(6) 0.7162(4) 0.5129(2)
H23 H 0.57480 0.73050 0.48770
H24 H 0.46450 0.72190 0.50230
C7 C 0.4993(6) 0.5918(5) 0.5450(2)
C8 C 0.5264(7) 0.5178(5) 0.5599(2)
C9 C 0.6269(8) 0.4871(4) 0.5573(2)
C10 C 0.6987(6) 0.5313(5) 0.5396(2)
C11 C 0.6717(7) 0.6053(5) 0.5247(2)
C12 C 0.5708(8) 0.6339(4) 0.5267(2)
C13 C 0.6552(6) 0.8774(4) 0.5966(3)
H25 H 0.72340 0.90260 0.59680
H26 H 0.60360 0.91580 0.60110
C14 C 1.0453(6) 0.6039(4) 0.6255(3)
H27 H 1.11760 0.58190 0.63140
H28 H 1.05250 0.65890 0.62480
C15 C 0.4105(6) 0.5330(4) 0.7001(2)
H29 H 0.38210 0.58320 0.70420
H30 H 0.37760 0.49660 0.71710
C16 C 1.0002(6) 0.5658(4) 0.7403(4)
H31 H 0.93570 0.53850 0.73050
C17 C 1.1445(8) 0.6365(4) 0.7213(3)
H32 H 1.17820 0.65680 0.69960
C18 C 1.1896(6) 0.6454(4) 0.7690(3)
H33 H 1.25360 0.67330 0.77850
C19 C 1.1440(7) 0.6151(4) 0.8024(3)
C20 C 1.0468(7) 0.5750(4) 0.7875(3)
H34 H 1.01300 0.55430 0.80920
C21 C 1.0489(7) 0.5970(4) 0.7078(3)
C22 C 0.7151(6) 0.8467(5) 0.6775(3)
C23 C 0.7311(6) 0.9215(5) 0.6911(3)
H35 H 0.71180 0.96020 0.66920
C24 C 0.7431(6) 0.7910(4) 0.7110(4)
H36 H 0.73070 0.74020 0.70230
C25 C 0.7895(6) 0.8083(5) 0.7574(3)
H37 H 0.80870 0.76960 0.77930
C26 C 0.8069(5) 0.8846(5) 0.7706(3)
C27 C 0.7760(5) 0.9398(4) 0.7374(3)
H38 H 0.78530 0.99080 0.74600
C28 C 0.5648(8) 0.5429(4) 0.7654(3)
C29 C 0.6767(8) 0.5383(4) 0.7801(3)
H39 H 0.71830 0.52820 0.75910
C30 C 0.7256(6) 0.5490(4) 0.8264(4)
H40 H 0.80100 0.54550 0.83620
C31 C 0.6669(8) 0.5647(4) 0.8589(2)
C32 C 0.5552(8) 0.5689(4) 0.8428(3)
H41 H 0.51340 0.58000 0.86360
C33 C 0.5037(6) 0.5569(4) 0.7966(3)
H42 H 0.42820 0.55830 0.78680
C34 C 0.7219(5) 0.5790(4) 0.9090(2)
H43 H 0.67030 0.60150 0.92440
H44 H 0.74630 0.53090 0.92420
C35 C 0.8639(6) 0.6575(4) 0.9618(2)
H45 H 0.86540 0.61540 0.98300
H46 H 0.81780 0.69710 0.96940
C36 C 0.9793(6) 0.6887(4) 0.9680(2)
H47 H 1.00130 0.71270 0.99830
H48 H 1.02790 0.64600 0.96800
C37 C 1.1968(6) 0.6251(4) 0.8539(2)
H49 H 1.21050 0.57560 0.86870
H50 H 1.26590 0.65120 0.85790
C38 C 1.1753(5) 0.6940(4) 0.9246(2)
H51 H 1.24940 0.71050 0.92690
H52 H 1.17760 0.65110 0.94530
C39 C 1.1111(6) 0.7591(4) 0.9392(2)
H53 H 1.14310 0.77080 0.97160
H54 H 1.11850 0.80400 0.92120
C40 C 0.8577(6) 0.9091(4) 0.8198(2)
H55 H 0.92090 0.94020 0.81970
H56 H 0.80600 0.94100 0.83020
C41 C 0.9334(6) 0.8750(4) 0.9023(2)
H57 H 0.88650 0.91600 0.90750
H58 H 1.00570 0.89590 0.90560
C42 C 0.9381(6) 0.8148(4) 0.9382(2)
H59 H 0.97300 0.83660 0.96820
H60 H 0.86390 0.80230 0.93880
C43 C 0.9780(7) 0.5764(4) 0.5795(3)
C44 C 0.3805(9) 0.5121(4) 0.6483(3)
C45 C 0.6126(6) 0.8379(5) 0.5513(3)
O7 O 0.2386(7) 0.8343(4) 0.5414(3)
O8 O 0.3844(5) 0.9057(3) 0.56597(19)
O9 O 0.7334(5) 0.7484(3) 0.85868(16)
O10 O 0.6138(4) 0.7527(3) 0.9025(2)
C46 C 0.3187(10) 0.8505(6) 0.5709(3)
C47 C 0.3484(8) 0.8016(5) 0.6135(4)
H61 H 0.28460 0.77290 0.61570
H62 H 0.40310 0.76520 0.60960
C48 C 0.3890(7) 0.8410(5) 0.6561(3)
H63 H 0.33320 0.87530 0.66140
H64 H 0.45130 0.87150 0.65400
C49 C 0.4240(7) 0.7846(5) 0.6989(3)
H65 H 0.36080 0.75580 0.70200
H66 H 0.47700 0.74860 0.69290
C50 C 0.4718(6) 0.8254(4) 0.7435(3)
H67 H 0.41510 0.85520 0.75190
H68 H 0.52700 0.86050 0.73870
C51 C 0.5690(6) 0.8160(4) 0.8291(3)
H69 H 0.60900 0.85990 0.82240
H70 H 0.50920 0.83460 0.84100
C52 C 0.5226(6) 0.7729(4) 0.7839(3)
H71 H 0.58030 0.74360 0.77600
H72 H 0.46780 0.73730 0.78870
C53 C 0.6438(9) 0.7688(4) 0.8664(3)
O11 O 0.0686(4) 0.8008(3) 0.82575(15)
O12 O 0.1295(4) 0.9215(3) 0.83907(16)
O13 O 0.0124(4) 1.0555(3) 0.60930(16)
O14 O -0.1312(6) 0.9887(3) 0.5720(2)
C54 C 0.1535(6) 0.8566(4) 0.7709(2)
H73 H 0.19100 0.90330 0.76690
H74 H 0.20410 0.81460 0.77240
C55 C 0.0564(6) 0.8454(4) 0.7294(2)
H75 H 0.00140 0.88290 0.73120
H76 H 0.02550 0.79550 0.73190
C56 C 0.0808(6) 0.8518(4) 0.6816(3)
H77 H 0.11510 0.90060 0.67940
H78 H 0.13170 0.81210 0.67860
C57 C -0.0195(6) 0.8449(4) 0.6426(3)
H79 H -0.07060 0.88400 0.64650
H80 H -0.05290 0.79590 0.64510
C58 C -0.0019(7) 0.8520(4) 0.5942(2)
H81 H -0.07050 0.84290 0.57170
H82 H 0.04870 0.81270 0.59000
C59 C 0.0422(6) 0.9295(4) 0.5843(2)
H83 H 0.11230 0.93760 0.60590
H84 H 0.05340 0.92900 0.55320
C60 C 0.1176(6) 0.8606(6) 0.8166(3)
C61 C -0.0322(9) 0.9951(5) 0.5883(3)
O15 O 0.7044(4) 0.5132(3) 0.67075(16)
H85 H 0.75570 0.48950 0.66550
C62 C 0.7157(6) 0.5921(4) 0.6615(3)
H86 H 0.66080 0.62070 0.67130
H87 H 0.70750 0.59940 0.62880
H88 H 0.78640 0.60940 0.67820
O16 O 0.3201(4) -0.0180(3) 0.48797(16)
#END
