
#######################################################################
#
#                 Cambridge Crystallographic Data Centre
#                                CCDC
#
#######################################################################
#
# If this CIF has been generated from an entry in the Cambridge
# Structural Database, then it will include bibliographic, chemical,
# crystal, experimental, refinement or atomic coordinate data resulting
# from the CCDC's data processing and validation procedures.
#
#######################################################################

data_CSD_CIF_REMBET
_audit_creation_date 2017-10-12
_audit_creation_method CSD-ConQuest-V1
_database_code_CSD REMBET
_database_code_depnum_ccdc_archive 'CCDC 1579598'
_chemical_formula_sum 'C58.5 H109 N7 O26'
_chemical_formula_moiety
;
C45 H60 N7 O6 3+,1.5(C9 H14 O4 2-),14(H2 O1)
;
_journal_coden_Cambridge 35
_journal_volume 82
_journal_year 2017
_journal_page_first 10007
_journal_name_full 'J.Org.Chem. '
loop_
_publ_author_name
"S.Chakraborty"
"S.Saha"
"L.M.P.Lima"
"U.Warzok"
"S.Sarkar"
"Bidyut Akhuli"
"M.Nandi"
"S.Bej"
"N.N.Adarsh"
"C.A.Schalley"
"R.Delgado"
"P.Ghosh"
_chemical_name_systematic
;
2,32,48-trimethyl-6,28,35-trioxo-8,26,37-trioxa-5,14,17,20,29,34,43-heptaazahe
xacyclo[15.15.13.2^9,12^.2^22,25^.2^38,41^.1^3,31^]dopentaconta-1,3(48),9,11,2
2,24,31,38,40,46,49,51-dodecaene-14,20,43-triium 8-carboxyoct-7-enoate 
sesquikis(azelate) tetradecahydrate
;
_cell_volume   3489.024
_exptl_crystal_colour 'colorless'
_exptl_crystal_description 'plate'
_diffrn_ambient_temperature 150
_refine_special_details
;
C102,C103,C105,C109,C110,C111,C112,C113,C114,O101,O115,O116,O21,O27 
disordered by symmetry over two configurations with occupancy 0.5; 
C43,C44,C45 and C43B,C44B,C45B disordered over two sites with occupancies 
0.601:0.399.
;
#These two values have been output from a single CSD field.
_refine_ls_R_factor_gt 0.1078
_refine_ls_wR_factor_gt 0.1078
_symmetry_cell_setting triclinic
_symmetry_space_group_name_H-M 'P -1'
_symmetry_Int_Tables_number 2
loop_
_symmetry_equiv_pos_site_id
_symmetry_equiv_pos_as_xyz
1 x,y,z
2 -x,-y,-z
_cell_length_a 12.2639(8)
_cell_length_b 12.7251(8)
_cell_length_c 22.7496(15)
_cell_angle_alpha 87.293(2)
_cell_angle_beta 87.843(2)
_cell_angle_gamma 79.827(2)
_cell_formula_units_Z 2
loop_
_atom_type_symbol
_atom_type_radius_bond
C 0.68
H 0.23
N 0.68
O 0.68
loop_
_atom_site_label
_atom_site_type_symbol
_atom_site_fract_x
_atom_site_fract_y
_atom_site_fract_z
C1 C 0.7628(4) -0.2356(4) 0.41362(18)
H1 H 0.69321 -0.25631 0.42500
H2 H 0.76050 -0.16220 0.42254
H3 H 0.82120 -0.27990 0.43482
C2 C 0.7841(3) -0.2487(3) 0.34789(17)
C3 C 0.7312(3) -0.3176(3) 0.31723(18)
C4 C 0.7489(4) -0.3256(3) 0.25608(19)
C5 C 0.8196(4) -0.2665(3) 0.22619(18)
C6 C 0.8731(3) -0.1968(3) 0.25682(19)
C7 C 0.8562(3) -0.1897(3) 0.31793(18)
C8 C 0.9161(3) -0.1186(3) 0.3514(2)
H4 H 0.93933 -0.15439 0.38861
H5 H 0.98217 -0.10716 0.32899
C9 C 0.9464(5) -0.1292(4) 0.2228(2)
H6 H 0.94917 -0.06624 0.24398
H7 H 0.91648 -0.10881 0.18473
H8 H 1.01981 -0.16968 0.21825
C10 C 0.6871(5) -0.3973(5) 0.2229(2)
H9 H 0.67365 -0.36780 0.18369
H10 H 0.61766 -0.40155 0.24302
H11 H 0.73098 -0.46746 0.22117
C11 C 0.6570(4) -0.3826(3) 0.3511(2)
H12 H 0.65073 -0.44504 0.32946
H13 H 0.68880 -0.40685 0.38884
C12 C 0.4920(4) -0.3118(3) 0.4128(2)
C13 C 0.3819(4) -0.2413(4) 0.41570(19)
H14 H 0.32774 -0.28069 0.43391
H15 H 0.38564 -0.18113 0.43971
C14 C 0.2663(4) -0.1148(4) 0.3525(2)
C15 C 0.2033(4) -0.0671(4) 0.39924(19)
H16 H 0.21280 -0.09615 0.43737
C16 C 0.2469(4) -0.0727(4) 0.2954(2)
H17 H 0.28671 -0.10615 0.26381
C17 C 0.1267(4) 0.0234(4) 0.38822(19)
H18 H 0.08591 0.05595 0.41977
C18 C 0.1074(3) 0.0686(4) 0.33205(19)
C19 C 0.1697(4) 0.0177(4) 0.2855(2)
H19 H 0.15856 0.04556 0.24723
C20 C 0.0170(4) 0.1641(4) 0.3231(2)
H20 H -0.00941 0.19041 0.36131
H21 H -0.04442 0.14145 0.30458
C21 C -0.0366(3) 0.3510(4) 0.2855(2)
C22 C 0.8361(4) -0.2722(4) 0.16033(19)
H22 H 0.91106 -0.26329 0.14907
H23 H 0.82555 -0.34170 0.14816
C23 C 0.7759(4) -0.1494(4) 0.07811(19)
C24 C 0.6945(4) -0.0555(4) 0.0557(2)
H24 H 0.72176 0.01023 0.06133
H25 H 0.68412 -0.06112 0.01397
C25 C 0.5124(3) 0.0328(3) 0.08153(18)
C26 C 0.4205(4) 0.0358(4) 0.11976(19)
H26 H 0.41678 -0.02054 0.14691
C27 C 0.3356(4) 0.1216(4) 0.11736(18)
H27 H 0.27470 0.12303 0.14311
C28 C 0.3392(4) 0.2054(4) 0.07761(18)
C29 C 0.4304(4) 0.2021(4) 0.0394(2)
H28 H 0.43326 0.25864 0.01229
C30 C 0.5170(4) 0.1165(4) 0.0408(2)
H29 H 0.57755 0.11507 0.01478
C31 C 0.2436(4) 0.2992(4) 0.0723(2)
H30 H 0.26806 0.35601 0.04818
H31 H 0.18354 0.27667 0.05240
C32 C 0.1175(4) 0.4404(4) 0.1224(2)
C33 C 0.8385(3) 0.0281(3) 0.4159(2)
C34 C 0.7672(3) 0.1373(3) 0.42070(18)
H32 H 0.69812 0.13070 0.44159
H33 H 0.80513 0.18248 0.44288
C35 C 0.6557(3) 0.2699(3) 0.35816(18)
C36 C 0.6313(3) 0.3075(3) 0.30107(19)
H34 H 0.67554 0.27853 0.26970
C37 C 0.5924(3) 0.3150(3) 0.40491(19)
H35 H 0.61034 0.29186 0.44329
C38 C 0.5025(4) 0.3945(3) 0.39458(19)
H36 H 0.45986 0.42439 0.42625
C39 C 0.5421(4) 0.3874(3) 0.29061(19)
H37 H 0.52660 0.41262 0.25225
C40 C 0.4745(4) 0.4309(3) 0.33757(19)
C41 C 0.3764(4) 0.5194(4) 0.3285(2)
C42 C 0.1957(4) 0.5794(3) 0.2842(2)
C43 C 0.0359(6) 0.4521(6) 0.1726(3)
H38 H 0.00002 0.38984 0.17565
H39 H -0.02074 0.51414 0.16470
C44 C 0.0087(6) 0.4522(6) 0.2798(3)
H40 H -0.05327 0.51108 0.27672
H41 H 0.04565 0.45977 0.31590
C45 C 0.1277(6) 0.5638(6) 0.2312(4)
H42 H 0.06495 0.62195 0.22922
H43 H 0.17326 0.56986 0.19581
N1 N 0.5455(3) -0.3172(3) 0.36056(16)
N2 N 0.8470(3) -0.0144(3) 0.36293(16)
N3 N 0.7560(4) -0.1876(4) 0.13066(16)
N4 N 0.0863(3) 0.4640(3) 0.23044(15)
N5 N 0.2021(4) 0.3407(4) 0.12900(18)
H44 H 0.25848 0.35444 0.14912
H45 H 0.17199 0.29128 0.14955
N6 N 0.2950(3) 0.4942(3) 0.28677(16)
H46 H 0.32681 0.48697 0.25103
H47 H 0.27466 0.43245 0.29813
N7 N 0.0517(3) 0.2548(3) 0.28601(16)
H48 H 0.11303 0.27106 0.30023
H49 H 0.06704 0.23419 0.24933
O1 O 0.8600(3) -0.1810(4) 0.04836(17)
O2 O 0.8815(2) -0.0144(2) 0.46077(13)
O3 O 0.5307(3) -0.3602(3) 0.45930(15)
O4 O 0.3482(3) -0.2035(3) 0.35821(14)
O5 O 0.5925(2) -0.0550(2) 0.08741(12)
O6 O 0.7443(2) 0.1853(2) 0.36343(12)
C46 C -0.0201(4) 1.1643(4) 0.1578(2)
O7 O 0.0706(2) 1.1886(3) 0.17131(14)
O8 O -0.1023(3) 1.1712(3) 0.19178(16)
C47 C -0.0325(5) 1.1269(6) 0.0953(2)
H50 H -0.09299 1.08685 0.09632
H51 H -0.05330 1.18956 0.06946
C48 C 0.0696(5) 1.0582(5) 0.0686(2)
H52 H 0.05775 1.05029 0.02723
H53 H 0.13238 1.09444 0.07117
C49 C 0.0965(5) 0.9497(5) 0.0983(2)
H54 H 0.03250 0.91471 0.09706
H55 H 0.11082 0.95775 0.13935
C50 C 0.1963(6) 0.8783(5) 0.0706(3)
H56 H 0.18222 0.87215 0.02936
H57 H 0.26011 0.91326 0.07251
C51 C 0.225(1) 0.7685(6) 0.0980(4)
H58 H 0.23185 0.77462 0.13997
H59 H 0.16383 0.73123 0.09269
C52 C 0.3279(8) 0.7021(7) 0.0750(4)
H60 H 0.31670 0.62908 0.07156
H61 H 0.34762 0.72959 0.03629
C53 C 0.4141(9) 0.7049(9) 0.1146(4)
H62 H 0.42028 0.77910 0.11887
H63 H 0.48316 0.66994 0.09658
C54 C 0.4023(6) 0.6528(7) 0.1771(3)
O9 O 0.4107(6) 0.7099(6) 0.2234(3)
O10 O 0.3867(4) 0.5614(4) 0.1796(2)
O11 O 0.4548(6) 0.4438(6) 0.0853(3)
O12 O 0.9844(4) 0.6202(4) 0.03483(19)
O13 O 0.8526(4) 0.4606(4) 0.0501(2)
O14 O 0.7700(4) 0.3644(4) 0.1567(2)
O15 O 0.5751(5) 0.2769(6) 0.1479(3)
O16 O 0.0098(3) 0.7929(3) 0.50488(17)
O17 O 0.9529(5) 0.5044(4) 0.4181(2)
O18 O 0.1277(4) 0.3366(3) 0.43806(18)
O19 O 0.7519(4) 0.5298(3) 0.50152(19)
O20 O 0.1165(5) 0.6378(3) 0.4319(2)
O21 O 0.3672(4) 0.4775(5) 0.9768(3)
O22 O 0.7091(5) 0.0759(6) 0.1765(4)
O23 O 0.5488(8) 0.8669(9) 0.2305(3)
O24 O 0.5423(7) 0.1523(12) 0.2041(5)
O25 O 0.5942(7) 0.0357(6) 0.2794(4)
C55? C 0.1001(12) 0.5254(10) 0.1746(5)
H64? H 0.16393 0.56052 0.17607
H65? H 0.03488 0.57945 0.16783
C56? C -0.0270(9) 0.4364(9) 0.2350(5)
H66? H -0.04405 0.40915 0.19796
H67? H -0.08079 0.50037 0.24235
C57? C 0.0844(8) 0.5444(8) 0.2793(4)
H68? H 0.02813 0.60660 0.27108
H69? H 0.06452 0.51171 0.31670
O26? O 0.6363(4) -0.3094(4) 0.7946(2)
O27? O 0.7511(7) 0.0617(7) 0.2472(4)
C58? C 0.3283(6) 0.2169(6) 0.3474(3)
O28? O 0.245(2) 0.293(2) 0.3431(8)
O29? O 0.3900(6) 0.1776(7) 0.3066(3)
C59? C 0.3486(12) 0.1733(13) 0.4111(5)
C60? C 0.4416(16) 0.0790(15) 0.4255(7)
C61? C 0.444(2) 0.055(2) 0.4916(7)
C62? C 0.5350(18) -0.0363(18) 0.5135(8)
C63? C 0.533(2) -0.0526(19) 0.5800(8)
C64? C 0.6178(13) -0.1427(13) 0.6026(6)
C65? C 0.5999(11) -0.1509(10) 0.6648(5)
C66? C 0.6822(8) -0.2380(7) 0.6982(4)
O30? O 0.6667(6) -0.2525(5) 0.7550(3)
O31? O 0.7564(19) -0.2989(19) 0.6720(8)
#END
