
#######################################################################
#
#                 Cambridge Crystallographic Data Centre
#                                CCDC
#
#######################################################################
#
# If this CIF has been generated from an entry in the Cambridge
# Structural Database, then it will include bibliographic, chemical,
# crystal, experimental, refinement or atomic coordinate data resulting
# from the CCDC's data processing and validation procedures.
#
#######################################################################

data_CSD_CIF_SAVYAS
_audit_creation_date 2017-06-28
_audit_creation_method CSD-ConQuest-V1
_database_code_CSD SAVYAS
_database_code_depnum_ccdc_archive 'CCDC 1502518'
_chemical_formula_sum 'C109 H94 Cl3 N11'
_chemical_formula_moiety
;
C108 H93 N11,C1 H1 Cl3
;
_journal_coden_Cambridge 1220
_journal_volume 23
_journal_year 2017
_journal_page_first 8482
_journal_name_full 'Chem.-Eur.J. '
loop_
_publ_author_name
"K.Acharyya"
"A.Chowdhury"
"B.Mondal"
"S.Chakraborty"
"P.S.Mukherjee"
_chemical_name_systematic
;
7,19,30-triphenyl-6,8,18,20,29,31-hexakis(biphenyl-4,4'-diyl)-1,4,7,10,13,16,1
9,22,27,30,33-undecaazabicyclo[11.11.11]pentatriaconta-4,9,16,21,27,32-hexaene
 chloroform solvate
;
_cell_volume  10240.822
_exptl_crystal_colour 'reddish yellow'
_exptl_crystal_density_diffrn 1.079
_exptl_crystal_description 'rod'
_diffrn_ambient_temperature 100
_refine_special_details
;
Disordered solvent molecules were not modelled and the disordered density was 
taken into account using the SQUEEZE/PLATON procedure.
;
#These two values have been output from a single CSD field.
_refine_ls_R_factor_gt 0.1094
_refine_ls_wR_factor_gt 0.1094
_symmetry_cell_setting monoclinic
_symmetry_space_group_name_H-M 'P 21/n'
_symmetry_Int_Tables_number 14
loop_
_symmetry_equiv_pos_site_id
_symmetry_equiv_pos_as_xyz
1 x,y,z
2 1/2-x,1/2+y,1/2-z
3 -x,-y,-z
4 -1/2+x,-1/2-y,-1/2+z
_cell_length_a 17.9406(12)
_cell_length_b 22.5985(10)
_cell_length_c 25.8411(13)
_cell_angle_alpha 90
_cell_angle_beta 102.183(5)
_cell_angle_gamma 90
_cell_formula_units_Z 4
loop_
_atom_type_symbol
_atom_type_radius_bond
C 0.68
H 0.23
Cl 0.99
N 0.68
loop_
_atom_site_label
_atom_site_type_symbol
_atom_site_fract_x
_atom_site_fract_y
_atom_site_fract_z
C1 C 0.2675(3) 0.5403(2) 0.88515(18)
C2 C 0.3438(3) 0.5444(2) 0.9106(2)
H1 H 0.37530 0.57200 0.89920
C3 C 0.3728(3) 0.5074(3) 0.9529(2)
H2 H 0.42390 0.51010 0.97000
C4 C 0.3257(4) 0.4661(2) 0.9699(2)
H3 H 0.34520 0.44130 0.99830
C5 C 0.2494(4) 0.4620(2) 0.9445(2)
H4 H 0.21790 0.43440 0.95580
C6 C 0.2204(3) 0.4990(3) 0.9021(2)
H5 H 0.16930 0.49630 0.88510
N1 N 0.7392(3) 0.7391(2) 0.6704(2)
N2 N 0.3459(3) 0.99810(19) 0.83436(17)
N3 N -0.1571(3) 0.9051(2) 0.98550(17)
N4 N -0.3206(3) 0.8939(2) 0.91957(17)
N5 N -0.2852(3) 0.9687(2) 0.82568(17)
N6 N 0.0339(3) 0.8165(2) 0.54589(17)
N7 N 0.6170(3) 0.7802(2) 0.5090(2)
N8 N 0.6168(3) 0.5937(2) 0.57395(19)
N9 N 0.2426(4) 0.5803(2) 0.8445(2)
N10 N -0.2923(4) 0.7728(3) 0.8683(2)
C7 C 0.7988(4) 0.7035(3) 0.5988(3)
H6 H 0.80890 0.74520 0.59420
H7 H 0.84310 0.68140 0.59390
C8 C 0.7879(4) 0.6937(3) 0.6553(3)
H8 H 0.76520 0.65510 0.65780
H9 H 0.83720 0.69430 0.67960
C9 C 0.6786(4) 0.7231(3) 0.6839(2)
H10 H 0.66740 0.68280 0.68240
C10 C 0.6247(4) 0.7629(3) 0.7017(2)
C11 C 0.5620(4) 0.7400(3) 0.7171(2)
H11 H 0.55270 0.69950 0.71540
C12 C 0.5121(4) 0.7785(3) 0.7355(2)
H12 H 0.46960 0.76280 0.74590
C13 C 0.5236(4) 0.8389(2) 0.7386(2)
C14 C 0.5868(4) 0.8596(3) 0.7218(2)
H13 H 0.59560 0.90020 0.72270
C15 C 0.6376(4) 0.8234(3) 0.7035(2)
H14 H 0.67970 0.83930 0.69270
C16 C 0.4720(3) 0.8780(2) 0.7609(2)
C17 C 0.4410(3) 0.8620(2) 0.8039(2)
H15 H 0.44870 0.82380 0.81730
C18 C 0.4001(3) 0.9005(2) 0.8271(2)
H16 H 0.38090 0.88760 0.85580
C19 C 0.3859(3) 0.9577(2) 0.8098(2)
C20 C 0.4162(4) 0.9742(3) 0.7653(2)
H17 H 0.40690 1.01220 0.75160
C21 C 0.4583(4) 0.9365(3) 0.7419(2)
H18 H 0.47820 0.94930 0.71340
C22 C 0.3738(4) 1.0564(2) 0.8442(2)
C23 C 0.4524(4) 1.0676(3) 0.8568(2)
H19 H 0.48720 1.03680 0.85840
C24 C 0.4774(4) 1.1245(3) 0.8666(3)
H20 H 0.52950 1.13170 0.87590
C25 C 0.4269(5) 1.1723(3) 0.8632(2)
H21 H 0.44480 1.21090 0.86880
C26 C 0.3502(5) 1.1604(3) 0.8513(2)
H22 H 0.31550 1.19120 0.85050
C27 C 0.3240(4) 1.1039(3) 0.8406(2)
H23 H 0.27170 1.09720 0.83060
C28 C 0.2783(3) 0.9792(2) 0.8510(2)
C29 C 0.2294(4) 0.9393(2) 0.8225(2)
H24 H 0.24100 0.92270 0.79210
C30 C 0.1632(3) 0.9231(2) 0.8376(2)
H25 H 0.13040 0.89650 0.81680
C31 C 0.1439(4) 0.9456(2) 0.8835(2)
C32 C 0.1951(4) 0.9872(2) 0.9113(2)
H26 H 0.18320 1.00520 0.94090
C33 C 0.2612(4) 1.0024(2) 0.8972(2)
H27 H 0.29500 1.02830 0.91820
C34 C 0.0736(3) 0.9287(3) 0.8991(2)
C35 C 0.0350(3) 0.9684(2) 0.9270(2)
H28 H 0.05400 1.00670 0.93340
C36 C -0.0297(3) 0.9527(2) 0.94521(19)
H29 H -0.05340 0.97990 0.96340
C37 C -0.0593(4) 0.8945(3) 0.9357(2)
C38 C -0.0221(4) 0.8547(2) 0.9071(2)
H30 H -0.04130 0.81670 0.89990
C39 C 0.0417(4) 0.8717(3) 0.8899(2)
H31 H 0.06510 0.84450 0.87150
C40 C -0.1268(4) 0.8755(3) 0.9539(2)
H32 H -0.14890 0.83950 0.94160
C41 C -0.2249(4) 0.8799(3) 1.0017(2)
H33 H -0.21870 0.88270 1.03980
H34 H -0.22990 0.83840 0.99190
C42 C -0.2949(4) 0.9126(3) 0.9752(2)
H35 H -0.33530 0.90540 0.99420
H36 H -0.28430 0.95470 0.97650
C43 C -0.3664(4) 0.9405(3) 0.8883(2)
H37 H -0.39940 0.95840 0.90920
H38 H -0.39850 0.92300 0.85710
C44 C -0.3171(4) 0.9874(3) 0.8715(2)
H39 H -0.34700 1.02310 0.86230
H40 H -0.27550 0.99670 0.90100
C45 C -0.2139(4) 0.9674(3) 0.8311(2)
H41 H -0.18380 0.97810 0.86360
C46 C -0.1760(4) 0.9496(2) 0.7883(2)
C47 C -0.0982(4) 0.9462(2) 0.7975(2)
H42 H -0.06960 0.95590 0.83080
C48 C -0.0606(4) 0.9280(2) 0.7573(2)
H43 H -0.00760 0.92650 0.76420
C49 C -0.1012(3) 0.9128(2) 0.7089(2)
C50 C -0.1805(4) 0.9160(3) 0.7003(2)
H44 H -0.20940 0.90520 0.66750
C51 C -0.2166(4) 0.9345(3) 0.7385(2)
H45 H -0.26950 0.93710 0.73100
C52 C -0.0645(3) 0.8890(2) 0.6672(2)
C53 C -0.0008(4) 0.9138(3) 0.6535(2)
H46 H 0.02040 0.94710 0.67210
C54 C 0.0336(4) 0.8923(3) 0.6140(2)
H47 H 0.07560 0.91110 0.60550
C55 C 0.0017(4) 0.8404(3) 0.58711(19)
C56 C -0.0585(4) 0.8129(3) 0.6014(2)
H48 H -0.07650 0.77730 0.58540
C57 C -0.0942(4) 0.8380(3) 0.6404(2)
H49 H -0.13740 0.82030 0.64800
C58 C -0.0180(4) 0.7883(3) 0.5031(2)
C59 C -0.0090(4) 0.7303(3) 0.4908(3)
H50 H 0.02970 0.70770 0.51100
C60 C -0.0589(4) 0.7055(3) 0.4471(3)
H51 H -0.05040 0.66700 0.43700
C61 C -0.1186(4) 0.7355(3) 0.4195(3)
H52 H -0.15140 0.71760 0.39120
C62 C -0.1315(4) 0.7942(3) 0.4334(2)
H53 H -0.17310 0.81530 0.41480
C63 C -0.0813(4) 0.8199(3) 0.4754(2)
H54 H -0.08950 0.85850 0.48530
C64 C 0.1122(4) 0.8131(3) 0.5483(2)
C65 C 0.1658(4) 0.8121(2) 0.5950(2)
H55 H 0.14990 0.81380 0.62700
C66 C 0.2437(4) 0.8084(2) 0.5955(2)
H56 H 0.27860 0.80760 0.62770
C67 C 0.2698(4) 0.8059(2) 0.5485(2)
C68 C 0.2146(4) 0.8066(2) 0.5018(2)
H57 H 0.23000 0.80480 0.46970
C69 C 0.1411(4) 0.8097(3) 0.5016(2)
H58 H 0.10670 0.80950 0.46910
C70 C 0.3521(4) 0.8046(2) 0.5489(2)
C71 C 0.4077(4) 0.8271(3) 0.5904(2)
H59 H 0.39230 0.84310 0.61960
C72 C 0.4846(4) 0.8266(3) 0.5900(3)
H60 H 0.51950 0.84400 0.61760
C73 C 0.5093(4) 0.8003(3) 0.5487(2)
C74 C 0.4551(4) 0.7767(3) 0.5057(2)
H61 H 0.47070 0.75970 0.47700
C75 C 0.3795(4) 0.7794(3) 0.5073(2)
H62 H 0.34440 0.76360 0.47900
C76 C 0.5916(4) 0.7991(3) 0.5475(3)
H63 H 0.62620 0.81310 0.57690
C77 C 0.7000(4) 0.7816(3) 0.5120(3)
H64 H 0.72510 0.80100 0.54440
H65 H 0.71070 0.80410 0.48240
C78 C 0.7302(4) 0.7199(3) 0.5106(3)
H66 H 0.69860 0.69900 0.48130
H67 H 0.78120 0.72210 0.50370
C79 C 0.7349(4) 0.6230(3) 0.5498(3)
H68 H 0.75770 0.60370 0.58280
H69 H 0.76640 0.61470 0.52450
C80 C 0.6546(4) 0.5977(3) 0.5290(2)
H70 H 0.62580 0.62330 0.50190
H71 H 0.65790 0.55880 0.51380
C81 C 0.5595(4) 0.6265(3) 0.5709(2)
H72 H 0.54540 0.65200 0.54220
C82 C 0.5135(4) 0.6251(3) 0.6131(2)
C83 C 0.5355(4) 0.5871(2) 0.6557(2)
H73 H 0.57960 0.56470 0.65850
C84 C 0.4932(4) 0.5823(3) 0.6938(2)
H74 H 0.50890 0.55690 0.72230
C85 C 0.4265(4) 0.6152(2) 0.6899(2)
C86 C 0.4056(4) 0.6539(3) 0.6485(2)
H75 H 0.36290 0.67780 0.64670
C87 C 0.4474(4) 0.6578(3) 0.6093(2)
H76 H 0.43100 0.68250 0.58030
C88 C 0.3783(3) 0.6064(3) 0.7310(2)
C89 C 0.3672(4) 0.5507(3) 0.7494(2)
H77 H 0.39090 0.51840 0.73730
C90 C 0.3211(4) 0.5418(3) 0.7856(2)
H78 H 0.31340 0.50370 0.79700
C91 C 0.2864(4) 0.5898(3) 0.8049(2)
C92 C 0.3012(4) 0.6455(3) 0.7877(2)
H79 H 0.28150 0.67810 0.80220
C93 C 0.3429(4) 0.6547(3) 0.7509(2)
H80 H 0.34840 0.69280 0.73860
C94 C 0.1730(5) 0.6112(3) 0.8398(3)
C95 C 0.1476(5) 0.6260(3) 0.8859(3)
H81 H 0.17700 0.61540 0.91870
C96 C 0.0790(5) 0.6563(3) 0.8836(3)
H82 H 0.06420 0.66650 0.91490
C97 C 0.0328(4) 0.6713(3) 0.8355(2)
C98 C 0.0586(4) 0.6566(3) 0.7891(2)
H83 H 0.02970 0.66740 0.75630
C99 C 0.1274(4) 0.6259(3) 0.7920(3)
H84 H 0.14220 0.61530 0.76090
C100 C -0.0416(4) 0.7016(3) 0.8331(2)
C101 C -0.0865(4) 0.6847(3) 0.8688(2)
H85 H -0.06970 0.65460 0.89300
C102 C -0.1550(4) 0.7117(3) 0.8686(2)
H86 H -0.18340 0.69940 0.89280
C103 C -0.1829(4) 0.7565(3) 0.8339(2)
C104 C -0.1369(4) 0.7733(3) 0.7970(2)
H87 H -0.15270 0.80360 0.77280
C105 C -0.0692(4) 0.7441(3) 0.7975(3)
H88 H -0.04140 0.75420 0.77230
C106 C -0.2537(4) 0.7866(3) 0.8344(2)
H89 H -0.27090 0.81620 0.80980
C107 C -0.3656(5) 0.8053(3) 0.8657(3)
H90 H -0.37350 0.83280 0.83620
H91 H -0.40750 0.77730 0.85950
C108 C -0.3661(4) 0.8386(3) 0.9155(2)
H92 H -0.41830 0.84840 0.91690
H93 H -0.34570 0.81360 0.94560
N11 N 0.7333(3) 0.6858(2) 0.55831(18)
C109 C 0.1756(4) 0.7701(3) 0.7634(3)
H94 H 0.17120 0.72890 0.75140
Cl1 Cl 0.18555(12) 0.77078(8) 0.83229(7)
Cl2 Cl 0.09344(12) 0.80826(8) 0.73145(7)
Cl3 Cl 0.25761(13) 0.80174(8) 0.74541(8)
#END
