
#######################################################################
#
#                 Cambridge Crystallographic Data Centre
#                                CCDC
#
#######################################################################
#
# If this CIF has been generated from an entry in the Cambridge
# Structural Database, then it will include bibliographic, chemical,
# crystal, experimental, refinement or atomic coordinate data resulting
# from the CCDC's data processing and validation procedures.
#
#######################################################################

data_CSD_CIF_SENNOR
_audit_creation_date 2017-11-01
_audit_creation_method CSD-ConQuest-V1
_database_code_CSD SENNOR
_database_code_depnum_ccdc_archive 'CCDC 1533778'
_chemical_formula_sum 'C73 H86 Cl2 N12'
_chemical_formula_moiety
;
C72 H84 N12,C1 H2 Cl2
;
_journal_coden_Cambridge 2029
_journal_volume 3
_journal_year 2017
_journal_page_first 734
_journal_name_full 'ACS Cent.Sci. '
loop_
_publ_author_name
"A.G.Slater"
"P.S.Reiss"
"Angeles Pulido"
"M.A.Little"
"D.L.Holden"
"Linjiang Chen"
"Samantha Y.Chong"
"B.M.Alston"
"R.Clowes"
"M.Haranczyk"
"M.E.Briggs"
"T.Hasell"
"G.M.Day"
"A.I.Cooper"
_chemical_name_systematic
;
5,12,20,27,35,42,50,57,62,69,74,81-dodecaazatridecacyclo[29.29.10.10^16,46^.1^
3,59^.1^14,18^.1^29,33^.1^44,48^.0^6,11^.0^21,26^.0^36,41^.0^51,56^.0^63,68^.0
^75,80^]tetraoctaconta-1,3(71),4,12,14(84),15,17,19,27,29(83),30,32,34,42,44(7
2),45,47,49,57,59,61,69,73,81-tetracosaene dichloromethane solvate
;
_cell_volume  15188.504
_exptl_crystal_colour 'colorless'
_exptl_crystal_density_diffrn 1.051
_exptl_crystal_description 'prism'
_diffrn_ambient_temperature 100
_refine_special_details
;
The structure is disordered.

;
#These two values have been output from a single CSD field.
_refine_ls_R_factor_gt 0.2146
_refine_ls_wR_factor_gt 0.2146
_symmetry_cell_setting cubic
_symmetry_space_group_name_H-M 'F 41 3 2'
_symmetry_Int_Tables_number 210
loop_
_symmetry_equiv_pos_site_id
_symmetry_equiv_pos_as_xyz
1 x,y,z
2 1/4-y,1/4+x,1/4+z
3 -x,-y,z
4 1/4+y,1/4-x,1/4+z
5 1/4+x,1/4-z,1/4+y
6 x,-y,-z
7 1/4+x,1/4+z,1/4-y
8 1/4+z,1/4+y,1/4-x
9 -x,y,-z
10 1/4-z,1/4+y,1/4+x
11 z,x,y
12 y,z,x
13 -y,-z,x
14 z,-x,-y
15 -y,z,-x
16 -z,-x,y
17 -z,x,-y
18 y,-z,-x
19 1/4+y,1/4+x,1/4-z
20 1/4-y,1/4-x,1/4-z
21 1/4-x,1/4+z,1/4+y
22 1/4-x,1/4-z,1/4-y
23 1/4+z,1/4-y,1/4+x
24 1/4-z,1/4-y,1/4-x
25 x,1/2+y,1/2+z
26 1/4-y,3/4+x,3/4+z
27 -x,1/2-y,1/2+z
28 1/4+y,3/4-x,3/4+z
29 1/4+x,3/4-z,3/4+y
30 x,1/2-y,1/2-z
31 1/4+x,3/4+z,3/4-y
32 1/4+z,3/4+y,3/4-x
33 -x,1/2+y,1/2-z
34 1/4-z,3/4+y,3/4+x
35 z,1/2+x,1/2+y
36 y,1/2+z,1/2+x
37 -y,1/2-z,1/2+x
38 z,1/2-x,1/2-y
39 -y,1/2+z,1/2-x
40 -z,1/2-x,1/2+y
41 -z,1/2+x,1/2-y
42 y,1/2-z,1/2-x
43 1/4+y,3/4+x,3/4-z
44 1/4-y,3/4-x,3/4-z
45 1/4-x,3/4+z,3/4+y
46 1/4-x,3/4-z,3/4-y
47 1/4+z,3/4-y,3/4+x
48 1/4-z,3/4-y,3/4-x
49 1/2+x,y,1/2+z
50 3/4-y,1/4+x,3/4+z
51 1/2-x,-y,1/2+z
52 3/4+y,1/4-x,3/4+z
53 3/4+x,1/4-z,3/4+y
54 1/2+x,-y,1/2-z
55 3/4+x,1/4+z,3/4-y
56 3/4+z,1/4+y,3/4-x
57 1/2-x,y,1/2-z
58 3/4-z,1/4+y,3/4+x
59 1/2+z,x,1/2+y
60 1/2+y,z,1/2+x
61 1/2-y,-z,1/2+x
62 1/2+z,-x,1/2-y
63 1/2-y,z,1/2-x
64 1/2-z,-x,1/2+y
65 1/2-z,x,1/2-y
66 1/2+y,-z,1/2-x
67 3/4+y,1/4+x,3/4-z
68 3/4-y,1/4-x,3/4-z
69 3/4-x,1/4+z,3/4+y
70 3/4-x,1/4-z,3/4-y
71 3/4+z,1/4-y,3/4+x
72 3/4-z,1/4-y,3/4-x
73 1/2+x,1/2+y,z
74 3/4-y,3/4+x,1/4+z
75 1/2-x,1/2-y,z
76 3/4+y,3/4-x,1/4+z
77 3/4+x,3/4-z,1/4+y
78 1/2+x,1/2-y,-z
79 3/4+x,3/4+z,1/4-y
80 3/4+z,3/4+y,1/4-x
81 1/2-x,1/2+y,-z
82 3/4-z,3/4+y,1/4+x
83 1/2+z,1/2+x,y
84 1/2+y,1/2+z,x
85 1/2-y,1/2-z,x
86 1/2+z,1/2-x,-y
87 1/2-y,1/2+z,-x
88 1/2-z,1/2-x,y
89 1/2-z,1/2+x,-y
90 1/2+y,1/2-z,-x
91 3/4+y,3/4+x,1/4-z
92 3/4-y,3/4-x,1/4-z
93 3/4-x,3/4+z,1/4+y
94 3/4-x,3/4-z,1/4-y
95 3/4+z,3/4-y,1/4+x
96 3/4-z,3/4-y,1/4-x
_cell_length_a 24.765(7)
_cell_length_b 24.765(7)
_cell_length_c 24.765(7)
_cell_angle_alpha 90
_cell_angle_beta 90
_cell_angle_gamma 90
_cell_formula_units_Z 8
loop_
_atom_type_symbol
_atom_type_radius_bond
C 0.68
H 0.23
Cl 0.99
N 0.68
loop_
_atom_site_label
_atom_site_type_symbol
_atom_site_fract_x
_atom_site_fract_y
_atom_site_fract_z
N1 N 0.4527(5) 0.4624(5) 0.7766(4)
C1 C 0.4351(2) 0.4153(2) 0.8577(2)
C2 C 0.4693(7) 0.4289(7) 0.8101(6)
H1 H 0.50350 0.41210 0.80550
C3 C 0.4488(2) 0.3698(2) 0.8895(2)
H2 H 0.47920 0.34810 0.88090
C4 C 0.4889(6) 0.4718(6) 0.7307(4)
H3 H 0.51910 0.44490 0.73080
C5 C 0.4533(11) 0.4651(16) 0.6777(6)
H4 H 0.43620 0.42900 0.67750
H5 H 0.42420 0.49260 0.67760
C6 C 0.4886(16) 0.4719(9) 0.6271(6)
H6 H 0.51820 0.44500 0.62740
H7 H 0.46660 0.46600 0.59420
C7? C 0.4987(6) 0.3427(8) 0.8668(8)
H8? H 0.50050 0.34890 0.82780
H9? H 0.49690 0.30380 0.87390
H10? H 0.53100 0.35770 0.88410
Cl1? Cl 0.550(2) 0.550(2) 1.050(2)
C8? C 0.50000 0.50000 1.00000
N1B N 0.5473(5) 0.5376(5) 0.7766(4)
C1B C 0.5649(2) 0.5847(2) 0.8577(2)
C2B C 0.5307(7) 0.5711(7) 0.8101(6)
H1B H 0.49650 0.58790 0.80550
C3B C 0.5512(2) 0.6302(2) 0.8895(2)
H2B H 0.52080 0.65190 0.88090
C4B C 0.5111(6) 0.5282(6) 0.7307(4)
H3B H 0.48090 0.55510 0.73080
C5B C 0.5467(11) 0.5349(16) 0.6777(6)
H4B H 0.56380 0.57100 0.67750
H5B H 0.57580 0.50740 0.67760
C6B C 0.5114(16) 0.5281(9) 0.6271(6)
H6B H 0.48180 0.55500 0.62740
H7B H 0.53340 0.53400 0.59420
N1IA N 0.4624(5) 0.2766(5) 0.9527(4)
C1IA C 0.4153(2) 0.3577(2) 0.9351(2)
C2IA C 0.4289(7) 0.3101(7) 0.9693(6)
H1IA H 0.41210 0.30550 1.00350
C3IA C 0.3698(2) 0.3895(2) 0.9488(2)
H2IA H 0.34810 0.38090 0.97920
C4IA C 0.4718(6) 0.2307(6) 0.9889(4)
H3IA H 0.44490 0.23080 1.01910
C5IA C 0.4651(11) 0.1777(16) 0.9533(6)
H4IA H 0.42900 0.17750 0.93620
H5IA H 0.49260 0.17760 0.92420
C6IA C 0.4719(16) 0.1271(9) 0.9886(6)
H6IA H 0.44500 0.12740 1.01820
H7IA H 0.46600 0.09420 0.96660
N1FB N 0.2766(5) 0.4527(5) 0.9624(4)
C1FB C 0.3577(2) 0.4351(2) 0.9153(2)
C2FB C 0.3101(7) 0.4693(7) 0.9289(6)
H1FB H 0.30550 0.50350 0.91210
C3FB C 0.3895(2) 0.4488(2) 0.8698(2)
H2FB H 0.38090 0.47920 0.84810
C4FB C 0.2307(6) 0.4889(6) 0.9718(4)
H3FB H 0.23080 0.51910 0.94490
C5FB C 0.1777(11) 0.4533(16) 0.9651(6)
H4FB H 0.17750 0.43620 0.92900
H5FB H 0.17760 0.42420 0.99260
C6FB C 0.1271(16) 0.4886(9) 0.9719(6)
H6FB H 0.12740 0.51820 0.94500
H7FB H 0.09420 0.46660 0.96600
N1JA N 0.5376(5) 0.7234(5) 0.9527(4)
C1JA C 0.5847(2) 0.6423(2) 0.9351(2)
C2JA C 0.5711(7) 0.6899(7) 0.9693(6)
H1JA H 0.58790 0.69450 1.00350
C3JA C 0.6302(2) 0.6105(2) 0.9488(2)
H2JA H 0.65190 0.61910 0.97920
C4JA C 0.5282(6) 0.7693(6) 0.9889(4)
H3JA H 0.55510 0.76920 1.01910
C5JA C 0.5349(11) 0.8223(16) 0.9533(6)
H4JA H 0.57100 0.82250 0.93620
H5JA H 0.50740 0.82240 0.92420
C6JA C 0.5281(16) 0.8729(9) 0.9886(6)
H6JA H 0.55500 0.87260 1.01820
H7JA H 0.53400 0.90580 0.96660
N1LA N 0.5376(5) 0.2766(5) 1.0473(4)
C1LA C 0.5847(2) 0.3577(2) 1.0649(2)
C2LA C 0.5711(7) 0.3101(7) 1.0307(6)
H1LA H 0.58790 0.30550 0.99650
C3LA C 0.6302(2) 0.3895(2) 1.0512(2)
H2LA H 0.65190 0.38090 1.02080
C4LA C 0.5282(6) 0.2307(6) 1.0111(4)
H3LA H 0.55510 0.23080 0.98090
C5LA C 0.5349(11) 0.1777(16) 1.0467(6)
H4LA H 0.57100 0.17750 1.06380
H5LA H 0.50740 0.17760 1.07580
C6LA C 0.5281(16) 0.1271(9) 1.0114(6)
H6LA H 0.55500 0.12740 0.98180
H7LA H 0.53400 0.09420 1.03340
N1OA N 0.4624(5) 0.7234(5) 1.0473(4)
C1OA C 0.4153(2) 0.6423(2) 1.0649(2)
C2OA C 0.4289(7) 0.6899(7) 1.0307(6)
H1OA H 0.41210 0.69450 0.99650
C3OA C 0.3698(2) 0.6105(2) 1.0512(2)
H2OA H 0.34810 0.61910 1.02080
C4OA C 0.4718(6) 0.7693(6) 1.0111(4)
H3OA H 0.44490 0.76920 0.98090
C5OA C 0.4651(11) 0.8223(16) 1.0467(6)
H4OA H 0.42900 0.82250 1.06380
H5OA H 0.49260 0.82240 1.07580
C6OA C 0.4719(16) 0.8729(9) 1.0114(6)
H6OA H 0.44500 0.87260 0.98180
H7OA H 0.46600 0.90580 1.03340
N1IB N 0.2766(5) 0.5473(5) 1.0376(4)
C1IB C 0.3577(2) 0.5649(2) 1.0847(2)
C2IB C 0.3101(7) 0.5307(7) 1.0711(6)
H1IB H 0.30550 0.49650 1.08790
C3IB C 0.3895(2) 0.5512(2) 1.1302(2)
H2IB H 0.38090 0.52080 1.15190
C4IB C 0.2307(6) 0.5111(6) 1.0282(4)
H3IB H 0.23080 0.48090 1.05510
C5IB C 0.1777(11) 0.5467(16) 1.0349(6)
H4IB H 0.17750 0.56380 1.07100
H5IB H 0.17760 0.57580 1.00740
C6IB C 0.1271(16) 0.5114(9) 1.0281(6)
H6IB H 0.12740 0.48180 1.05500
H7IB H 0.09420 0.53340 1.03400
N1KB N 0.7234(5) 0.5473(5) 0.9624(4)
C1KB C 0.6423(2) 0.5649(2) 0.9153(2)
C2KB C 0.6899(7) 0.5307(7) 0.9289(6)
H1KB H 0.69450 0.49650 0.91210
C3KB C 0.6105(2) 0.5512(2) 0.8698(2)
H2KB H 0.61910 0.52080 0.84810
C4KB C 0.7693(6) 0.5111(6) 0.9718(4)
H3KB H 0.76920 0.48090 0.94490
C5KB C 0.8223(11) 0.5467(16) 0.9651(6)
H4KB H 0.82250 0.56380 0.92900
H5KB H 0.82240 0.57580 0.99260
C6KB C 0.8729(16) 0.5114(9) 0.9719(6)
H6KB H 0.87260 0.48180 0.94500
H7KB H 0.90580 0.53340 0.96600
N1LB N 0.7234(5) 0.4527(5) 1.0376(4)
C1LB C 0.6423(2) 0.4351(2) 1.0847(2)
C2LB C 0.6899(7) 0.4693(7) 1.0711(6)
H1LB H 0.69450 0.50350 1.08790
C3LB C 0.6105(2) 0.4488(2) 1.1302(2)
H2LB H 0.61910 0.47920 1.15190
C4LB C 0.7693(6) 0.4889(6) 1.0282(4)
H3LB H 0.76920 0.51910 1.05510
C5LB C 0.8223(11) 0.4533(16) 1.0349(6)
H4LB H 0.82250 0.43620 1.07100
H5LB H 0.82240 0.42420 1.00740
C6LB C 0.8729(16) 0.4886(9) 1.0281(6)
H6LB H 0.87260 0.51820 1.05500
H7LB H 0.90580 0.46660 1.03400
N1E N 0.4527(5) 0.5376(5) 1.2234(4)
C1E C 0.4351(2) 0.5847(2) 1.1423(2)
C2E C 0.4693(7) 0.5711(7) 1.1899(6)
H1E H 0.50350 0.58790 1.19450
C3E C 0.4488(2) 0.6302(2) 1.1105(2)
H2E H 0.47920 0.65190 1.11910
C4E C 0.4889(6) 0.5282(6) 1.2693(4)
H3E H 0.51910 0.55510 1.26920
C5E C 0.4533(11) 0.5349(16) 1.3223(6)
H4E H 0.43620 0.57100 1.32250
H5E H 0.42420 0.50740 1.32240
C6E C 0.4886(16) 0.5281(9) 1.3729(6)
H6E H 0.51820 0.55500 1.37260
H7E H 0.46660 0.53400 1.40580
N1H N 0.5473(5) 0.4624(5) 1.2234(4)
C1H C 0.5649(2) 0.4153(2) 1.1423(2)
C2H C 0.5307(7) 0.4289(7) 1.1899(6)
H1H H 0.49650 0.41210 1.19450
C3H C 0.5512(2) 0.3698(2) 1.1105(2)
H2H H 0.52080 0.34810 1.11910
C4H C 0.5111(6) 0.4718(6) 1.2693(4)
H3H H 0.48090 0.44490 1.26920
C5H C 0.5467(11) 0.4651(16) 1.3223(6)
H4H H 0.56380 0.42900 1.32250
H5H H 0.57580 0.49260 1.32240
C6H C 0.5114(16) 0.4719(9) 1.3729(6)
H6H H 0.48180 0.44500 1.37260
H7H H 0.53340 0.46600 1.40580
#END
