
#######################################################################
#
#                 Cambridge Crystallographic Data Centre
#                                CCDC
#
#######################################################################
#
# If this CIF has been generated from an entry in the Cambridge
# Structural Database, then it will include bibliographic, chemical,
# crystal, experimental, refinement or atomic coordinate data resulting
# from the CCDC's data processing and validation procedures.
#
#######################################################################

data_CSD_CIF_SENNUX
_audit_creation_date 2017-11-01
_audit_creation_method CSD-ConQuest-V1
_database_code_CSD SENNUX
_database_code_depnum_ccdc_archive 'CCDC 1533779'
_chemical_formula_sum 'C84 H108 N12'
_chemical_formula_moiety
;
C84 H108 N12
;
_journal_coden_Cambridge 2029
_journal_volume 3
_journal_year 2017
_journal_page_first 734
_journal_name_full 'ACS Cent.Sci. '
loop_
_publ_author_name
"A.G.Slater"
"P.S.Reiss"
"Angeles Pulido"
"M.A.Little"
"D.L.Holden"
"Linjiang Chen"
"Samantha Y.Chong"
"B.M.Alston"
"R.Clowes"
"M.Haranczyk"
"M.E.Briggs"
"T.Hasell"
"G.M.Day"
"A.I.Cooper"
_chemical_name_systematic
;
4,13,19,28,34,43,49,58,61,70,73,82-dodecamethyl-5,12,20,27,35,42,50,57,62,69,7
4,81-dodecaazatridecacyclo[29.29.10.10^16,46^.1^3,59^.1^14,18^.1^29,33^.1^44,4
8^.0^6,11^.0^21,26^.0^36,41^.0^51,56^.0^63,68^.0^75,80^]tetraoctaconta-1,3(71)
,4,12,14(84),15,17,19,27,29(83),30,32,34,42,44(72),45,47,49,57,59,61,69,73,81-
tetracosaene
;
_cell_volume   6338.907
_exptl_crystal_colour 'colorless'
_exptl_crystal_density_diffrn 1.011
_exptl_crystal_description 'needle'
_diffrn_ambient_temperature 400
_diffrn_special_details
;
twin

;
_refine_special_details
;
C12A and C12B disordered over two sites with occupancies 0.5:0.5; C36B and 
C36A disordered over two sites with occupancies 0.5:0.5; C64A and C64B 
disordered over two sites with occupancies 0.5:0.5.
;
#These two values have been output from a single CSD field.
_refine_ls_R_factor_gt 0.0779
_refine_ls_wR_factor_gt 0.0779
_symmetry_cell_setting hexagonal
_symmetry_space_group_name_H-M 'P 3'
_symmetry_Int_Tables_number 143
loop_
_symmetry_equiv_pos_site_id
_symmetry_equiv_pos_as_xyz
1 x,y,z
2 -y,x-y,z
3 -x+y,-x,z
_cell_length_a 25.343(2)
_cell_length_b 25.343(2)
_cell_length_c 11.3964(11)
_cell_angle_alpha 90
_cell_angle_beta 90
_cell_angle_gamma 120
_cell_formula_units_Z 3
loop_
_atom_type_symbol
_atom_type_radius_bond
C 0.68
H 0.23
N 0.68
loop_
_atom_site_label
_atom_site_type_symbol
_atom_site_fract_x
_atom_site_fract_y
_atom_site_fract_z
N1 N 0.8602(4) 0.8563(4) 0.3953(9)
N2 N 0.7820(4) 0.8012(4) 0.5908(9)
N3 N 0.9141(4) 0.7841(4) 1.0347(10)
N4 N 1.0450(4) 0.8458(5) 1.0456(9)
C1 C 0.8148(5) 0.8519(5) 0.7711(11)
C2 C 0.8124(5) 0.8896(5) 0.8597(11)
H1 H 0.78990 0.90890 0.84700
C3 C 0.8427(5) 0.8985(4) 0.9640(11)
C4 C 0.8723(4) 0.8658(4) 0.9863(11)
H2 H 0.89090 0.86960 1.05860
C5 C 0.8742(5) 0.8276(4) 0.9016(11)
C6 C 0.8457(4) 0.8215(4) 0.7957(11)
H3 H 0.84740 0.79600 0.73890
C7 C 0.8415(5) 0.9404(5) 1.0557(11)
C8 C 0.8895(7) 0.9631(6) 1.1487(15)
H4 H 0.90110 1.00440 1.16840
H5 H 0.92440 0.96170 1.12030
H6 H 0.87370 0.93800 1.21720
C9 C 0.9089(5) 0.7945(5) 0.9304(12)
C10 C 0.9360(6) 0.7770(7) 0.8243(14)
H7 H 0.97120 0.77510 0.84960
H8 H 0.94760 0.80710 0.76370
H9 H 0.90600 0.73790 0.79440
C11 C 0.7850(5) 0.8430(5) 0.6550(12)
C12 C 0.9388(4) 0.9793(5) 0.4393(10)
H10 H 0.89720 0.96520 0.44340
C13 C 0.9593(4) 0.9385(4) 0.4363(9)
C14 C 0.9121(5) 0.8706(5) 0.4346(11)
C15 C 0.9325(5) 0.8281(5) 0.4825(15)
H11 H 0.97440 0.85130 0.50650
H12 H 0.90770 0.80640 0.54880
H13 H 0.92840 0.79960 0.42280
C16 C 0.9460(5) 0.7521(5) 1.0699(13)
H14 H 0.95570 0.73540 1.00110
C17 C 0.9061(6) 0.7018(7) 1.1547(16)
H15 H 0.86960 0.67200 1.11400
H16 H 0.89370 0.71890 1.21780
C18 C 0.9381(8) 0.6697(8) 1.207(2)
H17 H 0.91150 0.63930 1.26330
H18 H 0.94750 0.64930 1.14530
C19 C 0.9958(8) 0.7160(8) 1.266(2)
H19 H 1.01730 0.69590 1.29480
H20 H 0.98540 0.73240 1.33380
C20 C 1.0399(6) 0.7707(7) 1.1828(17)
H21 H 1.07480 0.80070 1.22690
H22 H 1.05450 0.75560 1.11970
C21 C 1.0050(5) 0.7999(6) 1.1323(12)
H23 H 0.99490 0.81970 1.19520
C22 C 0.8105(5) 0.7937(5) 0.3931(11)
H24 H 0.82520 0.76730 0.42380
C23 C 0.7881(6) 0.7742(5) 0.2682(13)
H25 H 0.77620 0.80200 0.23510
H26 H 0.82090 0.77650 0.22080
C24 C 0.7351(8) 0.7109(7) 0.2644(17)
H27 H 0.72130 0.70030 0.18400
H28 H 0.74780 0.68270 0.29210
C25 C 0.6855(7) 0.7052(8) 0.3363(17)
H29 H 0.65240 0.66330 0.33350
H30 H 0.67070 0.73080 0.30400
C26 C 0.7042(6) 0.7235(6) 0.4672(15)
H31 H 0.67050 0.72240 0.50990
H32 H 0.71400 0.69490 0.50370
C27 C 0.7600(5) 0.7883(5) 0.4714(12)
H33 H 0.74790 0.81780 0.44650
C28 C 0.7476(13) 0.8742(12) 0.627(3)
H34 H 0.77470 0.91660 0.61040
H35 H 0.72220 0.87030 0.69240
H36 H 0.72250 0.85520 0.55910
C29? C 0.7794(15) 0.8967(14) 0.610(3)
H37? H 0.78140 0.89760 0.52540
H38? H 0.81220 0.93400 0.64040
H39? H 0.74120 0.89220 0.63440
N5 N 0.4160(4) 0.5103(4) 0.3650(9)
N6 N 0.4049(4) 0.5761(4) 0.1729(9)
N7 N 0.2565(4) 0.4573(4) 0.8255(9)
N8 N 0.1535(4) 0.4775(4) 0.8085(10)
C30 C 0.4517(4) 0.6039(5) 0.6797(10)
C31 C 0.4042(4) 0.5835(4) 0.7643(10)
H40 H 0.41170 0.60360 0.83600
C32 C 0.3477(4) 0.5346(4) 0.7417(9)
C33 C 0.3367(4) 0.5037(4) 0.6347(10)
H41 H 0.29870 0.46980 0.62020
C34 C 0.3814(5) 0.5229(5) 0.5511(11)
C35 C 0.4395(5) 0.5736(5) 0.5754(11)
H42 H 0.47000 0.58650 0.51900
C36 C 0.5120(5) 0.6577(6) 0.7094(13)
C37 C 0.2975(4) 0.5129(5) 0.833(1)
C38 C 0.3038(5) 0.5588(5) 0.9232(13)
H43 H 0.26410 0.54850 0.95190
H44 H 0.32280 0.59860 0.88830
H45 H 0.32830 0.55860 0.98720
C39 C 0.3701(5) 0.4933(5) 0.4322(11)
C40 C 0.3063(6) 0.4497(7) 0.3994(15)
H46 H 0.28680 0.47170 0.37270
H47 H 0.28490 0.42550 0.46650
H48 H 0.30570 0.42360 0.33780
C41 C 0.3146(4) 0.6041(4) 0.2213(10)
H49 H 0.30270 0.56290 0.22150
C42 C 0.3782(4) 0.6494(5) 0.2212(10)
C43 C 0.4238(4) 0.6292(5) 0.2186(10)
C44 C 0.4866(6) 0.6720(6) 0.2616(17)
H50 H 0.48570 0.67700 0.34490
H51 H 0.50180 0.71080 0.22370
H52 H 0.51280 0.65580 0.24370
C45 C 0.4128(5) 0.4913(5) 0.2447(11)
H53 H 0.37000 0.46620 0.22170
C46 C 0.4455(7) 0.4542(7) 0.2304(13)
H54 H 0.42340 0.41600 0.27270
H55 H 0.48630 0.47680 0.26280
C47 C 0.4489(7) 0.4414(7) 0.0988(13)
H56 H 0.46940 0.41790 0.08970
H57 H 0.40800 0.41760 0.06720
C48 C 0.4823(8) 0.4990(8) 0.0339(15)
H58 H 0.48600 0.49050 -0.04770
H59 H 0.52300 0.52290 0.06620
C49 C 0.4491(6) 0.5352(6) 0.0418(12)
H60 H 0.47200 0.57340 0.00000
H61 H 0.40920 0.51230 0.00600
C50 C 0.4427(5) 0.5472(5) 0.1689(12)
H62 H 0.48310 0.57550 0.20080
C51 C 0.2072(5) 0.4334(5) 0.9115(11)
H63 H 0.21680 0.46260 0.97570
C52 C 0.1988(6) 0.3724(6) 0.9591(15)
H64 H 0.19390 0.34580 0.89370
H65 H 0.23500 0.38020 1.00200
C53 C 0.1442(7) 0.3410(7) 1.0385(16)
H66 H 0.13840 0.30130 1.05960
H67 H 0.15250 0.36450 1.11010
C54 C 0.0899(6) 0.3331(6) 0.9888(17)
H68 H 0.05860 0.31750 1.04890
H69 H 0.07700 0.30240 0.92790
C55 C 0.0937(5) 0.3913(5) 0.9349(14)
H70 H 0.05620 0.38070 0.89340
H71 H 0.09910 0.41990 0.99660
C56 C 0.1478(5) 0.4201(4) 0.8500(12)
H72 H 0.14000 0.39280 0.78330
C57 C 0.5479(13) 0.6994(14) 0.598(3)
H73 H 0.54780 0.73720 0.60220
H74 H 0.52820 0.67850 0.52710
H75 H 0.58920 0.70750 0.59870
C58? C 0.5614(15) 0.6640(19) 0.612(4)
H76? H 0.57760 0.70260 0.57270
H77? H 0.54190 0.63170 0.55530
H78? H 0.59390 0.66130 0.64930
N9 N 0.5431(5) 0.3656(4) 0.6416(10)
N10 N 0.4802(4) 0.3672(4) 0.4374(9)
N11 N 0.4603(4) 0.2280(4) -0.0243(9)
N12 N 0.4952(4) 0.1372(4) -0.0069(10)
C59 C 0.5842(5) 0.4270(4) 0.1312(10)
C60 C 0.5552(4) 0.4069(5) 0.2384(10)
H79 H 0.56410 0.43510 0.29810
C61 C 0.5140(5) 0.3469(5) 0.2595(10)
C62 C 0.4997(4) 0.3044(5) 0.1717(10)
H80 H 0.47110 0.26380 0.18530
C63 C 0.5280(4) 0.3222(5) 0.063(1)
C64 C 0.5690(5) 0.3830(4) 0.0439(10)
H81 H 0.58720 0.39520 -0.02950
C65 C 0.6292(5) 0.4917(5) 0.1011(13)
C66 C 0.4825(5) 0.3285(5) 0.3762(11)
C67 C 0.4575(7) 0.2606(5) 0.4131(14)
H82 H 0.46440 0.23930 0.35090
H83 H 0.47810 0.25920 0.48270
H84 H 0.41450 0.24170 0.42830
C68 C 0.5125(5) 0.2756(5) -0.0318(11)
C69 C 0.5601(6) 0.2892(5) -0.1178(13)
H85 H 0.56070 0.25260 -0.13650
H86 H 0.59880 0.31870 -0.08590
H87 H 0.55210 0.30520 -0.18760
C70 C 0.6981(5) 0.3959(5) 0.5982(11)
H88 H 0.71890 0.43820 0.59910
C71 C 0.6338(5) 0.3635(5) 0.5975(11)
C72 C 0.5969(6) 0.3963(6) 0.6047(12)
C73 C 0.6285(7) 0.4608(6) 0.5604(17)
H89 H 0.60350 0.46510 0.50230
H90 H 0.66690 0.47030 0.52600
H91 H 0.63540 0.48800 0.62450
C74 C 0.4503(5) 0.3530(6) 0.5525(12)
H92 H 0.43100 0.30920 0.56880
C75 C 0.4045(6) 0.3731(8) 0.5559(14)
H93 H 0.37260 0.34960 0.49940
H94 H 0.42380 0.41560 0.53300
C76 C 0.3755(8) 0.3654(9) 0.6790(15)
H95 H 0.34650 0.37980 0.67790
H96 H 0.35410 0.32280 0.70130
C77 C 0.4263(8) 0.4025(10) 0.7668(19)
H97 H 0.44700 0.44530 0.74550
H98 H 0.40930 0.39820 0.84480
C78 C 0.4711(8) 0.3790(9) 0.7655(15)
H99 H 0.50190 0.39960 0.82550
H100 H 0.44980 0.33570 0.78230
C79 C 0.5012(6) 0.3906(6) 0.6458(13)
H101 H 0.52270 0.43410 0.62680
C80 C 0.4416(5) 0.1793(5) -0.1122(11)
H102 H 0.47250 0.19150 -0.17380
C81 C 0.3810(6) 0.1662(6) -0.1641(16)
H103 H 0.38590 0.20190 -0.20540
H104 H 0.35140 0.15640 -0.10200
C82 C 0.3586(6) 0.1122(6) -0.2494(16)
H105 H 0.31860 0.10160 -0.27890
H106 H 0.38620 0.12380 -0.31570
C83 C 0.3554(7) 0.0584(7) -0.1897(18)
H107 H 0.32420 0.04430 -0.12960
H108 H 0.34310 0.02580 -0.24660
C84 C 0.4125(6) 0.0699(5) -0.1353(16)
H109 H 0.44320 0.07990 -0.19530
H110 H 0.40630 0.03350 -0.09480
C85 C 0.4347(5) 0.1238(5) -0.0463(14)
H111 H 0.40640 0.11310 0.01990
C86 C 0.663(3) 0.528(3) 0.208(6)
H112 H 0.69920 0.52510 0.21930
H113 H 0.63760 0.51270 0.27580
H114 H 0.67490 0.57020 0.19640
C87? C 0.647(3) 0.538(2) 0.203(5)
H115? H 0.68090 0.54120 0.24480
H116? H 0.61270 0.52450 0.25600
H117? H 0.65680 0.57730 0.17200
N1A N 1.1437(4) 1.0039(4) 0.3953(9)
N2A N 1.1988(4) 0.9808(4) 0.5908(9)
N3A N 1.2159(4) 1.1300(4) 1.0347(10)
N4A N 1.1542(4) 1.1992(5) 1.0456(9)
C1A C 1.1481(5) 0.9629(5) 0.7711(11)
C2A C 1.1104(5) 0.9228(5) 0.8597(11)
H1A H 1.09110 0.88100 0.84700
C3A C 1.1015(5) 0.9442(4) 0.9640(11)
C4A C 1.1342(4) 1.0065(4) 0.9863(11)
H2A H 1.13040 1.02130 1.05860
C5A C 1.1724(5) 1.0466(4) 0.9016(11)
C6A C 1.1785(4) 1.0242(4) 0.7957(11)
H3A H 1.20400 1.05140 0.73890
C7A C 1.0596(5) 0.9011(5) 1.0557(11)
C8A C 1.0369(7) 0.9264(6) 1.1487(15)
H4A H 0.99560 0.89670 1.16840
H5A H 1.03830 0.96270 1.12030
H6A H 1.06200 0.93570 1.21720
C9A C 1.2055(5) 1.1144(5) 0.9304(12)
C10A C 1.2230(6) 1.1590(7) 0.8243(14)
H7A H 1.22490 1.19610 0.84960
H8A H 1.19290 1.14050 0.76370
H9A H 1.26210 1.16810 0.79440
C11A C 1.1570(5) 0.9420(5) 0.6550(12)
C12A C 1.0207(4) 0.9595(5) 0.4393(10)
H10A H 1.03480 0.93200 0.44340
C13A C 1.0615(4) 1.0208(4) 0.4363(9)
C14A C 1.1294(5) 1.0415(5) 0.4346(11)
C15A C 1.1719(5) 1.1044(5) 0.4825(15)
H11A H 1.14870 1.12310 0.50650
H12A H 1.19360 1.10130 0.54880
H13A H 1.20040 1.12880 0.42280
C16A C 1.2479(5) 1.1939(5) 1.0699(13)
H14A H 1.26460 1.22030 1.00110
C17A C 1.2982(6) 1.2043(7) 1.1547(16)
H15A H 1.32800 1.19760 1.11400
H16A H 1.28110 1.17480 1.21780
C18A C 1.3303(8) 1.2684(8) 1.207(2)
H17A H 1.36070 1.27220 1.26330
H18A H 1.35070 1.29820 1.14530
C19A C 1.2840(8) 1.2798(8) 1.266(2)
H19A H 1.30410 1.32140 1.29480
H20A H 1.26760 1.25300 1.33380
C20A C 1.2293(6) 1.2692(7) 1.1828(17)
H21A H 1.19930 1.27410 1.22690
H22A H 1.24440 1.29890 1.11970
C21A C 1.2001(5) 1.2051(6) 1.1323(12)
H23A H 1.18030 1.17520 1.19520
C22A C 1.2063(5) 1.0168(5) 0.3931(11)
H24A H 1.23270 1.05790 0.42380
C23A C 1.2258(6) 1.0139(5) 0.2682(13)
H25A H 1.19800 0.97420 0.23510
H26A H 1.22350 1.04440 0.22080
C24A C 1.2891(8) 1.0242(7) 0.2644(17)
H27A H 1.29970 1.02100 0.18400
H28A H 1.31730 1.06510 0.29210
C25A C 1.2948(7) 0.9803(8) 0.3363(17)
H29A H 1.33670 0.98910 0.33350
H30A H 1.26920 0.93990 0.30400
C26A C 1.2765(6) 0.9807(6) 0.4672(15)
H31A H 1.27760 0.94810 0.50990
H32A H 1.30510 1.01910 0.50370
C27A C 1.2117(5) 0.9717(5) 0.4714(12)
H33A H 1.18220 0.93010 0.44650
C28A C 1.1258(13) 0.8734(12) 0.627(3)
H34A H 1.08340 0.85810 0.61040
H35A H 1.12970 0.85190 0.69240
H36A H 1.14480 0.86730 0.55910
N1B N 0.9961(4) 1.1398(4) 0.3953(9)
N2B N 1.0192(4) 1.2180(4) 0.5908(9)
N3B N 0.8700(4) 1.0859(4) 1.0347(10)
N4B N 0.8008(4) 0.9550(5) 1.0456(9)
C1B C 1.0371(5) 1.1852(5) 0.7711(11)
C2B C 1.0772(5) 1.1876(5) 0.8597(11)
H1B H 1.11900 1.21010 0.84700
C3B C 1.0558(5) 1.1573(4) 0.9640(11)
C4B C 0.9935(4) 1.1277(4) 0.9863(11)
H2B H 0.97870 1.10910 1.05860
C5B C 0.9534(5) 1.1258(4) 0.9016(11)
C6B C 0.9758(4) 1.1543(4) 0.7957(11)
H3B H 0.94860 1.15260 0.73890
C7B C 1.0989(5) 1.1585(5) 1.0557(11)
C8B C 1.0736(7) 1.1105(6) 1.1487(15)
H4B H 1.10330 1.09890 1.16840
H5B H 1.03730 1.07560 1.12030
H6B H 1.06430 1.12630 1.21720
C9B C 0.8856(5) 1.0911(5) 0.9304(12)
C10B C 0.8410(6) 1.0640(7) 0.8243(14)
H7B H 0.80390 1.02880 0.84960
H8B H 0.85950 1.05240 0.76370
H9B H 0.83190 1.09400 0.79440
C11B C 1.0580(5) 1.2150(5) 0.6550(12)
C12B C 1.0405(4) 1.0612(5) 0.4393(10)
H10B H 1.06800 1.10280 0.44340
C13B C 0.9792(4) 1.0407(4) 0.4363(9)
C14B C 0.9585(5) 1.0879(5) 0.4346(11)
C15B C 0.8956(5) 1.0675(5) 0.4825(15)
H11B H 0.87690 1.02560 0.50650
H12B H 0.89870 1.09230 0.54880
H13B H 0.87120 1.07160 0.42280
C16B C 0.8061(5) 1.0540(5) 1.0699(13)
H14B H 0.77970 1.04430 1.00110
C17B C 0.7957(6) 1.0939(7) 1.1547(16)
H15B H 0.80240 1.13040 1.11400
H16B H 0.82520 1.10630 1.21780
C18B C 0.7316(8) 1.0619(8) 1.207(2)
H17B H 0.72780 1.08850 1.26330
H18B H 0.70180 1.05250 1.14530
C19B C 0.7202(8) 1.0042(8) 1.266(2)
H19B H 0.67860 0.98270 1.29480
H20B H 0.74700 1.01460 1.33380
C20B C 0.7308(6) 0.9601(7) 1.1828(17)
H21B H 0.72590 0.92520 1.22690
H22B H 0.70110 0.94550 1.11970
C21B C 0.7949(5) 0.9950(6) 1.1323(12)
H23B H 0.82480 1.00510 1.19520
C22B C 0.9832(5) 1.1895(5) 0.3931(11)
H24B H 0.94210 1.17480 0.42380
C23B C 0.9861(6) 1.2119(5) 0.2682(13)
H25B H 1.02580 1.22380 0.23510
H26B H 0.95560 1.17910 0.22080
C24B C 0.9758(8) 1.2649(7) 0.2644(17)
H27B H 0.97900 1.27870 0.18400
H28B H 0.93490 1.25220 0.29210
C25B C 1.0197(7) 1.3145(8) 0.3363(17)
H29B H 1.01090 1.34760 0.33350
H30B H 1.06010 1.32930 0.30400
C26B C 1.0193(6) 1.2958(6) 0.4672(15)
H31B H 1.05190 1.32950 0.50990
H32B H 0.98090 1.28600 0.50370
C27B C 1.0283(5) 1.2400(5) 0.4714(12)
H33B H 1.06990 1.25210 0.44650
C28B C 1.1266(13) 1.2524(12) 0.627(3)
H34B H 1.14190 1.22530 0.61040
H35B H 1.14810 1.27780 0.69240
H36B H 1.13270 1.27750 0.55910
N5A N 0.4897(4) 0.9057(4) 0.3650(9)
N6A N 0.4239(4) 0.8288(4) 0.1729(9)
N7A N 0.5427(4) 0.7992(4) 0.8255(9)
N8A N 0.5225(4) 0.6760(4) 0.8085(10)
C30A C 0.3961(4) 0.8478(5) 0.6797(10)
C31A C 0.4165(4) 0.8207(4) 0.7643(10)
H40A H 0.39640 0.80810 0.83600
C32A C 0.4654(4) 0.8131(4) 0.7417(9)
C33A C 0.4963(4) 0.8330(4) 0.6347(10)
H41A H 0.53020 0.82890 0.62020
C34A C 0.4771(5) 0.8585(5) 0.5511(11)
C35A C 0.4264(5) 0.8659(5) 0.5754(11)
H42A H 0.41350 0.88350 0.51900
C36A C 0.3423(5) 0.8543(6) 0.7094(13)
C37A C 0.4871(4) 0.7846(5) 0.833(1)
C38A C 0.4412(5) 0.7450(5) 0.9232(13)
H43A H 0.45150 0.71560 0.95190
H44A H 0.40140 0.72420 0.88830
H45A H 0.44140 0.76970 0.98720
C39A C 0.5067(5) 0.8768(5) 0.4322(11)
C40A C 0.5503(6) 0.8566(7) 0.3994(15)
H46A H 0.52830 0.81510 0.37270
H47A H 0.57450 0.85940 0.46650
H48A H 0.57640 0.88210 0.33780
C41A C 0.3959(4) 0.7105(4) 0.2213(10)
H49A H 0.43710 0.73980 0.22150
C42A C 0.3506(4) 0.7288(5) 0.2212(10)
C43A C 0.3708(4) 0.7946(5) 0.2186(10)
C44A C 0.3280(6) 0.8146(6) 0.2616(17)
H50A H 0.32300 0.80870 0.34490
H51A H 0.28920 0.79100 0.22370
H52A H 0.34420 0.85700 0.24370
C45A C 0.5087(5) 0.9215(5) 0.2447(11)
H53A H 0.53380 0.90380 0.22170
C46A C 0.5458(7) 0.9913(7) 0.2304(13)
H54A H 0.58400 1.00740 0.27270
H55A H 0.52320 1.00950 0.26280
C47A C 0.5586(7) 1.0075(7) 0.0988(13)
H56A H 0.58210 1.05150 0.08970
H57A H 0.58240 0.99040 0.06720
C48A C 0.5010(8) 0.9833(8) 0.0339(15)
H58A H 0.50950 0.99550 -0.04770
H59A H 0.47710 1.00010 0.06620
C49A C 0.4648(6) 0.9139(6) 0.0418(12)
H60A H 0.42660 0.89860 0.00000
H61A H 0.48770 0.89690 0.00600
C50A C 0.4528(5) 0.8955(5) 0.1689(12)
H62A H 0.42450 0.90760 0.20080
C51A C 0.5666(5) 0.7738(5) 0.9115(11)
H63A H 0.53740 0.75420 0.97570
C52A C 0.6276(6) 0.8264(6) 0.9591(15)
H64A H 0.65420 0.84810 0.89370
H65A H 0.61980 0.85480 1.00200
C53A C 0.6590(7) 0.8032(7) 1.0385(16)
H66A H 0.69870 0.83710 1.05960
H67A H 0.63550 0.78800 1.11010
C54A C 0.6669(6) 0.7568(6) 0.9888(17)
H68A H 0.68250 0.74110 1.04890
H69A H 0.69760 0.77460 0.92790
C55A C 0.6087(5) 0.7024(5) 0.9349(14)
H70A H 0.61930 0.67550 0.89340
H71A H 0.58010 0.67920 0.99660
C56A C 0.5799(5) 0.7277(4) 0.8500(12)
H72A H 0.60720 0.74720 0.78330
C57A C 0.3006(13) 0.8485(14) 0.598(3)
H73A H 0.26280 0.81060 0.60220
H74A H 0.32150 0.84970 0.52710
H75A H 0.29250 0.88170 0.59870
N5B N 0.0943(4) 0.5840(4) 0.3650(9)
N6B N 0.1712(4) 0.5951(4) 0.1729(9)
N7B N 0.2008(4) 0.7435(4) 0.8255(9)
N8B N 0.3240(4) 0.8465(4) 0.8085(10)
C30B C 0.1522(4) 0.5483(5) 0.6797(10)
C31B C 0.1793(4) 0.5958(4) 0.7643(10)
H40B H 0.19190 0.58830 0.83600
C32B C 0.1869(4) 0.6523(4) 0.7417(9)
C33B C 0.1670(4) 0.6633(4) 0.6347(10)
H41B H 0.17110 0.70130 0.62020
C34B C 0.1415(5) 0.6186(5) 0.5511(11)
C35B C 0.1341(5) 0.5605(5) 0.5754(11)
H42B H 0.11650 0.53000 0.51900
C36B C 0.1457(5) 0.4880(6) 0.7094(13)
C37B C 0.2154(4) 0.7025(5) 0.833(1)
C38B C 0.2550(5) 0.6962(5) 0.9232(13)
H43B H 0.28440 0.73590 0.95190
H44B H 0.27580 0.67720 0.88830
H45B H 0.23030 0.67170 0.98720
C39B C 0.1232(5) 0.6299(5) 0.4322(11)
C40B C 0.1434(6) 0.6937(7) 0.3994(15)
H46B H 0.18490 0.71320 0.37270
H47B H 0.14060 0.71510 0.46650
H48B H 0.11790 0.69430 0.33780
C41B C 0.2895(4) 0.6854(4) 0.2213(10)
H49B H 0.26020 0.69730 0.22150
C42B C 0.2712(4) 0.6218(5) 0.2212(10)
C43B C 0.2054(4) 0.5762(5) 0.2186(10)
C44B C 0.1854(6) 0.5134(6) 0.2616(17)
H50B H 0.19130 0.51430 0.34490
H51B H 0.20900 0.49820 0.22370
H52B H 0.14300 0.48720 0.24370
C45B C 0.0785(5) 0.5872(5) 0.2447(11)
H53B H 0.09620 0.63000 0.22170
C46B C 0.0087(7) 0.5545(7) 0.2304(13)
H54B H -0.00740 0.57660 0.27270
H55B H -0.00950 0.51370 0.26280
C47B C -0.0075(7) 0.5511(7) 0.0988(13)
H56B H -0.05150 0.53060 0.08970
H57B H 0.00960 0.59200 0.06720
C48B C 0.0167(8) 0.5177(8) 0.0339(15)
H58B H 0.00450 0.51400 -0.04770
H59B H -0.00010 0.47700 0.06620
C49B C 0.0861(6) 0.5509(6) 0.0418(12)
H60B H 0.10140 0.52800 0.00000
H61B H 0.10310 0.59080 0.00600
C50B C 0.1045(5) 0.5573(5) 0.1689(12)
H62B H 0.09240 0.51690 0.20080
C51B C 0.2262(5) 0.7928(5) 0.9115(11)
H63B H 0.24580 0.78320 0.97570
C52B C 0.1736(6) 0.8012(6) 0.9591(15)
H64B H 0.15190 0.80610 0.89370
H65B H 0.14520 0.76500 1.00200
C53B C 0.1968(7) 0.8558(7) 1.0385(16)
H66B H 0.16290 0.86160 1.05960
H67B H 0.21200 0.84750 1.11010
C54B C 0.2432(6) 0.9101(6) 0.9888(17)
H68B H 0.25890 0.94140 1.04890
H69B H 0.22540 0.92300 0.92790
C55B C 0.2976(5) 0.9063(5) 0.9349(14)
H70B H 0.32450 0.94380 0.89340
H71B H 0.32080 0.90090 0.99660
C56B C 0.2723(5) 0.8522(4) 0.8500(12)
H72B H 0.25280 0.86000 0.78330
C57B C 0.1515(13) 0.4521(14) 0.598(3)
H73B H 0.18940 0.45220 0.60220
H74B H 0.15030 0.47180 0.52710
H75B H 0.11830 0.41080 0.59870
N9A N 0.6344(5) 0.1775(4) 0.6416(10)
N10A N 0.6328(4) 0.1130(4) 0.4374(9)
N11A N 0.7720(4) 0.2323(4) -0.0243(9)
N12A N 0.8628(4) 0.3580(4) -0.0069(10)
C59A C 0.5730(5) 0.1572(4) 0.1312(10)
C60A C 0.5931(4) 0.1483(5) 0.2384(10)
H79A H 0.56490 0.12900 0.29810
C61A C 0.6531(5) 0.1671(5) 0.2595(10)
C62A C 0.6956(4) 0.1953(5) 0.1717(10)
H80A H 0.73620 0.20730 0.18530
C63A C 0.6778(4) 0.2058(5) 0.063(1)
C64A C 0.6170(5) 0.1860(4) 0.0439(10)
H81A H 0.60480 0.19200 -0.02950
C65A C 0.5083(5) 0.1375(5) 0.1011(13)
C66A C 0.6715(5) 0.1540(5) 0.3762(11)
C67A C 0.7394(7) 0.1969(5) 0.4131(14)
H82A H 0.76070 0.22510 0.35090
H83A H 0.74080 0.21890 0.48270
H84A H 0.75830 0.17280 0.42830
C68A C 0.7244(5) 0.2369(5) -0.0318(11)
C69A C 0.7108(6) 0.2709(5) -0.1178(13)
H85A H 0.74740 0.30810 -0.13650
H86A H 0.68130 0.28010 -0.08590
H87A H 0.69480 0.24690 -0.18760
C70A C 0.6041(5) 0.3022(5) 0.5982(11)
H88A H 0.56180 0.28070 0.59910
C71A C 0.6365(5) 0.2703(5) 0.5975(11)
C72A C 0.6037(6) 0.2006(6) 0.6047(12)
C73A C 0.5392(7) 0.1677(6) 0.5604(17)
H89A H 0.53490 0.13840 0.50230
H90A H 0.52970 0.19660 0.52600
H91A H 0.51200 0.14740 0.62450
C74A C 0.6470(5) 0.0973(6) 0.5525(12)
H92A H 0.69080 0.12180 0.56880
C75A C 0.6269(6) 0.0314(8) 0.5559(14)
H93A H 0.65040 0.02300 0.49940
H94A H 0.58440 0.00820 0.53300
C76A C 0.6346(8) 0.0101(9) 0.6790(15)
H95A H 0.62020 -0.03330 0.67790
H96A H 0.67720 0.03130 0.70130
C77A C 0.5975(8) 0.0238(10) 0.7668(19)
H97A H 0.55470 0.00170 0.74550
H98A H 0.60180 0.01110 0.84480
C78A C 0.6210(8) 0.0921(9) 0.7655(15)
H99A H 0.60040 0.10230 0.82550
H100A H 0.66430 0.11410 0.78230
C79A C 0.6094(6) 0.1106(6) 0.6458(13)
H101A H 0.56590 0.08860 0.62680
C80A C 0.8207(5) 0.2623(5) -0.1122(11)
H102A H 0.80850 0.28100 -0.17380
C81A C 0.8338(6) 0.2148(6) -0.1641(16)
H103A H 0.79810 0.18400 -0.20540
H104A H 0.84360 0.19500 -0.10200
C82A C 0.8878(6) 0.2464(6) -0.2494(16)
H105A H 0.89840 0.21700 -0.27890
H106A H 0.87620 0.26240 -0.31570
C83A C 0.9416(7) 0.2970(7) -0.1897(18)
H107A H 0.95570 0.27990 -0.12960
H108A H 0.97420 0.31730 -0.24660
C84A C 0.9301(6) 0.3426(5) -0.1353(16)
H109A H 0.92010 0.36330 -0.19530
H110A H 0.96650 0.37280 -0.09480
C85A C 0.8762(5) 0.3109(5) -0.0463(14)
H111A H 0.88690 0.29330 0.01990
C86A C 0.472(3) 0.135(3) 0.208(6)
H112A H 0.47490 0.17410 0.21930
H113A H 0.48730 0.12490 0.27580
H114A H 0.42980 0.10470 0.19640
N9B N 0.8225(5) 0.4569(4) 0.6416(10)
N10B N 0.8870(4) 0.5198(4) 0.4374(9)
N11B N 0.7677(4) 0.5397(4) -0.0243(9)
N12B N 0.6420(4) 0.5048(4) -0.0069(10)
C59B C 0.8428(5) 0.4158(4) 0.1312(10)
C60B C 0.8517(4) 0.4448(5) 0.2384(10)
H79B H 0.87100 0.43590 0.29810
C61B C 0.8329(5) 0.4860(5) 0.2595(10)
C62B C 0.8047(4) 0.5003(5) 0.1717(10)
H80B H 0.79270 0.52890 0.18530
C63B C 0.7942(4) 0.4720(5) 0.063(1)
C64B C 0.8140(5) 0.4310(4) 0.0439(10)
H81B H 0.80800 0.41280 -0.02950
C65B C 0.8625(5) 0.3708(5) 0.1011(13)
C66B C 0.8460(5) 0.5175(5) 0.3762(11)
C67B C 0.8031(7) 0.5425(5) 0.4131(14)
H82B H 0.77490 0.53560 0.35090
H83B H 0.78110 0.52190 0.48270
H84B H 0.82720 0.58550 0.42830
C68B C 0.7631(5) 0.4875(5) -0.0318(11)
C69B C 0.7291(6) 0.4399(5) -0.1178(13)
H85B H 0.69190 0.43930 -0.13650
H86B H 0.71990 0.40120 -0.08590
H87B H 0.75310 0.44790 -0.18760
C70B C 0.6978(5) 0.3019(5) 0.5982(11)
H88B H 0.71930 0.28110 0.59910
C71B C 0.7297(5) 0.3662(5) 0.5975(11)
C72B C 0.7994(6) 0.4031(6) 0.6047(12)
C73B C 0.8323(7) 0.3715(6) 0.5604(17)
H89B H 0.86160 0.39650 0.50230
H90B H 0.80340 0.33310 0.52600
H91B H 0.85260 0.36460 0.62450
C74B C 0.9027(5) 0.5497(6) 0.5525(12)
H92B H 0.87820 0.56900 0.56880
C75B C 0.9686(6) 0.5955(8) 0.5559(14)
H93B H 0.97700 0.62740 0.49940
H94B H 0.99180 0.57620 0.53300
C76B C 0.9899(8) 0.6245(9) 0.6790(15)
H95B H 1.03330 0.65350 0.67790
H96B H 0.96870 0.64590 0.70130
C77B C 0.9762(8) 0.5737(10) 0.7668(19)
H97B H 0.99830 0.55300 0.74550
H98B H 0.98890 0.59070 0.84480
C78B C 0.9079(8) 0.5289(9) 0.7655(15)
H99B H 0.89770 0.49810 0.82550
H100B H 0.88590 0.55020 0.78230
C79B C 0.8894(6) 0.4988(6) 0.6458(13)
H101B H 0.91140 0.47730 0.62680
C80B C 0.7377(5) 0.5584(5) -0.1122(11)
H102B H 0.71900 0.52750 -0.17380
C81B C 0.7852(6) 0.6190(6) -0.1641(16)
H103B H 0.81600 0.61410 -0.20540
H104B H 0.80500 0.64860 -0.10200
C82B C 0.7536(6) 0.6414(6) -0.2494(16)
H105B H 0.78300 0.68140 -0.27890
H106B H 0.73760 0.61380 -0.31570
C83B C 0.7030(7) 0.6446(7) -0.1897(18)
H107B H 0.72010 0.67580 -0.12960
H108B H 0.68270 0.65690 -0.24660
C84B C 0.6574(6) 0.5875(5) -0.1353(16)
H109B H 0.63670 0.55680 -0.19530
H110B H 0.62720 0.59370 -0.09480
C85B C 0.6891(5) 0.5653(5) -0.0463(14)
H111B H 0.70670 0.59360 0.01990
C86B C 0.865(3) 0.337(3) 0.208(6)
H112B H 0.82590 0.30080 0.21930
H113B H 0.87510 0.36240 0.27580
H114B H 0.89530 0.32510 0.19640
#END
