
#######################################################################
#
#                 Cambridge Crystallographic Data Centre
#                                CCDC
#
#######################################################################
#
# If this CIF has been generated from an entry in the Cambridge
# Structural Database, then it will include bibliographic, chemical,
# crystal, experimental, refinement or atomic coordinate data resulting
# from the CCDC's data processing and validation procedures.
#
#######################################################################

data_CSD_CIF_SENPOT
_audit_creation_date 2017-11-01
_audit_creation_method CSD-ConQuest-V1
_database_code_CSD SENPOT
_database_code_depnum_ccdc_archive 'CCDC 1533782'
_chemical_formula_sum 'C91 H125 Cl2 N12 O1.5'
_chemical_formula_moiety
;
C84 H108 N12,C1 H2 Cl2,1.5(C4 H10 O1)
;
_journal_coden_Cambridge 2029
_journal_volume 3
_journal_year 2017
_journal_page_first 734
_journal_name_full 'ACS Cent.Sci. '
loop_
_publ_author_name
"A.G.Slater"
"P.S.Reiss"
"Angeles Pulido"
"M.A.Little"
"D.L.Holden"
"Linjiang Chen"
"Samantha Y.Chong"
"B.M.Alston"
"R.Clowes"
"M.Haranczyk"
"M.E.Briggs"
"T.Hasell"
"G.M.Day"
"A.I.Cooper"
_chemical_name_systematic
;
4,13,19,28,34,43,49,58,61,70,73,82-dodecamethyl-5,12,20,27,35,42,50,57,62,69,7
4,81-dodecaazatridecacyclo[29.29.10.10^16,46^.1^3,59^.1^14,18^.1^29,33^.1^44,4
8^.0^6,11^.0^21,26^.0^36,41^.0^51,56^.0^63,68^.0^75,80^]tetraoctaconta-1,3(71)
,4,12,14(84),15,17,19,27,29(83),30,32,34,42,44(72),45,47,49,57,59,61,69,73,81-
tetracosaene dichloromethane diethyl ether solvate
;
_cell_volume   7092.827
_exptl_crystal_colour 'colorless'
_exptl_crystal_density_diffrn 1.041
_exptl_crystal_description 'needle'
_diffrn_ambient_temperature 300
_refine_special_details
;
C29,Cl1,Cl2 disordered by symmetry over three configurations with occupancy 
0.3333.
;
#These two values have been output from a single CSD field.
_refine_ls_R_factor_gt 0.0838
_refine_ls_wR_factor_gt 0.0838
_symmetry_cell_setting rhombohedral
_symmetry_space_group_name_H-M 'R 3'
_symmetry_Int_Tables_number 146
loop_
_symmetry_equiv_pos_site_id
_symmetry_equiv_pos_as_xyz
1 x,y,z
2 -y,x-y,z
3 -x+y,-x,z
4 2/3+x,1/3+y,1/3+z
5 2/3-y,1/3+x-y,1/3+z
6 2/3-x+y,1/3-x,1/3+z
7 1/3+x,2/3+y,2/3+z
8 1/3-y,2/3+x-y,2/3+z
9 1/3-x+y,2/3-x,2/3+z
_cell_length_a 26.80(2)
_cell_length_b 26.80(2)
_cell_length_c 11.403(9)
_cell_angle_alpha 90
_cell_angle_beta 90
_cell_angle_gamma 120
_cell_formula_units_Z 3
loop_
_atom_type_symbol
_atom_type_radius_bond
C 0.68
H 0.23
Cl 0.99
N 0.68
O 0.68
loop_
_atom_site_label
_atom_site_type_symbol
_atom_site_fract_x
_atom_site_fract_y
_atom_site_fract_z
N1 N 0.4973(2) 0.6425(2) 0.2174(4)
N2 N 0.3931(2) 0.5281(2) 0.2070(4)
N3 N 0.56596(19) 0.7991(2) 0.6608(4)
N4 N 0.48932(16) 0.74305(19) 0.8549(4)
C1 C 0.4817(2) 0.7374(2) 0.2632(5)
H1 H 0.46980 0.71990 0.19020
C2 C 0.5205(2) 0.7912(2) 0.4796(5)
C3 C 0.5201(2) 0.7405(2) 0.4535(5)
H2 H 0.53340 0.72480 0.50960
C4 C 0.5009(2) 0.7127(2) 0.3482(5)
C5 C 0.4802(2) 0.7865(2) 0.2864(4)
C6 C 0.5006(2) 0.8145(2) 0.3938(5)
H3 H 0.50090 0.84880 0.40850
C7 C 0.5400(2) 0.8182(2) 0.6001(5)
C8 C 0.5229(4) 0.8614(3) 0.6379(7)
H4 H 0.50370 0.86840 0.57440
H5 H 0.49750 0.84660 0.70400
H6 H 0.55680 0.89680 0.65920
C9 C 0.4994(3) 0.6570(3) 0.3224(5)
C10 C 0.4988(6) 0.6222(4) 0.4263(7)
H7 H 0.50080 0.64240 0.49720
H8 H 0.46390 0.58550 0.42580
H9 H 0.53140 0.61650 0.42220
C11 C 0.4565(2) 0.8113(2) 0.1965(5)
C12 C 0.4144(3) 0.7685(3) 0.1068(6)
H10 H 0.41080 0.73150 0.11890
H11 H 0.37740 0.76550 0.11610
H12 H 0.42850 0.78180 0.02900
C13 C 0.4977(3) 0.5898(3) 0.1831(6)
H13 H 0.50310 0.57170 0.25300
C14 C 0.5473(3) 0.6055(4) 0.0977(8)
H14 H 0.54280 0.62570 0.03160
H15 H 0.58310 0.63200 0.13670
C15 C 0.5523(4) 0.5573(4) 0.0529(10)
H16 H 0.56310 0.54040 0.11620
H17 H 0.58230 0.57100 -0.00630
C16 C 0.4965(4) 0.5129(4) 0.0011(8)
H18 H 0.49900 0.47890 -0.01690
H19 H 0.49060 0.52760 -0.07220
C17 C 0.4438(4) 0.4953(3) 0.0809(8)
H20 H 0.40900 0.46960 0.03810
H21 H 0.44630 0.47450 0.14820
C18 C 0.4397(3) 0.5471(3) 0.1234(5)
H22 H 0.43270 0.56580 0.05670
C19 C 0.5832(2) 0.8158(2) 0.7832(5)
H23 H 0.57390 0.84540 0.80690
C20 C 0.6491(3) 0.8399(3) 0.7930(6)
H24 H 0.65870 0.81270 0.75810
H25 H 0.66930 0.87570 0.74940
C21 C 0.6693(3) 0.8507(4) 0.9202(7)
H26 H 0.70950 0.86100 0.92320
H27 H 0.66650 0.88310 0.95010
C22 C 0.6349(3) 0.7994(4) 0.9980(7)
H28 H 0.64650 0.81060 1.07870
H29 H 0.64400 0.76970 0.97810
C23 C 0.5706(3) 0.7748(3) 0.9884(5)
H30 H 0.56040 0.80170 1.02170
H31 H 0.55100 0.73920 1.03280
C24 C 0.5509(2) 0.7628(3) 0.8599(5)
H32 H 0.55730 0.73230 0.82970
C25 C 0.37808(19) 0.7234(2) 0.8162(4)
H33 H 0.40800 0.76140 0.81520
C26 C 0.39086(18) 0.67898(19) 0.8169(4)
C27 C 0.4520(2) 0.69252(19) 0.8198(4)
C28 C 0.4654(3) 0.6465(3) 0.7794(9)
H34 H 0.43020 0.61240 0.75760
H35 H 0.49080 0.66040 0.71300
H36 H 0.48350 0.63750 0.84200
Cl1? Cl 0.3127(8) 0.6841(8) 0.516(2)
Cl2? Cl 0.3737(6) 0.6289(6) 0.5129(14)
C29? C 0.3461(11) 0.6569(11) 0.414(2)
H37? H 0.31800 0.62740 0.36240
H38? H 0.37610 0.68750 0.36760
O1? O 0.6613(13) 0.9925(11) 0.400(3)
C30? C 0.6641(11) 0.9648(12) 0.168(2)
H39? H 0.64680 0.97530 0.10590
H40? H 0.66780 0.93260 0.14330
H41? H 0.70150 0.99680 0.18530
C31? C 0.6226(13) 0.9470(14) 0.288(2)
H42? H 0.61010 0.90750 0.30940
H43? H 0.58860 0.95000 0.27150
N1A N 0.3575(2) 0.8548(2) 0.2174(4)
N2A N 0.4719(2) 0.8650(2) 0.2070(4)
N3A N 0.20090(19) 0.76686(20) 0.6608(4)
N4A N 0.25695(16) 0.74627(19) 0.8549(4)
C1A C 0.2626(2) 0.7443(2) 0.2632(5)
H1A H 0.28010 0.74990 0.19020
C2A C 0.2088(2) 0.7293(2) 0.4796(5)
C3A C 0.2595(2) 0.7796(2) 0.4535(5)
H2A H 0.27520 0.80860 0.50960
C4A C 0.2873(2) 0.7882(2) 0.3482(5)
C5A C 0.2135(2) 0.6937(2) 0.2864(4)
C6A C 0.1855(2) 0.6861(2) 0.3938(5)
H3A H 0.15120 0.65210 0.40850
C7A C 0.1818(2) 0.7218(2) 0.6001(5)
C8A C 0.1386(4) 0.6615(3) 0.6379(7)
H4A H 0.13160 0.63530 0.57440
H5A H 0.15340 0.65090 0.70400
H6A H 0.10320 0.66000 0.65920
C9A C 0.3430(3) 0.8424(3) 0.3224(5)
C10A C 0.3778(6) 0.8766(4) 0.4263(7)
H7A H 0.35760 0.85840 0.49720
H8A H 0.41450 0.87840 0.42580
H9A H 0.38350 0.91490 0.42220
C11A C 0.1887(2) 0.6452(2) 0.1965(5)
C12A C 0.2315(3) 0.6459(3) 0.1068(6)
H10A H 0.26850 0.67930 0.11890
H11A H 0.23450 0.61190 0.11610
H12A H 0.21820 0.64670 0.02900
C13A C 0.4102(3) 0.9079(3) 0.1831(6)
H13A H 0.42830 0.93140 0.25300
C14A C 0.3945(3) 0.9418(4) 0.0977(8)
H14A H 0.37430 0.91710 0.03160
H15A H 0.36800 0.95110 0.13670
C15A C 0.4427(4) 0.9950(4) 0.0529(10)
H16A H 0.45960 1.02270 0.11620
H17A H 0.42900 1.01130 -0.00630
C16A C 0.4871(4) 0.9836(4) 0.0011(8)
H18A H 0.52110 1.02010 -0.01690
H19A H 0.47240 0.96300 -0.07220
C17A C 0.5047(4) 0.9485(3) 0.0809(8)
H20A H 0.53040 0.93940 0.03810
H21A H 0.52550 0.97180 0.14820
C18A C 0.4529(3) 0.8926(3) 0.1234(5)
H22A H 0.43420 0.86690 0.05670
C19A C 0.1842(2) 0.7674(2) 0.7832(5)
H23A H 0.15460 0.72850 0.80690
C20A C 0.1601(3) 0.8092(3) 0.7930(6)
H24A H 0.18730 0.84600 0.75810
H25A H 0.12430 0.79360 0.74940
C21A C 0.1493(3) 0.8186(4) 0.9202(7)
H26A H 0.13900 0.84850 0.92320
H27A H 0.11690 0.78340 0.95010
C22A C 0.2006(3) 0.8355(4) 0.9980(7)
H28A H 0.18940 0.83590 1.07870
H29A H 0.23030 0.87430 0.97810
C23A C 0.2252(3) 0.7958(3) 0.9884(5)
H30A H 0.19830 0.75870 1.02170
H31A H 0.26080 0.81180 1.03280
C24A C 0.2372(2) 0.7881(3) 0.8599(5)
H32A H 0.26770 0.82500 0.82970
C25A C 0.27660(19) 0.65468(20) 0.8162(4)
H33A H 0.23860 0.64660 0.81520
C26A C 0.32102(18) 0.71188(19) 0.8169(4)
C27A C 0.30748(20) 0.75948(19) 0.8198(4)
C28A C 0.3535(3) 0.8189(3) 0.7794(9)
H34A H 0.38760 0.81780 0.75760
H35A H 0.33960 0.83040 0.71300
H36A H 0.36250 0.84600 0.84200
N1B N 0.1452(2) 0.5027(2) 0.2174(4)
N2B N 0.1350(2) 0.6069(2) 0.2070(4)
N3B N 0.23314(19) 0.43404(20) 0.6608(4)
N4B N 0.25373(16) 0.51068(19) 0.8549(4)
C1B C 0.2557(2) 0.5183(2) 0.2632(5)
H1B H 0.25010 0.53020 0.19020
C2B C 0.2707(2) 0.4795(2) 0.4796(5)
C3B C 0.2204(2) 0.4799(2) 0.4535(5)
H2B H 0.19140 0.46660 0.50960
C4B C 0.2118(2) 0.4991(2) 0.3482(5)
C5B C 0.3063(2) 0.5198(2) 0.2864(4)
C6B C 0.3139(2) 0.4994(2) 0.3938(5)
H3B H 0.34790 0.49910 0.40850
C7B C 0.2782(2) 0.4600(2) 0.6001(5)
C8B C 0.3385(4) 0.4771(3) 0.6379(7)
H4B H 0.36470 0.49630 0.57440
H5B H 0.34910 0.50250 0.70400
H6B H 0.34000 0.44320 0.65920
C9B C 0.1576(3) 0.5006(3) 0.3224(5)
C10B C 0.1234(6) 0.5012(4) 0.4263(7)
H7B H 0.14160 0.49920 0.49720
H8B H 0.12160 0.53610 0.42580
H9B H 0.08510 0.46860 0.42220
C11B C 0.3548(2) 0.5435(2) 0.1965(5)
C12B C 0.3541(3) 0.5856(3) 0.1068(6)
H10B H 0.32070 0.58920 0.11890
H11B H 0.38810 0.62260 0.11610
H12B H 0.35330 0.57150 0.02900
C13B C 0.0921(3) 0.5023(3) 0.1831(6)
H13B H 0.06860 0.49690 0.25300
C14B C 0.0582(3) 0.4527(4) 0.0977(8)
H14B H 0.08290 0.45720 0.03160
H15B H 0.04890 0.41690 0.13670
C15B C 0.0050(4) 0.4477(4) 0.0529(10)
H16B H -0.02270 0.43690 0.11620
H17B H -0.01130 0.41770 -0.00630
C16B C 0.0164(4) 0.5035(4) 0.0011(8)
H18B H -0.02010 0.50100 -0.01690
H19B H 0.03700 0.50940 -0.07220
C17B C 0.0515(4) 0.5562(3) 0.0809(8)
H20B H 0.06060 0.59100 0.03810
H21B H 0.02820 0.55370 0.14820
C18B C 0.1074(3) 0.5603(3) 0.1234(5)
H22B H 0.13310 0.56730 0.05670
C19B C 0.2326(2) 0.4168(2) 0.7832(5)
H23B H 0.27150 0.42610 0.80690
C20B C 0.1908(3) 0.3509(3) 0.7930(6)
H24B H 0.15400 0.34130 0.75810
H25B H 0.20640 0.33070 0.74940
C21B C 0.1814(3) 0.3307(4) 0.9202(7)
H26B H 0.15150 0.29050 0.92320
H27B H 0.21660 0.33350 0.95010
C22B C 0.1645(3) 0.3651(4) 0.9980(7)
H28B H 0.16410 0.35350 1.07870
H29B H 0.12570 0.35600 0.97810
C23B C 0.2042(3) 0.4294(3) 0.9884(5)
H30B H 0.24130 0.43960 1.02170
H31B H 0.18820 0.44900 1.03280
C24B C 0.2119(2) 0.4491(3) 0.8599(5)
H32B H 0.17500 0.44270 0.82970
C25B C 0.34532(19) 0.62192(20) 0.8162(4)
H33B H 0.35340 0.59200 0.81520
C26B C 0.28812(18) 0.60914(19) 0.8169(4)
C27B C 0.24052(20) 0.54800(19) 0.8198(4)
C28B C 0.1811(3) 0.5346(3) 0.7794(9)
H34B H 0.18220 0.56980 0.75760
H35B H 0.16960 0.50920 0.71300
H36B H 0.15400 0.51650 0.84200
#END
