
#######################################################################
#
#                 Cambridge Crystallographic Data Centre
#                                CCDC
#
#######################################################################
#
# If this CIF has been generated from an entry in the Cambridge
# Structural Database, then it will include bibliographic, chemical,
# crystal, experimental, refinement or atomic coordinate data resulting
# from the CCDC's data processing and validation procedures.
#
#######################################################################

data_CSD_CIF_SENPUZ
_audit_creation_date 2017-11-01
_audit_creation_method CSD-ConQuest-V1
_database_code_CSD SENPUZ
_database_code_depnum_ccdc_archive 'CCDC 1533783'
_chemical_formula_sum 'C88.88 H123.6 Cl3.886 N12 O2.933'
_chemical_formula_moiety
;
C84 H108 N12,2.9333(C1 H4 O1),1.943(C1 H2 Cl2)
;
_journal_coden_Cambridge 2029
_journal_volume 3
_journal_year 2017
_journal_page_first 734
_journal_name_full 'ACS Cent.Sci. '
loop_
_publ_author_name
"A.G.Slater"
"P.S.Reiss"
"Angeles Pulido"
"M.A.Little"
"D.L.Holden"
"Linjiang Chen"
"Samantha Y.Chong"
"B.M.Alston"
"R.Clowes"
"M.Haranczyk"
"M.E.Briggs"
"T.Hasell"
"G.M.Day"
"A.I.Cooper"
_chemical_name_systematic
;
4,13,19,28,34,43,49,58,61,70,73,82-dodecamethyl-5,12,20,27,35,42,50,57,62,69,7
4,81-dodecaazatridecacyclo[29.29.10.10^16,46^.1^3,59^.1^14,18^.1^29,33^.1^44,4
8^.0^6,11^.0^21,26^.0^36,41^.0^51,56^.0^63,68^.0^75,80^]tetraoctaconta-1,3(71)
,4,12,14(84),15,17,19,27,29(83),30,32,34,42,44(72),45,47,49,57,59,61,69,73,81-
tetracosaene methanol dichloromethane solvate
;
_cell_volume   6641.604
_exptl_crystal_colour 'colorless'
_exptl_crystal_density_diffrn 1.159
_exptl_crystal_description 'needle'
_diffrn_ambient_temperature 100
_diffrn_special_details
;
twin

;
_refine_special_details
;
C40B,C89,O5 and C40A,Cl5 and Cl90 and Cl91 disordered over four sites with 
occupancies 0.34,0.93,0.93:0.66,0.3333:0.1667:0.1667; C64A and C64B 
disordered over two sites with occupancies 0.5:0.5; C90 disordered by 
symmetry over three configurations with occupancy 0.3333; C91 disordered by 
symmetry over three configurations with occupancy 0.3333; C93,Cl1,Cl88 
disordered by symmetry over three configurations with occupancy 0.3333; Cl3 
and Cl4 disordered over two sites with occupancies 0.3333:0.3333.
;
#These two values have been output from a single CSD field.
_refine_ls_R_factor_gt 0.1209
_refine_ls_wR_factor_gt 0.1209
_symmetry_cell_setting hexagonal
_symmetry_space_group_name_H-M 'P 3'
_symmetry_Int_Tables_number 143
loop_
_symmetry_equiv_pos_site_id
_symmetry_equiv_pos_as_xyz
1 x,y,z
2 -y,x-y,z
3 -x+y,-x,z
_cell_length_a 26.1841(11)
_cell_length_b 26.1841(11)
_cell_length_c 11.1858(5)
_cell_angle_alpha 90
_cell_angle_beta 90
_cell_angle_gamma 120
_cell_formula_units_Z 3
loop_
_atom_type_symbol
_atom_type_radius_bond
C 0.68
H 0.23
Cl 0.99
N 0.68
O 0.68
loop_
_atom_site_label
_atom_site_type_symbol
_atom_site_fract_x
_atom_site_fract_y
_atom_site_fract_z
Cl1 Cl 0.3861(5) 0.0248(5) 0.5107(13)
Cl2 Cl 0.3279(3) 0.0630(3) 0.3469(8)
C1 C 0.3819(12) 0.0837(8) 0.455(3)
H1 H 0.42050 0.11230 0.41940
H2 H 0.37370 0.10360 0.52080
O1 O 0.2862(4) 0.0465(4) 0.818(1)
H3 H 0.30780 0.05010 0.87650
C2 C 0.2636(9) -0.0122(8) 0.764(2)
H4 H 0.22920 -0.02160 0.71410
H5 H 0.25220 -0.04180 0.82710
H6 H 0.29440 -0.01220 0.71420
O2 O 0.3368(6) 0.0434(6) 1.0097(15)
H7 H 0.37300 0.06480 1.02310
C3 C 0.3162(7) -0.0118(6) 1.0643(17)
H8 H 0.31350 -0.04040 1.00450
H9 H 0.27710 -0.02520 1.09890
H10 H 0.34360 -0.00840 1.12760
O3 O 0.3352(8) 0.3312(8) 0.996(2)
H11 H 0.33550 0.35540 1.04610
C4 C 0.3843(8) 0.3626(9) 0.910(2)
H12 H 0.38140 0.33520 0.84720
H13 H 0.42200 0.37770 0.95200
H14 H 0.38190 0.39550 0.87460
N1 N 0.2271(3) -0.2849(4) -0.0477(8)
N2 N 0.1894(4) -0.2400(4) 0.1409(9)
N3 N 0.3465(4) -0.1524(4) 0.6059(8)
N4 N 0.4666(4) -0.1279(4) 0.5967(10)
C5 C 0.2315(5) -0.2456(6) 0.3259(10)
C6 C 0.1851(6) -0.3022(6) 0.3524(11)
H15 H 0.15530 -0.32320 0.29460
C7 C 0.1824(6) -0.3275(7) 0.4602(12)
C8 C 0.2245(5) -0.2977(6) 0.5424(11)
H16 H 0.22150 -0.31580 0.61780
C9 C 0.2726(5) -0.2414(5) 0.5219(10)
C10 C 0.2746(5) -0.2147(5) 0.4107(11)
H17 H 0.30540 -0.17570 0.39430
C11 C 0.2360(5) -0.2184(5) 0.2027(11)
C12 C 0.2938(5) -0.1718(5) 0.1656(12)
H18 H 0.29600 -0.17040 0.07810
H19 H 0.32410 -0.17970 0.19740
H20 H 0.30040 -0.13390 0.19620
C13 C 0.3204(5) -0.2085(5) 0.6138(12)
C14 C 0.3290(5) -0.2447(6) 0.7007(11)
H21 H 0.36590 -0.22040 0.74420
H22 H 0.33090 -0.27660 0.65940
H23 H 0.29590 -0.26140 0.75710
C15 C 0.4784(10) -0.1335(7) 0.4917(14)
C16 C 0.4808(18) -0.0948(16) 0.381(4)
H24 H 0.49120 -0.10890 0.30850
H25 H 0.44210 -0.09810 0.36950
H26 H 0.51050 -0.05350 0.39480
C17 C 0.3338(4) -0.2802(4) -0.0058(9)
H27 H 0.33380 -0.24400 -0.00710
C18 C 0.2793(4) -0.3339(4) -0.0048(9)
C19 C 0.2235(4) -0.3321(4) -0.0099(9)
C20 C 0.1680(5) -0.3860(5) 0.0354(12)
H28 H 0.15430 -0.41760 -0.02410
H29 H 0.13720 -0.37580 0.04900
H30 H 0.17660 -0.39940 0.11060
C21 C 0.1768(4) -0.2763(5) -0.0615(10)
H31 H 0.14020 -0.31200 -0.03290
C22 C 0.1702(5) -0.2649(5) -0.1922(11)
H32 H 0.20890 -0.23420 -0.22340
H33 H 0.15780 -0.30140 -0.23850
C23 C 0.1256(6) -0.2450(6) -0.2100(14)
H34 H 0.12370 -0.23720 -0.29600
H35 H 0.08620 -0.27700 -0.18530
C24 C 0.1407(8) -0.1902(7) -0.1396(13)
H36 H 0.11020 -0.17880 -0.15210
H37 H 0.17920 -0.15710 -0.16590
C25 C 0.1435(8) -0.2042(8) -0.0047(12)
H38 H 0.15350 -0.16880 0.04390
H39 H 0.10430 -0.23620 0.02130
C26 C 0.1896(5) -0.2229(5) 0.0163(10)
H40 H 0.22960 -0.18930 -0.00400
C27 C 0.3898(5) -0.1157(5) 0.6958(11)
H41 H 0.38960 -0.14140 0.76200
C28 C 0.3750(6) -0.0716(7) 0.7464(13)
H42 H 0.37180 -0.04840 0.67990
H43 H 0.33600 -0.09300 0.78600
C29 C 0.4189(7) -0.0307(6) 0.8335(15)
H44 H 0.41860 -0.05320 0.90490
H45 H 0.40760 -0.00150 0.85930
C30 C 0.4816(6) 0.0021(6) 0.7810(14)
H46 H 0.48400 0.02930 0.71700
H47 H 0.51030 0.02550 0.84420
C31 C 0.4960(7) -0.0432(6) 0.7305(13)
H48 H 0.53550 -0.02240 0.69300
H49 H 0.49760 -0.06740 0.79700
C32 C 0.4515(5) -0.0837(5) 0.6387(12)
H50 H 0.45140 -0.05980 0.56930
N5 N -0.0028(3) -0.1800(3) 0.7432(7)
N6 N 0.2050(3) 0.0806(3) 0.7361(7)
N7 N 0.1522(3) -0.0765(3) 1.2050(7)
N8 N 0.0918(3) -0.0659(4) 1.4044(8)
C33 C -0.0398(4) -0.0603(4) 1.3563(9)
H51 H -0.06750 -0.10140 1.35480
C34 C 0.0189(4) -0.0413(4) 1.3574(10)
C35 C 0.0420(4) -0.0837(4) 1.3603(9)
C36 C 0.0011(5) -0.1456(5) 1.3100(12)
H52 H -0.03310 -0.14660 1.27220
H53 H -0.01210 -0.17440 1.37510
H54 H 0.02250 -0.15520 1.25050
C37 C 0.1368(4) -0.0419(4) 1.0241(9)
C38 C 0.0896(4) -0.0965(4) 0.9943(9)
H55 H 0.07630 -0.12760 1.05090
C39 C 0.0610(4) -0.1076(4) 0.8847(9)
C40 C 0.0823(4) -0.0628(4) 0.7988(9)
H56 H 0.06450 -0.07020 0.72200
C41 C 0.1291(4) -0.0080(4) 0.8257(9)
C42 C 0.1560(4) 0.0037(4) 0.9351(9)
H57 H 0.18760 0.04220 0.95240
C43 C 0.1639(4) -0.0303(4) 1.1442(9)
C44 C 0.1996(5) 0.0321(4) 1.1812(11)
H58 H 0.21150 0.03400 1.26490
H59 H 0.17620 0.05160 1.17270
H60 H 0.23480 0.05200 1.13060
C45 C 0.0105(4) -0.1676(4) 0.8553(10)
C46 C -0.0253(5) -0.2061(5) 0.9572(11)
H61 H -0.06670 -0.21730 0.94630
H62 H -0.01070 -0.18440 1.03250
H63 H -0.02180 -0.24160 0.95940
C47 C 0.1485(4) 0.0405(4) 0.7333(9)
C48 C 0.1036(4) 0.0366(4) 0.6476(10)
H64 H 0.11740 0.07530 0.61070
H65 H 0.06650 0.02430 0.68980
H66 H 0.09730 0.00770 0.58540
C49 C 0.1745(4) -0.0721(4) 1.3281(9)
H67 H 0.20010 -0.02970 1.35070
C50 C 0.2095(4) -0.1040(5) 1.3359(10)
H68 H 0.24480 -0.08390 1.28420
H69 H 0.18500 -0.14490 1.30680
C51 C 0.2285(6) -0.1048(5) 1.4648(12)
H70 H 0.25090 -0.12590 1.46830
H71 H 0.25460 -0.06380 1.49240
C52 C 0.1761(5) -0.1344(5) 1.5449(10)
H72 H 0.18940 -0.13320 1.62830
H73 H 0.15170 -0.17630 1.52130
C53 C 0.1381(5) -0.1038(4) 1.5383(9)
H74 H 0.10210 -0.12610 1.58740
H75 H 0.16090 -0.06340 1.57120
C54 C 0.1209(5) -0.1011(4) 1.4098(9)
H76 H 0.09320 -0.14190 1.38060
C55 C -0.0506(4) -0.2364(4) 0.7081(9)
H77 H -0.06690 -0.26210 0.78010
C56 C -0.0268(5) -0.2648(5) 0.6191(11)
H78 H -0.00640 -0.23710 0.55240
H79 H 0.00230 -0.27230 0.66020
C57 C -0.0760(5) -0.3221(5) 0.5695(12)
H80 H -0.09250 -0.35160 0.63470
H81 H -0.05960 -0.33730 0.50830
C58 C 0.2291(4) 0.1309(4) 0.6501(9)
H82 H 0.20040 0.12020 0.58270
C59 C 0.2871(5) 0.1385(5) 0.5995(10)
H83 H 0.31460 0.14520 0.66610
H84 H 0.27910 0.10190 0.55770
C60 C 0.3155(5) 0.1898(6) 0.5133(11)
H85 H 0.29100 0.18020 0.44020
H86 H 0.35480 0.19650 0.48980
N9 N 0.5115(3) 0.2759(3) 1.0242(8)
N10 N 0.4292(3) 0.2275(3) 0.8303(7)
N11 N 0.5201(4) 0.3860(4) 0.3654(8)
N12 N 0.5106(4) 0.1470(4) 0.3586(8)
C61 C 0.4987(4) 0.3101(4) 0.5044(10)
C62 C 0.4768(4) 0.2840(4) 0.6146(10)
H87 H 0.46490 0.30310 0.67110
C63 C 0.4722(4) 0.2300(4) 0.6432(9)
C64 C 0.4916(4) 0.2019(4) 0.5600(9)
H88 H 0.48920 0.16530 0.57720
C65 C 0.5150(4) 0.2324(5) 0.4482(10)
C66 C 0.5185(4) 0.2840(5) 0.4239(10)
H89 H 0.53490 0.30300 0.34990
C67 C 0.5041(4) 0.3699(5) 0.4716(11)
C68 C 0.5082(18) 0.4065(15) 0.579(3)
H90 H 0.49190 0.38090 0.64880
H91 H 0.54960 0.43590 0.59350
H92 H 0.48580 0.42660 0.56340
C69 C 0.4512(4) 0.2032(4) 0.7632(9)
C70 C 0.4581(8) 0.1512(6) 0.7966(14)
H93 H 0.50010 0.16330 0.79870
H94 H 0.43800 0.11980 0.73730
H95 H 0.44070 0.13660 0.87560
C71 C 0.5358(5) 0.2037(5) 0.3589(10)
C72 C 0.5816(5) 0.2438(5) 0.2735(10)
H96 H 0.60750 0.28160 0.31270
H97 H 0.56270 0.25030 0.20410
H98 H 0.60490 0.22610 0.24720
C73 C 0.5243(5) 0.1179(5) 0.2628(10)
H99 H 0.55160 0.14830 0.20440
C74 C 0.4686(6) 0.0740(6) 0.1987(12)
H100 H 0.44020 0.04630 0.25800
H101 H 0.45050 0.09530 0.16060
C75 C 0.4795(6) 0.0394(7) 0.1049(13)
H102 H 0.44140 0.00950 0.06990
H103 H 0.50390 0.06630 0.04000
C76 C 0.6166(4) 0.2787(3) 0.9691(8)
H104 H 0.58190 0.24100 0.96770
C77 C 0.6121(4) 0.3292(4) 0.9702(9)
C78 C 0.5507(4) 0.3221(4) 0.9744(8)
C79 C 0.5436(5) 0.3708(5) 0.9198(13)
H105 H 0.54680 0.36990 0.83260
H106 H 0.57450 0.40900 0.95020
H107 H 0.50480 0.36530 0.94100
C80 C 0.4125(4) 0.2086(4) 0.9537(8)
H108 H 0.41920 0.17520 0.97420
C81 C 0.3487(4) 0.1914(5) 0.9722(10)
H109 H 0.32350 0.15600 0.92350
H110 H 0.34270 0.22370 0.94320
C82 C 0.3289(4) 0.1783(5) 1.1036(10)
H111 H 0.28730 0.16850 1.11070
H112 H 0.33170 0.14390 1.13190
C83 C 0.3673(5) 0.2310(6) 1.1784(10)
H113 H 0.35620 0.22160 1.26350
H114 H 0.36080 0.26390 1.15570
C84 C 0.4318(4) 0.2503(4) 1.1631(9)
H115 H 0.45580 0.28580 1.21260
H116 H 0.43890 0.21860 1.19180
C85 C 0.4505(4) 0.2638(4) 1.0366(9)
H117 H 0.44740 0.29840 1.00870
C86 C 0.5311(5) 0.4431(5) 0.3233(11)
H118 H 0.52890 0.46700 0.39080
C87 C 0.4836(6) 0.4321(6) 0.2247(12)
H119 H 0.48070 0.40180 0.16780
H120 H 0.44450 0.41710 0.26300
C88 C 0.5005(6) 0.4905(7) 0.1553(14)
H121 H 0.47180 0.48120 0.08960
H122 H 0.49660 0.51800 0.21040
Cl3? Cl 0.0102(5) 0.0422(4) 1.042(6)
Cl4? Cl 0.2765(7) 0.2878(6) 0.2777(17)
Cl5? Cl 0.3387(7) 0.3853(7) 0.4350(15)
Cl6? Cl 0.6228(3) 0.3096(4) 0.647(4)
C89? C 0.444(2) -0.1130(19) 0.374(4)
H123? H 0.45650 -0.11940 0.29570
H124? H 0.40080 -0.13740 0.38030
H125? H 0.45540 -0.07130 0.38240
C90? C 0.4803(13) 0.3938(11) 0.564(3)
H126? H 0.47220 0.37090 0.63800
H127? H 0.50930 0.43520 0.58040
H128? H 0.44370 0.39110 0.53490
Cl7? Cl 0.0862(4) 0.0653(5) 1.0535(16)
C91? C 0.0102(5) 0.0422(4) 1.042(6)
Cl8? Cl 0.3181(7) 0.3879(6) 0.1864(14)
C92? C 0.2859(10) 0.3551(8) 0.3220(16)
H129? H 0.31300 0.37230 0.39090
H130? H 0.24830 0.35420 0.33740
Cl9? Cl 0.3747(5) 0.6153(5) 0.3028(12)
Cl10? Cl 0.3616(9) 0.7077(9) 0.367(2)
C93? C 0.3242(12) 0.6405(12) 0.294(5)
H131? H 0.31580 0.64570 0.20970
H132? H 0.28670 0.61330 0.33470
Cl11? Cl 0.6172(4) 0.3728(4) 0.6609(11)
C94? C 0.6228(3) 0.3096(4) 0.647(4)
N1A N 0.2849(3) -0.4880(4) -0.0477(8)
N2A N 0.2400(4) -0.5706(4) 0.1409(9)
N3A N 0.1524(4) -0.5011(4) 0.6059(8)
N4A N 0.1279(4) -0.4055(4) 0.5967(10)
C5A C 0.2456(5) -0.5229(6) 0.3259(10)
C6A C 0.3022(6) -0.5127(6) 0.3524(11)
H15A H 0.32320 -0.52150 0.29460
C7A C 0.3275(6) -0.4901(7) 0.4602(12)
C8A C 0.2977(5) -0.4778(6) 0.5424(11)
H16A H 0.31580 -0.46270 0.61780
C9A C 0.2414(5) -0.4860(5) 0.5219(10)
C10A C 0.2147(5) -0.5107(5) 0.4107(11)
H17A H 0.17570 -0.51890 0.39430
C11A C 0.2184(5) -0.5456(5) 0.2027(11)
C12A C 0.1718(5) -0.5344(5) 0.1656(12)
H18A H 0.17040 -0.53360 0.07810
H19A H 0.17970 -0.49620 0.19740
H20A H 0.13390 -0.56570 0.19620
C13A C 0.2085(5) -0.4711(5) 0.6138(12)
C14A C 0.2447(5) -0.4263(6) 0.7007(11)
H21A H 0.22040 -0.41370 0.74420
H22A H 0.27660 -0.39250 0.65940
H23A H 0.26140 -0.44270 0.75710
C15A C 0.1335(10) -0.3881(7) 0.4917(14)
C16A C 0.0948(18) -0.4244(16) 0.381(4)
H24A H 0.10890 -0.39990 0.30850
H25A H 0.09810 -0.45980 0.36950
H26A H 0.05350 -0.43600 0.39480
C17A C 0.2802(4) -0.3860(4) -0.0058(9)
H27A H 0.24400 -0.42220 -0.00710
C18A C 0.3339(4) -0.3868(4) -0.0048(9)
C19A C 0.3321(4) -0.4444(4) -0.0099(9)
C20A C 0.3860(5) -0.4460(5) 0.0354(12)
H28A H 0.41760 -0.42810 -0.02410
H29A H 0.37580 -0.48700 0.04900
H30A H 0.39940 -0.42400 0.11060
C21A C 0.2763(4) -0.5469(5) -0.0615(10)
H31A H 0.31200 -0.54780 -0.03290
C22A C 0.2649(5) -0.5649(5) -0.1922(11)
H32A H 0.23420 -0.55690 -0.22340
H33A H 0.30140 -0.54080 -0.23850
C23A C 0.2450(6) -0.6294(6) -0.2100(14)
H34A H 0.23720 -0.63910 -0.29600
H35A H 0.27700 -0.63680 -0.18530
C24A C 0.1902(8) -0.6691(7) -0.1396(13)
H36A H 0.17880 -0.71100 -0.15210
H37A H 0.15710 -0.66370 -0.16590
C25A C 0.2042(8) -0.6523(8) -0.0047(12)
H38A H 0.16880 -0.67770 0.04390
H39A H 0.23620 -0.65950 0.02130
C26A C 0.2229(5) -0.5875(5) 0.0163(10)
H40A H 0.18930 -0.58110 -0.00400
C27A C 0.1157(5) -0.4945(5) 0.6958(11)
H41A H 0.14140 -0.46900 0.76200
C28A C 0.0716(6) -0.5534(7) 0.7464(13)
H42A H 0.04840 -0.57980 0.67990
H43A H 0.09300 -0.57100 0.78600
C29A C 0.0307(7) -0.5504(6) 0.8335(15)
H44A H 0.05320 -0.52820 0.90490
H45A H 0.00150 -0.59090 0.85930
C30A C -0.0021(6) -0.5205(6) 0.7810(14)
H46A H -0.02930 -0.54530 0.71700
H47A H -0.02550 -0.51520 0.84420
C31A C 0.0432(7) -0.4608(6) 0.7305(13)
H48A H 0.02240 -0.44210 0.69300
H49A H 0.06740 -0.43500 0.79700
C32A C 0.0837(5) -0.4648(5) 0.6387(12)
H50A H 0.05980 -0.48880 0.56930
N1B N 0.4880(3) -0.2271(4) -0.0477(8)
N2B N 0.5706(4) -0.1894(4) 0.1409(9)
N3B N 0.5011(4) -0.3465(4) 0.6059(8)
N4B N 0.4055(4) -0.4666(4) 0.5967(10)
C5B C 0.5229(5) -0.2315(6) 0.3259(10)
C6B C 0.5127(6) -0.1851(6) 0.3524(11)
H15B H 0.52150 -0.15530 0.29460
C7B C 0.4901(6) -0.1824(7) 0.4602(12)
C8B C 0.4778(5) -0.2245(6) 0.5424(11)
H16B H 0.46270 -0.22150 0.61780
C9B C 0.4860(5) -0.2726(5) 0.5219(10)
C10B C 0.5107(5) -0.2746(5) 0.4107(11)
H17B H 0.51890 -0.30540 0.39430
C11B C 0.5456(5) -0.2360(5) 0.2027(11)
C12B C 0.5344(5) -0.2938(5) 0.1656(12)
H18B H 0.53360 -0.29600 0.07810
H19B H 0.49620 -0.32410 0.19740
H20B H 0.56570 -0.30040 0.19620
C13B C 0.4711(5) -0.3204(5) 0.6138(12)
C14B C 0.4263(5) -0.3290(6) 0.7007(11)
H21B H 0.41370 -0.36590 0.74420
H22B H 0.39250 -0.33090 0.65940
H23B H 0.44270 -0.29590 0.75710
C15B C 0.3881(10) -0.4784(7) 0.4917(14)
C16B C 0.4244(18) -0.4808(16) 0.381(4)
H24B H 0.39990 -0.49120 0.30850
H25B H 0.45980 -0.44210 0.36950
H26B H 0.43600 -0.51050 0.39480
C17B C 0.3860(4) -0.3338(4) -0.0058(9)
H27B H 0.42220 -0.33380 -0.00710
C18B C 0.3868(4) -0.2793(4) -0.0048(9)
C19B C 0.4444(4) -0.2235(4) -0.0099(9)
C20B C 0.4460(5) -0.1680(5) 0.0354(12)
H28B H 0.42810 -0.15430 -0.02410
H29B H 0.48700 -0.13720 0.04900
H30B H 0.42400 -0.17660 0.11060
C21B C 0.5469(4) -0.1768(5) -0.0615(10)
H31B H 0.54780 -0.14020 -0.03290
C22B C 0.5649(5) -0.1702(5) -0.1922(11)
H32B H 0.55690 -0.20890 -0.22340
H33B H 0.54080 -0.15780 -0.23850
C23B C 0.6294(6) -0.1256(6) -0.2100(14)
H34B H 0.63910 -0.12370 -0.29600
H35B H 0.63680 -0.08620 -0.18530
C24B C 0.6691(8) -0.1407(7) -0.1396(13)
H36B H 0.71100 -0.11020 -0.15210
H37B H 0.66370 -0.17920 -0.16590
C25B C 0.6523(8) -0.1435(8) -0.0047(12)
H38B H 0.67770 -0.15350 0.04390
H39B H 0.65950 -0.10430 0.02130
C26B C 0.5875(5) -0.1896(5) 0.0163(10)
H40B H 0.58110 -0.22960 -0.00400
C27B C 0.4945(5) -0.3898(5) 0.6958(11)
H41B H 0.46900 -0.38960 0.76200
C28B C 0.5534(6) -0.3750(7) 0.7464(13)
H42B H 0.57980 -0.37180 0.67990
H43B H 0.57100 -0.33600 0.78600
C29B C 0.5504(7) -0.4189(6) 0.8335(15)
H44B H 0.52820 -0.41860 0.90490
H45B H 0.59090 -0.40760 0.85930
C30B C 0.5205(6) -0.4816(6) 0.7810(14)
H46B H 0.54530 -0.48400 0.71700
H47B H 0.51520 -0.51030 0.84420
C31B C 0.4608(7) -0.4960(6) 0.7305(13)
H48B H 0.44210 -0.53550 0.69300
H49B H 0.43500 -0.49760 0.79700
C32B C 0.4648(5) -0.4515(5) 0.6387(12)
H50B H 0.48880 -0.45140 0.56930
N5A N 0.1800(3) 0.1772(3) 0.7432(7)
N6A N -0.0806(3) 0.1244(3) 0.7361(7)
N7A N 0.0765(3) 0.2287(3) 1.2050(7)
N8A N 0.0659(3) 0.1577(4) 1.4044(8)
C33A C 0.0603(4) 0.0205(4) 1.3563(9)
H51A H 0.10140 0.03390 1.35480
C34A C 0.0413(4) 0.0602(4) 1.3574(10)
C35A C 0.0837(4) 0.1257(4) 1.3603(9)
C36A C 0.1456(5) 0.1467(5) 1.3100(12)
H52A H 0.14660 0.11350 1.27220
H53A H 0.17440 0.16230 1.37510
H54A H 0.15520 0.17770 1.25050
C37A C 0.0419(4) 0.1787(4) 1.0241(9)
C38A C 0.0965(4) 0.1861(4) 0.9943(9)
H55A H 0.12760 0.20390 1.05090
C39A C 0.1076(4) 0.1686(4) 0.8847(9)
C40A C 0.0628(4) 0.1451(4) 0.7988(9)
H56A H 0.07020 0.13470 0.72200
C41A C 0.0080(4) 0.1371(4) 0.8257(9)
C42A C -0.0037(4) 0.1523(4) 0.9351(9)
H57A H -0.04220 0.14540 0.95240
C43A C 0.0303(4) 0.1942(4) 1.1442(9)
C44A C -0.0321(5) 0.1675(4) 1.1812(11)
H58A H -0.03400 0.17750 1.26490
H59A H -0.05160 0.12460 1.17270
H60A H -0.05200 0.18280 1.13060
C45A C 0.1676(4) 0.1781(4) 0.8553(10)
C46A C 0.2061(5) 0.1808(5) 0.9572(11)
H61A H 0.21730 0.15060 0.94630
H62A H 0.18440 0.17370 1.03250
H63A H 0.24160 0.21980 0.95940
C47A C -0.0405(4) 0.1080(4) 0.7333(9)
C48A C -0.0366(4) 0.0670(4) 0.6476(10)
H64A H -0.07530 0.04210 0.61070
H65A H -0.02430 0.04220 0.68980
H66A H -0.00770 0.08960 0.58540
C49A C 0.0721(4) 0.2466(4) 1.3281(9)
H67A H 0.02970 0.22980 1.35070
C50A C 0.1040(4) 0.3135(5) 1.3359(10)
H68A H 0.08390 0.32870 1.28420
H69A H 0.14490 0.32990 1.30680
C51A C 0.1048(6) 0.3333(5) 1.4648(12)
H70A H 0.12590 0.37680 1.46830
H71A H 0.06380 0.31840 1.49240
C52A C 0.1344(5) 0.3105(5) 1.5449(10)
H72A H 0.13320 0.32260 1.62830
H73A H 0.17630 0.32800 1.52130
C53A C 0.1038(5) 0.2419(4) 1.5383(9)
H74A H 0.12610 0.22820 1.58740
H75A H 0.06340 0.22430 1.57120
C54A C 0.1011(5) 0.2220(4) 1.4098(9)
H76A H 0.14190 0.23510 1.38060
C55A C 0.2364(4) 0.1858(4) 0.7081(9)
H77A H 0.26210 0.19520 0.78010
C56A C 0.2648(5) 0.2380(5) 0.6191(11)
H78A H 0.23710 0.23070 0.55240
H79A H 0.27230 0.27460 0.66020
C57A C 0.3221(5) 0.2461(5) 0.5695(12)
H80A H 0.35160 0.25910 0.63470
H81A H 0.33730 0.27770 0.50830
C58A C -0.1309(4) 0.0982(4) 0.6501(9)
H82A H -0.12020 0.08020 0.58270
C59A C -0.1385(5) 0.1486(5) 0.5995(10)
H83A H -0.14520 0.16940 0.66610
H84A H -0.10190 0.17720 0.55770
C60A C -0.1898(5) 0.1257(6) 0.5133(11)
H85A H -0.18020 0.11080 0.44020
H86A H -0.19650 0.15830 0.48980
N5B N -0.1772(3) 0.0028(3) 0.7432(7)
N6B N -0.1244(3) -0.2050(3) 0.7361(7)
N7B N -0.2287(3) -0.1522(3) 1.2050(7)
N8B N -0.1577(3) -0.0918(4) 1.4044(8)
C33B C -0.0205(4) 0.0398(4) 1.3563(9)
H51B H -0.03390 0.06750 1.35480
C34B C -0.0602(4) -0.0189(4) 1.3574(10)
C35B C -0.1257(4) -0.0420(4) 1.3603(9)
C36B C -0.1467(5) -0.0011(5) 1.3100(12)
H52B H -0.11350 0.03310 1.27220
H53B H -0.16230 0.01210 1.37510
H54B H -0.17770 -0.02250 1.25050
C37B C -0.1787(4) -0.1368(4) 1.0241(9)
C38B C -0.1861(4) -0.0896(4) 0.9943(9)
H55B H -0.20390 -0.07630 1.05090
C39B C -0.1686(4) -0.0610(4) 0.8847(9)
C40B C -0.1451(4) -0.0823(4) 0.7988(9)
H56B H -0.13470 -0.06450 0.72200
C41B C -0.1371(4) -0.1291(4) 0.8257(9)
C42B C -0.1523(4) -0.1560(4) 0.9351(9)
H57B H -0.14540 -0.18760 0.95240
C43B C -0.1942(4) -0.1639(4) 1.1442(9)
C44B C -0.1675(5) -0.1996(4) 1.1812(11)
H58B H -0.17750 -0.21150 1.26490
H59B H -0.12460 -0.17620 1.17270
H60B H -0.18280 -0.23480 1.13060
C45B C -0.1781(4) -0.0105(4) 0.8553(10)
C46B C -0.1808(5) 0.0253(5) 0.9572(11)
H61B H -0.15060 0.06670 0.94630
H62B H -0.17370 0.01070 1.03250
H63B H -0.21980 0.02180 0.95940
C47B C -0.1080(4) -0.1485(4) 0.7333(9)
C48B C -0.0670(4) -0.1036(4) 0.6476(10)
H64B H -0.04210 -0.11740 0.61070
H65B H -0.04220 -0.06650 0.68980
H66B H -0.08960 -0.09730 0.58540
C49B C -0.2466(4) -0.1745(4) 1.3281(9)
H67B H -0.22980 -0.20010 1.35070
C50B C -0.3135(4) -0.2095(5) 1.3359(10)
H68B H -0.32870 -0.24480 1.28420
H69B H -0.32990 -0.18500 1.30680
C51B C -0.3333(6) -0.2285(5) 1.4648(12)
H70B H -0.37680 -0.25090 1.46830
H71B H -0.31840 -0.25460 1.49240
C52B C -0.3105(5) -0.1761(5) 1.5449(10)
H72B H -0.32260 -0.18940 1.62830
H73B H -0.32800 -0.15170 1.52130
C53B C -0.2419(5) -0.1381(4) 1.5383(9)
H74B H -0.22820 -0.10210 1.58740
H75B H -0.22430 -0.16090 1.57120
C54B C -0.2220(5) -0.1209(4) 1.4098(9)
H76B H -0.23510 -0.09320 1.38060
C55B C -0.1858(4) 0.0506(4) 0.7081(9)
H77B H -0.19520 0.06690 0.78010
C56B C -0.2380(5) 0.0268(5) 0.6191(11)
H78B H -0.23070 0.00640 0.55240
H79B H -0.27460 -0.00230 0.66020
C57B C -0.2461(5) 0.0760(5) 0.5695(12)
H80B H -0.25910 0.09250 0.63470
H81B H -0.27770 0.05960 0.50830
C58B C -0.0982(4) -0.2291(4) 0.6501(9)
H82B H -0.08020 -0.20040 0.58270
C59B C -0.1486(5) -0.2871(5) 0.5995(10)
H83B H -0.16940 -0.31460 0.66610
H84B H -0.17720 -0.27910 0.55770
C60B C -0.1257(5) -0.3155(6) 0.5133(11)
H85B H -0.11080 -0.29100 0.44020
H86B H -0.15830 -0.35480 0.48980
N9A N 0.7241(3) 0.2356(3) 1.0242(8)
N10A N 0.7725(3) 0.2017(3) 0.8303(7)
N11A N 0.6140(4) 0.1341(4) 0.3654(8)
N12A N 0.8530(4) 0.3636(4) 0.3586(8)
C61A C 0.6899(4) 0.1886(4) 0.5044(10)
C62A C 0.7160(4) 0.1928(4) 0.6146(10)
H87A H 0.69690 0.16180 0.67110
C63A C 0.7700(4) 0.2422(4) 0.6432(9)
C64A C 0.7981(4) 0.2897(4) 0.5600(9)
H88A H 0.83470 0.32390 0.57720
C65A C 0.7676(4) 0.2826(5) 0.4482(10)
C66A C 0.7160(4) 0.2345(5) 0.4239(10)
H89A H 0.69700 0.23190 0.34990
C67A C 0.6301(4) 0.1342(5) 0.4716(11)
C68A C 0.5935(18) 0.1017(15) 0.579(3)
H90A H 0.61910 0.11100 0.64880
H91A H 0.56410 0.11370 0.59350
H92A H 0.57340 0.05920 0.56340
C69A C 0.7968(4) 0.2480(4) 0.7632(9)
C70A C 0.8488(8) 0.3069(6) 0.7966(14)
H93A H 0.83670 0.33680 0.79870
H94A H 0.88020 0.31820 0.73730
H95A H 0.86340 0.30410 0.87560
C71A C 0.7963(5) 0.3321(5) 0.3589(10)
C72A C 0.7562(5) 0.3378(5) 0.2735(10)
H96A H 0.71840 0.32590 0.31270
H97A H 0.74970 0.31240 0.20410
H98A H 0.77390 0.37880 0.24720
C73A C 0.8821(5) 0.4064(5) 0.2628(10)
H99A H 0.85170 0.40330 0.20440
C74A C 0.9260(6) 0.3946(6) 0.1987(12)
H100A H 0.95370 0.39390 0.25800
H101A H 0.90470 0.35520 0.16060
C75A C 0.9606(6) 0.4401(7) 0.1049(13)
H102A H 0.99050 0.43190 0.06990
H103A H 0.93370 0.43760 0.04000
C76A C 0.7213(4) 0.3379(3) 0.9691(8)
H104A H 0.75900 0.34090 0.96770
C77A C 0.6708(4) 0.2829(4) 0.9702(9)
C78A C 0.6779(4) 0.2286(4) 0.9744(8)
C79A C 0.6292(5) 0.1728(5) 0.9198(13)
H105A H 0.63010 0.17690 0.83260
H106A H 0.59100 0.16550 0.95020
H107A H 0.63470 0.13950 0.94100
C80A C 0.7914(4) 0.2039(4) 0.9537(8)
H108A H 0.82480 0.24400 0.97420
C81A C 0.8086(4) 0.1573(5) 0.9722(10)
H109A H 0.84400 0.16750 0.92350
H110A H 0.77630 0.11900 0.94320
C82A C 0.8217(4) 0.1506(5) 1.1036(10)
H111A H 0.83150 0.11880 1.11070
H112A H 0.85610 0.18780 1.13190
C83A C 0.7690(5) 0.1363(6) 1.1784(10)
H113A H 0.77840 0.13460 1.26350
H114A H 0.73610 0.09690 1.15570
C84A C 0.7497(4) 0.1815(4) 1.1631(9)
H115A H 0.71420 0.17000 1.21260
H116A H 0.78140 0.22030 1.19180
C85A C 0.7362(4) 0.1867(4) 1.0366(9)
H117A H 0.70160 0.14900 1.00870
C86A C 0.5569(5) 0.0880(5) 0.3233(11)
H118A H 0.53300 0.06190 0.39080
C87A C 0.5679(6) 0.0515(6) 0.2247(12)
H119A H 0.59820 0.07890 0.16780
H120A H 0.58290 0.02740 0.26300
C88A C 0.5095(6) 0.0100(7) 0.1553(14)
H121A H 0.51880 -0.00940 0.08960
H122A H 0.48200 -0.02140 0.21040
N9B N 0.7644(3) 0.4885(3) 1.0242(8)
N10B N 0.7983(3) 0.5708(3) 0.8303(7)
N11B N 0.8659(4) 0.4799(4) 0.3654(8)
N12B N 0.6364(4) 0.4894(4) 0.3586(8)
C61B C 0.8114(4) 0.5013(4) 0.5044(10)
C62B C 0.8072(4) 0.5232(4) 0.6146(10)
H87B H 0.83820 0.53510 0.67110
C63B C 0.7578(4) 0.5278(4) 0.6432(9)
C64B C 0.7103(4) 0.5084(4) 0.5600(9)
H88B H 0.67610 0.51080 0.57720
C65B C 0.7174(4) 0.4850(5) 0.4482(10)
C66B C 0.7655(4) 0.4815(5) 0.4239(10)
H89B H 0.76810 0.46510 0.34990
C67B C 0.8658(4) 0.4959(5) 0.4716(11)
C68B C 0.8983(18) 0.4918(15) 0.579(3)
H90B H 0.88900 0.50810 0.64880
H91B H 0.88630 0.45040 0.59350
H92B H 0.94080 0.51420 0.56340
C69B C 0.7520(4) 0.5488(4) 0.7632(9)
C70B C 0.6931(8) 0.5419(6) 0.7966(14)
H93B H 0.66320 0.49990 0.79870
H94B H 0.68180 0.56200 0.73730
H95B H 0.69590 0.55930 0.87560
C71B C 0.6679(5) 0.4642(5) 0.3589(10)
C72B C 0.6622(5) 0.4184(5) 0.2735(10)
H96B H 0.67410 0.39250 0.31270
H97B H 0.68760 0.43730 0.20410
H98B H 0.62120 0.39510 0.24720
C73B C 0.5936(5) 0.4757(5) 0.2628(10)
H99B H 0.59670 0.44840 0.20440
C74B C 0.6054(6) 0.5314(6) 0.1987(12)
H100B H 0.60610 0.55980 0.25800
H101B H 0.64480 0.54950 0.16060
C75B C 0.5599(6) 0.5205(7) 0.1049(13)
H102B H 0.56810 0.55860 0.06990
H103B H 0.56240 0.49610 0.04000
C76B C 0.6621(4) 0.3834(3) 0.9691(8)
H104B H 0.65910 0.41810 0.96770
C77B C 0.7171(4) 0.3879(4) 0.9702(9)
C78B C 0.7714(4) 0.4493(4) 0.9744(8)
C79B C 0.8272(5) 0.4564(5) 0.9198(13)
H105B H 0.82310 0.45320 0.83260
H106B H 0.83450 0.42550 0.95020
H107B H 0.86050 0.49520 0.94100
C80B C 0.7961(4) 0.5875(4) 0.9537(8)
H108B H 0.75600 0.58080 0.97420
C81B C 0.8427(4) 0.6513(5) 0.9722(10)
H109B H 0.83250 0.67650 0.92350
H110B H 0.88100 0.65730 0.94320
C82B C 0.8494(4) 0.6711(5) 1.1036(10)
H111B H 0.88120 0.71270 1.11070
H112B H 0.81220 0.66830 1.13190
C83B C 0.8637(5) 0.6327(6) 1.1784(10)
H113B H 0.86540 0.64380 1.26350
H114B H 0.90310 0.63920 1.15570
C84B C 0.8185(4) 0.5682(4) 1.1631(9)
H115B H 0.83000 0.54420 1.21260
H116B H 0.77970 0.56110 1.19180
C85B C 0.8133(4) 0.5495(4) 1.0366(9)
H117B H 0.85100 0.55260 1.00870
C86B C 0.9120(5) 0.4689(5) 0.3233(11)
H118B H 0.93810 0.47110 0.39080
C87B C 0.9485(6) 0.5164(6) 0.2247(12)
H119B H 0.92110 0.51930 0.16780
H120B H 0.97260 0.55550 0.26300
C88B C 0.9900(6) 0.4995(7) 0.1553(14)
H121B H 1.00940 0.52820 0.08960
H122B H 1.02140 0.50340 0.21040
#END
