
#######################################################################
#
#                 Cambridge Crystallographic Data Centre
#                                CCDC
#
#######################################################################
#
# If this CIF has been generated from an entry in the Cambridge
# Structural Database, then it will include bibliographic, chemical,
# crystal, experimental, refinement or atomic coordinate data resulting
# from the CCDC's data processing and validation procedures.
#
#######################################################################

data_CSD_CIF_SENPIN
_audit_creation_date 2017-11-01
_audit_creation_method CSD-ConQuest-V1
_database_code_CSD SENPIN
_database_code_depnum_ccdc_archive 'CCDC 1533781'
_chemical_formula_sum 'C86.5 H113 Cl5 N12'
_chemical_formula_moiety
;
C84 H108 N12,2.5(C1 H2 Cl2)
;
_journal_coden_Cambridge 2029
_journal_volume 3
_journal_year 2017
_journal_page_first 734
_journal_name_full 'ACS Cent.Sci. '
loop_
_publ_author_name
"A.G.Slater"
"P.S.Reiss"
"Angeles Pulido"
"M.A.Little"
"D.L.Holden"
"Linjiang Chen"
"Samantha Y.Chong"
"B.M.Alston"
"R.Clowes"
"M.Haranczyk"
"M.E.Briggs"
"T.Hasell"
"G.M.Day"
"A.I.Cooper"
_chemical_name_systematic
;
4,13,19,28,34,43,49,58,61,70,73,82-dodecamethyl-5,12,20,27,35,42,50,57,62,69,7
4,81-dodecaazatridecacyclo[29.29.10.10^16,46^.1^3,59^.1^14,18^.1^29,33^.1^44,4
8^.0^6,11^.0^21,26^.0^36,41^.0^51,56^.0^63,68^.0^75,80^]tetraoctaconta-1,3(71)
,4,12,14(84),15,17,19,27,29(83),30,32,34,42,44(72),45,47,49,57,59,61,69,73,81-
tetracosaene dichloromethane solvate
;
_cell_volume   8679.611
_exptl_crystal_colour 'colorless'
_exptl_crystal_density_diffrn 1.146
_exptl_crystal_description 'needle'
_diffrn_ambient_temperature 300
_refine_special_details
;
C22A,C24A and C22B,C24B disordered over two sites with occupancies 0.50:0.50; 
C41,Cl4,Cl5 disordered by symmetry over two configurations with occupancies 
0.5,0.25,0.25; Cl3 and Cl2 disordered over two sites with occupancies 
0.5:0.5; H40C,H40D and H40A,H40B disordered over two sites with occupancies 
0.5:0.5.
;
#These two values have been output from a single CSD field.
_refine_ls_R_factor_gt 0.0741
_refine_ls_wR_factor_gt 0.0741
_symmetry_cell_setting orthorhombic
_symmetry_space_group_name_H-M 'C 2 2 21'
_symmetry_Int_Tables_number 20
loop_
_symmetry_equiv_pos_site_id
_symmetry_equiv_pos_as_xyz
1 x,y,z
2 -x,-y,1/2+z
3 x,-y,-z
4 -x,y,1/2-z
5 1/2+x,1/2+y,z
6 1/2-x,1/2-y,1/2+z
7 1/2+x,1/2-y,-z
8 1/2-x,1/2+y,1/2-z
_cell_length_a 17.0198(15)
_cell_length_b 22.755(2)
_cell_length_c 22.4114(19)
_cell_angle_alpha 90
_cell_angle_beta 90
_cell_angle_gamma 90
_cell_formula_units_Z 4
loop_
_atom_type_symbol
_atom_type_radius_bond
C 0.68
H 0.23
Cl 0.99
N 0.68
loop_
_atom_site_label
_atom_site_type_symbol
_atom_site_fract_x
_atom_site_fract_y
_atom_site_fract_z
N1 N 0.3563(4) 0.3413(3) 0.4744(3)
N2 N 0.5038(4) 0.1438(3) 0.3128(3)
N3 N 0.7190(4) 0.3324(3) 0.4268(3)
N4 N 0.7864(4) 0.4313(3) 0.3620(3)
N5 N 0.7457(4) 0.4242(3) 0.0829(3)
N6 N 0.5831(4) 0.6257(3) 0.2329(3)
C1 C 0.4795(5) 0.0917(3) 0.2803(3)
H1 H 0.42240 0.09190 0.27490
C2 C 0.4732(4) 0.3228(3) 0.4217(3)
C3 C 0.5045(6) 0.0365(3) 0.3149(4)
H2 H 0.56090 0.03720 0.32110
H3 H 0.47930 0.03640 0.35370
C4 C 0.5539(4) 0.3325(3) 0.4167(3)
H4 H 0.57600 0.36500 0.43540
C5 C 0.6016(4) 0.2953(3) 0.3847(3)
C6 C 0.5690(4) 0.2474(3) 0.3553(3)
H5 H 0.60090 0.22250 0.33300
C7 C 0.4880(4) 0.2363(3) 0.3592(3)
C8 C 0.4424(4) 0.2744(3) 0.3927(3)
H6 H 0.38880 0.26710 0.39590
C9 C 0.4211(5) 0.3626(3) 0.4564(4)
C10 C 0.6887(4) 0.3077(3) 0.3817(4)
C11 C 0.4562(5) 0.1837(4) 0.3278(3)
C12 C 0.4485(5) 0.4254(4) 0.4648(5)
H7 H 0.48350 0.42740 0.49830
H8 H 0.40390 0.45030 0.47180
H9 H 0.47540 0.43830 0.42950
C13 C 0.7298(5) 0.2903(4) 0.3253(4)
H10 H 0.76370 0.32170 0.31260
H11 H 0.69150 0.28260 0.29480
H12 H 0.76040 0.25560 0.33230
C14 C 0.3682(5) 0.1843(5) 0.3155(5)
H13 H 0.34260 0.15620 0.34090
H14 H 0.35890 0.17420 0.27450
H15 H 0.34770 0.22280 0.32340
C15 C 0.7214(5) 0.4847(4) 0.2871(4)
C16 C 0.6705(5) 0.5287(4) 0.2704(4)
H16 H 0.65040 0.55370 0.29950
C17 C 0.6481(5) 0.5369(3) 0.2107(3)
C18 C 0.6804(5) 0.4997(4) 0.1675(4)
H17 H 0.66650 0.50460 0.12770
C19 C 0.7337(5) 0.4550(4) 0.1832(3)
C20 C 0.7533(5) 0.4488(3) 0.2422(3)
H18 H 0.78910 0.41980 0.25290
C21 C 0.7420(5) 0.4733(4) 0.3512(4)
C22 C 0.5898(4) 0.5841(4) 0.1959(3)
C23 C 0.7657(5) 0.4149(4) 0.1376(4)
C24 C 0.5428(6) 0.5768(5) 0.1398(4)
H19 H 0.57550 0.58500 0.10590
H20 H 0.49920 0.60350 0.14030
H21 H 0.52370 0.53720 0.13740
C25 C 0.5306(5) 0.6750(3) 0.2239(4)
H22 H 0.50280 0.66990 0.18600
C26 C 0.5770(6) 0.7311(4) 0.2217(4)
H23 H 0.60770 0.73170 0.18520
H24 H 0.61340 0.73180 0.25500
C27 C 0.5264(7) 0.7861(4) 0.2240(5)
H25 H 0.56010 0.82040 0.22570
H26 H 0.49540 0.78860 0.18780
C28 C 0.2981(4) 0.3760(3) 0.5070(3)
H27 H 0.32130 0.41360 0.51910
C29 C 0.2721(5) 0.3422(4) 0.5621(4)
H28 H 0.25430 0.30340 0.55020
H29 H 0.31670 0.33720 0.58850
C30 C 0.2077(6) 0.3723(5) 0.5952(4)
H30 H 0.22570 0.41030 0.60910
H31 H 0.19300 0.34910 0.62980
C31 C 0.1364(6) 0.3801(5) 0.5545(4)
H32 H 0.09480 0.40050 0.57560
H33 H 0.11670 0.34210 0.54190
C32 C 0.1622(6) 0.4159(5) 0.5002(5)
H34 H 0.11770 0.42080 0.47360
H35 H 0.17880 0.45460 0.51330
C33 C 0.2291(5) 0.3870(4) 0.4662(3)
H36 H 0.21080 0.34930 0.45010
C34 C 0.8113(4) 0.4147(4) 0.4220(4)
H37 H 0.77790 0.43460 0.45140
C35 C 0.8963(5) 0.4338(5) 0.4309(4)
H38 H 0.92870 0.41730 0.39950
H39 H 0.89980 0.47630 0.42850
C36 C 0.9266(6) 0.4133(5) 0.4913(5)
H40 H 0.98110 0.42510 0.49560
H41 H 0.89660 0.43230 0.52260
C37 C 0.9205(6) 0.3484(5) 0.4983(5)
H42 H 0.93840 0.33720 0.53770
H43 H 0.95390 0.32920 0.46910
C38 C 0.8349(5) 0.3286(4) 0.4895(5)
H44 H 0.83200 0.28620 0.49270
H45 H 0.80260 0.34530 0.52090
C39 C 0.8035(4) 0.3473(4) 0.4300(4)
H46 H 0.83200 0.32710 0.39810
C40 C 0.4824(7) -0.0187(4) 0.2815(4)
H47 H 0.42560 -0.02150 0.27890
H48 H 0.50130 -0.05270 0.30330
C41 C 0.7250(14) 0.5239(10) 0.3934(9)
H49 H 0.73750 0.51240 0.43350
H50 H 0.67030 0.53410 0.39100
H51 H 0.75640 0.55720 0.38240
C42 C 0.8356(13) 0.3795(9) 0.1548(8)
H52 H 0.87550 0.40500 0.17050
H53 H 0.85550 0.35930 0.12040
H54 H 0.82090 0.35130 0.18470
Cl1 Cl 0.6688(3) 0.3221(3) 0.6213(3)
C43 C 0.6438(9) 0.2889(9) 0.5561(6)
H55 H 0.63540 0.31910 0.52630
H56 H 0.68810 0.26530 0.54300
Cl2 Cl 0.5454(8) 0.2693(9) 0.5604(4)
C44? C 0.6825(16) 0.4963(12) 0.4021(11)
H57? H 0.70750 0.52660 0.42510
H58? H 0.66860 0.46420 0.42790
H59? H 0.63590 0.51170 0.38370
C45? C 0.7991(17) 0.3574(12) 0.1612(10)
H60? H 0.82150 0.36380 0.20000
H61? H 0.83900 0.34340 0.13450
H62? H 0.75780 0.32880 0.16410
H63? H 0.67600 0.25420 0.54990
H64? H 0.65210 0.31550 0.52290
Cl3? Cl 0.5634(10) 0.2453(9) 0.5577(11)
C46? C 0.50000 0.3466(10) 0.25000
H65? H 0.50070 0.32870 0.21070
H66? H 0.52010 0.31860 0.27890
Cl4? Cl 0.4074(8) 0.3696(10) 0.2687(9)
Cl5? Cl 0.5538(19) 0.4113(12) 0.251(2)
N1C N 0.6437(4) 0.3413(3) 0.0256(3)
N2C N 0.4962(4) 0.1438(3) 0.1872(3)
N3C N 0.2810(4) 0.3324(3) 0.0732(3)
N4C N 0.2136(4) 0.4313(3) 0.1380(3)
N5C N 0.2543(4) 0.4242(3) 0.4171(3)
N6C N 0.4169(4) 0.6257(3) 0.2671(3)
C1C C 0.5205(5) 0.0917(3) 0.2197(3)
H1C H 0.57760 0.09190 0.22510
C2C C 0.5268(4) 0.3228(3) 0.0783(3)
C3C C 0.4955(6) 0.0365(3) 0.1851(4)
H2C H 0.43910 0.03720 0.17890
H3C H 0.52070 0.03640 0.14630
C4C C 0.4461(4) 0.3325(3) 0.0833(3)
H4C H 0.42400 0.36500 0.06460
C5C C 0.3984(4) 0.2953(3) 0.1153(3)
C6C C 0.4310(4) 0.2474(3) 0.1447(3)
H5C H 0.39910 0.22250 0.16700
C7C C 0.5120(4) 0.2363(3) 0.1408(3)
C8C C 0.5576(4) 0.2744(3) 0.1073(3)
H6C H 0.61120 0.26710 0.10410
C9C C 0.5789(5) 0.3626(3) 0.0436(4)
C10C C 0.3113(4) 0.3077(3) 0.1183(4)
C11C C 0.5438(5) 0.1837(4) 0.1722(3)
C12C C 0.5515(5) 0.4254(4) 0.0352(5)
H7C H 0.51650 0.42740 0.00170
H8C H 0.59610 0.45030 0.02820
H9C H 0.52460 0.43830 0.07050
C13C C 0.2702(5) 0.2903(4) 0.1747(4)
H10C H 0.23630 0.32170 0.18740
H11C H 0.30850 0.28260 0.20520
H12C H 0.23960 0.25560 0.16770
C14C C 0.6318(5) 0.1843(5) 0.1845(5)
H13C H 0.65740 0.15620 0.15910
H14C H 0.64110 0.17420 0.22550
H15C H 0.65230 0.22280 0.17660
C15C C 0.2786(5) 0.4847(4) 0.2129(4)
C16C C 0.3295(5) 0.5287(4) 0.2296(4)
H16C H 0.34960 0.55370 0.20050
C17C C 0.3519(5) 0.5369(3) 0.2893(3)
C18C C 0.3196(5) 0.4997(4) 0.3325(4)
H17C H 0.33350 0.50460 0.37230
C19C C 0.2663(5) 0.4550(4) 0.3168(3)
C20C C 0.2467(5) 0.4488(3) 0.2578(3)
H18C H 0.21090 0.41980 0.24710
C21C C 0.2580(5) 0.4733(4) 0.1488(4)
C22C C 0.4102(4) 0.5841(4) 0.3041(3)
C23C C 0.2343(5) 0.4149(4) 0.3624(4)
C24C C 0.4572(6) 0.5768(5) 0.3602(4)
H19C H 0.42450 0.58500 0.39410
H20C H 0.50080 0.60350 0.35970
H21C H 0.47630 0.53720 0.36260
C25C C 0.4694(5) 0.6750(3) 0.2761(4)
H22C H 0.49720 0.66990 0.31400
C26C C 0.4230(6) 0.7311(4) 0.2783(4)
H23C H 0.39230 0.73170 0.31480
H24C H 0.38660 0.73180 0.24500
C27C C 0.4736(7) 0.7861(4) 0.2760(5)
H25C H 0.43990 0.82040 0.27430
H26C H 0.50460 0.78860 0.31220
C28C C 0.7019(4) 0.3760(3) -0.0070(3)
H27C H 0.67870 0.41360 -0.01910
C29C C 0.7279(5) 0.3422(4) -0.0621(4)
H28C H 0.74570 0.30340 -0.05020
H29C H 0.68330 0.33720 -0.08850
C30C C 0.7923(6) 0.3723(5) -0.0952(4)
H30C H 0.77430 0.41030 -0.10910
H31C H 0.80700 0.34910 -0.12980
C31C C 0.8636(6) 0.3801(5) -0.0545(4)
H32C H 0.90520 0.40050 -0.07560
H33C H 0.88330 0.34210 -0.04190
C32C C 0.8378(6) 0.4159(5) -0.0002(5)
H34C H 0.88230 0.42080 0.02640
H35C H 0.82120 0.45460 -0.01330
C33C C 0.7709(5) 0.3870(4) 0.0338(3)
H36C H 0.78920 0.34930 0.04990
C34C C 0.1887(4) 0.4147(4) 0.0780(4)
H37C H 0.22210 0.43460 0.04860
C35C C 0.1037(5) 0.4338(5) 0.0691(4)
H38C H 0.07130 0.41730 0.10050
H39C H 0.10020 0.47630 0.07150
C36C C 0.0734(6) 0.4133(5) 0.0087(5)
H40C H 0.01890 0.42510 0.00440
H41C H 0.10340 0.43230 -0.02260
C37C C 0.0795(6) 0.3484(5) 0.0017(5)
H42C H 0.06160 0.33720 -0.03770
H43C H 0.04610 0.32920 0.03090
C38C C 0.1651(5) 0.3286(4) 0.0105(5)
H44C H 0.16800 0.28620 0.00730
H45C H 0.19740 0.34530 -0.02090
C39C C 0.1965(4) 0.3473(4) 0.0700(4)
H46C H 0.16800 0.32710 0.10190
C40C C 0.5176(7) -0.0187(4) 0.2185(4)
H47C H 0.57440 -0.02150 0.22110
H48C H 0.49870 -0.05270 0.19670
C41C C 0.2750(14) 0.5239(10) 0.1066(9)
H49C H 0.26250 0.51240 0.06650
H50C H 0.32970 0.53410 0.10900
H51C H 0.24360 0.55720 0.11760
C42C C 0.1644(13) 0.3795(9) 0.3452(8)
H52C H 0.12450 0.40500 0.32950
H53C H 0.14450 0.35930 0.37960
H54C H 0.17910 0.35130 0.31530
#END
