
#######################################################################
#
#                 Cambridge Crystallographic Data Centre
#                                CCDC
#
#######################################################################
#
# If this CIF has been generated from an entry in the Cambridge
# Structural Database, then it will include bibliographic, chemical,
# crystal, experimental, refinement or atomic coordinate data resulting
# from the CCDC's data processing and validation procedures.
#
#######################################################################

data_CSD_CIF_SENPAF
_audit_creation_date 2017-11-01
_audit_creation_method CSD-ConQuest-V1
_database_code_CSD SENPAF
_database_code_depnum_ccdc_archive 'CCDC 1533780'
_chemical_formula_sum 'C84 H110 N12 O1'
_chemical_formula_moiety
;
C84 H108 N12,H2 O1
;
_journal_coden_Cambridge 2029
_journal_volume 3
_journal_year 2017
_journal_page_first 734
_journal_name_full 'ACS Cent.Sci. '
loop_
_publ_author_name
"A.G.Slater"
"P.S.Reiss"
"Angeles Pulido"
"M.A.Little"
"D.L.Holden"
"Linjiang Chen"
"Samantha Y.Chong"
"B.M.Alston"
"R.Clowes"
"M.Haranczyk"
"M.E.Briggs"
"T.Hasell"
"G.M.Day"
"A.I.Cooper"
_chemical_name_systematic
;
4,13,19,28,34,43,49,58,61,70,73,82-dodecamethyl-5,12,20,27,35,42,50,57,62,69,7
4,81-dodecaazatridecacyclo[29.29.10.10^16,46^.1^3,59^.1^14,18^.1^29,33^.1^44,4
8^.0^6,11^.0^21,26^.0^36,41^.0^51,56^.0^63,68^.0^75,80^]tetraoctaconta-1,3(71)
,4,12,14(84),15,17,19,27,29(83),30,32,34,42,44(72),45,47,49,57,59,61,69,73,81-
tetracosaene monohydrate
;
_cell_volume   6022.820
_exptl_crystal_colour 'colorless'
_exptl_crystal_density_diffrn 1.078
_exptl_crystal_description 'needle'
_diffrn_ambient_temperature 100
_diffrn_special_details
;
twin

;
#These two values have been output from a single CSD field.
_refine_ls_R_factor_gt 0.0856
_refine_ls_wR_factor_gt 0.0856
_symmetry_cell_setting hexagonal
_symmetry_space_group_name_H-M 'P 3'
_symmetry_Int_Tables_number 143
loop_
_symmetry_equiv_pos_site_id
_symmetry_equiv_pos_as_xyz
1 x,y,z
2 -y,x-y,z
3 -x+y,-x,z
_cell_length_a 24.9176(9)
_cell_length_b 24.9176(9)
_cell_length_c 11.2010(4)
_cell_angle_alpha 90
_cell_angle_beta 90
_cell_angle_gamma 120
_cell_formula_units_Z 3
loop_
_atom_type_symbol
_atom_type_radius_bond
C 0.68
H 0.23
N 0.68
O 0.68
loop_
_atom_site_label
_atom_site_type_symbol
_atom_site_fract_x
_atom_site_fract_y
_atom_site_fract_z
N1 N 0.7876(3) 0.9210(3) 0.3598(6)
N2 N 0.8074(3) 0.8153(3) 0.3699(7)
N3 N 0.9257(3) 0.8354(3) 1.0237(6)
C1 C 0.9068(3) 0.8696(3) 0.9715(7)
C2 C 0.8869(3) 0.7682(3) 1.0291(7)
H1 H 0.84460 0.75550 0.99740
N4 N 0.9148(3) 0.7588(3) 0.8293(6)
C3 C 0.7496(3) 0.8105(4) 0.3277(8)
H2 H 0.72010 0.80010 0.39580
C4 C 0.9623(3) 0.7903(3) 0.7623(7)
C5 C 0.9521(3) 0.8093(3) 0.6436(7)
C6 C 0.9180(3) 0.7417(3) 0.9496(7)
H3 H 0.96240 0.76020 0.97350
C7 C 0.8206(3) 0.8178(3) 0.4790(8)
C8 C 1.0278(4) 0.8100(4) 0.7936(8)
H4 H 1.04410 0.79180 0.73670
H5 H 1.02940 0.79570 0.87440
H6 H 1.05290 0.85530 0.79030
C9 C 0.8821(3) 0.8228(3) 0.5082(8)
C10 C 0.9539(3) 0.9372(3) 0.9663(7)
C11 C 0.9976(3) 0.8338(3) 0.5545(7)
H7 H 1.03650 0.83650 0.56820
C12 C 0.6703(4) 0.8121(4) 0.1331(9)
H8 H 0.62950 0.80660 0.10930
H9 H 0.69660 0.82310 0.06080
C13 C 0.8438(4) 0.8496(4) 0.9211(9)
H10 H 0.82300 0.86600 0.97070
H11 H 0.81930 0.80420 0.92000
H12 H 0.84810 0.86540 0.83950
C14 C 0.8448(3) 0.9624(3) 0.3539(7)
C15 C 0.8933(3) 0.8035(3) 0.6171(7)
H13 H 0.86120 0.78600 0.67510
C16 C 0.8496(4) 0.6778(4) 1.1685(8)
H14 H 0.84840 0.66580 1.25310
H15 H 0.80630 0.65960 1.13990
C17 C 0.7623(4) 0.8713(4) 0.2702(8)
H16 H 0.79230 0.88210 0.20280
C18 C 0.6617(4) 0.7527(4) 0.1846(9)
H17 H 0.64550 0.72040 0.12190
H18 H 0.63060 0.73880 0.24950
C19 C 0.9298(3) 0.8485(3) 0.4243(7)
H19 H 0.92260 0.86220 0.35010
C20 C 0.9868(3) 0.8545(3) 0.4453(7)
C21 C 0.8821(3) 0.7487(3) 1.1590(8)
H20 H 0.85850 0.76410 1.20450
H21 H 0.92420 0.76720 1.19400
C22 C 0.8858(4) 0.6716(3) 0.9629(8)
H22 H 0.90870 0.65550 0.91670
H23 H 0.84330 0.65270 0.93040
C23 C 0.7218(4) 0.7596(4) 0.2338(9)
H24 H 0.71350 0.71990 0.26970
H25 H 0.75170 0.76970 0.16780
C24 C 0.8912(4) 0.9680(3) 0.2622(8)
H26 H 0.89130 0.99350 0.19550
H27 H 0.88010 0.92670 0.23280
H28 H 0.93260 0.98750 0.29830
C25 C 0.7002(4) 0.8638(4) 0.2231(9)
H29 H 0.67160 0.85510 0.29090
H30 H 0.70820 0.90310 0.18560
C26 C 1.0175(3) 0.9550(3) 0.9660(7)
H31 H 1.02910 0.92400 0.96560
C27 C 0.8830(4) 0.6533(4) 1.0956(8)
H32 H 0.86130 0.60760 1.10250
H33 H 0.92560 0.67000 1.12680
C28 C 0.7827(4) 0.8177(6) 0.5863(10)
H34 H 0.75260 0.77490 0.60810
H35 H 0.76080 0.83990 0.56580
H36 H 0.81050 0.83830 0.65390
N5 N 0.5537(3) 0.6842(3) 0.6021(6)
N6 N 0.4741(3) 0.6595(3) 0.7980(6)
C29 C 0.4599(3) 0.6203(3) 0.2847(7)
C30 C 0.5229(3) 0.7471(3) 0.3332(7)
H37 H 0.54480 0.79030 0.34950
C31 C 0.5211(3) 0.7057(3) 0.4191(7)
C32 C 0.4217(3) 0.6230(3) 0.7531(7)
C33 C 0.2970(4) 0.3918(4) 0.0032(11)
H38 H 0.25830 0.38370 -0.03730
H39 H 0.28550 0.36240 0.07060
C34 C 0.4884(3) 0.6426(3) 0.3932(7)
H40 H 0.48580 0.61400 0.45230
N7 N 0.4235(3) 0.5368(3) 0.1471(6)
N8 N 0.2901(3) 0.4637(3) 0.1383(6)
C35 C 0.5524(3) 0.7258(3) 0.5371(7)
C36 C 0.3914(3) 0.4721(3) 0.1111(8)
H41 H 0.38270 0.44500 0.18260
C37 C 0.4623(3) 0.6626(3) 0.1982(7)
H42 H 0.44300 0.64790 0.12280
C38 C 0.3303(3) 0.4578(3) 0.0511(8)
H43 H 0.33900 0.48760 -0.01600
C39 C 0.5236(3) 0.6456(3) 0.8018(7)
H44 H 0.50840 0.60310 0.76880
C40 C 0.5770(3) 0.6934(4) 0.7218(7)
H45 H 0.59020 0.73660 0.74880
C41 C 0.4265(3) 0.5528(3) 0.2556(7)
C42 C 0.4011(4) 0.5593(4) 0.6999(9)
H46 H 0.38500 0.52800 0.76340
H47 H 0.43660 0.55940 0.66160
H48 H 0.36870 0.54930 0.64040
C43 C 0.3970(3) 0.7081(3) 0.7490(7)
H49 H 0.44030 0.73640 0.74910
C44 C 0.2773(3) 0.5073(3) 0.1325(7)
C45 C 0.4930(3) 0.7259(3) 0.2233(7)
C46 C 0.3749(3) 0.6452(3) 0.7490(7)
C47 C 0.3003(4) 0.5576(4) 0.0403(8)
H50 H 0.26970 0.54540 -0.02390
H51 H 0.33970 0.56430 0.00750
H52 H 0.30670 0.59600 0.07730
C48 C 0.6521(4) 0.6809(4) 0.8566(9)
H53 H 0.68530 0.67000 0.85700
H54 H 0.66930 0.72280 0.89130
C49 C 0.5465(4) 0.6482(4) 0.9296(8)
H55 H 0.56050 0.68980 0.96370
H56 H 0.51190 0.61740 0.97930
C50 C 0.3993(4) 0.3950(4) -0.0258(9)
H57 H 0.42610 0.39010 -0.08470
H58 H 0.39070 0.36550 0.04030
C51 C 0.5790(6) 0.7931(4) 0.5723(10)
H59 H 0.60150 0.80090 0.64790
H60 H 0.54530 0.80220 0.58170
H61 H 0.60740 0.81980 0.50990
C52 C 0.4327(4) 0.4620(4) 0.0231(9)
H62 H 0.47140 0.47040 0.06380
H63 H 0.44400 0.49150 -0.04420
C53 C 0.6320(4) 0.6815(4) 0.7278(8)
H64 H 0.61990 0.64110 0.68970
H65 H 0.66730 0.71420 0.68240
C54 C 0.5988(4) 0.6350(4) 0.9324(9)
H66 H 0.58420 0.59250 0.90240
H67 H 0.61300 0.63720 1.01570
C55 C 0.3979(4) 0.5082(4) 0.3613(8)
H68 H 0.37990 0.52500 0.41760
H69 H 0.43010 0.50340 0.40170
H70 H 0.36540 0.46780 0.33220
C56 C 0.3381(4) 0.3811(5) -0.0855(11)
H71 H 0.31580 0.33750 -0.11330
H72 H 0.34700 0.40830 -0.15590
N9 N 0.4454(3) 0.3020(3) 0.7520(6)
N10 N 0.5678(3) 0.4457(3) 1.2218(7)
N11 N 0.4660(3) 0.1645(3) 1.2098(7)
C57 C 0.4840(3) 0.2616(3) 0.9525(7)
H73 H 0.46390 0.23140 0.89190
C58 C 0.5527(4) 0.5108(4) 1.3656(9)
H74 H 0.51840 0.47340 1.40320
H75 H 0.53490 0.52490 1.30220
C59 C 0.4916(3) 0.3424(3) 0.8092(8)
C60 C 0.5324(3) 0.3671(3) 1.0176(7)
H76 H 0.54520 0.40930 1.00120
C61 C 0.4936(3) 0.2433(3) 1.0670(8)
N12 N 0.5087(3) 0.3023(3) 0.5403(7)
C62 C 0.5990(4) 0.4946(4) 1.3103(8)
H77 H 0.61510 0.47880 1.37500
C63 C 0.5428(3) 0.3513(4) 1.1293(8)
C64 C 0.5041(3) 0.3237(3) 0.9289(8)
C65 C 0.5323(4) 0.2721(4) 0.5889(8)
C66 C 0.5349(4) 0.4092(4) 0.7715(9)
H78 H 0.51540 0.43410 0.78870
H79 H 0.54330 0.41070 0.68570
H80 H 0.57390 0.42590 0.81580
C67 C 0.5231(3) 0.2885(3) 1.1528(8)
H81 H 0.53030 0.27710 1.22950
C68 C 0.4969(4) 0.2073(4) 0.6393(9)
H82 H 0.48590 0.17710 0.57450
H83 H 0.45910 0.20120 0.67840
H84 H 0.52280 0.20140 0.69770
C69 C 0.4720(4) 0.1775(4) 1.0968(8)
C70 C 0.5749(3) 0.3990(3) 1.2249(8)
C71 C 0.4237(4) 0.2922(5) 0.4147(9)
H85 H 0.44910 0.33680 0.39520
H86 H 0.43130 0.26840 0.35290
C72 C 0.4579(5) 0.1324(4) 0.9946(9)
H87 H 0.41820 0.12230 0.95830
H88 H 0.45570 0.09450 1.02500
H89 H 0.49080 0.15140 0.93450
C73 C 0.6855(4) 0.6012(4) 1.3494(9)
H90 H 0.70320 0.58620 1.41130
H91 H 0.71990 0.63900 1.31310
C74 C 0.6329(4) 0.2694(4) 0.5938(8)
H92 H 0.60950 0.22540 0.59330
C75 C 0.4426(4) 0.2797(4) 0.5384(8)
H93 H 0.41900 0.23430 0.55680
C76 C 0.3607(4) 0.2967(4) 0.6344(8)
H94 H 0.35270 0.32040 0.69570
H95 H 0.33600 0.25210 0.65490
C77 C 0.4293(4) 0.3166(4) 0.6343(8)
H96 H 0.45480 0.36210 0.61820
C78 C 0.5846(4) 0.5622(4) 1.4601(9)
H97 H 0.55540 0.57530 1.48880
H98 H 0.59710 0.54610 1.52920
C79 C 0.3406(4) 0.3078(5) 0.5107(9)
H99 H 0.29550 0.29300 0.51120
H100 H 0.36280 0.35270 0.49270
C80 C 0.6113(4) 0.3844(3) 1.3116(9)
H101 H 0.58430 0.35950 1.37730
H102 H 0.64560 0.42300 1.34340
H103 H 0.62800 0.36100 1.27110
C81 C 0.6542(4) 0.5514(3) 1.2532(8)
H104 H 0.63970 0.56740 1.18600
C82 C 0.6412(4) 0.6171(4) 1.4065(10)
H105 H 0.62750 0.63670 1.34600
H106 H 0.66320 0.64810 1.47020
C83 C 0.3551(4) 0.2731(5) 0.4149(10)
H107 H 0.32990 0.22800 0.42950
H108 H 0.34370 0.28190 0.33560
C84 C 0.6022(3) 0.3032(3) 0.5941(8)
O1 O 0.33330 0.66670 0.400(5)
O2 O 0.66670 0.33330 0.949(4)
O3 O 1.00000 1.00000 0.629(4)
N1A N 1.0790(3) 0.8666(3) 0.3598(6)
N2A N 1.1847(3) 0.9921(3) 0.3699(7)
N3A N 1.1646(3) 1.0903(3) 1.0237(6)
C1A C 1.1304(3) 1.0372(3) 0.9715(7)
C2A C 1.2318(3) 1.1187(3) 1.0291(7)
H1A H 1.24450 1.08910 0.99740
N4A N 1.2412(3) 1.1560(3) 0.8293(6)
C3A C 1.1895(3) 0.9391(4) 0.3277(8)
H2A H 1.19990 0.92000 0.39580
C4A C 1.2097(3) 1.1720(3) 0.7623(7)
C5A C 1.1907(3) 1.1428(3) 0.6436(7)
C6A C 1.2583(3) 1.1763(3) 0.9496(7)
H3A H 1.23980 1.20220 0.97350
C7A C 1.1822(3) 1.0028(3) 0.4790(8)
C8A C 1.1900(4) 1.2178(4) 0.7936(8)
H4A H 1.20820 1.25230 0.73670
H5A H 1.20430 1.23370 0.87440
H6A H 1.14470 1.19760 0.79030
C9A C 1.1772(3) 1.0593(3) 0.5082(8)
C10A C 1.0628(3) 1.0167(3) 0.9663(7)
C11A C 1.1662(3) 1.1638(3) 0.5545(7)
H7A H 1.16350 1.20000 0.56820
C12A C 1.1879(4) 0.8582(4) 0.1331(9)
H8A H 1.19340 0.82290 0.10930
H9A H 1.17690 0.87350 0.06080
C13A C 1.1504(4) 0.9942(4) 0.9211(9)
H10A H 1.13400 0.95700 0.97070
H11A H 1.19580 1.01510 0.92000
H12A H 1.13460 0.98270 0.83950
C14A C 1.0376(3) 0.8824(3) 0.3539(7)
C15A C 1.1965(3) 1.0898(3) 0.6171(7)
H13A H 1.21400 1.07520 0.67510
C16A C 1.3222(4) 1.1718(4) 1.1685(8)
H14A H 1.33420 1.18260 1.25310
H15A H 1.34040 1.14670 1.13990
C17A C 1.1287(4) 0.8910(4) 0.2702(8)
H16A H 1.11790 0.91020 0.20280
C18A C 1.2473(4) 0.9090(4) 0.1846(9)
H17A H 1.27960 0.92510 0.12190
H18A H 1.26120 0.89180 0.24950
C19A C 1.1515(3) 1.0813(3) 0.4243(7)
H19A H 1.13780 1.06040 0.35010
C20A C 1.1455(3) 1.1323(3) 0.4453(7)
C21A C 1.2513(3) 1.1334(3) 1.1590(8)
H20A H 1.23590 1.09440 1.20450
H21A H 1.23280 1.15700 1.19400
C22A C 1.3284(4) 1.2142(3) 0.9629(8)
H22A H 1.34450 1.25320 0.91670
H23A H 1.34730 1.19060 0.93040
C23A C 1.2404(4) 0.9622(4) 0.2338(9)
H24A H 1.28010 0.99360 0.26970
H25A H 1.23030 0.98200 0.16780
C24A C 1.0320(4) 0.9232(3) 0.2622(8)
H26A H 1.00650 0.89780 0.19550
H27A H 1.07330 0.95340 0.23280
H28A H 1.01250 0.94510 0.29830
C25A C 1.1362(4) 0.8364(4) 0.2231(9)
H29A H 1.14490 0.81650 0.29090
H30A H 1.09690 0.80510 0.18560
C26A C 1.0450(3) 1.0625(3) 0.9660(7)
H31A H 1.07600 1.10510 0.96560
C27A C 1.3467(4) 1.2297(4) 1.0956(8)
H32A H 1.39240 1.25370 1.10250
H33A H 1.33000 1.25560 1.12680
C28A C 1.1823(4) 0.9650(6) 0.5863(10)
H34A H 1.22510 0.97770 0.60810
H35A H 1.16010 0.92090 0.56580
H36A H 1.16170 0.97220 0.65390
N1B N 1.1334(3) 1.2124(3) 0.3598(6)
N2B N 1.0079(3) 1.1926(3) 0.3699(7)
N3B N 0.9097(3) 1.0743(3) 1.0237(6)
C1B C 0.9628(3) 1.0932(3) 0.9715(7)
C2B C 0.8813(3) 1.1131(3) 1.0291(7)
H1B H 0.91090 1.15540 0.99740
N4B N 0.8440(3) 1.0852(3) 0.8293(6)
C3B C 1.0609(3) 1.2504(4) 0.3277(8)
H2B H 1.08000 1.27990 0.39580
C4B C 0.8280(3) 1.0377(3) 0.7623(7)
C5B C 0.8572(3) 1.0479(3) 0.6436(7)
C6B C 0.8237(3) 1.0820(3) 0.9496(7)
H3B H 0.79780 1.03760 0.97350
C7B C 0.9972(3) 1.1794(3) 0.4790(8)
C8B C 0.7822(4) 0.9722(4) 0.7936(8)
H4B H 0.74770 0.95590 0.73670
H5B H 0.76630 0.97060 0.87440
H6B H 0.80240 0.94710 0.79030
C9B C 0.9407(3) 1.1179(3) 0.5082(8)
C10B C 0.9833(3) 1.0461(3) 0.9663(7)
C11B C 0.8362(3) 1.0024(3) 0.5545(7)
H7B H 0.80000 0.96350 0.56820
C12B C 1.1418(4) 1.3297(4) 0.1331(9)
H8B H 1.17710 1.37050 0.10930
H9B H 1.12650 1.30340 0.06080
C13B C 1.0058(4) 1.1562(4) 0.9211(9)
H10B H 1.04300 1.17700 0.97070
H11B H 0.98490 1.18070 0.92000
H12B H 1.01730 1.15190 0.83950
C14B C 1.1176(3) 1.1552(3) 0.3539(7)
C15B C 0.9102(3) 1.1067(3) 0.6171(7)
H13B H 0.92480 1.13880 0.67510
C16B C 0.8282(4) 1.1504(4) 1.1685(8)
H14B H 0.81740 1.15160 1.25310
H15B H 0.85330 1.19370 1.13990
C17B C 1.1090(4) 1.2377(4) 0.2702(8)
H16B H 1.08980 1.20770 0.20280
C18B C 1.0910(4) 1.3383(4) 0.1846(9)
H17B H 1.07490 1.35450 0.12190
H18B H 1.10820 1.36940 0.24950
C19B C 0.9187(3) 1.0702(3) 0.4243(7)
H19B H 0.93960 1.07740 0.35010
C20B C 0.8677(3) 1.0132(3) 0.4453(7)
C21B C 0.8666(3) 1.1179(3) 1.1590(8)
H20B H 0.90560 1.14150 1.20450
H21B H 0.84300 1.07580 1.19400
C22B C 0.7858(4) 1.1142(3) 0.9629(8)
H22B H 0.74680 1.09130 0.91670
H23B H 0.80940 1.15670 0.93040
C23B C 1.0378(4) 1.2782(4) 0.2338(9)
H24B H 1.00640 1.28650 0.26970
H25B H 1.01800 1.24830 0.16780
C24B C 1.0768(4) 1.1088(3) 0.2622(8)
H26B H 1.10220 1.10870 0.19550
H27B H 1.04660 1.11990 0.23280
H28B H 1.05490 1.06740 0.29830
C25B C 1.1636(4) 1.2998(4) 0.2231(9)
H29B H 1.18350 1.32840 0.29090
H30B H 1.19490 1.29180 0.18560
C26B C 0.9375(3) 0.9825(3) 0.9660(7)
H31B H 0.89490 0.97090 0.96560
C27B C 0.7703(4) 1.1170(4) 1.0956(8)
H32B H 0.74630 1.13870 1.10250
H33B H 0.74440 1.07440 1.12680
C28B C 1.0350(4) 1.2173(6) 0.5863(10)
H34B H 1.02230 1.24740 0.60810
H35B H 1.07910 1.23920 0.56580
H36B H 1.02780 1.18950 0.65390
N5A N 0.3158(3) 0.8695(3) 0.6021(6)
N6A N 0.3405(3) 0.8146(3) 0.7980(6)
C29A C 0.3797(3) 0.8396(3) 0.2847(7)
C30A C 0.2529(3) 0.7758(3) 0.3332(7)
H37A H 0.20970 0.75450 0.34950
C31A C 0.2943(3) 0.8154(3) 0.4191(7)
C32A C 0.3770(3) 0.7987(3) 0.7531(7)
C33A C 0.6082(4) 0.9052(4) 0.0032(11)
H38A H 0.61630 0.87460 -0.03730
H39A H 0.63760 0.92310 0.07060
C34A C 0.3574(3) 0.8458(3) 0.3932(7)
H40A H 0.38600 0.87180 0.45230
N7A N 0.4632(3) 0.8867(3) 0.1471(6)
N8A N 0.5363(3) 0.8264(3) 0.1383(6)
C35A C 0.2742(3) 0.8266(3) 0.5371(7)
C36A C 0.5279(3) 0.9193(3) 0.1111(8)
H41A H 0.55500 0.93770 0.18260
C37A C 0.3374(3) 0.7997(3) 0.1982(7)
H42A H 0.35210 0.79510 0.12280
C38A C 0.5422(3) 0.8725(3) 0.0511(8)
H43A H 0.51240 0.85140 -0.01600
C39A C 0.3544(3) 0.8780(3) 0.8018(7)
H44A H 0.39690 0.90530 0.76880
C40A C 0.3066(3) 0.8836(4) 0.7218(7)
H45A H 0.26340 0.85360 0.74880
C41A C 0.4472(3) 0.8737(3) 0.2556(7)
C42A C 0.4407(4) 0.8418(4) 0.6999(9)
H46A H 0.47200 0.85700 0.76340
H47A H 0.44060 0.87720 0.66160
H48A H 0.45070 0.81940 0.64040
C43A C 0.2919(3) 0.6889(3) 0.7490(7)
H49A H 0.26360 0.70390 0.74910
C44A C 0.4927(3) 0.7700(3) 0.1325(7)
C45A C 0.2741(3) 0.7671(3) 0.2233(7)
C46A C 0.3548(3) 0.7297(3) 0.7490(7)
C47A C 0.4424(4) 0.7427(4) 0.0403(8)
H50A H 0.45460 0.72430 -0.02390
H51A H 0.43570 0.77540 0.00750
H52A H 0.40400 0.71070 0.07730
C48A C 0.3191(4) 0.9712(4) 0.8566(9)
H53A H 0.33000 1.01530 0.85700
H54A H 0.27720 0.94650 0.89130
C49A C 0.3518(4) 0.8983(4) 0.9296(8)
H55A H 0.31020 0.87070 0.96370
H56A H 0.38260 0.89450 0.97930
C50A C 0.6050(4) 1.0043(4) -0.0258(9)
H57A H 0.60990 1.03600 -0.08470
H58A H 0.63450 1.02520 0.04030
C51A C 0.2069(6) 0.7859(4) 0.5723(10)
H59A H 0.19910 0.80060 0.64790
H60A H 0.19780 0.74310 0.58170
H61A H 0.18020 0.78760 0.50990
C52A C 0.5380(4) 0.9707(4) 0.0231(9)
H62A H 0.52960 1.00100 0.06380
H63A H 0.50850 0.95250 -0.04420
C53A C 0.3185(4) 0.9505(4) 0.7278(8)
H64A H 0.35890 0.97880 0.68970
H65A H 0.28580 0.95310 0.68240
C54A C 0.3650(4) 0.9638(4) 0.9324(9)
H66A H 0.40750 0.99170 0.90240
H67A H 0.36280 0.97580 1.01570
C55A C 0.4918(4) 0.8897(4) 0.3613(8)
H68A H 0.47500 0.85490 0.41760
H69A H 0.49660 0.92670 0.40170
H70A H 0.53220 0.89760 0.33220
C56A C 0.6189(4) 0.9570(5) -0.0855(11)
H71A H 0.66250 0.97830 -0.11330
H72A H 0.59170 0.93870 -0.15590
N5B N 0.1305(3) 0.4463(3) 0.6021(6)
N6B N 0.1854(3) 0.5259(3) 0.7980(6)
C29B C 0.1604(3) 0.5401(3) 0.2847(7)
C30B C 0.2242(3) 0.4771(3) 0.3332(7)
H37B H 0.24550 0.45520 0.34950
C31B C 0.1846(3) 0.4789(3) 0.4191(7)
C32B C 0.2013(3) 0.5783(3) 0.7531(7)
C33B C 0.0948(4) 0.7030(4) 0.0032(11)
H38B H 0.12540 0.74170 -0.03730
H39B H 0.07690 0.71450 0.07060
C34B C 0.1542(3) 0.5116(3) 0.3932(7)
H40B H 0.12820 0.51420 0.45230
N7B N 0.1133(3) 0.5765(3) 0.1471(6)
N8B N 0.1736(3) 0.7099(3) 0.1383(6)
C35B C 0.1734(3) 0.4476(3) 0.5371(7)
C36B C 0.0807(3) 0.6086(3) 0.1111(8)
H41B H 0.06230 0.61730 0.18260
C37B C 0.2003(3) 0.5377(3) 0.1982(7)
H42B H 0.20490 0.55700 0.12280
C38B C 0.1275(3) 0.6697(3) 0.0511(8)
H43B H 0.14860 0.66100 -0.01600
C39B C 0.1220(3) 0.4764(3) 0.8018(7)
H44B H 0.09470 0.49160 0.76880
C40B C 0.1164(3) 0.4230(4) 0.7218(7)
H45B H 0.14640 0.40980 0.74880
C41B C 0.1263(3) 0.5735(3) 0.2556(7)
C42B C 0.1582(4) 0.5989(4) 0.6999(9)
H46B H 0.14300 0.61500 0.76340
H47B H 0.12280 0.56340 0.66160
H48B H 0.18060 0.63130 0.64040
C43B C 0.3111(3) 0.6030(3) 0.7490(7)
H49B H 0.29610 0.55970 0.74910
C44B C 0.2300(3) 0.7227(3) 0.1325(7)
C45B C 0.2329(3) 0.5070(3) 0.2233(7)
C46B C 0.2703(3) 0.6251(3) 0.7490(7)
C47B C 0.2573(4) 0.6997(4) 0.0403(8)
H50B H 0.27570 0.73030 -0.02390
H51B H 0.22460 0.66030 0.00750
H52B H 0.28930 0.69330 0.07730
C48B C 0.0288(4) 0.3479(4) 0.8566(9)
H53B H -0.01530 0.31470 0.85700
H54B H 0.05350 0.33070 0.89130
C49B C 0.1017(4) 0.4535(4) 0.9296(8)
H55B H 0.12930 0.43950 0.96370
H56B H 0.10550 0.48810 0.97930
C50B C -0.0043(4) 0.6007(4) -0.0258(9)
H57B H -0.03600 0.57390 -0.08470
H58B H -0.02520 0.60930 0.04030
C51B C 0.2141(6) 0.4210(4) 0.5723(10)
H59B H 0.19940 0.39850 0.64790
H60B H 0.25690 0.45470 0.58170
H61B H 0.21240 0.39260 0.50990
C52B C 0.0293(4) 0.5673(4) 0.0231(9)
H62B H -0.00100 0.52860 0.06380
H63B H 0.04750 0.55600 -0.04420
C53B C 0.0495(4) 0.3680(4) 0.7278(8)
H64B H 0.02120 0.38010 0.68970
H65B H 0.04690 0.33270 0.68240
C54B C 0.0362(4) 0.4012(4) 0.9324(9)
H66B H 0.00830 0.41580 0.90240
H67B H 0.02420 0.38700 1.01570
C55B C 0.1103(4) 0.6021(4) 0.3613(8)
H68B H 0.14510 0.62010 0.41760
H69B H 0.07330 0.56990 0.40170
H70B H 0.10240 0.63460 0.33220
C56B C 0.0430(4) 0.6619(5) -0.0855(11)
H71B H 0.02170 0.68420 -0.11330
H72B H 0.06130 0.65300 -0.15590
N9A N 0.6980(3) 0.1434(3) 0.7520(6)
N10A N 0.5543(3) 0.1221(3) 1.2218(7)
N11A N 0.8355(3) 0.3015(3) 1.2098(7)
C57A C 0.7384(3) 0.2224(3) 0.9525(7)
H73A H 0.76860 0.23250 0.89190
C58A C 0.4892(4) 0.0419(4) 1.3656(9)
H74A H 0.52660 0.04500 1.40320
H75A H 0.47510 0.01000 1.30220
C59A C 0.6576(3) 0.1492(3) 0.8092(8)
C60A C 0.6329(3) 0.1653(3) 1.0176(7)
H76A H 0.59070 0.13590 1.00120
C61A C 0.7567(3) 0.2503(3) 1.0670(8)
N12A N 0.6977(3) 0.2064(3) 0.5403(7)
C62A C 0.5054(4) 0.1044(4) 1.3103(8)
H77A H 0.52120 0.13630 1.37500
C63A C 0.6487(3) 0.1915(4) 1.1293(8)
C64A C 0.6763(3) 0.1804(3) 0.9289(8)
C65A C 0.7279(4) 0.2602(4) 0.5889(8)
C66A C 0.5908(4) 0.1257(4) 0.7715(9)
H78A H 0.56590 0.08130 0.78870
H79A H 0.58930 0.13260 0.68570
H80A H 0.57410 0.14800 0.81580
C67A C 0.7115(3) 0.2346(3) 1.1528(8)
H81A H 0.72290 0.25320 1.22950
C68A C 0.7927(4) 0.2896(4) 0.6393(9)
H82A H 0.82290 0.30880 0.57450
H83A H 0.79880 0.25790 0.67840
H84A H 0.79860 0.32140 0.69770
C69A C 0.8225(4) 0.2945(4) 1.0968(8)
C70A C 0.6010(3) 0.1759(3) 1.2249(8)
C71A C 0.7078(4) 0.1315(5) 0.4147(9)
H85A H 0.66320 0.11230 0.39520
H86A H 0.73160 0.16290 0.35290
C72A C 0.8676(5) 0.3255(4) 0.9946(9)
H87A H 0.87770 0.29590 0.95830
H88A H 0.90550 0.36120 1.02500
H89A H 0.84860 0.33940 0.93450
C73A C 0.3988(4) 0.0843(4) 1.3494(9)
H90A H 0.41380 0.11700 1.41130
H91A H 0.36100 0.08090 1.31310
C74A C 0.7306(4) 0.3635(4) 0.5938(8)
H92A H 0.77460 0.38410 0.59330
C75A C 0.7203(4) 0.1629(4) 0.5384(8)
H93A H 0.76570 0.18470 0.55680
C76A C 0.7033(4) 0.0640(4) 0.6344(8)
H94A H 0.67960 0.03230 0.69570
H95A H 0.74790 0.08390 0.65490
C77A C 0.6834(4) 0.1127(4) 0.6343(8)
H96A H 0.63790 0.09270 0.61820
C78A C 0.4378(4) 0.0224(4) 1.4601(9)
H97A H 0.42470 -0.01990 1.48880
H98A H 0.45390 0.05100 1.52920
C79A C 0.6922(4) 0.0328(5) 0.5107(9)
H99A H 0.70700 0.00250 0.51120
H100A H 0.64730 0.01010 0.49270
C80A C 0.6156(4) 0.2269(3) 1.3116(9)
H101A H 0.64050 0.22480 1.37730
H102A H 0.57700 0.22260 1.34340
H103A H 0.63900 0.26700 1.27110
C81A C 0.4486(4) 0.1028(3) 1.2532(8)
H104A H 0.43260 0.07230 1.18600
C82A C 0.3829(4) 0.0241(4) 1.4065(10)
H105A H 0.36330 -0.00920 1.34600
H106A H 0.35190 0.01510 1.47020
C83A C 0.7269(4) 0.0820(5) 0.4149(10)
H107A H 0.77200 0.10190 0.42950
H108A H 0.71810 0.06180 0.33560
C84A C 0.6968(3) 0.2990(3) 0.5941(8)
N9B N 0.8566(3) 0.5546(3) 0.7520(6)
N10B N 0.8779(3) 0.4322(3) 1.2218(7)
N11B N 0.6985(3) 0.5340(3) 1.2098(7)
C57B C 0.7776(3) 0.5160(3) 0.9525(7)
H73B H 0.76750 0.53610 0.89190
C58B C 0.9581(4) 0.4473(4) 1.3656(9)
H74B H 0.95500 0.48160 1.40320
H75B H 0.99000 0.46510 1.30220
C59B C 0.8508(3) 0.5084(3) 0.8092(8)
C60B C 0.8347(3) 0.4676(3) 1.0176(7)
H76B H 0.86410 0.45480 1.00120
C61B C 0.7497(3) 0.5064(3) 1.0670(8)
N12B N 0.7936(3) 0.4913(3) 0.5403(7)
C62B C 0.8956(4) 0.4010(4) 1.3103(8)
H77B H 0.86370 0.38490 1.37500
C63B C 0.8085(3) 0.4572(4) 1.1293(8)
C64B C 0.8196(3) 0.4959(3) 0.9289(8)
C65B C 0.7398(4) 0.4677(4) 0.5889(8)
C66B C 0.8743(4) 0.4651(4) 0.7715(9)
H78B H 0.91870 0.48460 0.78870
H79B H 0.86740 0.45670 0.68570
H80B H 0.85200 0.42610 0.81580
C67B C 0.7654(3) 0.4769(3) 1.1528(8)
H81B H 0.74680 0.46970 1.22950
C68B C 0.7104(4) 0.5031(4) 0.6393(9)
H82B H 0.69120 0.51410 0.57450
H83B H 0.74210 0.54090 0.67840
H84B H 0.67860 0.47720 0.69770
C69B C 0.7055(4) 0.5280(4) 1.0968(8)
C70B C 0.8241(3) 0.4251(3) 1.2249(8)
C71B C 0.8685(4) 0.5763(5) 0.4147(9)
H85B H 0.88770 0.55090 0.39520
H86B H 0.83710 0.56870 0.35290
C72B C 0.6745(5) 0.5421(4) 0.9946(9)
H87B H 0.70410 0.58180 0.95830
H88B H 0.63880 0.54430 1.02500
H89B H 0.66060 0.50920 0.93450
C73B C 0.9157(4) 0.3145(4) 1.3494(9)
H90B H 0.88300 0.29680 1.41130
H91B H 0.91910 0.28010 1.31310
C74B C 0.6365(4) 0.3671(4) 0.5938(8)
H92B H 0.61590 0.39050 0.59330
C75B C 0.8371(4) 0.5574(4) 0.5384(8)
H93B H 0.81530 0.58100 0.55680
C76B C 0.9360(4) 0.6393(4) 0.6344(8)
H94B H 0.96770 0.64730 0.69570
H95B H 0.91610 0.66400 0.65490
C77B C 0.8873(4) 0.5707(4) 0.6343(8)
H96B H 0.90730 0.54520 0.61820
C78B C 0.9776(4) 0.4154(4) 1.4601(9)
H97B H 1.01990 0.44460 1.48880
H98B H 0.94900 0.40290 1.52920
C79B C 0.9672(4) 0.6594(5) 0.5107(9)
H99B H 0.99750 0.70450 0.51120
H100B H 0.98990 0.63720 0.49270
C80B C 0.7731(4) 0.3887(3) 1.3116(9)
H101B H 0.77520 0.41570 1.37730
H102B H 0.77740 0.35440 1.34340
H103B H 0.73300 0.37200 1.27110
C81B C 0.8972(4) 0.3458(3) 1.2532(8)
H104B H 0.92770 0.36030 1.18600
C82B C 0.9759(4) 0.3588(4) 1.4065(10)
H105B H 1.00920 0.37250 1.34600
H106B H 0.98490 0.33680 1.47020
C83B C 0.9180(4) 0.6449(5) 0.4149(10)
H107B H 0.89810 0.67010 0.42950
H108B H 0.93820 0.65630 0.33560
C84B C 0.7010(3) 0.3978(3) 0.5941(8)
#END
