
#######################################################################
#
#                 Cambridge Crystallographic Data Centre
#                                CCDC
#
#######################################################################
#
# If this CIF has been generated from an entry in the Cambridge
# Structural Database, then it will include bibliographic, chemical,
# crystal, experimental, refinement or atomic coordinate data resulting
# from the CCDC's data processing and validation procedures.
#
#######################################################################

data_CSD_CIF_SENQIO
_audit_creation_date 2017-11-01
_audit_creation_method CSD-ConQuest-V1
_database_code_CSD SENQIO
_database_code_depnum_ccdc_archive 'CCDC 1533786'
_chemical_formula_sum 'C87 H115 Cl6 N12 O0.5'
_chemical_formula_moiety
;
C84 H108 N12,3(C1 H2 Cl2),0.5(H2 O1)
;
_journal_coden_Cambridge 2029
_journal_volume 3
_journal_year 2017
_journal_page_first 734
_journal_name_full 'ACS Cent.Sci. '
loop_
_publ_author_name
"A.G.Slater"
"P.S.Reiss"
"Angeles Pulido"
"M.A.Little"
"D.L.Holden"
"Linjiang Chen"
"Samantha Y.Chong"
"B.M.Alston"
"R.Clowes"
"M.Haranczyk"
"M.E.Briggs"
"T.Hasell"
"G.M.Day"
"A.I.Cooper"
_chemical_name_systematic
;
,13,19,28,34,43,49,58,61,70,73,82-dodecamethyl-5,12,20,27,35,42,50,57,62,69,74
,81-dodecaazatridecacyclo[29.29.10.10^16,46^.1^3,59^.1^14,18^.1^29,33^.1^44,48
^.0^6,11^.0^21,26^.0^36,41^.0^51,56^.0^63,68^.0^75,80^]tetraoctaconta-1,3(71),
4,12,14(84),15,17,19,27,29(83),30,32,34,42,44(72),45,47,49,57,59,61,69,73,81-t
etracosaene dichloromethane solvate hemihydrate
;
_cell_volume   4310.216
_exptl_crystal_colour 'colorless'
_exptl_crystal_density_diffrn 1.194
_exptl_crystal_description 'block'
_diffrn_ambient_temperature 100
_refine_special_details
;
The structure is disordered.

;
#These two values have been output from a single CSD field.
_refine_ls_R_factor_gt 0.079
_refine_ls_wR_factor_gt 0.079
_symmetry_cell_setting triclinic
_symmetry_space_group_name_H-M 'P -1'
_symmetry_Int_Tables_number 2
loop_
_symmetry_equiv_pos_site_id
_symmetry_equiv_pos_as_xyz
1 x,y,z
2 -x,-y,-z
_cell_length_a 14.0638(8)
_cell_length_b 16.2235(9)
_cell_length_c 21.9305(13)
_cell_angle_alpha 92.6404(17)
_cell_angle_beta 106.7014(16)
_cell_angle_gamma 113.7812(16)
_cell_formula_units_Z 2
loop_
_atom_type_symbol
_atom_type_radius_bond
C 0.68
H 0.23
Cl 0.99
N 0.68
O 0.68
loop_
_atom_site_label
_atom_site_type_symbol
_atom_site_fract_x
_atom_site_fract_y
_atom_site_fract_z
N1 N 0.7249(2) 0.29298(17) 0.53302(12)
N2 N 0.8398(2) 0.21233(18) 0.48353(13)
N3 N 0.5251(2) 0.54720(17) 0.39047(12)
N4 N 0.5797(2) 0.61740(17) 0.27896(12)
N5 N 0.3300(2) 0.33119(18) 0.01544(12)
N6 N 0.1901(2) 0.13793(18) 0.00541(12)
N7 N 0.3756(2) -0.11134(18) 0.15065(13)
N8 N 0.6127(2) -0.04033(18) 0.20607(13)
N9 N 0.8432(2) 0.46744(18) 0.15662(14)
N10 N 0.9409(2) 0.36633(18) 0.23666(14)
N11 N 0.1037(2) 0.04092(17) 0.26874(13)
N12 N 0.2260(2) 0.15258(17) 0.39386(12)
C1 C 0.4140(3) 0.2347(2) 0.40729(14)
C2 C 0.3978(2) 0.3053(2) 0.37926(14)
H1 H 0.32550 0.29520 0.35390
C3 C 0.4858(2) 0.3905(2) 0.38770(14)
C4 C 0.5922(3) 0.4045(2) 0.42469(14)
H2 H 0.65250 0.46270 0.43130
C5 C 0.6104(2) 0.3342(2) 0.45177(14)
C6 C 0.5204(2) 0.2488(2) 0.44236(14)
H3 H 0.53250 0.20020 0.46020
C7 C 0.3150(2) 0.1462(2) 0.39987(14)
C8 C 0.3310(3) 0.0594(2) 0.39993(19)
H4 H 0.35430 0.04990 0.44460
H5 H 0.38770 0.06510 0.38070
H6 H 0.26140 0.00720 0.37460
C9 C 0.4659(3) 0.4656(2) 0.35774(15)
C10 C 0.3778(3) 0.4350(2) 0.29190(16)
H7 H 0.30500 0.40500 0.29670
H8 H 0.38820 0.39180 0.26480
H9 H 0.38300 0.48840 0.27140
C11 C 0.7231(3) 0.3467(2) 0.49195(14)
C12 C 0.8201(3) 0.4189(2) 0.47983(15)
H10 H 0.83740 0.47900 0.50310
H11 H 0.80220 0.41960 0.43330
H12 H 0.88390 0.40540 0.49520
C13 C 0.6190(3) 0.5373(2) 0.20450(16)
C14 C 0.5076(3) 0.4939(2) 0.16536(15)
H13 H 0.45570 0.50960 0.17640
C15 C 0.4720(2) 0.4280(2) 0.11049(14)
C16 C 0.5501(3) 0.4066(2) 0.09473(14)
H14 H 0.52700 0.36290 0.05690
C17 C 0.6605(2) 0.4479(2) 0.13326(14)
C18 C 0.6934(3) 0.5140(2) 0.18777(15)
H15 H 0.76900 0.54370 0.21390
C19 C 0.6524(3) 0.6036(3) 0.26477(18)
C20 C 0.3526(2) 0.3795(2) 0.06948(15)
C21 C 0.7450(3) 0.4234(2) 0.11960(15)
C22 C 0.2794(3) -0.0276(2) 0.16778(16)
C23 C 0.2946(3) 0.0133(2) 0.11414(15)
H16 H 0.33540 -0.00090 0.09110
C24 C 0.2507(3) 0.0741(2) 0.09452(15)
C25 C 0.1933(3) 0.0966(2) 0.13012(15)
H17 H 0.16430 0.13920 0.11730
C26 C 0.1781(3) 0.0578(2) 0.18361(15)
C27 C 0.2207(3) -0.0055(2) 0.20169(16)
H18 H 0.20920 -0.03370 0.23760
C28 C 0.3313(3) -0.0915(2) 0.18748(18)
C29 C 0.2663(3) 0.1171(2) 0.03693(15)
C30 C 0.3707(3) 0.1334(3) 0.0234(2)
H19 H 0.35940 0.07870 -0.00420
H20 H 0.43040 0.14650 0.06430
H21 H 0.39040 0.18570 0.00110
C31 C 0.1196(3) 0.0835(2) 0.22294(15)
C32 C 0.7701(3) 0.1705(2) 0.36895(15)
C33 C 0.8456(3) 0.2554(2) 0.36213(15)
H22 H 0.89190 0.30200 0.39940
C34 C 0.8534(3) 0.2723(2) 0.30161(15)
C35 C 0.7860(3) 0.2019(2) 0.24754(16)
H23 H 0.79070 0.21270 0.20610
C36 C 0.7126(3) 0.1169(2) 0.25315(15)
C37 C 0.7047(3) 0.1019(2) 0.31410(15)
H24 H 0.65390 0.04420 0.31830
C38 C 0.7599(3) 0.1566(2) 0.43398(16)
C39 C 0.6538(3) 0.0808(2) 0.43569(17)
H25 H 0.66180 0.02360 0.43780
H26 H 0.59320 0.07240 0.39650
H27 H 0.63790 0.09740 0.47390
C40 C 0.9261(3) 0.3639(2) 0.29100(16)
C41 C 0.9720(3) 0.4447(2) 0.34540(19)
H28 H 1.02810 0.49780 0.33640
H29 H 1.00530 0.42920 0.38630
H30 H 0.91230 0.45930 0.34870
C42 C 0.6420(3) 0.0406(2) 0.19521(15)
C43 C 0.6108(3) 0.0693(3) 0.13043(18)
H31 H 0.66970 0.08150 0.11180
H32 H 0.60050 0.12500 0.13650
H33 H 0.54210 0.02010 0.10100
C44 C 0.0494(2) 0.0612(2) 0.31104(14)
H34 H 0.04360 0.11970 0.30410
C45 C -0.0652(3) -0.0162(2) 0.29642(17)
H35 H -0.05990 -0.07490 0.30000
H36 H -0.11100 -0.02100 0.25150
C46 C -0.1200(3) 0.0006(3) 0.34319(19)
H37 H -0.19370 -0.05130 0.33340
H38 H -0.13020 0.05700 0.33730
C47 C -0.0506(3) 0.0108(2) 0.41331(18)
H39 H -0.08610 0.02450 0.44280
H40 H -0.04560 -0.04740 0.42030
C48 C 0.0647(3) 0.0879(2) 0.42831(16)
H41 H 0.11000 0.09210 0.47330
H42 H 0.05970 0.14680 0.42510
C49 C 0.1208(2) 0.0720(2) 0.38158(14)
H43 H 0.13370 0.01620 0.38770
C50 C 0.8272(2) 0.2944(2) 0.57393(15)
H44 H 0.89130 0.35040 0.57230
C51 C 0.8256(3) 0.2944(2) 0.64350(15)
H45 H 0.82270 0.35110 0.65960
H46 H 0.75860 0.24150 0.64400
C52 C 0.9278(3) 0.2889(2) 0.68852(15)
H47 H 0.99450 0.34500 0.69180
H48 H 0.92230 0.28540 0.73240
C53 C 0.9384(3) 0.2055(2) 0.66322(16)
H49 H 0.87630 0.14930 0.66520
H50 H 1.00780 0.20590 0.69120
C54 C 0.9382(3) 0.2041(2) 0.59346(16)
H51 H 0.94190 0.14760 0.57780
H52 H 1.00430 0.25730 0.59210
C55 C 0.8342(3) 0.2076(2) 0.54876(15)
H53 H 0.76730 0.15190 0.54760
C56 C 1.0046(3) 0.4503(2) 0.21709(16)
H54 H 1.01940 0.50460 0.24820
C57 C 1.1140(3) 0.4512(2) 0.21773(18)
H55 H 1.15990 0.45750 0.26290
H56 H 1.09950 0.39230 0.19310
C58 C 1.1771(3) 0.5299(2) 0.18804(18)
H57 H 1.19760 0.58920 0.21480
H58 H 1.24580 0.52690 0.18750
C59 C 1.1070(3) 0.5239(2) 0.11963(18)
H59 H 1.08920 0.46580 0.09240
H60 H 1.14850 0.57530 0.10100
C60 C 1.0004(3) 0.5280(2) 0.11962(18)
H61 H 1.01840 0.58800 0.14440
H62 H 0.95480 0.52290 0.07450
C61 C 0.9348(2) 0.4516(2) 0.14940(16)
H63 H 0.90560 0.39120 0.12050
C62 C 0.2171(2) 0.2827(2) -0.02989(14)
H64 H 0.16360 0.28370 -0.00850
C63 C 0.2084(3) 0.3315(2) -0.08801(16)
H65 H 0.21610 0.39340 -0.07390
H66 H 0.26950 0.33890 -0.10440
C64 C 0.0983(3) 0.2783(2) -0.14276(16)
H67 H 0.03720 0.27580 -0.12790
H68 H 0.09700 0.31010 -0.18020
C65 C 0.0824(3) 0.1812(2) -0.16331(15)
H69 H 0.01010 0.14700 -0.19790
H70 H 0.14060 0.18390 -0.18110
C66 C 0.0873(3) 0.1313(2) -0.10654(15)
H71 H 0.07940 0.06940 -0.12090
H72 H 0.02500 0.12380 -0.09130
C67 C 0.1963(3) 0.1835(2) -0.05036(14)
H73 H 0.25870 0.18320 -0.06350
C68 C 0.6021(3) 0.6765(2) 0.33884(15)
H74 H 0.67550 0.68850 0.37060
C69 C 0.6009(4) 0.7663(2) 0.32176(17)
H75 H 0.53280 0.75260 0.28510
H76 H 0.66470 0.79990 0.30760
C70 C 0.6059(4) 0.8272(2) 0.37924(19)
H77 H 0.67680 0.84580 0.41460
H78 H 0.60160 0.88340 0.36570
C71 C 0.5109(4) 0.7758(3) 0.40342(19)
H79 H 0.44000 0.76070 0.36890
H80 H 0.51580 0.81510 0.44120
C72 C 0.5148(4) 0.6879(2) 0.42285(17)
H81 H 0.45180 0.65440 0.43760
H82 H 0.58360 0.70350 0.45940
C73 C 0.5104(3) 0.6259(2) 0.36637(15)
H83 H 0.43710 0.60370 0.33150
C74 C 0.5438(3) -0.1209(2) 0.15372(15)
H84 H 0.53250 -0.10070 0.11090
C75 C 0.6030(3) -0.1822(2) 0.15677(16)
H85 H 0.62540 -0.19320 0.20160
H86 H 0.67070 -0.15030 0.14570
C76 C 0.5306(3) -0.2741(2) 0.11055(17)
H87 H 0.51620 -0.26400 0.06530
H88 H 0.56970 -0.31350 0.11670
C77 C 0.4214(3) -0.3223(2) 0.12250(18)
H89 H 0.43520 -0.33780 0.16640
H90 H 0.37430 -0.38010 0.09060
C78 C 0.3618(3) -0.2610(2) 0.11668(18)
H91 H 0.34340 -0.24930 0.07190
H92 H 0.29200 -0.29310 0.12550
C79 C 0.4323(3) -0.1700(2) 0.16383(15)
H93 H 0.44380 -0.18050 0.20940
C80 C 0.7747(5) 0.6616(4) 0.2989(3)
H94 H 0.78580 0.71380 0.32910
H95 H 0.81040 0.68410 0.26680
H96 H 0.80700 0.62440 0.32290
C81 C 0.2686(6) 0.3772(6) 0.1024(4)
H97 H 0.25340 0.43060 0.09640
H98 H 0.29900 0.37830 0.14890
H99 H 0.20010 0.32100 0.08310
C82 C 0.7060(6) 0.3471(6) 0.0620(4)
H100 H 0.76990 0.34140 0.05640
H101 H 0.66680 0.36210 0.02270
H102 H 0.65630 0.28910 0.07000
C83 C 0.2992(7) -0.1466(6) 0.2378(4)
H103 H 0.32470 -0.10520 0.27900
H104 H 0.33320 -0.18920 0.24360
H105 H 0.21880 -0.18130 0.22360
C84 C 0.0650(8) 0.1440(6) 0.1963(4)
H106 H 0.01440 0.11550 0.15200
H107 H 0.12160 0.20410 0.19620
H108 H 0.02380 0.15160 0.22360
Cl1 Cl 0.93986(11) 0.29961(10) -0.01548(8)
C85 C 0.8669(6) 0.1893(4) -0.0118(3)
H109 H 0.90360 0.15090 -0.01920
H110 H 0.79100 0.16330 -0.04310
Cl2 Cl 0.8483(9) 0.1430(8) 0.0551(5)
Cl3 Cl 0.76293(11) 0.57065(9) 0.59027(6)
Cl4 Cl 0.8538(1) 0.66810(7) 0.49692(6)
C86 C 0.7499(3) 0.6410(3) 0.53138(19)
H111 H 0.67710 0.60850 0.49690
H112 H 0.75350 0.69820 0.55210
O1 O -0.0225(5) 0.0616(4) 0.0199(3)
C87? C 0.7541(12) 0.5995(12) 0.3226(7)
H113? H 0.82360 0.63270 0.31450
H114? H 0.74060 0.53540 0.32340
H115? H 0.75870 0.62790 0.36450
C88? C 0.2725(5) 0.4042(5) 0.0896(3)
H116? H 0.29820 0.47080 0.09580
H117? H 0.26730 0.38350 0.13030
H118? H 0.19980 0.37430 0.05590
C89? C 0.6955(10) 0.3214(8) 0.0814(6)
H119? H 0.75580 0.30740 0.07850
H120? H 0.64670 0.31550 0.03760
H121? H 0.65360 0.27850 0.10440
C90? C 0.3548(7) -0.1029(6) 0.2604(4)
H122? H 0.28510 -0.13970 0.26730
H123? H 0.39090 -0.04240 0.28830
H124? H 0.40310 -0.13380 0.27110
C91? C 0.1125(10) 0.1765(7) 0.2158(5)
H125? H 0.06380 0.17120 0.17220
H126? H 0.18630 0.22520 0.22280
H127? H 0.08290 0.19130 0.24790
C92? C 0.7168(10) 0.3768(9) 0.0506(6)
H128? H 0.78360 0.37820 0.04430
H129? H 0.68660 0.40920 0.01990
H130? H 0.66200 0.31300 0.04330
H131? H 0.80650 0.16020 -0.05380
H132? H 0.91590 0.15840 -0.00760
Cl5? Cl 0.8687(5) 0.2026(4) 0.0752(3)
Cl6? Cl 0.8112(14) 0.1673(10) 0.0472(7)
C93? C 0.5757(4) 0.2604(3) 0.2893(2)
Cl7? Cl 0.4688(2) 0.1344(2) 0.27329(18)
Cl8? Cl 0.5091(13) 0.2762(12) 0.2122(7)
Cl9? Cl 0.5607(11) 0.2919(11) 0.2174(7)
Cl10? Cl 0.6117(12) 0.3447(10) 0.2551(6)
Cl11? Cl 0.4872(9) 0.1916(8) 0.2221(5)
Cl12? Cl 0.4783(10) 0.2238(10) 0.2096(6)
Cl13? Cl 0.4560(9) 0.2313(9) 0.2225(5)
Cl14? Cl 0.6687(2) 0.38328(14) 0.28965(12)
#END
