
#######################################################################
#
#                 Cambridge Crystallographic Data Centre
#                                CCDC
#
#######################################################################
#
# If this CIF has been generated from an entry in the Cambridge
# Structural Database, then it will include bibliographic, chemical,
# crystal, experimental, refinement or atomic coordinate data resulting
# from the CCDC's data processing and validation procedures.
#
#######################################################################

data_CSD_CIF_SENQAG
_audit_creation_date 2017-11-01
_audit_creation_method CSD-ConQuest-V1
_database_code_CSD SENQAG
_database_code_depnum_ccdc_archive 'CCDC 1533784'
_chemical_formula_sum 'C87 H114 Cl6 N12'
_chemical_formula_moiety
;
C84 H108 N12,3(C1 H2 Cl2)
;
_journal_coden_Cambridge 2029
_journal_volume 3
_journal_year 2017
_journal_page_first 734
_journal_name_full 'ACS Cent.Sci. '
loop_
_publ_author_name
"A.G.Slater"
"P.S.Reiss"
"Angeles Pulido"
"M.A.Little"
"D.L.Holden"
"Linjiang Chen"
"Samantha Y.Chong"
"B.M.Alston"
"R.Clowes"
"M.Haranczyk"
"M.E.Briggs"
"T.Hasell"
"G.M.Day"
"A.I.Cooper"
_chemical_name_systematic
;
4,13,19,28,34,43,49,58,61,70,73,82-dodecamethyl-5,12,20,27,35,42,50,57,62,69,7
4,81-dodecaazatridecacyclo[29.29.10.10^16,46^.1^3,59^.1^14,18^.1^29,33^.1^44,4
8^.0^6,11^.0^21,26^.0^36,41^.0^51,56^.0^63,68^.0^75,80^]tetraoctaconta-1,3(71)
,4,12,14(84),15,17,19,27,29(83),30,32,34,42,44(72),45,47,49,57,59,61,69,73,81-
tetracosaene dichloromethane solvate
;
_cell_volume   8424.925
_exptl_crystal_colour 'colorless'
_exptl_crystal_density_diffrn 1.215
_exptl_crystal_description 'needle'
_diffrn_ambient_temperature 100
_refine_special_details
;
C22A and C22B disordered over two sites with occupancies 0.59:0.41; Cl3 and 
Cl1 and Cl2 disordered over three sites with occupancies 0.55:0.3:0.15; 
Cl5,Cl6 and Cl4,Cl7 disordered over two sites with occupancies 0.75:0.25.
;
#These two values have been output from a single CSD field.
_refine_ls_R_factor_gt 0.0511
_refine_ls_wR_factor_gt 0.0511
_symmetry_cell_setting orthorhombic
_symmetry_space_group_name_H-M 'C 2 2 21'
_symmetry_Int_Tables_number 20
loop_
_symmetry_equiv_pos_site_id
_symmetry_equiv_pos_as_xyz
1 x,y,z
2 -x,-y,1/2+z
3 -x,y,1/2-z
4 x,-y,-z
5 1/2+x,1/2+y,z
6 1/2-x,1/2-y,1/2+z
7 1/2-x,1/2+y,1/2-z
8 1/2+x,1/2-y,-z
_cell_length_a 16.9803(6)
_cell_length_b 22.6887(9)
_cell_length_c 21.8681(8)
_cell_angle_alpha 90
_cell_angle_beta 90
_cell_angle_gamma 90
_cell_formula_units_Z 4
loop_
_atom_type_symbol
_atom_type_radius_bond
C 0.68
H 0.23
Cl 0.99
N 0.68
loop_
_atom_site_label
_atom_site_type_symbol
_atom_site_fract_x
_atom_site_fract_y
_atom_site_fract_z
Cl1? Cl 0.5639(3) 0.4156(2) 0.7678(3)
Cl2? Cl 0.5528(8) 0.4127(6) 0.7237(7)
Cl3 Cl 0.59654(17) 0.37837(15) 0.73145(15)
C1 C 0.50000 0.3562(3) 0.75000
H1 H 0.52620 0.33190 0.78160
H2? H 0.52620 0.33190 0.78160
Cl4? Cl 0.8196(7) 0.2000(6) 0.6242(4)
Cl5 Cl 0.8323(2) 0.17621(14) 0.62570(13)
Cl6 Cl 0.93040(13) 0.25217(9) 0.55420(8)
C2 C 0.8521(3) 0.2157(2) 0.5564(2)
H3 H 0.85300 0.18700 0.52230
H4 H 0.80760 0.24300 0.54880
Cl7? Cl 0.9685(3) 0.2147(3) 0.5594(2)
H5? H 0.83310 0.25510 0.54370
H6? H 0.83280 0.18630 0.52640
N1 N 0.78979(18) 0.43356(13) 0.86334(14)
N2 N 0.58410(17) 0.63071(13) 0.73175(14)
N3 N 0.74256(18) 0.42676(13) 0.57866(13)
N4 N 0.64007(18) 0.34117(13) 0.52262(14)
N5 N 0.49252(18) 0.14126(13) 0.68562(13)
N6 N 0.27766(19) 0.33346(13) 0.57351(14)
C3 C 0.9301(3) 0.4129(2) 0.9963(2)
H7 H 0.98580 0.42500 1.00100
H8 H 0.89940 0.43070 1.03000
C4 C 0.5240(2) 0.32395(16) 0.57941(16)
C5 C 0.4436(2) 0.33505(16) 0.58462(17)
H9 H 0.42180 0.36900 0.56560
C6 C 0.3945(2) 0.29706(16) 0.61736(17)
C7 C 0.4274(2) 0.24838(16) 0.64654(16)
H10 H 0.39460 0.22300 0.66990
C8 C 0.5079(2) 0.23623(15) 0.64201(16)
C9 C 0.5552(2) 0.27430(16) 0.60842(17)
H11 H 0.61000 0.26640 0.60510
C10 C 0.5767(2) 0.36398(16) 0.54389(17)
C11 C 0.5499(2) 0.42709(17) 0.53708(19)
H12 H 0.59550 0.45220 0.52840
H13 H 0.52470 0.44010 0.57510
H14 H 0.51210 0.42990 0.50330
C12 C 0.3082(2) 0.31006(15) 0.62086(16)
C13 C 0.2674(2) 0.29452(19) 0.67926(19)
H15 H 0.22090 0.31960 0.68430
H16 H 0.30350 0.30070 0.71370
H17 H 0.25120 0.25310 0.67800
C14 C 0.5408(2) 0.18267(17) 0.67355(16)
C15 C 0.6284(2) 0.1840(2) 0.68806(19)
H18 H 0.63880 0.16000 0.72440
H19 H 0.64480 0.22480 0.69580
H20 H 0.65810 0.16820 0.65330
C16 C 0.7358(2) 0.46092(15) 0.68135(16)
C17 C 0.7582(2) 0.45446(16) 0.74210(16)
H21 H 0.79650 0.42560 0.75260
C18 C 0.7252(2) 0.48987(16) 0.78825(17)
C19 C 0.6715(2) 0.53320(16) 0.77159(16)
H22 H 0.65050 0.55850 0.80210
C20 C 0.6477(2) 0.54042(15) 0.71043(16)
C21 C 0.6796(2) 0.50359(16) 0.66610(16)
H23 H 0.66290 0.50740 0.62480
C22 C 0.7689(2) 0.42071(16) 0.63295(16)
C23 C 0.8296(3) 0.3764(2) 0.6531(2)
H24 H 0.80440 0.34600 0.67820
H25 H 0.87040 0.39630 0.67710
H26 H 0.85360 0.35800 0.61700
C24 C 0.7450(2) 0.47721(18) 0.85354(17)
C25 C 0.7225(12) 0.5250(7) 0.8988(5)
H27 H 0.66560 0.52360 0.90640
H28 H 0.73660 0.56370 0.88210
H29 H 0.75070 0.51870 0.93740
C26 C 0.5879(2) 0.58669(16) 0.69535(16)
C27 C 0.5368(2) 0.57625(19) 0.63996(19)
H30 H 0.48970 0.60110 0.64250
H31 H 0.52120 0.53470 0.63850
H32 H 0.56640 0.58620 0.60290
C28 C 0.1939(2) 0.34845(17) 0.57024(17)
H33 H 0.16490 0.32910 0.60460
C29 C 0.1611(2) 0.32696(19) 0.50863(19)
H34 H 0.19350 0.34310 0.47490
H35 H 0.16410 0.28340 0.50680
C30 C 0.0758(3) 0.3464(2) 0.5004(2)
H36 H 0.05600 0.33260 0.46030
H37 H 0.04270 0.32860 0.53280
C31 C 0.5290(2) 0.67971(15) 0.72283(16)
H38 H 0.49940 0.67410 0.68370
C32 C 0.5765(2) 0.73645(16) 0.71986(19)
H39 H 0.60820 0.73640 0.68190
H40 H 0.61350 0.73750 0.75490
C33 C 0.5259(2) 0.79185(16) 0.72118(18)
H41 H 0.49220 0.79320 0.68430
H42 H 0.56020 0.82720 0.72110
C34 C 0.8136(2) 0.41559(16) 0.92476(17)
H43 H 0.77870 0.43480 0.95570
C35 C 0.8985(3) 0.4351(2) 0.9349(2)
H44 H 0.90130 0.47870 0.93390
H45 H 0.93190 0.41970 0.90140
C36 C 0.5183(2) 0.08824(15) 0.71759(16)
H46 H 0.57710 0.08800 0.72080
C37 C 0.4905(2) 0.03331(16) 0.68336(18)
H47 H 0.43240 0.03420 0.67960
H48 H 0.51310 0.03320 0.64160
C38 C 0.5153(2) -0.02273(16) 0.71689(19)
H49 H 0.57350 -0.02560 0.71710
H50 H 0.49440 -0.05760 0.69500
C39 C 0.7680(2) 0.38765(16) 0.52902(16)
H51 H 0.78730 0.34970 0.54680
C40 C 0.8343(3) 0.4165(2) 0.49300(19)
H52 H 0.88050 0.42220 0.52010
H53 H 0.81700 0.45580 0.47860
C41 C 0.8583(2) 0.37894(19) 0.43802(18)
H54 H 0.90080 0.39900 0.41510
H55 H 0.87870 0.34050 0.45240
C42 C 0.7887(2) 0.36922(18) 0.39670(17)
H56 H 0.80450 0.34420 0.36170
H57 H 0.77040 0.40750 0.38040
C43 C 0.7218(2) 0.33952(17) 0.43149(17)
H58 H 0.73890 0.29980 0.44460
H59 H 0.67600 0.33480 0.40390
C44 C 0.6968(2) 0.37519(16) 0.48787(16)
H60 H 0.67250 0.41320 0.47460
C45? C 0.689(2) 0.5000(18) 0.9045(7)
H61? H 0.63500 0.48660 0.89600
H62? H 0.69000 0.54320 0.90540
H63? H 0.70590 0.48460 0.94420
H1B H 0.47380 0.33190 0.71840
Cl3B Cl 0.40346(17) 0.37837(15) 0.76855(15)
N1B N 0.21021(18) 0.43356(13) 0.63666(14)
N2B N 0.41590(17) 0.63071(13) 0.76825(14)
N3B N 0.25744(18) 0.42676(13) 0.92134(13)
N4B N 0.35993(18) 0.34117(13) 0.97738(14)
N5B N 0.50748(18) 0.14126(13) 0.81438(13)
N6B N 0.72234(19) 0.33346(13) 0.92649(14)
C3B C 0.0699(3) 0.4129(2) 0.5037(2)
H7B H 0.01420 0.42500 0.49900
H8B H 0.10060 0.43070 0.47000
C4B C 0.4760(2) 0.32395(16) 0.92059(16)
C5B C 0.5564(2) 0.33505(16) 0.91538(17)
H9B H 0.57820 0.36900 0.93440
C6B C 0.6055(2) 0.29706(16) 0.88264(17)
C7B C 0.5726(2) 0.24838(16) 0.85346(16)
H10B H 0.60540 0.22300 0.83010
C8B C 0.4921(2) 0.23623(15) 0.85799(16)
C9B C 0.4448(2) 0.27430(16) 0.89158(17)
H11B H 0.39000 0.26640 0.89490
C10B C 0.4233(2) 0.36398(16) 0.95611(17)
C11B C 0.4501(2) 0.42709(17) 0.96292(19)
H12B H 0.40450 0.45220 0.97160
H13B H 0.47530 0.44010 0.92490
H14B H 0.48790 0.42990 0.99670
C12B C 0.6918(2) 0.31006(15) 0.87914(16)
C13B C 0.7326(2) 0.29452(19) 0.82074(19)
H15B H 0.77910 0.31960 0.81570
H16B H 0.69650 0.30070 0.78630
H17B H 0.74880 0.25310 0.82200
C14B C 0.4592(2) 0.18267(17) 0.82645(16)
C15B C 0.3716(2) 0.1840(2) 0.81194(19)
H18B H 0.36120 0.16000 0.77560
H19B H 0.35520 0.22480 0.80420
H20B H 0.34190 0.16820 0.84670
C16B C 0.2642(2) 0.46092(15) 0.81865(16)
C17B C 0.2418(2) 0.45446(16) 0.75790(16)
H21B H 0.20350 0.42560 0.74740
C18B C 0.2748(2) 0.48987(16) 0.71175(17)
C19B C 0.3285(2) 0.53320(16) 0.72841(16)
H22B H 0.34950 0.55850 0.69790
C20B C 0.3523(2) 0.54042(15) 0.78957(16)
C21B C 0.3204(2) 0.50359(16) 0.83390(16)
H23B H 0.33710 0.50740 0.87520
C22B C 0.2311(2) 0.42071(16) 0.86705(16)
C23B C 0.1704(3) 0.3764(2) 0.8469(2)
H24B H 0.19560 0.34600 0.82180
H25B H 0.12960 0.39630 0.82290
H26B H 0.14640 0.35800 0.88300
C24B C 0.2550(2) 0.47721(18) 0.64646(17)
C25B C 0.2775(12) 0.5250(7) 0.6012(5)
H27B H 0.33440 0.52360 0.59360
H28B H 0.26340 0.56370 0.61790
H29B H 0.24930 0.51870 0.56260
C26B C 0.4121(2) 0.58669(16) 0.80465(16)
C27B C 0.4632(2) 0.57625(19) 0.86004(19)
H30B H 0.51030 0.60110 0.85750
H31B H 0.47880 0.53470 0.86150
H32B H 0.43360 0.58620 0.89710
C28B C 0.8061(2) 0.34845(17) 0.92976(17)
H33B H 0.83510 0.32910 0.89540
C29B C 0.8389(2) 0.32696(19) 0.99137(19)
H34B H 0.80650 0.34310 1.02510
H35B H 0.83590 0.28340 0.99320
C30B C 0.9242(3) 0.3464(2) 0.9996(2)
H36B H 0.94400 0.33260 1.03970
H37B H 0.95730 0.32860 0.96720
C31B C 0.4710(2) 0.67971(15) 0.77717(16)
H38B H 0.50060 0.67410 0.81630
C32B C 0.4235(2) 0.73645(16) 0.78014(19)
H39B H 0.39180 0.73640 0.81810
H40B H 0.38650 0.73750 0.74510
C33B C 0.4741(2) 0.79185(16) 0.77882(18)
H41B H 0.50780 0.79320 0.81570
H42B H 0.43980 0.82720 0.77890
C34B C 0.1864(2) 0.41559(16) 0.57524(17)
H43B H 0.22130 0.43480 0.54430
C35B C 0.1015(3) 0.4351(2) 0.5651(2)
H44B H 0.09870 0.47870 0.56610
H45B H 0.06810 0.41970 0.59860
C36B C 0.4817(2) 0.08824(15) 0.78241(16)
H46B H 0.42290 0.08800 0.77920
C37B C 0.5095(2) 0.03331(16) 0.81664(18)
H47B H 0.56760 0.03420 0.82040
H48B H 0.48690 0.03320 0.85840
C38B C 0.4847(2) -0.02273(16) 0.78311(19)
H49B H 0.42650 -0.02560 0.78290
H50B H 0.50560 -0.05760 0.80500
C39B C 0.2320(2) 0.38765(16) 0.97098(16)
H51B H 0.21270 0.34970 0.95320
C40B C 0.1657(3) 0.4165(2) 1.00700(19)
H52B H 0.11950 0.42220 0.97990
H53B H 0.18300 0.45580 1.02140
C41B C 0.1417(2) 0.37894(19) 1.06198(18)
H54B H 0.09920 0.39900 1.08490
H55B H 0.12130 0.34050 1.04760
C42B C 0.2113(2) 0.36922(18) 1.10330(17)
H56B H 0.19550 0.34420 1.13830
H57B H 0.22960 0.40750 1.11960
C43B C 0.2782(2) 0.33952(17) 1.06851(17)
H58B H 0.26110 0.29980 1.05540
H59B H 0.32400 0.33480 1.09610
C44B C 0.3032(2) 0.37519(16) 1.01213(16)
H60B H 0.32750 0.41320 1.02540
#END
