
#######################################################################
#
#                 Cambridge Crystallographic Data Centre
#                                CCDC
#
#######################################################################
#
# If this CIF has been generated from an entry in the Cambridge
# Structural Database, then it will include bibliographic, chemical,
# crystal, experimental, refinement or atomic coordinate data resulting
# from the CCDC's data processing and validation procedures.
#
#######################################################################

data_CSD_CIF_SENQOU
_audit_creation_date 2017-11-01
_audit_creation_method CSD-ConQuest-V1
_database_code_CSD SENQOU
_database_code_depnum_ccdc_archive 'CCDC 1533787'
_chemical_formula_sum 'C156 H204 N24 O12'
_chemical_formula_moiety
;
C84 H96 N12,C72 H84 N12,12(H2 O1)
;
_journal_coden_Cambridge 2029
_journal_volume 3
_journal_year 2017
_journal_page_first 734
_journal_name_full 'ACS Cent.Sci. '
loop_
_publ_author_name
"A.G.Slater"
"P.S.Reiss"
"Angeles Pulido"
"M.A.Little"
"D.L.Holden"
"Linjiang Chen"
"Samantha Y.Chong"
"B.M.Alston"
"R.Clowes"
"M.Haranczyk"
"M.E.Briggs"
"T.Hasell"
"G.M.Day"
"A.I.Cooper"
_chemical_name_systematic
;
R-4,13,19,28,34,43,49,58,61,70,73,82-dodecamethyl-5,12,20,27,35,42,50,57,62,69
,74,81-dodecaazatridecacyclo[29.29.10.10^16,46^.1^3,59^.1^14,18^.1^29,33^.1^44
,48^.0^6,11^.0^21,26^.0^36,41^.0^51,56^.0^63,68^.0^75,80^]tetraoctaconta-1,3(7
1),4,8,12,14(84),15,17,19,23,27,29(83),30,32,34,38,42,44(72),45,47,49,53,57,59
,61,65,69,73,77,81-triacontaene 
S-5,12,20,27,35,42,50,57,62,69,74,81-dodecaazatridecacyclo[29.29.10.10^16,46^.
1^3,59^.1^14,18^.1^29,33^.1^44,48^.0^6,11^.0^21,26^.0^36,41^.0^51,56^.0^63,68^
.0^75,80^]tetraoctaconta-1,3(71),4,12,14(84),15,17,19,27,29(83),30,32,34,42,44
(72),45,47,49,57,59,61,69,73,81-tetracosaene dodecahydrate
;
_cell_volume  14899.648
_exptl_crystal_colour 'colorless'
_exptl_crystal_density_diffrn 1.162
_exptl_crystal_description 'prism'
_diffrn_ambient_temperature 100
_diffrn_special_details
;
twin

;
_refine_special_details
;
O1 and O3 and O4 disordered over three sites with occupancies 0.5:0.5:0.5.

;
#These two values have been output from a single CSD field.
_refine_ls_R_factor_gt 0.0793
_refine_ls_wR_factor_gt 0.0793
_symmetry_cell_setting cubic
_symmetry_space_group_name_H-M 'F 2 3'
_symmetry_Int_Tables_number 196
loop_
_symmetry_equiv_pos_site_id
_symmetry_equiv_pos_as_xyz
1 x,y,z
2 -x,-y,z
3 -x,y,-z
4 x,-y,-z
5 z,x,y
6 z,-x,-y
7 -z,-x,y
8 -z,x,-y
9 y,z,x
10 -y,z,-x
11 y,-z,-x
12 -y,-z,x
13 x,1/2+y,1/2+z
14 -x,1/2-y,1/2+z
15 -x,1/2+y,1/2-z
16 x,1/2-y,1/2-z
17 z,1/2+x,1/2+y
18 z,1/2-x,1/2-y
19 -z,1/2-x,1/2+y
20 -z,1/2+x,1/2-y
21 y,1/2+z,1/2+x
22 -y,1/2+z,1/2-x
23 y,1/2-z,1/2-x
24 -y,1/2-z,1/2+x
25 1/2+x,y,1/2+z
26 1/2-x,-y,1/2+z
27 1/2-x,y,1/2-z
28 1/2+x,-y,1/2-z
29 1/2+z,x,1/2+y
30 1/2+z,-x,1/2-y
31 1/2-z,-x,1/2+y
32 1/2-z,x,1/2-y
33 1/2+y,z,1/2+x
34 1/2-y,z,1/2-x
35 1/2+y,-z,1/2-x
36 1/2-y,-z,1/2+x
37 1/2+x,1/2+y,z
38 1/2-x,1/2-y,z
39 1/2-x,1/2+y,-z
40 1/2+x,1/2-y,-z
41 1/2+z,1/2+x,y
42 1/2+z,1/2-x,-y
43 1/2-z,1/2-x,y
44 1/2-z,1/2+x,-y
45 1/2+y,1/2+z,x
46 1/2-y,1/2+z,-x
47 1/2+y,1/2-z,-x
48 1/2-y,1/2-z,x
_cell_length_a 24.607(5)
_cell_length_b 24.607(5)
_cell_length_c 24.607(5)
_cell_angle_alpha 90
_cell_angle_beta 90
_cell_angle_gamma 90
_cell_formula_units_Z 4
loop_
_atom_type_symbol
_atom_type_radius_bond
C 0.68
H 0.23
N 0.68
O 0.68
loop_
_atom_site_label
_atom_site_type_symbol
_atom_site_fract_x
_atom_site_fract_y
_atom_site_fract_z
C1 C 0.3956(4) 0.3682(4) 0.4469(4)
H1 H 0.38940 0.34350 0.47600
C2 C 0.3609(4) 0.4125(5) 0.4387(5)
C3 C 0.3154(4) 0.4252(5) 0.4784(4)
C4 C 0.3212(5) 0.4010(5) 0.5356(5)
H2 H 0.30110 0.42350 0.56160
H3 H 0.35960 0.40000 0.54590
H4 H 0.30640 0.36400 0.53600
C5 C 0.2310(4) 0.4701(4) 0.4962(4)
H5 H 0.23470 0.45160 0.53220
C6 C 0.1792(4) 0.4496(5) 0.4668(5)
H6 H 0.17900 0.40940 0.46560
H7 H 0.17830 0.46360 0.42910
C7 C 0.1285(5) 0.4709(6) 0.4994(7)
H8 H 0.10170 0.44840 0.51580
N1 N 0.2763(3) 0.4555(3) 0.4614(3)
C8 C 0.1922(5) 0.3643(5) 0.6172(5)
H9 H 0.22190 0.37400 0.59460
C9 C 0.1618(4) 0.3190(5) 0.6041(4)
C10 C 0.1733(5) 0.2843(4) 0.5543(4)
H10 H 0.15040 0.25440 0.54590
C11 C 0.2224(5) 0.2612(5) 0.4770(5)
H11 H 0.19660 0.22990 0.47880
C12 C 0.2078(8) 0.2945(6) 0.4254(5)
H12 H 0.16880 0.30440 0.42570
H13 H 0.22950 0.32830 0.42400
C13 C 0.2204(5) 0.2593(9) 0.3772(6)
H14 H 0.21290 0.27980 0.34340
H15 H 0.19640 0.22700 0.37770
N2 N 0.2124(4) 0.2951(3) 0.5249(3)
O1 O 0.313(3) 0.25000 0.75000
O2 O 0.3306(6) 0.3306(6) 0.6694(6)
O3? O 0.50000 0.4581(12) 0.50000
O4? O 0.4576(11) 0.4576(11) 0.5424(11)
C1C C 0.3956(4) 0.6318(4) 0.5531(4)
H1C H 0.38940 0.65650 0.52400
C2C C 0.3609(4) 0.5875(5) 0.5613(5)
C3C C 0.3154(4) 0.5748(5) 0.5216(4)
C4C C 0.3212(5) 0.5990(5) 0.4644(5)
H2C H 0.30110 0.57650 0.43840
H3C H 0.35960 0.60000 0.45410
H4C H 0.30640 0.63600 0.46400
C5C C 0.2310(4) 0.5299(4) 0.5038(4)
H5C H 0.23470 0.54840 0.46780
C6C C 0.1792(4) 0.5504(5) 0.5332(5)
H6C H 0.17900 0.59060 0.53440
H7C H 0.17830 0.53640 0.57090
C7C C 0.1285(5) 0.5291(6) 0.5006(7)
H8C H 0.10170 0.55160 0.48420
N1C N 0.2763(3) 0.5445(3) 0.5386(3)
C1D C 0.4469(4) 0.3956(4) 0.3682(4)
H1D H 0.47600 0.38940 0.34350
C2D C 0.4387(4) 0.3609(5) 0.4125(5)
C3D C 0.4784(4) 0.3154(5) 0.4252(4)
C4D C 0.5356(5) 0.3212(5) 0.4010(5)
H2D H 0.56160 0.30110 0.42350
H3D H 0.54590 0.35960 0.40000
H4D H 0.53600 0.30640 0.36400
C5D C 0.4962(4) 0.2310(4) 0.4701(4)
H5D H 0.53220 0.23470 0.45160
C6D C 0.4668(4) 0.1792(5) 0.4496(5)
H6D H 0.46560 0.17900 0.40940
H7D H 0.42910 0.17830 0.46360
C7D C 0.4994(5) 0.1285(6) 0.4709(7)
H8D H 0.51580 0.10170 0.44840
N1D N 0.4614(3) 0.2763(3) 0.4555(3)
C1G C 0.5531(4) 0.3956(4) 0.6318(4)
H1G H 0.52400 0.38940 0.65650
C2G C 0.5613(4) 0.3609(5) 0.5875(5)
C3G C 0.5216(4) 0.3154(5) 0.5748(4)
C4G C 0.4644(5) 0.3212(5) 0.5990(5)
H2G H 0.43840 0.30110 0.57650
H3G H 0.45410 0.35960 0.60000
H4G H 0.46400 0.30640 0.63600
C5G C 0.5038(4) 0.2310(4) 0.5299(4)
H5G H 0.46780 0.23470 0.54840
C6G C 0.5332(4) 0.1792(5) 0.5504(5)
H6G H 0.53440 0.17900 0.59060
H7G H 0.57090 0.17830 0.53640
C7G C 0.5006(5) 0.1285(6) 0.5291(7)
H8G H 0.48420 0.10170 0.55160
N1G N 0.5386(3) 0.2763(3) 0.5445(3)
C1H C 0.3682(4) 0.4469(4) 0.3956(4)
H1H H 0.34350 0.47600 0.38940
C2H C 0.4125(4) 0.4387(5) 0.3609(5)
C3H C 0.4252(4) 0.4784(5) 0.3154(4)
C4H C 0.4010(5) 0.5356(5) 0.3212(5)
H2H H 0.42350 0.56160 0.30110
H3H H 0.40000 0.54590 0.35960
H4H H 0.36400 0.53600 0.30640
C5H C 0.4701(4) 0.4962(4) 0.2310(4)
H5H H 0.45160 0.53220 0.23470
C6H C 0.4496(4) 0.4668(5) 0.1792(5)
H6H H 0.40940 0.46560 0.17900
H7H H 0.46360 0.42910 0.17830
C7H C 0.4709(5) 0.4994(6) 0.1285(7)
H8H H 0.44840 0.51580 0.10170
N1H N 0.4555(3) 0.4614(3) 0.2763(3)
C1J C 0.3682(4) 0.5531(4) 0.6044(4)
H1J H 0.34350 0.52400 0.61060
C2J C 0.4125(4) 0.5613(5) 0.6391(5)
C3J C 0.4252(4) 0.5216(5) 0.6846(4)
C4J C 0.4010(5) 0.4644(5) 0.6788(5)
H2J H 0.42350 0.43840 0.69890
H3J H 0.40000 0.45410 0.64040
H4J H 0.36400 0.46400 0.69360
C5J C 0.4701(4) 0.5038(4) 0.7690(4)
H5J H 0.45160 0.46780 0.76530
C6J C 0.4496(4) 0.5332(5) 0.8208(5)
H6J H 0.40940 0.53440 0.82100
H7J H 0.46360 0.57090 0.82170
C7J C 0.4709(5) 0.5006(6) 0.8715(7)
H8J H 0.44840 0.48420 0.89830
N1J N 0.4555(3) 0.5386(3) 0.7237(3)
C1B C 0.6044(4) 0.3682(4) 0.5531(4)
H1B H 0.61060 0.34350 0.52400
C2B C 0.6391(4) 0.4125(5) 0.5613(5)
C3B C 0.6846(4) 0.4252(5) 0.5216(4)
C4B C 0.6788(5) 0.4010(5) 0.4644(5)
H2B H 0.69890 0.42350 0.43840
H3B H 0.64040 0.40000 0.45410
H4B H 0.69360 0.36400 0.46400
C5B C 0.7690(4) 0.4701(4) 0.5038(4)
H5B H 0.76530 0.45160 0.46780
C6B C 0.8208(4) 0.4496(5) 0.5332(5)
H6B H 0.82100 0.40940 0.53440
H7B H 0.82170 0.46360 0.57090
C7B C 0.8715(5) 0.4709(6) 0.5006(7)
H8B H 0.89830 0.44840 0.48420
N1B N 0.7237(3) 0.4555(3) 0.5386(3)
C1E C 0.4469(4) 0.6044(4) 0.6318(4)
H1E H 0.47600 0.61060 0.65650
C2E C 0.4387(4) 0.6391(5) 0.5875(5)
C3E C 0.4784(4) 0.6846(5) 0.5748(4)
C4E C 0.5356(5) 0.6788(5) 0.5990(5)
H2E H 0.56160 0.69890 0.57650
H3E H 0.54590 0.64040 0.60000
H4E H 0.53600 0.69360 0.63600
C5E C 0.4962(4) 0.7690(4) 0.5299(4)
H5E H 0.53220 0.76530 0.54840
C6E C 0.4668(4) 0.8208(5) 0.5504(5)
H6E H 0.46560 0.82100 0.59060
H7E H 0.42910 0.82170 0.53640
C7E C 0.4994(5) 0.8715(6) 0.5291(7)
H8E H 0.51580 0.89830 0.55160
N1E N 0.4614(3) 0.7237(3) 0.5445(3)
C1F C 0.5531(4) 0.6044(4) 0.3682(4)
H1F H 0.52400 0.61060 0.34350
C2F C 0.5613(4) 0.6391(5) 0.4125(5)
C3F C 0.5216(4) 0.6846(5) 0.4252(4)
C4F C 0.4644(5) 0.6788(5) 0.4010(5)
H2F H 0.43840 0.69890 0.42350
H3F H 0.45410 0.64040 0.40000
H4F H 0.46400 0.69360 0.36400
C5F C 0.5038(4) 0.7690(4) 0.4701(4)
H5F H 0.46780 0.76530 0.45160
C6F C 0.5332(4) 0.8208(5) 0.4496(5)
H6F H 0.53440 0.82100 0.40940
H7F H 0.57090 0.82170 0.46360
C7F C 0.5006(5) 0.8715(6) 0.4709(7)
H8F H 0.48420 0.89830 0.44840
N1F N 0.5386(3) 0.7237(3) 0.4555(3)
C1I C 0.6318(4) 0.4469(4) 0.6044(4)
H1I H 0.65650 0.47600 0.61060
C2I C 0.5875(4) 0.4387(5) 0.6391(5)
C3I C 0.5748(4) 0.4784(5) 0.6846(4)
C4I C 0.5990(5) 0.5356(5) 0.6788(5)
H2I H 0.57650 0.56160 0.69890
H3I H 0.60000 0.54590 0.64040
H4I H 0.63600 0.53600 0.69360
C5I C 0.5299(4) 0.4962(4) 0.7690(4)
H5I H 0.54840 0.53220 0.76530
C6I C 0.5504(4) 0.4668(5) 0.8208(5)
H6I H 0.59060 0.46560 0.82100
H7I H 0.53640 0.42910 0.82170
C7I C 0.5291(5) 0.4994(6) 0.8715(7)
H8I H 0.55160 0.51580 0.89830
N1I N 0.5445(3) 0.4614(3) 0.7237(3)
C1K C 0.6318(4) 0.5531(4) 0.3956(4)
H1K H 0.65650 0.52400 0.38940
C2K C 0.5875(4) 0.5613(5) 0.3609(5)
C3K C 0.5748(4) 0.5216(5) 0.3154(4)
C4K C 0.5990(5) 0.4644(5) 0.3212(5)
H2K H 0.57650 0.43840 0.30110
H3K H 0.60000 0.45410 0.35960
H4K H 0.63600 0.46400 0.30640
C5K C 0.5299(4) 0.5038(4) 0.2310(4)
H5K H 0.54840 0.46780 0.23470
C6K C 0.5504(4) 0.5332(5) 0.1792(5)
H6K H 0.59060 0.53440 0.17900
H7K H 0.53640 0.57090 0.17830
C7K C 0.5291(5) 0.5006(6) 0.1285(7)
H8K H 0.55160 0.48420 0.10170
N1K N 0.5445(3) 0.5386(3) 0.2763(3)
C1A C 0.6044(4) 0.6318(4) 0.4469(4)
H1A H 0.61060 0.65650 0.47600
C2A C 0.6391(4) 0.5875(5) 0.4387(5)
C3A C 0.6846(4) 0.5748(5) 0.4784(4)
C4A C 0.6788(5) 0.5990(5) 0.5356(5)
H2A H 0.69890 0.57650 0.56160
H3A H 0.64040 0.60000 0.54590
H4A H 0.69360 0.63600 0.53600
C5A C 0.7690(4) 0.5299(4) 0.4962(4)
H5A H 0.76530 0.54840 0.53220
C6A C 0.8208(4) 0.5504(5) 0.4668(5)
H6A H 0.82100 0.59060 0.46560
H7A H 0.82170 0.53640 0.42910
C7A C 0.8715(5) 0.5291(6) 0.4994(7)
H8A H 0.89830 0.55160 0.51580
N1A N 0.7237(3) 0.5445(3) 0.4614(3)
C8IA C 0.1357(5) 0.3828(5) 0.6922(5)
H9IA H 0.12600 0.40540 0.72190
C9IA C 0.1810(4) 0.3959(5) 0.6618(4)
C10IA C 0.2157(5) 0.4457(4) 0.6733(4)
H10IA H 0.24560 0.45410 0.65040
C11IA C 0.2388(5) 0.5230(5) 0.7224(5)
H11IA H 0.27010 0.52120 0.69660
C12IA C 0.2055(8) 0.5746(6) 0.7078(5)
H12IA H 0.19560 0.57430 0.66880
H13IA H 0.17170 0.57600 0.72950
C13IA C 0.2407(5) 0.6228(9) 0.7204(6)
H14IA H 0.22020 0.65660 0.71290
H15IA H 0.27300 0.62230 0.69640
N2IA N 0.2049(4) 0.4751(3) 0.7124(3)
C8KA C 0.3078(5) 0.1357(5) 0.6172(5)
H9KA H 0.27810 0.12600 0.59460
C9KA C 0.3382(4) 0.1810(5) 0.6041(4)
C10KA C 0.3267(5) 0.2157(4) 0.5543(4)
H10KA H 0.34960 0.24560 0.54590
C11KA C 0.2776(5) 0.2388(5) 0.4770(5)
H11KA H 0.30340 0.27010 0.47880
C12KA C 0.2922(8) 0.2055(6) 0.4254(5)
H12KA H 0.33120 0.19560 0.42570
H13KA H 0.27050 0.17170 0.42400
C13KA C 0.2796(5) 0.2407(9) 0.3772(6)
H14KA H 0.28710 0.22020 0.34340
H15KA H 0.30360 0.27300 0.37770
N2KA N 0.2876(4) 0.2049(3) 0.5249(3)
C8OA C 0.1172(5) 0.3078(5) 0.6357(5)
H9OA H 0.09460 0.27810 0.62600
C9OA C 0.1041(4) 0.3382(5) 0.6810(4)
C10OA C 0.0543(5) 0.3267(4) 0.7157(4)
H10OA H 0.04590 0.34960 0.74560
C11OA C -0.0230(5) 0.2776(5) 0.7388(5)
H11OA H -0.02120 0.30340 0.77010
C12OA C -0.0746(8) 0.2922(6) 0.7055(5)
H12OA H -0.07430 0.33120 0.69560
H13OA H -0.07600 0.27050 0.67170
C13OA C -0.1228(5) 0.2796(9) 0.7407(6)
H14OA H -0.15660 0.28710 0.72020
H15OA H -0.12230 0.30360 0.77300
N2OA N 0.0249(4) 0.2876(3) 0.7049(3)
C8G C 0.3828(5) 0.1922(5) 0.6357(5)
H9G H 0.40540 0.22190 0.62600
C9G C 0.3959(4) 0.1618(5) 0.6810(4)
C10G C 0.4457(5) 0.1733(4) 0.7157(4)
H10G H 0.45410 0.15040 0.74560
C11G C 0.5230(5) 0.2224(5) 0.7388(5)
H11G H 0.52120 0.19660 0.77010
C12G C 0.5746(8) 0.2078(6) 0.7055(5)
H12G H 0.57430 0.16880 0.69560
H13G H 0.57600 0.22950 0.67170
C13G C 0.6228(5) 0.2204(9) 0.7407(6)
H14G H 0.65660 0.21290 0.72020
H15G H 0.62230 0.19640 0.77300
N2G N 0.4751(4) 0.2124(3) 0.7049(3)
C8J C 0.3643(5) 0.3828(5) 0.8078(5)
H9J H 0.37400 0.40540 0.77810
C9J C 0.3190(4) 0.3959(5) 0.8382(4)
C10J C 0.2843(5) 0.4457(4) 0.8267(4)
H10J H 0.25440 0.45410 0.84960
C11J C 0.2612(5) 0.5230(5) 0.7776(5)
H11J H 0.22990 0.52120 0.80340
C12J C 0.2945(8) 0.5746(6) 0.7922(5)
H12J H 0.30440 0.57430 0.83120
H13J H 0.32830 0.57600 0.77050
C13J C 0.2593(5) 0.6228(9) 0.7796(6)
H14J H 0.27980 0.65660 0.78710
H15J H 0.22700 0.62230 0.80360
N2J N 0.2951(4) 0.4751(3) 0.7876(3)
C8R C 0.3828(5) 0.3078(5) 0.8643(5)
H9R H 0.40540 0.27810 0.87400
C9R C 0.3959(4) 0.3382(5) 0.8190(4)
C10R C 0.4457(5) 0.3267(4) 0.7843(4)
H10R H 0.45410 0.34960 0.75440
C11R C 0.5230(5) 0.2776(5) 0.7612(5)
H11R H 0.52120 0.30340 0.72990
C12R C 0.5746(8) 0.2922(6) 0.7945(5)
H12R H 0.57430 0.33120 0.80440
H13R H 0.57600 0.27050 0.82830
C13R C 0.6228(5) 0.2796(9) 0.7593(6)
H14R H 0.65660 0.28710 0.77980
H15R H 0.62230 0.30360 0.72700
N2R N 0.4751(4) 0.2876(3) 0.7951(3)
C8T C 0.3643(5) 0.1172(5) 0.6922(5)
H9T H 0.37400 0.09460 0.72190
C9T C 0.3190(4) 0.1041(5) 0.6618(4)
C10T C 0.2843(5) 0.0543(4) 0.6733(4)
H10T H 0.25440 0.04590 0.65040
C11T C 0.2612(5) -0.0230(5) 0.7224(5)
H11T H 0.22990 -0.02120 0.69660
C12T C 0.2945(8) -0.0746(6) 0.7078(5)
H12T H 0.30440 -0.07430 0.66880
H13T H 0.32830 -0.07600 0.72950
C13T C 0.2593(5) -0.1228(9) 0.7204(6)
H14T H 0.27980 -0.15660 0.71290
H15T H 0.22700 -0.12230 0.69640
N2T N 0.2951(4) 0.0249(3) 0.7124(3)
C8BA C 0.1172(5) 0.1922(5) 0.8643(5)
H9BA H 0.09460 0.22190 0.87400
C9BA C 0.1041(4) 0.1618(5) 0.8190(4)
C10BA C 0.0543(5) 0.1733(4) 0.7843(4)
H10BA H 0.04590 0.15040 0.75440
C11BA C -0.0230(5) 0.2224(5) 0.7612(5)
H11BA H -0.02120 0.19660 0.72990
C12BA C -0.0746(8) 0.2078(6) 0.7945(5)
H12BA H -0.07430 0.16880 0.80440
H13BA H -0.07600 0.22950 0.82830
C13BA C -0.1228(5) 0.2204(9) 0.7593(6)
H14BA H -0.15660 0.21290 0.77980
H15BA H -0.12230 0.19640 0.72700
N2BA N 0.0249(4) 0.2124(3) 0.7951(3)
C8SA C 0.1357(5) 0.1172(5) 0.8078(5)
H9SA H 0.12600 0.09460 0.77810
C9SA C 0.1810(4) 0.1041(5) 0.8382(4)
C10SA C 0.2157(5) 0.0543(4) 0.8267(4)
H10SA H 0.24560 0.04590 0.84960
C11SA C 0.2388(5) -0.0230(5) 0.7776(5)
H11SA H 0.27010 -0.02120 0.80340
C12SA C 0.2055(8) -0.0746(6) 0.7922(5)
H12SA H 0.19560 -0.07430 0.83120
H13SA H 0.17170 -0.07600 0.77050
C13SA C 0.2407(5) -0.1228(9) 0.7796(6)
H14SA H 0.22020 -0.15660 0.78710
H15SA H 0.27300 -0.12230 0.80360
N2SA N 0.2049(4) 0.0249(3) 0.7876(3)
C8O C 0.1922(5) 0.1357(5) 0.8828(5)
H9O H 0.22190 0.12600 0.90540
C9O C 0.1618(4) 0.1810(5) 0.8959(4)
C10O C 0.1733(5) 0.2157(4) 0.9457(4)
H10O H 0.15040 0.24560 0.95410
C11O C 0.2224(5) 0.2388(5) 1.0230(5)
H11O H 0.19660 0.27010 1.02120
C12O C 0.2078(8) 0.2055(6) 1.0746(5)
H12O H 0.16880 0.19560 1.07430
H13O H 0.22950 0.17170 1.07600
C13O C 0.2204(5) 0.2407(9) 1.1228(6)
H14O H 0.21290 0.22020 1.15660
H15O H 0.19640 0.27300 1.12230
N2O N 0.2124(4) 0.2049(3) 0.9751(3)
C8Z C 0.3078(5) 0.3643(5) 0.8828(5)
H9Z H 0.27810 0.37400 0.90540
C9Z C 0.3382(4) 0.3190(5) 0.8959(4)
C10Z C 0.3267(5) 0.2843(4) 0.9457(4)
H10Z H 0.34960 0.25440 0.95410
C11Z C 0.2776(5) 0.2612(5) 1.0230(5)
H11Z H 0.30340 0.22990 1.02120
C12Z C 0.2922(8) 0.2945(6) 1.0746(5)
H12Z H 0.33120 0.30440 1.07430
H13Z H 0.27050 0.32830 1.07600
C13Z C 0.2796(5) 0.2593(9) 1.1228(6)
H14Z H 0.28710 0.27980 1.15660
H15Z H 0.30360 0.22700 1.12230
N2Z N 0.2876(4) 0.2951(3) 0.9751(3)
#END
