
#######################################################################
#
#                 Cambridge Crystallographic Data Centre
#                                CCDC
#
#######################################################################
#
# If this CIF has been generated from an entry in the Cambridge
# Structural Database, then it will include bibliographic, chemical,
# crystal, experimental, refinement or atomic coordinate data resulting
# from the CCDC's data processing and validation procedures.
#
#######################################################################

data_CSD_CIF_SENQEK
_audit_creation_date 2017-11-01
_audit_creation_method CSD-ConQuest-V1
_database_code_CSD SENQEK
_database_code_depnum_ccdc_archive 'CCDC 1533785'
_chemical_formula_sum 'C84 H108 N15'
_chemical_formula_moiety
;
C84 H108 N12,1.5(N2)
;
_journal_coden_Cambridge 2029
_journal_volume 3
_journal_year 2017
_journal_page_first 734
_journal_name_full 'ACS Cent.Sci. '
loop_
_publ_author_name
"A.G.Slater"
"P.S.Reiss"
"Angeles Pulido"
"M.A.Little"
"D.L.Holden"
"Linjiang Chen"
"Samantha Y.Chong"
"B.M.Alston"
"R.Clowes"
"M.Haranczyk"
"M.E.Briggs"
"T.Hasell"
"G.M.Day"
"A.I.Cooper"
_chemical_name_systematic
;
4,13,19,28,34,43,49,58,61,70,73,82-dodecamethyl-5,12,20,27,35,42,50,57,62,69,7
4,81-dodecaazatridecacyclo[29.29.10.10^16,46^.1^3,59^.1^14,18^.1^29,33^.1^44,4
8^.0^6,11^.0^21,26^.0^36,41^.0^51,56^.0^63,68^.0^75,80^]tetraoctaconta-1,3(71)
,4,12,14(84),15,17,19,27,29(83),30,32,34,42,44(72),45,47,49,57,59,61,69,73,81-
tetracosaene dinitrogen clathrate
;
_cell_volume   4101.404
_exptl_crystal_colour 'colorless'
_exptl_crystal_density_diffrn 1.075
_exptl_crystal_description 'needle'
_diffrn_ambient_temperature 100
_diffrn_special_details
;
twin

;
_refine_special_details
;
N15 and N16 disordered over two sites with occupancies 0.5:0.5.

;
#These two values have been output from a single CSD field.
_refine_ls_R_factor_gt 0.0631
_refine_ls_wR_factor_gt 0.0631
_symmetry_cell_setting monoclinic
_symmetry_space_group_name_H-M 'P 21'
_symmetry_Int_Tables_number 4
loop_
_symmetry_equiv_pos_site_id
_symmetry_equiv_pos_as_xyz
1 x,y,z
2 -x,1/2+y,-z
_cell_length_a 13.9132(17)
_cell_length_b 21.809(3)
_cell_length_c 14.0256(17)
_cell_angle_alpha 90
_cell_angle_beta 105.482(3)
_cell_angle_gamma 90
_cell_formula_units_Z 2
loop_
_atom_type_symbol
_atom_type_radius_bond
C 0.68
H 0.23
N 0.68
loop_
_atom_site_label
_atom_site_type_symbol
_atom_site_fract_x
_atom_site_fract_y
_atom_site_fract_z
N1 N 0.1493(8) 0.5728(4) 0.3611(6)
N2 N 0.1518(7) 0.7017(4) 0.3736(7)
N3 N 0.2099(7) 0.8784(4) 0.0446(7)
N4 N 0.1979(6) 0.8199(4) -0.1391(6)
N5 N 0.1662(7) 0.5335(4) -0.2061(6)
N6 N 0.1372(7) 0.4638(4) -0.0414(7)
N7 N 0.5100(8) 0.4128(4) 0.3087(8)
N8 N 0.6939(7) 0.4784(4) 0.3355(7)
N9 N 0.7354(7) 0.6370(5) -0.0241(7)
N10 N 0.5703(7) 0.6711(4) -0.1908(7)
N11 N 0.5669(7) 0.8214(4) 0.4161(6)
N12 N 0.7406(7) 0.7625(4) 0.3828(7)
C1 C 0.4109(9) 0.6931(5) -0.1673(8)
C2 C 0.3822(9) 0.6310(5) -0.1859(9)
H1 H 0.43060 0.60120 -0.19040
C3 C 0.2836(9) 0.6132(4) -0.1975(8)
C4 C 0.2148(8) 0.6584(5) -0.1899(8)
H2 H 0.14750 0.64650 -0.19760
C5 C 0.2399(8) 0.7191(5) -0.1719(8)
C6 C 0.3417(9) 0.7350(5) -0.1589(8)
H3 H 0.36180 0.77630 -0.14380
C7 C 0.5186(9) 0.7084(5) -0.1554(9)
C8 C 0.2553(10) 0.5465(4) -0.2113(9)
C9 C 0.1668(9) 0.7666(6) -0.1611(9)
C10 C 0.5567(8) 0.7698(5) -0.1062(9)
H4 H 0.62810 0.76650 -0.07320
H5 H 0.52040 0.78010 -0.05740
H6 H 0.54600 0.80200 -0.15670
C11 C 0.0578(9) 0.7465(6) -0.1868(13)
H7 H 0.01530 0.78210 -0.18550
H8 H 0.04880 0.71610 -0.13850
H9 H 0.03930 0.72830 -0.25310
C12 C 0.3100(9) 0.8228(5) 0.1788(8)
C13 C 0.2271(9) 0.7888(5) 0.1888(8)
H10 H 0.16520 0.79280 0.14000
C14 C 0.2338(8) 0.7495(5) 0.2683(8)
C15 C 0.3261(8) 0.7458(5) 0.3385(8)
H11 H 0.33260 0.72030 0.39470
C16 C 0.4102(9) 0.7787(5) 0.3284(9)
C17 C 0.4006(8) 0.8168(5) 0.2510(8)
H12 H 0.45650 0.84010 0.24530
C18 C 0.1485(8) 0.7144(4) 0.2858(9)
C19 C 0.5075(9) 0.7742(5) 0.4053(8)
C20 C 0.2986(9) 0.8610(5) 0.0887(8)
C21 C 0.0596(9) 0.7024(6) 0.1923(8)
H13 H 0.01630 0.73850 0.17900
H14 H 0.02130 0.66680 0.20430
H15 H 0.08570 0.69420 0.13520
C22 C 0.5303(9) 0.7146(5) 0.4610(9)
H16 H 0.50190 0.71530 0.51790
H17 H 0.60270 0.70910 0.48430
H18 H 0.50110 0.68050 0.41720
C23 C 0.3913(10) 0.8727(6) 0.0554(10)
H19 H 0.37310 0.89260 -0.00950
H20 H 0.42460 0.83360 0.05080
H21 H 0.43650 0.89940 0.10340
C24 C 0.7075(8) 0.6907(5) 0.2529(8)
C25 C 0.7030(8) 0.6444(5) 0.3192(8)
H22 H 0.70910 0.65450 0.38640
C26 C 0.6899(8) 0.5829(5) 0.2897(8)
C27 C 0.6862(8) 0.5689(5) 0.1905(9)
H23 H 0.67950 0.52750 0.16840
C28 C 0.6926(8) 0.6152(5) 0.1261(8)
C29 C 0.7036(8) 0.6760(5) 0.1555(8)
H24 H 0.70850 0.70720 0.10980
C30 C 0.7151(8) 0.7554(5) 0.2917(10)
C31 C 0.6872(8) 0.5331(5) 0.3622(8)
C32 C 0.6879(9) 0.6012(5) 0.0193(8)
C33 C 0.6213(9) 0.5481(5) -0.0269(9)
H25 H 0.64370 0.51070 0.01140
H26 H 0.62490 0.54210 -0.09510
H27 H 0.55240 0.55710 -0.02670
C34 C 0.3767(9) 0.4714(5) 0.2123(9)
C35 C 0.3566(8) 0.5015(5) 0.2934(8)
H28 H 0.40400 0.49940 0.35620
C36 C 0.2689(8) 0.5344(5) 0.2840(8)
C37 C 0.1998(8) 0.5381(5) 0.1923(8)
H29 H 0.13960 0.56020 0.18580
C38 C 0.2178(9) 0.5091(5) 0.1081(8)
C39 C 0.3071(9) 0.4762(5) 0.1248(9)
H30 H 0.31980 0.45540 0.06990
C40 C 0.4715(9) 0.4364(5) 0.2241(10)
C41 C 0.2434(9) 0.5624(5) 0.3713(8)
C42 C 0.1446(9) 0.5113(5) 0.0098(9)
C43 C 0.5105(9) 0.4349(5) 0.1352(8)
H31 H 0.46680 0.40960 0.08390
H32 H 0.57790 0.41750 0.15300
H33 H 0.51270 0.47670 0.11010
C44 C 0.0916(9) 0.5724(5) -0.0169(8)
H34 H 0.04260 0.56910 -0.08140
H35 H 0.14050 0.60420 -0.01990
H36 H 0.05750 0.58350 0.03350
C45 C 0.6834(9) 0.4265(5) 0.3977(8)
H37 H 0.65870 0.44110 0.45450
C46 C 0.784(1) 0.3963(6) 0.4358(8)
H38 H 0.82990 0.42490 0.48080
H39 H 0.81210 0.38730 0.37950
C47 C 0.7766(10) 0.3360(4) 0.4918(9)
H40 H 0.84320 0.31660 0.51400
H41 H 0.75320 0.34510 0.55110
C48 C 0.7052(9) 0.2928(5) 0.4254(8)
H42 H 0.69940 0.25480 0.46220
H43 H 0.73130 0.28150 0.36860
C49 C 0.6004(9) 0.3225(5) 0.3865(8)
H44 H 0.55560 0.29400 0.34040
H45 H 0.57160 0.33040 0.44270
C50 C 0.6077(9) 0.3826(5) 0.3334(8)
H46 H 0.62720 0.37370 0.27120
C51 C 0.7455(9) 0.8219(5) 0.4335(8)
H47 H 0.73510 0.85610 0.38440
C52 C 0.8489(9) 0.8267(6) 0.5059(10)
H48 H 0.90050 0.82570 0.46910
H49 H 0.86020 0.79140 0.55200
C53 C 0.8571(10) 0.8869(6) 0.5646(11)
H50 H 0.84700 0.92250 0.51910
H51 H 0.92380 0.89040 0.61190
C54 C 0.7753(10) 0.8856(6) 0.6207(10)
H52 H 0.78690 0.85020 0.66650
H53 H 0.77970 0.92350 0.66060
C55 C 0.6707(9) 0.8808(6) 0.5495(9)
H54 H 0.62020 0.87970 0.58760
H55 H 0.65750 0.91710 0.50560
C56 C 0.6630(7) 0.8225(5) 0.4872(7)
H56 H 0.67010 0.78570 0.53110
C57 C 0.0717(8) 0.6658(5) 0.3982(8)
H57 H 0.01480 0.66010 0.33800
C58 C 0.0375(9) 0.7004(5) 0.4774(9)
H58 H 0.01090 0.74100 0.45140
H59 H 0.09510 0.70720 0.53550
C59 C -0.0428(9) 0.6646(5) 0.5087(9)
H60 H -0.10350 0.66250 0.45260
H61 H -0.06010 0.68630 0.56380
C60 C -0.0082(9) 0.5994(5) 0.5415(9)
H62 H 0.04490 0.60120 0.60450
H63 H -0.06480 0.57590 0.55340
C61 C 0.0314(9) 0.5665(5) 0.4635(9)
H64 H 0.05700 0.52560 0.48850
H65 H -0.02350 0.56060 0.40270
C62 C 0.1145(8) 0.6035(5) 0.4392(8)
H66 H 0.17110 0.60910 0.49980
C63 C 0.0710(9) 0.4600(5) -0.1399(9)
H67 H 0.01920 0.49290 -0.14930
C64 C 0.0199(10) 0.3960(6) -0.1547(9)
H68 H 0.07180 0.36370 -0.13930
H69 H -0.02180 0.39150 -0.10790
C65 C -0.0463(11) 0.3867(7) -0.2621(9)
H70 H -0.07700 0.34550 -0.26960
H71 H -0.10010 0.41780 -0.27820
C66 C 0.0223(10) 0.3938(5) -0.330(1)
H72 H -0.01670 0.38800 -0.39960
H73 H 0.07470 0.36180 -0.31400
C67 C 0.072(1) 0.4581(5) -0.3181(8)
H74 H 0.11600 0.46150 -0.36290
H75 H 0.01980 0.49000 -0.33720
C68 C 0.1322(9) 0.4687(5) -0.2132(8)
H76 H 0.19110 0.44060 -0.19660
C69 C 0.6741(8) 0.6810(5) -0.1872(8)
H77 H 0.69700 0.72140 -0.15530
C70 C 0.6842(9) 0.6803(6) -0.2912(8)
H78 H 0.64910 0.71640 -0.32690
H79 H 0.65060 0.64320 -0.32510
C71 C 0.7915(10) 0.6808(6) -0.2986(9)
H80 H 0.82480 0.71930 -0.27010
H81 H 0.79240 0.67870 -0.36890
C72 C 0.8473(9) 0.6256(5) -0.2420(9)
H82 H 0.81610 0.58700 -0.27240
H83 H 0.91760 0.62590 -0.24480
C73 C 0.8428(9) 0.6292(6) -0.1349(9)
H84 H 0.87910 0.59390 -0.09770
H85 H 0.87630 0.66720 -0.10450
C74 C 0.7359(9) 0.6289(5) -0.1273(9)
H86 H 0.70420 0.58880 -0.15200
C75 C 0.1289(8) 0.8705(4) -0.1260(8)
H87 H 0.06990 0.85340 -0.10710
C76 C 0.0962(9) 0.9062(6) -0.2233(10)
H88 H 0.15570 0.92220 -0.24100
H89 H 0.06060 0.87830 -0.27690
C77 C 0.0276(9) 0.9595(6) -0.2143(10)
H90 H 0.00560 0.98150 -0.27810
H91 H -0.03230 0.94380 -0.19680
C78 C 0.0855(9) 1.0027(5) -0.1338(9)
H92 H 0.14390 1.01930 -0.15290
H93 H 0.04230 1.03760 -0.12670
C79 C 0.1202(9) 0.9693(5) -0.0359(9)
H94 H 0.06160 0.95450 -0.01520
H95 H 0.15790 0.99790 0.01540
C80 C 0.1886(8) 0.9134(5) -0.0455(9)
H96 H 0.25130 0.92740 -0.06060
C81 C 0.3316(11) 0.5033(6) -0.2324(15)
H97 H 0.36090 0.52160 -0.28200
H98 H 0.29940 0.46440 -0.25750
H99 H 0.38410 0.49580 -0.17130
C82 C 0.6870(11) 0.8063(5) 0.2133(10)
H100 H 0.74050 0.81110 0.18050
H101 H 0.67770 0.84490 0.24530
H102 H 0.62490 0.79520 0.16430
C83 C 0.6687(15) 0.5514(6) 0.4566(10)
H103 H 0.65740 0.51480 0.49260
H104 H 0.60980 0.57800 0.44380
H105 H 0.72680 0.57380 0.49640
C84 C 0.3274(9) 0.5768(6) 0.4587(9)
H106 H 0.34310 0.54060 0.50140
H107 H 0.30860 0.61080 0.49560
H108 H 0.38600 0.58840 0.43660
N13 N 0.421(3) 0.644(2) 0.159(3)
N14 N 0.383(3) 0.6586(19) 0.085(3)
N15 N 0.555(4) 0.472(3) 0.693(4)
N16 N 0.616(4) 0.470(3) 0.658(4)
#END
