
#######################################################################
#
#                 Cambridge Crystallographic Data Centre
#                                CCDC
#
#######################################################################
#
# If this CIF has been generated from an entry in the Cambridge
# Structural Database, then it will include bibliographic, chemical,
# crystal, experimental, refinement or atomic coordinate data resulting
# from the CCDC's data processing and validation procedures.
#
#######################################################################

data_CSD_CIF_SENQUA
_audit_creation_date 2017-11-01
_audit_creation_method CSD-ConQuest-V1
_database_code_CSD SENQUA
_database_code_depnum_ccdc_archive 'CCDC 1533788'
_chemical_formula_sum 'C95.92 H134.7 Cl6.8 N12'
_chemical_formula_moiety
;
C84 H108 N12,3.4(C1 H2 Cl2),1.42(C6 H14)
;
_journal_coden_Cambridge 2029
_journal_volume 3
_journal_year 2017
_journal_page_first 734
_journal_name_full 'ACS Cent.Sci. '
loop_
_publ_author_name
"A.G.Slater"
"P.S.Reiss"
"Angeles Pulido"
"M.A.Little"
"D.L.Holden"
"Linjiang Chen"
"Samantha Y.Chong"
"B.M.Alston"
"R.Clowes"
"M.Haranczyk"
"M.E.Briggs"
"T.Hasell"
"G.M.Day"
"A.I.Cooper"
_chemical_name_systematic
;
R-4,13,19,28,34,43,49,58,61,70,73,82-dodecamethyl-5,12,20,27,35,42,50,57,62,69
,74,81-dodecaazatridecacyclo[29.29.10.10^16,46^.1^3,59^.1^14,18^.1^29,33^.1^44
,48^.0^6,11^.0^21,26^.0^36,41^.0^51,56^.0^63,68^.0^75,80^]tetraoctaconta-1,3(7
1),4,12,14(84),15,17,19,27,29(83),30,32,34,42,44(72),45,47,49,57,59,61,69,73,8
1-tetracosaene dichloromethane n-hexane solvate
;
_cell_volume  13797.103
_exptl_crystal_colour 'colorless'
_exptl_crystal_density_diffrn 1.226
_exptl_crystal_description 'plate'
_diffrn_ambient_temperature 100
_refine_special_details
;
C12 and C12A disordered over two sites with occupancies 0.55:0.45; C30,Cl3 
disordered by symmetry over three configurations with occupancies 
0.3333,0.6667.
;
#These two values have been output from a single CSD field.
_refine_ls_R_factor_gt 0.0968
_refine_ls_wR_factor_gt 0.0968
_symmetry_cell_setting rhombohedral
_symmetry_space_group_name_H-M 'R 3 2'
_symmetry_Int_Tables_number 155
loop_
_symmetry_equiv_pos_site_id
_symmetry_equiv_pos_as_xyz
1 x,y,z
2 -y,x-y,z
3 -x+y,-x,z
4 x-y,-y,-z
5 -x,-x+y,-z
6 y,x,-z
7 2/3+x,1/3+y,1/3+z
8 2/3-y,1/3+x-y,1/3+z
9 2/3-x+y,1/3-x,1/3+z
10 2/3+x-y,1/3-y,1/3-z
11 2/3-x,1/3-x+y,1/3-z
12 2/3+y,1/3+x,1/3-z
13 1/3+x,2/3+y,2/3+z
14 1/3-y,2/3+x-y,2/3+z
15 1/3-x+y,2/3-x,2/3+z
16 1/3+x-y,2/3-y,2/3-z
17 1/3-x,2/3-x+y,2/3-z
18 1/3+y,2/3+x,2/3-z
_cell_length_a 13.7013(7)
_cell_length_b 13.7013(7)
_cell_length_c 84.866(5)
_cell_angle_alpha 90
_cell_angle_beta 90
_cell_angle_gamma 120
_cell_formula_units_Z 6
loop_
_atom_type_symbol
_atom_type_radius_bond
C 0.68
H 0.23
Cl 0.99
N 0.68
loop_
_atom_site_label
_atom_site_type_symbol
_atom_site_fract_x
_atom_site_fract_y
_atom_site_fract_z
N1 N 0.3544(6) 0.2961(5) 0.59933(7)
N2 N 0.3515(4) 0.4118(4) 0.62754(6)
N3 N 0.0578(6) 0.2884(5) 0.54028(7)
N4 N -0.0504(7) 0.4187(6) 0.53666(7)
C1 C 0.2213(6) 0.5839(6) 0.62428(7)
H1 H 0.14400 0.52710 0.62430
C2 C 0.3033(5) 0.5546(5) 0.62424(7)
C3 C 0.2735(5) 0.4323(5) 0.62404(7)
C4 C 0.1534(6) 0.3449(6) 0.61896(11)
H2 H 0.15540 0.28510 0.61290
H3 H 0.12200 0.38150 0.61240
H4 H 0.10620 0.31240 0.62830
C5 C 0.2086(7) 0.3345(7) 0.55714(9)
C6 C 0.2530(7) 0.3280(8) 0.57189(8)
H5 H 0.20270 0.28660 0.58020
C7 C 0.3645(9) 0.3789(10) 0.57446(9)
C8 C 0.4383(8) 0.442(1) 0.56310(9)
H6 H 0.51690 0.48020 0.56530
C9 C 0.3998(8) 0.4521(7) 0.54781(7)
C10 C 0.2850(6) 0.4014(7) 0.54593(8)
H7 H 0.25700 0.41350 0.53630
C11 C 0.0864(7) 0.2843(7) 0.55430(9)
C12 C -0.002(3) 0.194(2) 0.5665(3)
H8 H -0.07540 0.18930 0.56510
H9 H 0.02490 0.21810 0.57730
H10 H -0.00960 0.12030 0.56450
C13 C 0.4099(8) 0.3821(11) 0.59103(10)
C14 C 0.5151(9) 0.4858(11) 0.59526(11)
H11 H 0.52420 0.54800 0.58850
H12 H 0.57930 0.47390 0.59370
H13 H 0.51180 0.50440 0.60630
C15 C 0.3989(7) 0.2845(6) 0.61448(7)
H14 H 0.47990 0.34430 0.61540
C16 C 0.3895(9) 0.1675(7) 0.61518(9)
H15 H 0.30960 0.10800 0.61400
H16 H 0.43260 0.15990 0.60640
C17 C 0.4353(9) 0.1526(8) 0.63076(10)
H17 H 0.51610 0.21000 0.63170
H18 H 0.42840 0.07720 0.63110
C18 C 0.3687(8) 0.1651(7) 0.64479(9)
H19 H 0.28860 0.10510 0.64420
H20 H 0.40010 0.15690 0.65490
C19 C 0.3773(7) 0.2798(6) 0.64409(7)
H21 H 0.45680 0.33950 0.64560
H22 H 0.33210 0.28620 0.65270
C20 C 0.3336(6) 0.2962(6) 0.62787(7)
H23 H 0.25160 0.24020 0.62670
C21 C 0.0356(7) 0.5142(7) 0.53568(7)
C22 C 0.1260(8) 0.5493(7) 0.52299(9)
H24 H 0.09590 0.49650 0.51410
H25 H 0.19180 0.54870 0.52740
H26 H 0.14820 0.62540 0.51930
C23 C -0.0713(7) 0.3266(7) 0.52619(8)
H27 H -0.01460 0.35570 0.51750
C24 C -0.1886(7) 0.2741(8) 0.51924(10)
H28 H -0.24360 0.25480 0.52790
H29 H -0.19330 0.33050 0.51250
C25 C -0.2212(8) 0.1709(8) 0.50976(10)
H30 H -0.17180 0.19080 0.50040
H31 H -0.29980 0.13910 0.50610
C26 C -0.2113(10) 0.0844(10) 0.51927(14)
H32 H -0.23350 0.01630 0.51280
H33 H -0.26220 0.06240 0.52850
C27 C -0.0862(9) 0.1349(7) 0.52494(10)
H34 H -0.03460 0.15780 0.51580
H35 H -0.07760 0.07840 0.53110
C28 C -0.0587(6) 0.2401(7) 0.53544(8)
H36 H -0.10910 0.21630 0.54490
C29? C 0.013(2) 0.257(2) 0.5689(3)
H37? H -0.01420 0.17830 0.57200
H38? H -0.05190 0.26640 0.56660
H39? H 0.05680 0.30710 0.57750
Cl1? Cl 0.5177(7) 0.2599(6) 0.57035(8)
C30? C 0.636(2) 0.274(2) 0.5559(3)
H40? H 0.67360 0.34880 0.55060
H41? H 0.60540 0.21420 0.54780
N1A N 0.7039(6) 1.0583(5) 0.59933(7)
N2A N 0.5882(4) 0.9397(4) 0.62754(6)
N3A N 0.7116(6) 0.7694(5) 0.54028(7)
N4A N 0.5813(7) 0.5309(6) 0.53666(7)
C1A C 0.4161(6) 0.6374(6) 0.62428(7)
H1A H 0.47290 0.61690 0.62430
C2A C 0.4454(5) 0.7487(5) 0.62424(7)
C3A C 0.5677(5) 0.8412(5) 0.62404(7)
C4A C 0.6551(6) 0.8085(6) 0.61896(11)
H2A H 0.71490 0.87030 0.61290
H3A H 0.61850 0.74050 0.61240
H4A H 0.68760 0.79380 0.62830
C5A C 0.6655(7) 0.8741(7) 0.55714(9)
C6A C 0.6720(7) 0.9250(8) 0.57189(8)
H5A H 0.71340 0.91610 0.58020
C7A C 0.6211(9) 0.9856(10) 0.57446(9)
C8A C 0.5580(8) 0.9963(10) 0.56310(9)
H6A H 0.51980 1.03670 0.56530
C9A C 0.5479(8) 0.9477(7) 0.54781(7)
C10A C 0.5986(6) 0.8836(7) 0.54593(8)
H7A H 0.58650 0.84350 0.53630
C11A C 0.7157(7) 0.8021(7) 0.55430(9)
C12A C 0.806(3) 0.804(2) 0.5665(3)
H8A H 0.81070 0.73530 0.56510
H9A H 0.78190 0.80680 0.57730
H10A H 0.87970 0.87010 0.56450
C13A C 0.6179(8) 1.0278(11) 0.59103(10)
C14A C 0.5142(9) 1.0293(11) 0.59526(11)
H11A H 0.45200 0.97620 0.58850
H12A H 0.52610 1.10540 0.59370
H13A H 0.49560 1.00740 0.60630
C15A C 0.7155(7) 1.1144(6) 0.61448(7)
H14A H 0.65570 1.13560 0.61540
C16A C 0.8325(9) 1.2220(7) 0.61518(9)
H15A H 0.89200 1.20160 0.61400
H16A H 0.84010 1.27270 0.60640
C17A C 0.8474(9) 1.2827(8) 0.63076(10)
H17A H 0.79000 1.30610 0.63170
H18A H 0.92280 1.35120 0.63110
C18A C 0.8349(8) 1.2036(7) 0.64479(9)
H19A H 0.89490 1.18350 0.64420
H20A H 0.84310 1.24320 0.65490
C19A C 0.7202(7) 1.0975(6) 0.64409(7)
H21A H 0.66050 1.11730 0.64560
H22A H 0.71380 1.04590 0.65270
C20A C 0.7038(6) 1.0374(6) 0.62787(7)
H23A H 0.75980 1.01140 0.62670
C21A C 0.4858(7) 0.5214(7) 0.53568(7)
C22A C 0.4507(8) 0.5767(7) 0.52299(9)
H24A H 0.50350 0.59940 0.51410
H25A H 0.45130 0.64310 0.52740
H26A H 0.37460 0.52280 0.51930
C23A C 0.6734(7) 0.6021(7) 0.52619(8)
H27A H 0.64430 0.62970 0.51750
C24A C 0.7259(7) 0.5373(8) 0.51924(10)
H28A H 0.74520 0.50160 0.52790
H29A H 0.66950 0.47620 0.51250
C25A C 0.8291(8) 0.6079(8) 0.50976(10)
H30A H 0.80920 0.63740 0.50040
H31A H 0.86090 0.56110 0.50610
C26A C 0.9156(10) 0.7043(10) 0.51927(14)
H32A H 0.98370 0.75020 0.51280
H33A H 0.93760 0.67540 0.52850
C27A C 0.8651(9) 0.7789(7) 0.52494(10)
H34A H 0.84220 0.80760 0.51580
H35A H 0.92160 0.84400 0.53110
C28A C 0.7599(6) 0.7012(7) 0.53544(8)
H36A H 0.78370 0.67460 0.54490
N1B N -0.0583(6) 0.6456(5) 0.59933(7)
N2B N 0.0603(4) 0.6485(4) 0.62754(6)
N3B N 0.2306(6) 0.9422(5) 0.54028(7)
N4B N 0.4691(7) 1.0504(6) 0.53666(7)
C1B C 0.3626(6) 0.7787(6) 0.62428(7)
H1B H 0.38310 0.85600 0.62430
C2B C 0.2513(5) 0.6967(5) 0.62424(7)
C3B C 0.1588(5) 0.7265(5) 0.62404(7)
C4B C 0.1915(6) 0.8466(6) 0.61896(11)
H2B H 0.12970 0.84460 0.61290
H3B H 0.25950 0.87800 0.61240
H4B H 0.20620 0.89380 0.62830
C5B C 0.1259(7) 0.7914(7) 0.55714(9)
C6B C 0.0750(7) 0.7470(8) 0.57189(8)
H5B H 0.08390 0.79730 0.58020
C7B C 0.0144(9) 0.6355(10) 0.57446(9)
C8B C 0.0037(8) 0.5617(10) 0.56310(9)
H6B H -0.03670 0.48310 0.56530
C9B C 0.0523(8) 0.6002(7) 0.54781(7)
C10B C 0.1164(6) 0.7150(7) 0.54593(8)
H7B H 0.15650 0.74300 0.53630
C11B C 0.1979(7) 0.9136(7) 0.55430(9)
C12B C 0.196(3) 1.002(2) 0.5665(3)
H8B H 0.26470 1.07540 0.56510
H9B H 0.19320 0.97510 0.57730
H10B H 0.12990 1.00960 0.56450
C13B C -0.0278(8) 0.5901(11) 0.59103(10)
C14B C -0.0293(9) 0.4849(11) 0.59526(11)
H11B H 0.02380 0.47580 0.58850
H12B H -0.10540 0.42070 0.59370
H13B H -0.00740 0.48820 0.60630
C15B C -0.1144(7) 0.6011(6) 0.61448(7)
H14B H -0.13560 0.52010 0.61540
C16B C -0.2220(9) 0.6105(7) 0.61518(9)
H15B H -0.20160 0.69040 0.61400
H16B H -0.27270 0.56740 0.60640
C17B C -0.2827(9) 0.5647(8) 0.63076(10)
H17B H -0.30610 0.48390 0.63170
H18B H -0.35120 0.57160 0.63110
C18B C -0.2036(8) 0.6313(7) 0.64479(9)
H19B H -0.18350 0.71140 0.64420
H20B H -0.24320 0.59990 0.65490
C19B C -0.0975(7) 0.6227(6) 0.64409(7)
H21B H -0.11730 0.54320 0.64560
H22B H -0.04590 0.66790 0.65270
C20B C -0.0374(6) 0.6664(6) 0.62787(7)
H23B H -0.01140 0.74840 0.62670
C21B C 0.4786(7) 0.9644(7) 0.53568(7)
C22B C 0.4233(8) 0.8740(7) 0.52299(9)
H24B H 0.40060 0.90410 0.51410
H25B H 0.35690 0.80820 0.52740
H26B H 0.47720 0.85180 0.51930
C23B C 0.3979(7) 1.0713(7) 0.52619(8)
H27B H 0.37030 1.01460 0.51750
C24B C 0.4627(7) 1.1886(8) 0.51924(10)
H28B H 0.49840 1.24360 0.52790
H29B H 0.52380 1.19330 0.51250
C25B C 0.3921(8) 1.2212(8) 0.50976(10)
H30B H 0.36260 1.17180 0.50040
H31B H 0.43890 1.29980 0.50610
C26B C 0.2957(10) 1.2113(10) 0.51927(14)
H32B H 0.24980 1.23350 0.51280
H33B H 0.32460 1.26220 0.52850
C27B C 0.2211(9) 1.0862(7) 0.52494(10)
H34B H 0.19240 1.03460 0.51580
H35B H 0.15600 1.07760 0.53110
C28B C 0.2988(6) 1.0587(7) 0.53544(8)
H36B H 0.32540 1.10910 0.54490
#END
