
#######################################################################
#
#                 Cambridge Crystallographic Data Centre
#                                CCDC
#
#######################################################################
#
# If this CIF has been generated from an entry in the Cambridge
# Structural Database, then it will include bibliographic, chemical,
# crystal, experimental, refinement or atomic coordinate data resulting
# from the CCDC's data processing and validation procedures.
#
#######################################################################

data_CSD_CIF_SENRAH
_audit_creation_date 2017-11-01
_audit_creation_method CSD-ConQuest-V1
_database_code_CSD SENRAH
_database_code_depnum_ccdc_archive 'CCDC 1533789'
_chemical_formula_sum 'C87.63 H117.3 Cl7.26 N12 O1'
_chemical_formula_moiety
;
C84 H108 N12,3.63(C1 H2 Cl2),H2 O1
;
_journal_coden_Cambridge 2029
_journal_volume 3
_journal_year 2017
_journal_page_first 734
_journal_name_full 'ACS Cent.Sci. '
loop_
_publ_author_name
"A.G.Slater"
"P.S.Reiss"
"Angeles Pulido"
"M.A.Little"
"D.L.Holden"
"Linjiang Chen"
"Samantha Y.Chong"
"B.M.Alston"
"R.Clowes"
"M.Haranczyk"
"M.E.Briggs"
"T.Hasell"
"G.M.Day"
"A.I.Cooper"
_chemical_name_systematic
;
(rac)-4,13,19,28,34,43,49,58,61,70,73,82-dodecamethyl-5,12,20,27,35,42,50,57,6
2,69,74,81-dodecaazatridecacyclo[29.29.10.10^16,46^.1^3,59^.1^14,18^.1^29,33^.
1^44,48^.0^6,11^.0^21,26^.0^36,41^.0^51,56^.0^63,68^.0^75,80^]tetraoctaconta-1
,3(71),4,12,14(84),15,17,19,27,29(83),30,32,34,42,44(72),45,47,49,57,59,61,69,
73,81-tetracosaene dichloromethane solvate monohydrate
;
_cell_volume   8967.798
_exptl_crystal_colour 'colorless'
_exptl_crystal_density_diffrn 1.194
_exptl_crystal_description 'block'
_diffrn_ambient_temperature 100
_refine_special_details
;
The structure is disordered.

;
#These two values have been output from a single CSD field.
_refine_ls_R_factor_gt 0.107
_refine_ls_wR_factor_gt 0.107
_symmetry_cell_setting monoclinic
_symmetry_space_group_name_H-M 'P 21/n'
_symmetry_Int_Tables_number 14
loop_
_symmetry_equiv_pos_site_id
_symmetry_equiv_pos_as_xyz
1 x,y,z
2 1/2-x,1/2+y,1/2-z
3 -x,-y,-z
4 -1/2+x,-1/2-y,-1/2+z
_cell_length_a 11.0937(4)
_cell_length_b 50.914(2)
_cell_length_c 15.9349(6)
_cell_angle_alpha 90
_cell_angle_beta 94.880(2)
_cell_angle_gamma 90
_cell_formula_units_Z 4
loop_
_atom_type_symbol
_atom_type_radius_bond
C 0.68
H 0.23
Cl 0.99
N 0.68
O 0.68
loop_
_atom_site_label
_atom_site_type_symbol
_atom_site_fract_x
_atom_site_fract_y
_atom_site_fract_z
Cl1 Cl 0.7151(2) 0.35685(5) 0.39863(16)
Cl2 Cl 0.6086(4) 0.37381(10) 0.2344(3)
C1 C 0.7033(8) 0.38141(17) 0.3239(5)
H1 H 0.78510 0.38530 0.30660
H2 H 0.67280 0.39750 0.34980
Cl3 Cl 0.2267(3) 0.48130(6) -0.11486(19)
C2 C 0.3548(6) 0.46441(18) -0.0734(7)
H3 H 0.40590 0.47580 -0.03460
H4 H 0.33170 0.44860 -0.04240
Cl4 Cl 0.431(3) 0.4558(5) -0.1594(14)
Cl5 Cl 0.9165(3) 0.29549(7) 0.7208(2)
Cl6 Cl 1.0490(3) 0.26457(6) 0.6081(2)
C3 C 0.9811(8) 0.26606(16) 0.7023(5)
H5 H 0.91820 0.25220 0.70190
H6 H 1.04280 0.26220 0.74920
O1 O 0.836(3) 0.3454(7) 0.751(2)
O2 O 0.558(3) 0.3451(6) 0.8226(19)
Cl7 Cl 0.5344(5) 0.40852(8) 0.8186(2)
Cl8 Cl 0.4377(8) 0.44519(12) 0.6975(3)
C4 C 0.5307(12) 0.4192(2) 0.7166(5)
H7 H 0.61350 0.42410 0.70400
H8 H 0.50350 0.40460 0.67850
N1 N 0.7941(4) 0.40316(9) -0.0350(3)
N2 N 0.8821(4) 0.26928(9) 0.3454(3)
N3 N 0.3648(4) 0.29446(10) 0.1517(3)
N4 N 1.0740(4) 0.42590(9) 0.4312(3)
N5 N 1.0713(4) 0.30655(9) 0.3417(3)
N6 N 0.4533(4) 0.31873(10) 0.5271(3)
N7 N 1.0130(4) 0.38818(10) 0.0593(3)
N8 N 0.4320(5) 0.37304(10) 0.5748(3)
N9 N 0.3337(4) 0.33592(10) 0.0221(3)
N10 N 0.3456(4) 0.45339(10) 0.1376(3)
C5 C 0.9827(4) 0.37123(11) 0.1929(3)
N11 N 0.3956(5) 0.46617(10) 0.3170(4)
N12 N 0.8881(5) 0.44558(10) 0.5269(4)
C6 C 0.9965(5) 0.34909(11) 0.2433(4)
H9 H 0.99280 0.33220 0.21760
C7 C 1.0159(5) 0.35095(11) 0.3309(4)
C8 C 1.0190(5) 0.37572(11) 0.3676(4)
H10 H 1.03070 0.37720 0.42710
C9 C 0.9855(5) 0.39595(11) 0.2317(4)
H11 H 0.97360 0.41130 0.19810
C10 C 0.4254(5) 0.41249(12) 0.0972(4)
C11 C 0.6881(5) 0.28693(11) 0.3099(4)
C12 C 0.9668(5) 0.36966(11) 0.0990(4)
C13 C 0.5927(5) 0.29304(11) 0.2508(4)
H12 H 0.59930 0.28930 0.19290
C14 C 1.0342(5) 0.32626(12) 0.3815(4)
C15 C 1.0024(5) 0.38926(12) -0.0329(4)
H13 H 0.97420 0.37190 -0.05660
C16 C 0.6746(5) 0.29158(11) 0.3953(4)
H14 H 0.73760 0.28660 0.43640
C17 C 0.4798(5) 0.31008(12) 0.3594(4)
H15 H 0.40990 0.31880 0.37590
C18 C 0.8073(5) 0.27666(11) 0.2854(4)
C19 C 1.0055(5) 0.39831(11) 0.3189(4)
C20 C 0.5708(5) 0.30332(11) 0.4209(4)
C21 C 1.0056(5) 0.26146(12) 0.3319(4)
H16 H 1.01850 0.26210 0.27060
C22 C 0.3830(5) 0.31056(11) 0.2134(4)
C23 C 0.6119(5) 0.40786(12) 0.0302(4)
C24 C 0.4873(5) 0.30461(11) 0.2755(4)
C25 C 0.3970(5) 0.38650(12) 0.0778(4)
H17 H 0.32350 0.37930 0.09410
C26 C 0.7303(5) 0.41823(12) 0.0067(4)
C27 C 0.3438(5) 0.42847(12) 0.1469(4)
C28 C 0.5329(5) 0.42318(12) 0.0725(4)
H18 H 0.55210 0.44100 0.08470
C29 C 1.0897(5) 0.28095(11) 0.3816(4)
H19 H 1.06880 0.28180 0.44130
C30 C 0.3065(5) 0.33403(12) 0.2314(4)
H20 H 0.26700 0.34080 0.17840
H21 H 0.35790 0.34770 0.25880
H22 H 0.24480 0.32880 0.26860
C31 C 0.9119(5) 0.41049(11) -0.0607(4)
H23 H 0.93780 0.42760 -0.03400
C32 C 1.0142(5) 0.42478(12) 0.3598(4)
C33 C 1.1273(5) 0.39585(12) -0.0620(4)
H24 H 1.15820 0.41220 -0.03390
H25 H 1.18460 0.38150 -0.04550
C34 C 0.5559(5) 0.31035(12) 0.5105(4)
C35 C 0.4663(6) 0.42286(11) 0.4172(4)
H26 H 0.38780 0.42210 0.38850
C36 C 0.5005(6) 0.40460(12) 0.4805(4)
C37 C 0.2681(5) 0.41319(12) 0.2042(4)
H27 H 0.24350 0.42480 0.24890
H28 H 0.31560 0.39850 0.22950
H29 H 0.19600 0.40640 0.17160
C38 C 0.4136(5) 0.38342(11) 0.5016(4)
C39 C 0.2570(5) 0.29737(12) 0.0919(4)
H30 H 0.19700 0.30910 0.11660
C40 C 0.2025(5) 0.27007(12) 0.0773(4)
H31 H 0.26420 0.25820 0.05640
H32 H 0.17960 0.26290 0.13160
C41 C 0.9048(5) 0.41322(13) -0.1565(4)
H33 H 0.87630 0.39650 -0.18270
H34 H 0.84540 0.42700 -0.17450
C42 C 0.4741(5) 0.37075(12) 0.0351(4)
C43 C 0.5486(6) 0.44241(12) 0.3963(4)
C44 C 0.5816(5) 0.38177(13) 0.0128(4)
H35 H 0.63600 0.37120 -0.01530
C45 C 1.0276(6) 0.42026(13) -0.1865(4)
H36 H 1.02110 0.42140 -0.24880
H37 H 1.05390 0.43760 -0.16360
C46 C 1.1202(5) 0.39953(13) -0.1573(4)
H38 H 1.20070 0.40480 -0.17410
H39 H 1.09810 0.38260 -0.18530
C47 C 0.5086(6) 0.46124(12) 0.3276(4)
C48 C 0.3532(6) 0.35234(12) 0.6016(4)
H40 H 0.28330 0.35010 0.55830
C49 C 0.4251(6) 0.32653(12) 0.6101(4)
H41 H 0.50170 0.32940 0.64680
C50 C 0.6166(6) 0.40590(13) 0.5225(4)
H42 H 0.63910 0.39370 0.56610
C51 C 0.7002(6) 0.42492(13) 0.5012(4)
C52 C 0.8988(6) 0.34589(13) 0.0622(4)
H43 H 0.86330 0.35000 0.00530
H44 H 0.83440 0.34120 0.09790
H45 H 0.95490 0.33110 0.05960
C53 C 1.2206(6) 0.45549(13) 0.5056(4)
H46 H 1.26600 0.45750 0.45510
H47 H 1.25440 0.44020 0.53790
C54 C 0.4427(5) 0.34258(13) 0.0197(4)
C55 C 0.6623(6) 0.44298(13) 0.4386(4)
H48 H 0.71720 0.45630 0.42450
C56 C 0.3170(6) 0.37653(13) 0.4340(4)
H49 H 0.29100 0.35830 0.44150
H50 H 0.34880 0.37840 0.37880
H51 H 0.24780 0.38830 0.43730
C57 C 1.0145(6) 0.44801(13) 0.5566(4)
H52 H 1.04150 0.43220 0.59030
C58 C 1.0874(6) 0.45054(12) 0.4783(4)
H53 H 1.05450 0.46540 0.44220
C59 C 0.2913(5) 0.30889(13) 0.0080(4)
H54 H 0.35650 0.29810 -0.01450
C60 C 1.0282(5) 0.23366(12) 0.3664(5)
H55 H 1.00830 0.23290 0.42580
H56 H 0.97500 0.22110 0.33350
C61 C 1.2223(5) 0.27279(13) 0.3788(4)
H57 H 1.24530 0.27430 0.32030
H58 H 1.27450 0.28490 0.41450
C62 C 0.3500(6) 0.48513(13) 0.2551(4)
H59 H 0.41900 0.49390 0.22970
C63 C 0.9509(6) 0.44722(12) 0.3124(4)
H60 H 0.92650 0.46040 0.35250
H61 H 0.87910 0.44060 0.27900
H62 H 1.00600 0.45520 0.27490
C64 C 0.8273(6) 0.42541(14) 0.5409(4)
C65 C 0.0920(6) 0.27058(14) 0.0144(4)
H63 H 0.02740 0.28110 0.03740
H64 H 0.06130 0.25250 0.00480
C66 C 1.0061(6) 0.32689(13) 0.4723(4)
H65 H 0.96420 0.31070 0.48580
H66 H 0.95420 0.34200 0.48150
H67 H 1.08160 0.32840 0.50870
C67 C 0.2701(6) 0.47113(13) 0.1866(5)
H68 H 0.20780 0.46050 0.21310
C68 C 0.1813(6) 0.30959(14) -0.0554(4)
H69 H 0.20550 0.31640 -0.10960
H70 H 0.12070 0.32180 -0.03500
C69 C 0.6037(6) 0.47281(14) 0.2767(5)
H71 H 0.57500 0.47240 0.21680
H72 H 0.67830 0.46250 0.28580
H73 H 0.61950 0.49100 0.29420
C70 C 1.2363(6) 0.48018(14) 0.5599(5)
H74 H 1.32300 0.48270 0.57830
H75 H 1.20830 0.49570 0.52620
C71 C 1.2439(6) 0.24473(14) 0.4095(5)
H76 H 1.32880 0.23970 0.40270
H77 H 1.23120 0.24370 0.47010
C72 C 1.0319(6) 0.47277(14) 0.6106(5)
H78 H 0.99740 0.48800 0.57830
H79 H 0.98750 0.47080 0.66150
C73 C 0.3503(7) 0.30498(14) 0.6476(5)
H80 H 0.28180 0.30030 0.60650
H81 H 0.40140 0.28910 0.65750
C74 C 0.1235(7) 0.28252(15) -0.0697(4)
H82 H 0.18030 0.27080 -0.09640
H83 H 0.04910 0.28410 -0.10840
C75 C 0.1389(6) 0.51197(14) 0.1734(5)
H84 H 0.10350 0.52520 0.13290
H85 H 0.07180 0.50360 0.20070
C76 C 0.8252(6) 0.27728(16) 0.1930(4)
H86 H 0.91140 0.27520 0.18520
H87 H 0.79660 0.29410 0.16910
H88 H 0.77940 0.26290 0.16440
C77 C 0.2075(7) 0.49030(14) 0.1240(5)
H89 H 0.14900 0.48080 0.08470
H90 H 0.26810 0.49880 0.09070
C78 C 0.3059(7) 0.36009(14) 0.6852(5)
H91 H 0.25860 0.37650 0.67790
H92 H 0.37500 0.36340 0.72750
C79 C 1.1644(6) 0.47797(15) 0.6368(5)
H93 H 1.19750 0.46350 0.67330
H94 H 1.17230 0.49450 0.66970
C80 C 0.3014(8) 0.31300(14) 0.7295(5)
H95 H 0.36930 0.31600 0.77290
H96 H 0.25030 0.29870 0.74940
C81 C 0.2774(8) 0.50566(14) 0.3008(5)
H97 H 0.21290 0.49680 0.32940
H98 H 0.33160 0.51470 0.34410
C82 C 1.1601(6) 0.22590(14) 0.3612(5)
H99 H 1.17350 0.20800 0.38420
H100 H 1.17840 0.22570 0.30150
C83 C 0.2219(7) 0.52537(15) 0.2389(5)
H101 H 0.17610 0.53860 0.26900
H102 H 0.28660 0.53460 0.21150
C84 C 0.6641(7) 0.30619(17) 0.5741(5)
H103 H 0.72630 0.31930 0.56500
H104 H 0.69700 0.28850 0.56720
H105 H 0.63870 0.30800 0.63120
C85 C 0.2259(8) 0.33831(15) 0.7168(6)
H106 H 0.15580 0.33520 0.67530
H107 H 0.19490 0.34360 0.77070
C86 C 0.8710(7) 0.40029(16) 0.5877(5)
H108 H 0.95960 0.40020 0.59510
H109 H 0.84270 0.38490 0.55480
H110 H 0.83850 0.39980 0.64300
C87 C 0.7490(16) 0.4480(2) 0.0199(15)
H111 H 0.74870 0.45220 0.07990
H112 H 0.68340 0.45760 -0.01180
H113 H 0.82670 0.45320 0.00000
C88 C 0.5501(9) 0.32340(19) 0.0164(10)
H114 H 0.61000 0.32690 0.06390
H115 H 0.58750 0.32590 -0.03660
H116 H 0.52100 0.30530 0.01980
C89? C 0.7239(19) 0.3584(6) 0.2918(7)
H117? H 0.69300 0.34220 0.26300
H118? H 0.80740 0.36190 0.27720
Cl9? Cl 0.628(3) 0.3853(5) 0.270(2)
Cl10? Cl 0.4787(4) 0.48540(15) -0.0761(4)
H119? H 0.36710 0.44850 -0.10720
H120? H 0.34500 0.45900 -0.01470
Cl11? Cl 0.693(4) 0.3510(9) 0.789(3)
C90? C 0.834(5) 0.3389(14) 0.825(4)
H121? H 0.89480 0.35320 0.82670
H122? H 0.83180 0.33160 0.88190
Cl12? Cl 0.874(3) 0.3146(7) 0.756(2)
C91? C 0.530(3) 0.3271(6) -0.030(3)
H123? H 0.51000 0.30840 -0.02810
H124? H 0.61300 0.32980 -0.00430
H125? H 0.52410 0.33320 -0.08810
C92? C 0.7765(14) 0.4433(3) 0.0519(13)
H126? H 0.76380 0.44200 0.11180
H127? H 0.73230 0.45850 0.02730
H128? H 0.86300 0.44540 0.04540
O3? O 0.950(3) 0.3051(6) 0.6742(18)
O4? O 0.666(4) 0.3534(8) 0.172(3)
#END
