
#######################################################################
#
#                 Cambridge Crystallographic Data Centre
#                                CCDC
#
#######################################################################
#
# If this CIF has been generated from an entry in the Cambridge
# Structural Database, then it will include bibliographic, chemical,
# crystal, experimental, refinement or atomic coordinate data resulting
# from the CCDC's data processing and validation procedures.
#
#######################################################################

data_CSD_CIF_SENREL
_audit_creation_date 2017-11-01
_audit_creation_method CSD-ConQuest-V1
_database_code_CSD SENREL
_database_code_depnum_ccdc_archive 'CCDC 1533790'
_chemical_formula_sum 'C97 H140 Cl2 N12 O3'
_chemical_formula_moiety
;
C84 H108 N12,3(C4 H10 O1),C1 H2 Cl2
;
_journal_coden_Cambridge 2029
_journal_volume 3
_journal_year 2017
_journal_page_first 734
_journal_name_full 'ACS Cent.Sci. '
loop_
_publ_author_name
"A.G.Slater"
"P.S.Reiss"
"Angeles Pulido"
"M.A.Little"
"D.L.Holden"
"Linjiang Chen"
"Samantha Y.Chong"
"B.M.Alston"
"R.Clowes"
"M.Haranczyk"
"M.E.Briggs"
"T.Hasell"
"G.M.Day"
"A.I.Cooper"
_chemical_name_systematic
;
(R)-4,13,19,28,34,43,49,58,61,70,73,82-dodecamethyl-5,12,20,27,35,42,50,57,62,
69,74,81-dodecaazatridecacyclo[29.29.10.10^16,46^.1^3,59^.1^14,18^.1^29,33^.1^
44,48^.0^6,11^.0^21,26^.0^36,41^.0^51,56^.0^63,68^.0^75,80^]tetraoctaconta-1,3
(71),4,12,14(84),15,17,19,27,29(83),30,32,34,42,44(72),45,47,49,57,59,61,69,73
,81-tetracosaene dichloromethane diethyl ether solvate
;
_cell_volume  13789.132
_exptl_crystal_colour 'colorless'
_exptl_crystal_density_diffrn 1.151
_exptl_crystal_description 'needle'
_diffrn_ambient_temperature 100
_refine_special_details
;
C16B and C16A disordered over two sites with occupancies 0.6:0.4; C38B and 
C38A disordered over two sites with occupancies 0.6:0.4; C57,Cl1,Cl2 
disordered by symmetry over three configurations with occupancy 0.3333; 
C58,Cl3,Cl4 disordered by symmetry over three configurations with occupancy 
0.3333; C63,C64 and C61,C62 disordered over two sites with occupancies 
0.5:0.5.
;
#These two values have been output from a single CSD field.
_refine_ls_R_factor_gt 0.0951
_refine_ls_wR_factor_gt 0.0951
_symmetry_cell_setting rhombohedral
_symmetry_space_group_name_H-M 'R 3'
_symmetry_Int_Tables_number 146
loop_
_symmetry_equiv_pos_site_id
_symmetry_equiv_pos_as_xyz
1 x,y,z
2 -y,x-y,z
3 -x+y,-x,z
4 2/3+x,1/3+y,1/3+z
5 2/3-y,1/3+x-y,1/3+z
6 2/3-x+y,1/3-x,1/3+z
7 1/3+x,2/3+y,2/3+z
8 1/3-y,2/3+x-y,2/3+z
9 1/3-x+y,2/3-x,2/3+z
_cell_length_a 26.5704(10)
_cell_length_b 26.5704(10)
_cell_length_c 22.5533(9)
_cell_angle_alpha 90
_cell_angle_beta 90
_cell_angle_gamma 120
_cell_formula_units_Z 6
loop_
_atom_type_symbol
_atom_type_radius_bond
C 0.68
H 0.23
Cl 0.99
N 0.68
O 0.68
loop_
_atom_site_label
_atom_site_type_symbol
_atom_site_fract_x
_atom_site_fract_y
_atom_site_fract_z
O1 O 0.3205(4) 0.2914(4) 0.4326(4)
C1 C 0.3730(5) 0.3114(5) 0.3467(4)
H1 H 0.35660 0.26940 0.34210
H2 H 0.41240 0.33180 0.33040
H3 H 0.34860 0.32350 0.32540
C2 C 0.3747(5) 0.3256(5) 0.4100(5)
H4 H 0.40310 0.31830 0.43100
H5 H 0.38660 0.36710 0.41480
C3 C 0.3350(6) 0.3082(6) 0.4928(6)
H6 H 0.37550 0.31660 0.49780
H7 H 0.33610 0.34580 0.49700
C4 C 0.3046(7) 0.2751(7) 0.5417(7)
H8 H 0.29110 0.29680 0.56570
H9 H 0.33010 0.26640 0.56560
H10 H 0.27100 0.23870 0.52820
O2 O 0.6651(6) 0.6605(6) 0.5068(6)
C5 C 0.6328(5) 0.6485(5) 0.4173(5)
H11 H 0.66310 0.68250 0.39640
H12 H 0.59710 0.63060 0.39350
H13 H 0.64580 0.62040 0.42370
C6 C 0.6212(9) 0.6666(10) 0.4746(7)
H14 H 0.62890 0.70700 0.47420
H15 H 0.58140 0.63990 0.48930
C7 C 0.6554(8) 0.6825(8) 0.5573(7)
H16 H 0.61430 0.66090 0.57040
H17 H 0.66910 0.72460 0.55460
C8 C 0.6957(12) 0.6688(13) 0.5949(11)
H18 H 0.68630 0.62860 0.58760
H19 H 0.69020 0.67370 0.63710
H20 H 0.73630 0.69540 0.58390
N1 N 0.4198(2) 0.5964(2) 0.7580(2)
N2 N 0.4753(2) 0.5784(2) 0.6593(2)
N3 N 0.5343(2) 0.7341(2) 0.4300(2)
N4 N 0.51877(19) 0.83442(19) 0.4356(2)
C9 C 0.2929(4) 0.4613(4) 0.5422(3)
H21 H 0.25190 0.44050 0.53060
H22 H 0.29860 0.48820 0.57460
H23 H 0.30440 0.43340 0.55530
C10 C 0.3296(2) 0.4951(2) 0.4898(2)
C11 C 0.3841(2) 0.5518(2) 0.5019(2)
C12 C 0.4064(2) 0.5954(2) 0.4586(2)
H24 H 0.38700 0.58910 0.42160
C13 C 0.4571(2) 0.6481(2) 0.4697(2)
C14 C 0.4853(2) 0.6572(2) 0.5249(3)
H25 H 0.51960 0.69320 0.53260
C15 C 0.4635(2) 0.6141(2) 0.5684(2)
C16 C 0.4125(2) 0.5612(2) 0.5560(2)
H26 H 0.39730 0.53130 0.58510
C17 C 0.4809(2) 0.6958(2) 0.4247(2)
C18 C 0.4384(3) 0.6937(2) 0.3788(3)
H27 H 0.40390 0.69010 0.39870
H28 H 0.42690 0.66020 0.35270
H29 H 0.45690 0.72950 0.35530
C19 C 0.4910(2) 0.6231(3) 0.6282(3)
C20 C 0.5316(4) 0.6857(3) 0.6479(3)
H30 H 0.52900 0.68850 0.69100
H31 H 0.52010 0.71140 0.62840
H32 H 0.57160 0.69730 0.63690
C21 C 0.2910(2) 0.6078(2) 0.7417(2)
H33 H 0.26210 0.56780 0.74190
C22 C 0.3496(3) 0.6238(2) 0.7416(2)
C23 C 0.3682(3) 0.5791(3) 0.7428(3)
C24 C 0.3245(5) 0.5203(5) 0.7133(6)
H34 H 0.31660 0.52730 0.67250
H35 H 0.28810 0.50190 0.73590
H36 H 0.34110 0.49470 0.71270
C25 C 0.4966(3) 0.5814(3) 0.7196(2)
H37 H 0.52520 0.62250 0.73020
C26 C 0.5253(3) 0.5436(3) 0.7236(3)
H38 H 0.49790 0.50400 0.70890
H39 H 0.56020 0.56040 0.69810
C27 C 0.5423(3) 0.5400(3) 0.7869(3)
H40 H 0.57230 0.57920 0.80030
H41 H 0.55940 0.51430 0.78840
C28 C 0.4904(4) 0.5167(4) 0.8281(3)
H42 H 0.50320 0.51660 0.86930
H43 H 0.46200 0.47610 0.81700
C29 C 0.4612(4) 0.5545(3) 0.8245(3)
H44 H 0.42620 0.53760 0.85010
H45 H 0.48850 0.59420 0.83900
C30 C 0.4441(3) 0.5575(3) 0.7611(3)
H46 H 0.41410 0.51770 0.74760
C31 C 0.5626(2) 0.7824(2) 0.3890(2)
H47 H 0.53720 0.77520 0.35370
C32 C 0.6208(3) 0.7890(3) 0.3694(3)
H48 H 0.64440 0.79300 0.40500
H49 H 0.61350 0.75330 0.34820
C33 C 0.6548(3) 0.8412(3) 0.3293(3)
H50 H 0.69280 0.84470 0.31960
H51 H 0.63310 0.83530 0.29180
C34 C 0.6645(3) 0.8960(3) 0.3586(4)
H52 H 0.68400 0.92880 0.33040
H53 H 0.69020 0.90440 0.39340
C35 C 0.6070(3) 0.8904(3) 0.3784(3)
H54 H 0.58260 0.88530 0.34320
H55 H 0.61460 0.92650 0.39890
C36 C 0.5742(2) 0.8387(2) 0.4201(2)
H56 H 0.59770 0.84460 0.45680
N5 N 0.7825(2) 0.5695(2) 0.8304(2)
N6 N 0.75186(19) 0.48937(19) 0.92733(19)
N7 N 0.6211(3) 0.4841(3) 0.5992(2)
N8 N 0.5112(2) 0.3720(2) 0.6052(2)
C37 C 0.8788(3) 0.4834(4) 0.7118(3)
H57 H 0.89110 0.45520 0.70240
H58 H 0.85220 0.46950 0.74580
H59 H 0.91290 0.52090 0.72160
C38 C 0.8482(2) 0.4905(2) 0.6590(3)
C39 C 0.7965(3) 0.4973(2) 0.6716(2)
C40 C 0.7911(2) 0.5204(2) 0.7252(2)
H60 H 0.82080 0.53210 0.75420
C41 C 0.7429(3) 0.5267(3) 0.7371(3)
C42 C 0.6997(3) 0.5094(3) 0.6940(3)
H61 H 0.66690 0.51390 0.70130
C43 C 0.7040(3) 0.4854(3) 0.6401(3)
C44 C 0.7527(3) 0.4803(3) 0.6293(3)
H62 H 0.75620 0.46490 0.59250
C45 C 0.7372(3) 0.5476(3) 0.7974(3)
C46 C 0.6770(4) 0.5316(5) 0.8184(5)
H63 H 0.67680 0.53410 0.86170
H64 H 0.64930 0.49180 0.80590
H65 H 0.66580 0.55840 0.80110
C47 C 0.6544(3) 0.4627(3) 0.5963(3)
C48 C 0.6503(3) 0.4171(3) 0.5539(3)
H66 H 0.61240 0.39880 0.53400
H67 H 0.65440 0.38750 0.57580
H68 H 0.68130 0.43510 0.52430
C49 C 0.7233(2) 0.3436(2) 0.9040(2)
H69 H 0.76190 0.35030 0.90410
C50 C 0.7141(2) 0.3904(2) 0.9039(2)
C51 C 0.7631(2) 0.4522(2) 0.9060(2)
C52 C 0.8208(2) 0.4629(3) 0.8811(3)
H70 H 0.83910 0.49940 0.85860
H71 H 0.81410 0.43070 0.85490
H72 H 0.84630 0.46570 0.91380
C53 C 0.5725(3) 0.4663(3) 0.5572(3)
H73 H 0.57740 0.44550 0.52280
C54 C 0.5733(5) 0.5211(4) 0.5358(4)
H74 H 0.61090 0.54710 0.51630
H75 H 0.56920 0.54200 0.57010
C55 C 0.5234(5) 0.5053(4) 0.4918(4)
H76 H 0.52500 0.54110 0.47680
H77 H 0.52700 0.48390 0.45760
C56 C 0.4677(5) 0.4686(4) 0.5228(4)
H78 H 0.43510 0.45860 0.49520
H79 H 0.46410 0.49060 0.55640
C57 C 0.4643(3) 0.4126(4) 0.5460(3)
H80 H 0.46550 0.38950 0.51220
H81 H 0.42710 0.38900 0.56720
C58 C 0.5154(3) 0.4269(3) 0.5885(3)
H82 H 0.51200 0.44690 0.62460
C59 C 0.7812(2) 0.5870(2) 0.8909(2)
H83 H 0.74170 0.58030 0.90090
C60 C 0.8266(3) 0.6514(2) 0.8973(3)
H84 H 0.81530 0.67470 0.87230
H85 H 0.86460 0.65780 0.88280
C61 C 0.8330(3) 0.6720(2) 0.9617(3)
H86 H 0.86450 0.71300 0.96450
H87 H 0.79640 0.66980 0.97490
C62 C 0.8468(3) 0.6345(3) 1.0023(2)
H88 H 0.84820 0.64690 1.04390
H89 H 0.88550 0.64010 0.99200
C63 C 0.8011(2) 0.5699(2) 0.9966(2)
H90 H 0.81190 0.54650 1.02230
H91 H 0.76280 0.56350 1.00970
C64 C 0.7972(2) 0.5503(2) 0.9319(2)
H92 H 0.83530 0.55470 0.91930
C65? C 0.2909(6) 0.3006(6) 0.4844(6)
H93? H 0.31720 0.33950 0.50130
H94? H 0.25570 0.30060 0.46990
C66? C 0.2768(8) 0.2651(7) 0.5235(7)
H95? H 0.23560 0.23580 0.51900
H96? H 0.28290 0.28440 0.56200
H97? H 0.30030 0.24620 0.52120
C67? C 0.3238(7) 0.5167(6) 0.7424(10)
H98? H 0.33590 0.49560 0.76910
H99? H 0.31960 0.50140 0.70210
H100? H 0.28660 0.51190 0.75580
C68? C 0.6899(8) 0.5596(10) 0.8022(9)
H101? H 0.69160 0.57720 0.84090
H102? H 0.65280 0.52330 0.79820
H103? H 0.69330 0.58650 0.77060
Cl1? Cl 0.6419(3) 0.3895(3) 0.7498(3)
Cl2? Cl 0.6922(10) 0.3155(10) 0.7430(11)
C69? C 0.6846(7) 0.3678(7) 0.7042(7)
H104? H 0.66460 0.35160 0.66600
H105? H 0.72320 0.40180 0.69580
Cl3? Cl 0.2964(11) 0.6499(14) 0.5820(12)
Cl4? Cl 0.4282(3) 0.7189(3) 0.5948(3)
C70? C 0.3644(7) 0.6792(7) 0.5481(7)
H106? H 0.36630 0.70560 0.51620
H107? H 0.36700 0.64700 0.52900
N1A N 0.4036(2) 0.8234(2) 0.7580(2)
N2A N 0.4216(2) 0.8969(2) 0.6593(2)
N3A N 0.2659(2) 0.8002(2) 0.4300(2)
N4A N 0.16558(19) 0.68435(19) 0.4356(2)
C9A C 0.5387(4) 0.8316(4) 0.5422(3)
H21A H 0.55950 0.81140 0.53060
H22A H 0.51180 0.81040 0.57460
H23A H 0.56660 0.87100 0.55530
C10A C 0.5049(2) 0.8345(2) 0.4898(2)
C11A C 0.4482(2) 0.8323(2) 0.5019(2)
C12A C 0.4046(2) 0.8110(2) 0.4586(2)
H24A H 0.41090 0.79790 0.42160
C13A C 0.3519(2) 0.8090(2) 0.4697(2)
C14A C 0.3428(2) 0.8281(2) 0.5249(3)
H25A H 0.30680 0.82640 0.53260
C15A C 0.3859(2) 0.8494(2) 0.5684(2)
C16A C 0.4388(2) 0.8513(2) 0.5560(2)
H26A H 0.46870 0.86600 0.58510
C17A C 0.3042(2) 0.7851(2) 0.4247(2)
C18A C 0.3063(3) 0.7447(2) 0.3788(3)
H27A H 0.30990 0.71380 0.39870
H28A H 0.33980 0.76670 0.35270
H29A H 0.27050 0.72740 0.35530
C19A C 0.3769(2) 0.8679(3) 0.6282(3)
C20A C 0.3143(4) 0.8459(3) 0.6479(3)
H30A H 0.31150 0.84050 0.69100
H31A H 0.28860 0.80870 0.62840
H32A H 0.30270 0.87430 0.63690
C21A C 0.3922(2) 0.6832(2) 0.7417(2)
H33A H 0.43220 0.69430 0.74190
C22A C 0.3762(3) 0.7258(2) 0.7416(2)
C23A C 0.4209(3) 0.7891(3) 0.7428(3)
C24A C 0.4797(5) 0.8042(5) 0.7133(6)
H34A H 0.47270 0.78930 0.67250
H35A H 0.49810 0.78620 0.73590
H36A H 0.50530 0.84640 0.71270
C25A C 0.4186(3) 0.9152(3) 0.7196(2)
H37A H 0.37750 0.90270 0.73020
C26A C 0.4564(3) 0.9817(3) 0.7236(3)
H38A H 0.49600 0.99390 0.70890
H39A H 0.43960 0.99980 0.69810
C27A C 0.4600(3) 1.0023(3) 0.7869(3)
H40A H 0.42080 0.99310 0.80030
H41A H 0.48570 1.04510 0.78840
C28A C 0.4833(4) 0.9737(4) 0.8281(3)
H42A H 0.48340 0.98660 0.86930
H43A H 0.52390 0.98590 0.81700
C29A C 0.4455(4) 0.9067(3) 0.8245(3)
H44A H 0.46240 0.88860 0.85010
H45A H 0.40580 0.89430 0.83900
C30A C 0.4425(3) 0.8866(3) 0.7611(3)
H46A H 0.48230 0.89640 0.74760
C31A C 0.2176(2) 0.7802(2) 0.3890(2)
H47A H 0.22480 0.76200 0.35370
C32A C 0.2110(3) 0.8318(3) 0.3694(3)
H48A H 0.20700 0.85140 0.40500
H49A H 0.24670 0.86020 0.34820
C33A C 0.1588(3) 0.8136(3) 0.3293(3)
H50A H 0.15530 0.84810 0.31960
H51A H 0.16470 0.79780 0.29180
C34A C 0.1040(3) 0.7685(3) 0.3586(4)
H52A H 0.07120 0.75520 0.33040
H53A H 0.09560 0.78580 0.39340
C35A C 0.1096(3) 0.7166(3) 0.3784(3)
H54A H 0.11470 0.69730 0.34320
H55A H 0.07350 0.68810 0.39890
C36A C 0.1613(2) 0.7355(2) 0.4201(2)
H56A H 0.15540 0.75310 0.45680
N1B N 0.1766(2) 0.5802(2) 0.7580(2)
N2B N 0.1031(2) 0.5247(2) 0.6593(2)
N3B N 0.1998(2) 0.4657(2) 0.4300(2)
N4B N 0.31565(19) 0.48123(19) 0.4356(2)
C9B C 0.1684(4) 0.7071(4) 0.5422(3)
H21B H 0.18860 0.74810 0.53060
H22B H 0.18960 0.70140 0.57460
H23B H 0.12900 0.69560 0.55530
C10B C 0.1655(2) 0.6704(2) 0.4898(2)
C11B C 0.1677(2) 0.6159(2) 0.5019(2)
C12B C 0.1890(2) 0.5936(2) 0.4586(2)
H24B H 0.20210 0.61300 0.42160
C13B C 0.1910(2) 0.5429(2) 0.4697(2)
C14B C 0.1719(2) 0.5147(2) 0.5249(3)
H25B H 0.17360 0.48040 0.53260
C15B C 0.1506(2) 0.5365(2) 0.5684(2)
C16B C 0.1487(2) 0.5875(2) 0.5560(2)
H26B H 0.13400 0.60270 0.58510
C17B C 0.2149(2) 0.5191(2) 0.4247(2)
C18B C 0.2553(3) 0.5616(2) 0.3788(3)
H27B H 0.28620 0.59610 0.39870
H28B H 0.23330 0.57310 0.35270
H29B H 0.27260 0.54310 0.35530
C19B C 0.1321(2) 0.5090(3) 0.6282(3)
C20B C 0.1541(4) 0.4684(3) 0.6479(3)
H30B H 0.15950 0.47100 0.69100
H31B H 0.19130 0.47990 0.62840
H32B H 0.12570 0.42840 0.63690
C21B C 0.3168(2) 0.7090(2) 0.7417(2)
H33B H 0.30570 0.73790 0.74190
C22B C 0.2742(3) 0.6504(2) 0.7416(2)
C23B C 0.2109(3) 0.6318(3) 0.7428(3)
C24B C 0.1958(5) 0.6755(5) 0.7133(6)
H34B H 0.21070 0.68340 0.67250
H35B H 0.21380 0.71190 0.73590
H36B H 0.15360 0.65890 0.71270
C25B C 0.0848(3) 0.5034(3) 0.7196(2)
H37B H 0.09730 0.47480 0.73020
C26B C 0.0183(3) 0.4747(3) 0.7236(3)
H38B H 0.00610 0.50210 0.70890
H39B H 0.00020 0.43980 0.69810
C27B C -0.0023(3) 0.4577(3) 0.7869(3)
H40B H 0.00690 0.42770 0.80030
H41B H -0.04510 0.44060 0.78840
C28B C 0.0263(4) 0.5096(4) 0.8281(3)
H42B H 0.01340 0.49680 0.86930
H43B H 0.01410 0.53800 0.81700
C29B C 0.0933(4) 0.5388(3) 0.8245(3)
H44B H 0.11140 0.57380 0.85010
H45B H 0.10570 0.51150 0.83900
C30B C 0.1134(3) 0.5559(3) 0.7611(3)
H46B H 0.10360 0.58590 0.74760
C31B C 0.2198(2) 0.4374(2) 0.3890(2)
H47B H 0.23800 0.46280 0.35370
C32B C 0.1682(3) 0.3792(3) 0.3694(3)
H48B H 0.14860 0.35560 0.40500
H49B H 0.13980 0.38650 0.34820
C33B C 0.1864(3) 0.3452(3) 0.3293(3)
H50B H 0.15190 0.30720 0.31960
H51B H 0.20220 0.36690 0.29180
C34B C 0.2315(3) 0.3355(3) 0.3586(4)
H52B H 0.24480 0.31600 0.33040
H53B H 0.21420 0.30980 0.39340
C35B C 0.2834(3) 0.3930(3) 0.3784(3)
H54B H 0.30270 0.41740 0.34320
H55B H 0.31190 0.38540 0.39890
C36B C 0.2645(2) 0.4258(2) 0.4201(2)
H56B H 0.24690 0.40230 0.45680
N5A N 0.4305(2) 0.2130(2) 0.8304(2)
N6A N 0.51063(19) 0.26249(19) 0.92733(19)
N7A N 0.5159(3) 0.1370(3) 0.5992(2)
N8A N 0.6280(2) 0.1392(2) 0.6052(2)
C37A C 0.5166(3) 0.3954(4) 0.7118(3)
H57A H 0.54480 0.43590 0.70240
H58A H 0.53050 0.38270 0.74580
H59A H 0.47910 0.39200 0.72160
C38A C 0.5095(2) 0.3577(2) 0.6590(3)
C39A C 0.5027(3) 0.2992(2) 0.6716(2)
C40A C 0.4796(2) 0.2707(2) 0.7252(2)
H60A H 0.46790 0.28870 0.75420
C41A C 0.4733(3) 0.2162(3) 0.7371(3)
C42A C 0.4906(3) 0.1903(3) 0.6940(3)
H61A H 0.48610 0.15300 0.70130
C43A C 0.5146(3) 0.2186(3) 0.6401(3)
C44A C 0.5197(3) 0.2724(3) 0.6293(3)
H62A H 0.53510 0.29130 0.59250
C45A C 0.4524(3) 0.1896(3) 0.7974(3)
C46A C 0.4684(4) 0.1454(5) 0.8184(5)
H63A H 0.46590 0.14270 0.86170
H64A H 0.50820 0.15750 0.80590
H65A H 0.44160 0.10740 0.80110
C47A C 0.5373(3) 0.1917(3) 0.5963(3)
C48A C 0.5829(3) 0.2332(3) 0.5539(3)
H66A H 0.60120 0.21360 0.53400
H67A H 0.61250 0.26690 0.57580
H68A H 0.56490 0.24620 0.52430
C49A C 0.6564(2) 0.3797(2) 0.9040(2)
H69A H 0.64970 0.41160 0.90410
C50A C 0.6096(2) 0.3237(2) 0.9039(2)
C51A C 0.5478(2) 0.3109(2) 0.9060(2)
C52A C 0.5371(2) 0.3579(3) 0.8811(3)
H70A H 0.50060 0.33970 0.85860
H71A H 0.56930 0.38340 0.85490
H72A H 0.53430 0.38060 0.91380
C53A C 0.5337(3) 0.1062(3) 0.5572(3)
H73A H 0.55450 0.13190 0.52280
C54A C 0.4789(5) 0.0522(4) 0.5358(4)
H74A H 0.45290 0.06380 0.51630
H75A H 0.45800 0.02720 0.57010
C55A C 0.4947(5) 0.0181(4) 0.4918(4)
H76A H 0.45890 -0.01610 0.47680
H77A H 0.51610 0.04310 0.45760
C56A C 0.5314(5) -0.0009(4) 0.5228(4)
H78A H 0.54140 -0.02350 0.49520
H79A H 0.50940 -0.02650 0.55640
C57A C 0.5874(3) 0.0517(4) 0.5460(3)
H80A H 0.61050 0.07600 0.51220
H81A H 0.61100 0.03810 0.56720
C58A C 0.5731(3) 0.0885(3) 0.5885(3)
H82A H 0.55310 0.06510 0.62460
C59A C 0.4130(2) 0.1942(2) 0.8909(2)
H83A H 0.41970 0.16140 0.90090
C60A C 0.3486(3) 0.1752(2) 0.8973(3)
H84A H 0.32530 0.14060 0.87230
H85A H 0.34220 0.20680 0.88280
C61A C 0.3280(3) 0.1610(2) 0.9617(3)
H86A H 0.28700 0.15150 0.96450
H87A H 0.33020 0.12660 0.97490
C62A C 0.3655(3) 0.2123(3) 1.0023(2)
H88A H 0.35310 0.20130 1.04390
H89A H 0.35990 0.24540 0.99200
C63A C 0.4301(2) 0.2312(2) 0.9966(2)
H90A H 0.45350 0.26540 1.02230
H91A H 0.43650 0.19930 1.00970
C64A C 0.4497(2) 0.2469(2) 0.9319(2)
H92A H 0.44530 0.28060 0.91930
N5B N 0.7870(2) 0.2175(2) 0.8304(2)
N6B N 0.73751(19) 0.24814(19) 0.92733(19)
N7B N 0.8630(3) 0.3789(3) 0.5992(2)
N8B N 0.8608(2) 0.4888(2) 0.6052(2)
C37B C 0.6046(3) 0.1212(4) 0.7118(3)
H57B H 0.56410 0.10890 0.70240
H58B H 0.61730 0.14780 0.74580
H59B H 0.60800 0.08710 0.72160
C38B C 0.6423(2) 0.1518(2) 0.6590(3)
C39B C 0.7008(3) 0.2035(2) 0.6716(2)
C40B C 0.7293(2) 0.2089(2) 0.7252(2)
H60B H 0.71130 0.17920 0.75420
C41B C 0.7838(3) 0.2571(3) 0.7371(3)
C42B C 0.8097(3) 0.3003(3) 0.6940(3)
H61B H 0.84700 0.33310 0.70130
C43B C 0.7814(3) 0.2960(3) 0.6401(3)
C44B C 0.7276(3) 0.2473(3) 0.6293(3)
H62B H 0.70870 0.24380 0.59250
C45B C 0.8104(3) 0.2628(3) 0.7974(3)
C46B C 0.8546(4) 0.3230(5) 0.8184(5)
H63B H 0.85730 0.32320 0.86170
H64B H 0.84250 0.35070 0.80590
H65B H 0.89260 0.33420 0.80110
C47B C 0.8083(3) 0.3456(3) 0.5963(3)
C48B C 0.7668(3) 0.3497(3) 0.5539(3)
H66B H 0.78640 0.38760 0.53400
H67B H 0.73310 0.34560 0.57580
H68B H 0.75380 0.31870 0.52430
C49B C 0.6203(2) 0.2767(2) 0.9040(2)
H69B H 0.58840 0.23810 0.90410
C50B C 0.6763(2) 0.2859(2) 0.9039(2)
C51B C 0.6891(2) 0.2369(2) 0.9060(2)
C52B C 0.6421(2) 0.1792(3) 0.8811(3)
H70B H 0.66030 0.16090 0.85860
H71B H 0.61660 0.18590 0.85490
H72B H 0.61940 0.15370 0.91380
C53B C 0.8938(3) 0.4275(3) 0.5572(3)
H73B H 0.86810 0.42260 0.52280
C54B C 0.9478(5) 0.4267(4) 0.5358(4)
H74B H 0.93620 0.38910 0.51630
H75B H 0.97280 0.43080 0.57010
C55B C 0.9819(5) 0.4766(4) 0.4918(4)
H76B H 1.01610 0.47500 0.47680
H77B H 0.95690 0.47300 0.45760
C56B C 1.0009(5) 0.5323(4) 0.5228(4)
H78B H 1.02350 0.56490 0.49520
H79B H 1.02650 0.53590 0.55640
C57B C 0.9483(3) 0.5357(4) 0.5460(3)
H80B H 0.92400 0.53450 0.51220
H81B H 0.96190 0.57290 0.56720
C58B C 0.9115(3) 0.4846(3) 0.5885(3)
H82B H 0.93490 0.48800 0.62460
C59B C 0.8058(2) 0.2188(2) 0.8909(2)
H83B H 0.83860 0.25830 0.90090
C60B C 0.8248(3) 0.1734(2) 0.8973(3)
H84B H 0.85940 0.18470 0.87230
H85B H 0.79320 0.13540 0.88280
C61B C 0.8390(3) 0.1670(2) 0.9617(3)
H86B H 0.84850 0.13550 0.96450
H87B H 0.87340 0.20360 0.97490
C62B C 0.7877(3) 0.1532(3) 1.0023(2)
H88B H 0.79870 0.15180 1.04390
H89B H 0.75460 0.11450 0.99200
C63B C 0.7688(2) 0.1989(2) 0.9966(2)
H90B H 0.73460 0.18810 1.02230
H91B H 0.80070 0.23720 1.00970
C64B C 0.7531(2) 0.2028(2) 0.9319(2)
H92B H 0.71940 0.16470 0.91930
#END
