
#######################################################################
#
#                 Cambridge Crystallographic Data Centre
#                                CCDC
#
#######################################################################
#
# If this CIF has been generated from an entry in the Cambridge
# Structural Database, then it will include bibliographic, chemical,
# crystal, experimental, refinement or atomic coordinate data resulting
# from the CCDC's data processing and validation procedures.
#
#######################################################################

data_CSD_CIF_TASPUB
_audit_creation_date 2017-03-30
_audit_creation_method CSD-ConQuest-V1
_database_code_CSD TASPUB
_database_code_depnum_ccdc_archive 'CCDC 1521815'
_chemical_formula_sum 'C74 H92 O12'
_chemical_formula_moiety
;
C66 H84 O12,C8 H8
;
_journal_coden_Cambridge 4
_journal_volume 138
_journal_year 2017
_journal_page_first 2908
_journal_name_full 'J.Am.Chem.Soc. '
loop_
_publ_author_name
"Kecheng Jie"
"Ming Liu"
"Yujuan Zhou"
"M.A.Little"
"S.Bonakala"
"Samantha Y.Chong"
"A.Stephenson"
"Linjiang Chen"
"Feihe Huang"
"A.I.Cooper"
_chemical_name_systematic
;
4,9,14,19,24,29,31,33,35,37,39,41-dodecaethoxyheptacyclo[26.2.2.2^3,6^.2^8,11^
.2^13,16^.2^18,21^.2^23,26^]dotetraconta-1(30),3,5,8,10,13,15,18,20,23,25,28,3
1,33,35,37,39,41-octadecaene styrene solvate
;
_cell_volume   1654.406
_exptl_crystal_colour 'colorless'
_exptl_crystal_density_diffrn 1.178
_exptl_crystal_description 'block'
_diffrn_ambient_temperature 170
_refine_special_details
;
C40,C41,C42,C43,C44,C45,C46,C47 disordered by symmetry over two 
configurations with occupancy 0.5.
;
#These two values have been output from a single CSD field.
_refine_ls_R_factor_gt 0.1055
_refine_ls_wR_factor_gt 0.1055
_symmetry_cell_setting triclinic
_symmetry_space_group_name_H-M 'P -1'
_symmetry_Int_Tables_number 2
loop_
_symmetry_equiv_pos_site_id
_symmetry_equiv_pos_as_xyz
1 x,y,z
2 -x,-y,-z
_cell_length_a 10.7372(9)
_cell_length_b 11.7516(8)
_cell_length_c 13.5410(11)
_cell_angle_alpha 95.142(6)
_cell_angle_beta 94.750(7)
_cell_angle_gamma 102.165(6)
_cell_formula_units_Z 1
loop_
_atom_type_symbol
_atom_type_radius_bond
C 0.68
H 0.23
O 0.68
loop_
_atom_site_label
_atom_site_type_symbol
_atom_site_fract_x
_atom_site_fract_y
_atom_site_fract_z
O1 O 0.5485(3) 0.8463(2) 0.3827(2)
O2 O 0.7639(3) 1.0254(3) 0.7643(2)
O3 O 0.7386(3) 0.8810(3) 0.1913(2)
O4 O 0.9348(3) 0.6044(2) 0.4464(3)
O5 O 0.5546(3) 0.6651(2) 0.6996(3)
O6 O 0.0753(3) 0.7044(2) 0.7989(3)
C1 C 0.5983(4) 0.8884(3) 0.4788(3)
C2 C 0.4239(4) 0.7721(4) 0.3676(4)
H1 H 0.36120 0.81420 0.39030
H2 H 0.42120 0.70470 0.40450
C3 C 0.7225(4) 0.9534(3) 0.4885(3)
C4 C 0.5329(4) 0.8684(3) 0.5625(3)
H3 H 0.44930 0.82430 0.55430
C5 C 0.3956(6) 0.7336(5) 0.2579(4)
H4 H 0.39470 0.80070 0.22250
H5 H 0.31360 0.68030 0.24520
H6 H 0.46060 0.69520 0.23580
C6 C 0.7804(4) 0.9985(3) 0.5841(3)
H7 H 0.86450 1.04160 0.59210
C7 C 0.7934(4) 0.9688(3) 0.3970(3)
H8 H 0.87370 1.02570 0.41460
H9 H 0.74260 0.99890 0.34720
C8 C 0.5896(4) 0.9124(3) 0.6570(3)
C9 C 0.7148(4) 0.9802(3) 0.6679(3)
C10 C 0.8207(4) 0.8538(3) 0.3532(3)
C11 C 0.5218(4) 0.8929(3) 0.7502(4)
H10 H 0.58540 0.88850 0.80410
H11 H 0.48770 0.96120 0.76780
C12 C 0.8727(4) 0.7850(3) 0.4156(3)
H12 H 0.89420 0.81280 0.48270
C13 C 0.7897(4) 0.8117(3) 0.2526(3)
C14 C 0.4141(4) 0.7857(3) 0.7447(3)
C15 C 0.8842(5) 1.1054(5) 0.7790(4)
H13 H 0.88310 1.17040 0.73980
H14 H 0.95130 1.06700 0.75940
C16 C 0.8939(4) 0.6774(3) 0.3826(4)
C17 C 0.8129(4) 0.7038(3) 0.2191(4)
H15 H 0.79220 0.67600 0.15200
C18 C 0.2936(4) 0.7968(3) 0.7711(3)
H16 H 0.27890 0.87100 0.78750
C19 C 0.4319(4) 0.6739(3) 0.7195(3)
C20 C 0.9066(6) 1.1482(6) 0.8889(5)
H17 H 0.98520 1.20640 0.90210
H18 H 0.91220 1.08360 0.92640
H19 H 0.83680 1.18160 0.90790
C21 C 0.8659(4) 0.6360(3) 0.2824(4)
C22 C 0.6847(5) 0.8271(5) 0.0922(4)
H20 H 0.62470 0.75380 0.09620
H21 H 0.75210 0.81110 0.05320
C23 C 0.1957(4) 0.6990(3) 0.7734(3)
C24 C 0.3339(4) 0.5756(3) 0.7209(4)
H22 H 0.34870 0.50150 0.70390
C25 C 1.0226(4) 0.6562(4) 0.5323(4)
H23 H 1.02430 0.59880 0.57940
H24 H 0.99360 0.72140 0.56480
C26 C 0.8919(4) 0.5199(3) 0.2438(4)
H25 H 0.97020 0.51020 0.27980
H26 H 0.90640 0.52190 0.17420
C27 C 0.6178(7) 0.9101(5) 0.0444(4)
H27 H 0.57350 0.87330 -0.01870
H28 H 0.67940 0.97900 0.03410
H29 H 0.55730 0.93170 0.08680
C28 C 0.2145(4) 0.5867(3) 0.7473(3)
C29 C 0.5653(5) 0.5723(5) 0.6300(5)
H30 H 0.50370 0.56610 0.57210
H31 H 0.54780 0.49910 0.65950
C30 C 1.1545(5) 0.6983(5) 0.5035(5)
H32 H 1.15290 0.75570 0.45750
H33 H 1.18390 0.63350 0.47260
H34 H 1.21130 0.73290 0.56190
C31 C 0.0474(5) 0.8162(4) 0.8197(4)
H35 H 0.05780 0.85950 0.76210
H36 H 0.10510 0.86050 0.87550
C32 C 0.6981(6) 0.5957(5) 0.5997(5)
H37 H 0.70280 0.54020 0.54430
H38 H 0.75730 0.58840 0.65460
H39 H 0.71960 0.67360 0.58050
C33 C -0.0892(5) 0.7974(5) 0.8446(5)
H40 H -0.14590 0.75900 0.78710
H41 H -0.10890 0.87160 0.86410
H42 H -0.09990 0.74950 0.89840
C34? C 0.4867(16) 0.5970(13) -0.0664(12)
H43? H 0.50970 0.65010 -0.11220
C35? C 0.5677(12) 0.5247(15) -0.0389(13)
C36? C 0.5332(12) 0.4454(12) 0.0295(12)
H44? H 0.58750 0.39700 0.04790
C37? C 0.4177(13) 0.4383(11) 0.0705(10)
H45? H 0.39470 0.38520 0.11630
C38? C 0.3367(10) 0.5106(13) 0.0431(11)
H46? H 0.25940 0.50590 0.07050
C39? C 0.3712(13) 0.5900(12) -0.0254(12)
H47? H 0.31690 0.63840 -0.04370
C40? C 0.7019(16) 0.5383(16) -0.0781(14)
H48? H 0.73310 0.59210 -0.12140
C41? C 0.772(2) 0.457(2) -0.039(2)
H49? H 0.73510 0.40520 0.00410
H50? H 0.85340 0.45620 -0.05680
O1A O 0.4515(3) 0.1537(2) 0.6173(2)
O2A O 0.2361(3) -0.0254(3) 0.2357(2)
O3A O 0.2614(3) 0.1190(3) 0.8087(2)
O4A O 0.0652(3) 0.3956(2) 0.5536(3)
O5A O 0.4454(3) 0.3349(2) 0.3004(3)
O6A O 0.9247(3) 0.2956(2) 0.2011(3)
C1A C 0.4017(4) 0.1116(3) 0.5212(3)
C2A C 0.5761(4) 0.2279(4) 0.6324(4)
H1A H 0.63880 0.18580 0.60970
H2A H 0.57880 0.29530 0.59550
C3A C 0.2775(4) 0.0466(3) 0.5115(3)
C4A C 0.4671(4) 0.1316(3) 0.4375(3)
H3A H 0.55070 0.17570 0.44570
C5A C 0.6044(6) 0.2664(5) 0.7421(4)
H4A H 0.60530 0.19930 0.77750
H5A H 0.68640 0.31970 0.75480
H6A H 0.53940 0.30480 0.76420
C6A C 0.2196(4) 0.0015(3) 0.4159(3)
H7A H 0.13550 -0.04160 0.40790
C7A C 0.2066(4) 0.0312(3) 0.6030(3)
H8A H 0.12630 -0.02570 0.58540
H9A H 0.25740 0.00110 0.65280
C8A C 0.4104(4) 0.0876(3) 0.3430(3)
C9A C 0.2852(4) 0.0198(3) 0.3321(3)
C10A C 0.1793(4) 0.1462(3) 0.6468(3)
C11A C 0.4782(4) 0.1071(3) 0.2498(4)
H10A H 0.41460 0.11150 0.19590
H11A H 0.51230 0.03880 0.23220
C12A C 0.1273(4) 0.2150(3) 0.5844(3)
H12A H 0.10580 0.18720 0.51730
C13A C 0.2103(4) 0.1883(3) 0.7474(3)
C14A C 0.5859(4) 0.2143(3) 0.2553(3)
C15A C 0.1158(5) -0.1054(5) 0.2210(4)
H13A H 0.11690 -0.17040 0.26020
H14A H 0.04870 -0.06700 0.24060
C16A C 0.1061(4) 0.3226(3) 0.6174(4)
C17A C 0.1871(4) 0.2962(3) 0.7809(4)
H15A H 0.20780 0.32400 0.84800
C18A C 0.7064(4) 0.2032(3) 0.2289(3)
H16A H 0.72110 0.12900 0.21250
C19A C 0.5681(4) 0.3261(3) 0.2805(3)
C20A C 0.0934(6) -0.1482(6) 0.1111(5)
H17A H 0.01480 -0.20640 0.09790
H18A H 0.08780 -0.08360 0.07360
H19A H 0.16320 -0.18160 0.09210
C21A C 0.1341(4) 0.3640(3) 0.7176(4)
C22A C 0.3153(5) 0.1729(5) 0.9078(4)
H20A H 0.37530 0.24620 0.90380
H21A H 0.24790 0.18890 0.94680
C23A C 0.8043(4) 0.3010(3) 0.2266(3)
C24A C 0.6661(4) 0.4244(3) 0.2791(4)
H22A H 0.65130 0.49850 0.29610
C25A C -0.0226(4) 0.3438(4) 0.4677(4)
H23A H -0.02430 0.40120 0.42060
H24A H 0.00640 0.27860 0.43520
C26A C 0.1081(4) 0.4801(3) 0.7562(4)
H25A H 0.02980 0.48980 0.72020
H26A H 0.09360 0.47810 0.82580
C27A C 0.3822(7) 0.0899(5) 0.9556(4)
H27A H 0.42650 0.12670 1.01870
H28A H 0.32060 0.02100 0.96590
H29A H 0.44270 0.06830 0.91320
C28A C 0.7855(4) 0.4133(3) 0.2527(3)
C29A C 0.4347(5) 0.4277(5) 0.3700(5)
H30A H 0.49630 0.43390 0.42790
H31A H 0.45220 0.50090 0.34050
C30A C -0.1545(5) 0.3017(5) 0.4965(5)
H32A H -0.15290 0.24430 0.54250
H33A H -0.18390 0.36650 0.52740
H34A H -0.21130 0.26710 0.43810
C31A C 0.9526(5) 0.1838(4) 0.1803(4)
H35A H 0.94220 0.14050 0.23790
H36A H 0.89490 0.13950 0.12450
C32A C 0.3019(6) 0.4043(5) 0.4003(5)
H37A H 0.29720 0.45980 0.45570
H38A H 0.24270 0.41160 0.34540
H39A H 0.28040 0.32640 0.41950
C33A C 1.0892(5) 0.2026(5) 0.1554(5)
H40A H 1.14590 0.24100 0.21290
H41A H 1.10890 0.12840 0.13590
H42A H 1.09990 0.25050 0.10160
#END
