
#######################################################################
#
#                 Cambridge Crystallographic Data Centre
#                                CCDC
#
#######################################################################
#
# If this CIF has been generated from an entry in the Cambridge
# Structural Database, then it will include bibliographic, chemical,
# crystal, experimental, refinement or atomic coordinate data resulting
# from the CCDC's data processing and validation procedures.
#
#######################################################################

data_CSD_CIF_TASQOW02
_audit_creation_date 2018-06-12
_audit_creation_method CSD-ConQuest-V1
_database_code_CSD TASQOW02
_database_code_depnum_ccdc_archive 'CCDC 1817586'
_chemical_formula_sum 'C66 H84 O12'
_chemical_formula_moiety
;
C66 H84 O12
;
_journal_coden_Cambridge 4
_journal_volume 140
_journal_year 2018
_journal_page_first 6921
_journal_name_full 'J.Am.Chem.Soc. '
loop_
_publ_author_name
"Kecheng Jie"
"Ming Liu"
"Yujuan Zhou"
"M.A.Little"
"Angeles Pulido"
"Samantha Y.Chong"
"A.Stephenson"
"A.R.Hughes"
"F.Sakakibara"
"T.Ogoshi"
"F.Blanc"
"G.M.Day"
"Feihe Huang"
"A.I.Cooper"
_chemical_name_systematic
;
4,9,14,19,24,29,31,33,35,37,39,41-dodecaethoxyheptacyclo[26.2.2.2^3,6^.2^8,11^
.2^13,16^.2^18,21^.2^23,26^]dotetraconta-1(30),3,5,8,10,13,15,18,20,23,25,28,3
1,33,35,37,39,41-octadecaene
;
_chemical_name_common
;
4,9,14,19,24,29,31,33,35,37,39,41-dodecaethoxypillar[6]arene
;
_cell_volume   3068.769
_exptl_crystal_colour 'colorless'
_exptl_crystal_density_diffrn 1.157
_exptl_special_details
;
solvent was removed by heating to 160 deg.C for 1 h prior to data collection
beta polymorph
;
_exptl_crystal_description 'block'
_diffrn_ambient_temperature 298
_diffrn_radiation_probe x-ray
_diffrn_source synchrotron
_refine_special_details
;
C59 and C58 disordered over two sites with occupancies 0.5:0.5.

;
#These two values have been output from a single CSD field.
_refine_ls_R_factor_gt 0.061
_refine_ls_wR_factor_gt 0.061
_symmetry_cell_setting triclinic
_symmetry_space_group_name_H-M 'P -1'
_symmetry_Int_Tables_number 2
loop_
_symmetry_equiv_pos_site_id
_symmetry_equiv_pos_as_xyz
1 x,y,z
2 -x,-y,-z
_cell_length_a 11.0743(4)
_cell_length_b 12.6665(4)
_cell_length_c 23.3275(6)
_cell_angle_alpha 86.472(3)
_cell_angle_beta 82.616(3)
_cell_angle_gamma 71.064(3)
_cell_formula_units_Z 2
loop_
_atom_type_symbol
_atom_type_radius_bond
C 0.68
H 0.23
O 0.68
loop_
_atom_site_label
_atom_site_type_symbol
_atom_site_fract_x
_atom_site_fract_y
_atom_site_fract_z
O1 O 0.3067(3) 0.5595(3) 0.63465(15)
O2 O 0.7857(3) 0.4986(3) 0.51511(14)
O3 O 0.2529(4) 0.8802(3) 0.74100(16)
O4 O 0.0762(3) 0.8468(3) 0.53418(14)
O5 O -0.0416(5) 1.0145(3) 0.85311(19)
O6 O -0.1911(4) 0.6943(3) 0.75889(16)
O7 O -0.2302(4) 0.5068(3) 0.93994(17)
O8 O 0.2737(4) 0.4889(3) 0.88425(19)
O9 O 0.4689(4) 0.1627(3) 0.96273(15)
O10 O 0.3394(4) 0.1808(3) 0.74204(15)
O11 O 0.7671(4) 0.3488(3) 0.72351(15)
O12 O 0.6263(4) 0.0153(3) 0.63859(16)
C1 C 0.6548(5) 0.4431(4) 0.58964(19)
C2 C 0.5356(5) 0.4575(4) 0.61952(18)
H1 H 0.52690 0.40670 0.64900
C3 C 0.4282(5) 0.5444(4) 0.60742(19)
C4 C 0.4391(5) 0.6223(4) 0.56341(19)
C5 C 0.5587(5) 0.6074(4) 0.53345(18)
H2 H 0.56770 0.65860 0.50420
C6 C 0.6664(5) 0.5194(4) 0.5450(2)
C7 C 0.3214(4) 0.7140(4) 0.54732(18)
H3 H 0.34850 0.75650 0.51510
H4 H 0.26500 0.67910 0.53340
C8 C 0.2431(5) 0.7954(4) 0.5929(2)
C9 C 0.2913(5) 0.8043(4) 0.6439(2)
H5 H 0.37620 0.76430 0.64860
C10 C 0.2146(6) 0.8718(4) 0.6876(2)
C11 C 0.0882(5) 0.9348(4) 0.6804(2)
C12 C 0.0434(5) 0.9272(4) 0.6285(2)
H6 H -0.04000 0.97050 0.62280
C13 C 0.1171(6) 0.8586(4) 0.5853(2)
C14 C -0.0005(5) 0.9994(4) 0.7315(2)
H7 H 0.04830 1.03030 0.75350
H8 H -0.06840 1.06100 0.71700
C15 C -0.0595(5) 0.9245(4) 0.7709(2)
C16 C -0.0753(6) 0.9302(5) 0.8304(3)
C17 C -0.1217(5) 0.8564(5) 0.8641(2)
H9 H -0.12910 0.86160 0.90400
C18 C -0.1579(5) 0.7750(5) 0.8416(2)
C19 C -0.1504(5) 0.7726(5) 0.7813(3)
C20 C -0.1001(5) 0.8459(4) 0.7478(2)
H10 H -0.09340 0.84200 0.70780
C21 C -0.1957(5) 0.6888(4) 0.8802(2)
H11 H -0.25280 0.66190 0.86120
H12 H -0.24320 0.72390 0.91570
C22 C -0.0808(6) 0.5881(5) 0.8955(2)
C23 C -0.1020(6) 0.4988(5) 0.9267(2)
C24 C -0.0010(6) 0.4082(5) 0.9418(2)
H13 H -0.01820 0.34840 0.96220
C25 C 0.1247(6) 0.4049(5) 0.9271(2)
C26 C 0.1470(6) 0.4957(5) 0.8967(2)
C27 C 0.0447(6) 0.5874(5) 0.8817(2)
H14 H 0.06120 0.64850 0.86220
C28 C 0.2344(5) 0.3076(4) 0.9453(2)
H15 H 0.19900 0.25970 0.97140
H16 H 0.28610 0.33600 0.96690
C29 C 0.3219(5) 0.2372(4) 0.8966(2)
C30 C 0.4414(6) 0.1647(4) 0.9067(2)
C31 C 0.5232(5) 0.1026(4) 0.8629(2)
H17 H 0.60350 0.05540 0.87060
C32 C 0.4893(5) 0.1083(4) 0.8076(2)
C33 C 0.3684(6) 0.1779(4) 0.7979(2)
C34 C 0.2871(5) 0.2404(4) 0.8413(2)
H18 H 0.20620 0.28650 0.83360
C35 C 0.5816(5) 0.0426(4) 0.7585(2)
H19 H 0.64950 -0.01660 0.77460
H20 H 0.53580 0.00810 0.73680
C36 C 0.6403(5) 0.1145(4) 0.7182(2)
C37 C 0.6794(4) 0.1970(4) 0.7394(2)
H21 H 0.67180 0.20520 0.77920
C38 C 0.7288(5) 0.2667(4) 0.7034(2)
C39 C 0.7374(4) 0.2589(4) 0.6436(2)
C40 C 0.7041(5) 0.1746(4) 0.6227(2)
H22 H 0.71380 0.16540 0.58300
C41 C 0.6566(5) 0.1026(4) 0.6588(2)
C42 C 0.7710(4) 0.3459(4) 0.60332(18)
H23 H 0.81610 0.31070 0.56750
H24 H 0.82890 0.37430 0.62070
C43 C 0.2948(5) 0.5054(5) 0.6890(2)
H25 H 0.35160 0.51880 0.71410
H26 H 0.31740 0.42560 0.68430
C44 C 0.1566(5) 0.5531(5) 0.7149(2)
H27 H 0.10130 0.54070 0.68930
H28 H 0.13610 0.63180 0.72020
H29 H 0.14430 0.51700 0.75150
C45 C 0.7965(5) 0.5635(5) 0.4636(2)
H30 H 0.78730 0.63930 0.47320
H31 H 0.72980 0.56570 0.43990
C46 C 0.9279(5) 0.5088(5) 0.4313(2)
H32 H 0.93810 0.55060 0.39630
H33 H 0.93590 0.43390 0.42200
H34 H 0.99310 0.50730 0.45500
C47 C 0.3781(6) 0.8247(5) 0.7507(2)
H35 H 0.43620 0.85020 0.72290
H36 H 0.39730 0.74520 0.74590
C48 C 0.3966(6) 0.8469(5) 0.8113(2)
H37 H 0.36790 0.92590 0.81720
H38 H 0.48600 0.81630 0.81660
H39 H 0.34760 0.81250 0.83870
C49 C -0.0599(6) 0.8796(5) 0.5330(2)
H40 H -0.09690 0.96000 0.53620
H41 H -0.09840 0.84510 0.56540
C50 C -0.0870(5) 0.8439(5) 0.4776(2)
H42 H -0.04510 0.87530 0.44570
H43 H -0.17800 0.86950 0.47560
H44 H -0.05520 0.76390 0.47580
C51 C 0.0112(8) 0.9996(6) 0.9035(3)
H45 H 0.08490 0.93210 0.90150
H46 H -0.05110 0.98940 0.93480
C52 C 0.0512(7) 1.0920(6) 0.9162(3)
H47 H 0.11600 1.10020 0.88640
H48 H 0.08550 1.07850 0.95270
H49 H -0.02130 1.15910 0.91800
C53 C -0.2148(6) 0.7105(5) 0.6989(3)
H50 H -0.26770 0.78700 0.69250
H51 H -0.13380 0.69780 0.67450
C54 C -0.2787(7) 0.6354(6) 0.6829(3)
H52 H -0.30340 0.65460 0.64470
H53 H -0.35390 0.64170 0.70980
H54 H -0.22130 0.56010 0.68370
C55 C 0.3111(7) 0.5636(7) 0.8488(3)
H55 H 0.28250 0.63560 0.86710
H56 H 0.27200 0.57200 0.81310
C56 C 0.4551(7) 0.5248(7) 0.8356(3)
H57 H 0.48060 0.57740 0.80950
H58 H 0.48310 0.45300 0.81800
H59 H 0.49340 0.51940 0.87070
C57 C -0.2588(7) 0.4197(7) 0.9769(4)
H60 H -0.22640 0.41590 1.01390
H61 H -0.22170 0.34760 0.95890
C58 C 0.5944(6) 0.1016(6) 0.9748(2)
H62 H 0.65710 0.12730 0.95010
H63 H 0.61240 0.02270 0.96850
C59 C 0.5991(6) 0.1221(6) 1.0387(2)
H64 H 0.57230 0.20090 1.04500
H65 H 0.68530 0.08840 1.04830
H66 H 0.54270 0.08970 1.06280
C60 C 0.2163(6) 0.2047(6) 0.7313(3)
H67 H 0.16860 0.28060 0.74290
H68 H 0.17800 0.15520 0.75460
C61 C 0.2043(6) 0.1932(5) 0.6688(2)
H69 H 0.26280 0.22360 0.64490
H70 H 0.11790 0.23300 0.66110
H71 H 0.22440 0.11570 0.66050
C62 C 0.8093(7) 0.3299(6) 0.7797(3)
H72 H 0.73540 0.34380 0.80880
H73 H 0.86220 0.25260 0.78380
C63 C 0.8830(7) 0.4028(6) 0.7886(3)
H74 H 0.94640 0.39930 0.75590
H75 H 0.92500 0.37910 0.82290
H76 H 0.82640 0.47820 0.79280
C64 C 0.5794(7) 0.0259(5) 0.5858(3)
H77 H 0.64570 0.03050 0.55520
H78 H 0.50720 0.09410 0.58460
C65 C 0.5378(7) -0.0716(6) 0.5767(3)
H79 H 0.53400 -0.07780 0.53620
H80 H 0.45430 -0.06160 0.59740
H81 H 0.59810 -0.13840 0.59050
C66 C -0.4013(10) 0.4540(12) 0.9840(6)
H82 H -0.43600 0.52950 0.99690
H83 H -0.42950 0.40560 1.01200
H84 H -0.43070 0.44890 0.94760
H85? H -0.33840 0.45170 1.00170
H86? H -0.19080 0.38810 1.00140
C67? C -0.2711(16) 0.3315(12) 0.9430(6)
H87? H -0.35390 0.35550 0.92910
H88? H -0.26230 0.26540 0.96680
H89? H -0.20520 0.31560 0.91070
#END
