
#######################################################################
#
#                 Cambridge Crystallographic Data Centre
#                                CCDC
#
#######################################################################
#
# If this CIF has been generated from an entry in the Cambridge
# Structural Database, then it will include bibliographic, chemical,
# crystal, experimental, refinement or atomic coordinate data resulting
# from the CCDC's data processing and validation procedures.
#
#######################################################################

data_CSD_CIF_TASQAI
_audit_creation_date 2017-03-30
_audit_creation_method CSD-ConQuest-V1
_database_code_CSD TASQAI
_database_code_depnum_ccdc_archive 'CCDC 1521817'
_chemical_formula_sum 'C74 H94 O12'
_chemical_formula_moiety
;
C66 H84 O12,C8 H10
;
_journal_coden_Cambridge 4
_journal_volume 138
_journal_year 2017
_journal_page_first 2908
_journal_name_full 'J.Am.Chem.Soc. '
loop_
_publ_author_name
"Kecheng Jie"
"Ming Liu"
"Yujuan Zhou"
"M.A.Little"
"S.Bonakala"
"Samantha Y.Chong"
"A.Stephenson"
"Linjiang Chen"
"Feihe Huang"
"A.I.Cooper"
_chemical_name_systematic
;
4,9,14,19,24,29,31,33,35,37,39,41-dodecaethoxyheptacyclo[26.2.2.2^3,6^.2^8,11^
.2^13,16^.2^18,21^.2^23,26^]dotetraconta-1(30),3,5,8,10,13,15,18,20,23,25,28,3
1,33,35,37,39,41-octadecaene ethylbenzene solvate
;
_cell_volume   3348.816
_exptl_crystal_colour 'colorless'
_exptl_crystal_density_diffrn 1.166
_exptl_crystal_description 'needle'
_diffrn_ambient_temperature 240
_refine_special_details
;
C12,C39,C40 and C12B disordered over two sites with occupancies 
0.856,0.5,0.5:0.144; C20,C21 and C22,C23 disordered over two sites with 
;
#These two values have been output from a single CSD field.
_refine_ls_R_factor_gt 0.0586
_refine_ls_wR_factor_gt 0.0586
_symmetry_cell_setting monoclinic
_symmetry_space_group_name_H-M 'P 21/n'
_symmetry_Int_Tables_number 14
loop_
_symmetry_equiv_pos_site_id
_symmetry_equiv_pos_as_xyz
1 x,y,z
2 1/2-x,1/2+y,1/2-z
3 -x,-y,-z
4 -1/2+x,-1/2-y,-1/2+z
_cell_length_a 11.6120(6)
_cell_length_b 12.9629(6)
_cell_length_c 22.2541(11)
_cell_angle_alpha 90
_cell_angle_beta 91.391(3)
_cell_angle_gamma 90
_cell_formula_units_Z 2
loop_
_atom_type_symbol
_atom_type_radius_bond
C 0.68
H 0.23
O 0.68
loop_
_atom_site_label
_atom_site_type_symbol
_atom_site_fract_x
_atom_site_fract_y
_atom_site_fract_z
O1 O 1.06563(11) 0.76204(11) 0.37411(6)
O2 O 0.64131(12) 0.60457(12) 0.43492(6)
O3 O 1.13029(18) 0.65863(16) 0.67077(8)
O4 O 0.68946(14) 0.71855(15) 0.5811(1)
O5 O 1.26702(11) 1.07092(10) 0.69154(6)
O6 O 0.83263(14) 0.94215(10) 0.75431(8)
C1 C 1.2557(2) 0.8206(3) 0.38889(15)
H1 H 1.27470 0.78390 0.35250
H2 H 1.32170 0.82020 0.41650
H3 H 1.23520 0.89130 0.37900
C2 C 1.15512(18) 0.7683(2) 0.41804(12)
H4 H 1.17710 0.69920 0.43190
H5 H 1.13000 0.80850 0.45270
C3 C 0.96123(15) 0.72356(13) 0.39115(8)
C4 C 0.87148(16) 0.73130(12) 0.34862(8)
C5 C 0.76416(17) 0.69290(13) 0.36367(8)
H6 H 0.70240 0.69860 0.33580
C6 C 0.74557(16) 0.64614(13) 0.41896(8)
C7 C 0.83579(15) 0.63670(12) 0.46098(8)
C8 C 0.94266(15) 0.67692(13) 0.44623(8)
H7 H 1.00410 0.67240 0.47440
C9 C 0.54642(19) 0.6137(2) 0.39381(11)
H8 H 0.56380 0.57910 0.35590
H9 H 0.53070 0.68660 0.38530
C10 C 0.4439(2) 0.5646(2) 0.42153(13)
H10 H 0.37790 0.57000 0.39410
H11 H 0.42710 0.59940 0.45890
H12 H 0.46010 0.49240 0.42960
C11 C 0.82113(18) 0.57908(13) 0.51990(8)
H13 H 0.73900 0.56530 0.52500
H14 H 0.86040 0.51240 0.51720
C12 C 1.2509(4) 0.6565(5) 0.5899(2)
H15 H 1.18610 0.67940 0.56500
H16 H 1.30030 0.61250 0.56640
H17 H 1.29440 0.71580 0.60420
C13 C 1.2109(3) 0.6015(3) 0.63849(18)
H18 H 1.27600 0.58330 0.66530
H19 H 1.17510 0.53740 0.62420
C14 C 1.0209(2) 0.67096(15) 0.64730(9)
C15 C 0.97782(19) 0.61930(14) 0.59683(8)
H20 H 1.02550 0.57220 0.57710
C16 C 0.86699(17) 0.63520(13) 0.57478(8)
C17 C 0.79792(18) 0.70445(14) 0.60541(10)
C18 C 0.8388(2) 0.75264(14) 0.65735(10)
H21 H 0.78970 0.79690 0.67830
C19 C 0.94985(19) 0.73711(12) 0.67907(8)
C20 C 0.9934(2) 0.78825(13) 0.73654(8)
H22 H 1.06260 0.75200 0.75110
H23 H 0.93470 0.78120 0.76720
C21 C 1.02174(19) 0.90189(13) 0.72905(7)
C22 C 0.93929(18) 0.97748(13) 0.73885(8)
C23 C 0.96847(18) 1.08146(13) 0.73326(8)
H24 H 0.91250 1.13200 0.74050
C24 C 1.07758(16) 1.11188(12) 0.71736(7)
C25 C 1.16005(16) 1.03574(13) 0.70713(8)
C26 C 1.13173(18) 0.93206(13) 0.71340(8)
H25 H 1.18810 0.88150 0.70690
C27 C 1.10896(17) 1.22550(12) 0.71363(8)
H26 H 1.04730 1.26550 0.73190
H27 H 1.17920 1.23670 0.73810
C28 C 1.4579(2) 1.0551(2) 0.66046(17)
H28 H 1.43710 1.09490 0.62490
H29 H 1.51830 1.00650 0.65090
H30 H 1.48520 1.10130 0.69200
C29 C 1.35436(19) 0.99733(17) 0.68141(13)
H31 H 1.32860 0.94760 0.65080
H32 H 1.37320 0.95980 0.71860
C30 C 0.7468(2) 1.01343(16) 0.77139(11)
H33 H 0.72770 1.06030 0.73800
H34 H 0.77410 1.05450 0.80590
C31 C 0.6437(2) 0.95160(19) 0.78764(14)
H35 H 0.61930 0.90950 0.75360
H36 H 0.58160 0.99770 0.79830
H37 H 0.66300 0.90750 0.82160
C32 C 0.6224(5) 0.7794(6) 0.6198(4)
H38 H 0.65400 0.84900 0.62500
H39 H 0.61310 0.74680 0.65910
C33 C 0.5126(7) 0.7792(9) 0.5829(7)
H40 H 0.52710 0.80670 0.54320
H41 H 0.45580 0.82170 0.60240
H42 H 0.48390 0.70920 0.57920
H43? H 1.18210 0.59550 0.59690
H44? H 1.21380 0.53170 0.65530
C34? C 0.6213(6) 0.8138(6) 0.5876(3)
H45? H 0.67400 0.87290 0.58840
H46? H 0.58280 0.81180 0.62630
C35? C 0.5311(7) 0.8307(8) 0.5380(4)
H47? H 0.56850 0.85160 0.50150
H48? H 0.47800 0.88420 0.55010
H49? H 0.48900 0.76700 0.53080
C36? C 1.3377(12) 0.6441(17) 0.6371(8)
H50? H 1.33640 0.71560 0.62430
H51? H 1.38200 0.60360 0.60930
H52? H 1.37280 0.63940 0.67700
C37 C 1.0579(5) 0.9780(4) 0.55512(19)
H53 H 1.09520 0.96240 0.59200
C38 C 0.9521(4) 0.9346(3) 0.53953(19)
H54 H 0.91830 0.88900 0.56680
C39 C 0.8936(4) 0.9548(3) 0.4857(2)
C40 C 0.7858(9) 0.9237(8) 0.4730(5)
H55 H 0.77360 0.85750 0.49320
H56 H 0.77880 0.91130 0.42960
C41 C 0.6956(9) 0.9927(9) 0.4897(5)
H57 H 0.62210 0.96570 0.47530
H58 H 0.70860 1.05990 0.47190
H59 H 0.69520 0.99920 0.53310
H60? H 0.82210 0.92350 0.47700
O1B O 0.93437(11) 1.23796(11) 0.62589(6)
O2B O 1.35869(12) 1.39543(12) 0.56508(6)
O3B O 0.86971(18) 1.34137(16) 0.32923(8)
O4B O 1.31054(14) 1.28145(15) 0.4189(1)
O5B O 0.73298(11) 0.92908(10) 0.30846(6)
O6B O 1.16737(14) 1.05785(10) 0.24569(8)
C1B C 0.7443(2) 1.1794(3) 0.61111(15)
H1B H 0.72530 1.21610 0.64750
H2B H 0.67830 1.17980 0.58350
H3B H 0.76480 1.10870 0.62100
C2B C 0.84488(18) 1.2317(2) 0.58196(12)
H4B H 0.82290 1.30080 0.56810
H5B H 0.87000 1.19150 0.54730
C3B C 1.03877(15) 1.27644(13) 0.60885(8)
C4B C 1.12852(16) 1.26870(12) 0.65138(8)
C5B C 1.23584(17) 1.30710(13) 0.63633(8)
H6B H 1.29760 1.30140 0.66420
C6B C 1.25443(16) 1.35386(13) 0.58104(8)
C7B C 1.16421(15) 1.36330(12) 0.53902(8)
C8B C 1.05734(15) 1.32308(13) 0.55377(8)
H7B H 0.99590 1.32760 0.52560
C9B C 1.45358(19) 1.3863(2) 0.60619(11)
H8B H 1.43620 1.42090 0.64410
H9B H 1.46930 1.31340 0.61470
C10B C 1.5561(2) 1.4354(2) 0.57847(13)
H10B H 1.62210 1.43000 0.60590
H11B H 1.57290 1.40060 0.54110
H12B H 1.53990 1.50760 0.57040
C11B C 1.17887(18) 1.42092(13) 0.48010(8)
H13B H 1.26100 1.43470 0.47500
H14B H 1.13960 1.48760 0.48280
C12B C 0.7491(4) 1.3435(5) 0.4101(2)
H15B H 0.81390 1.32060 0.43500
H16B H 0.69970 1.38750 0.43360
H17B H 0.70560 1.28420 0.39580
C13B C 0.7891(3) 1.3985(3) 0.36151(18)
H18B H 0.72400 1.41670 0.33470
H19B H 0.82490 1.46260 0.37580
C14B C 0.9791(2) 1.32904(15) 0.35270(9)
C15B C 1.02218(19) 1.38070(14) 0.40317(8)
H20B H 0.97450 1.42780 0.42290
C16B C 1.13301(17) 1.36480(13) 0.42522(8)
C17B C 1.20208(18) 1.29555(14) 0.39459(10)
C18B C 1.1612(2) 1.24736(14) 0.34265(10)
H21B H 1.21030 1.20310 0.32170
C19B C 1.05015(19) 1.26289(12) 0.32093(8)
C20B C 1.0066(2) 1.21175(13) 0.26346(8)
H22B H 0.93740 1.24800 0.24890
H23B H 1.06530 1.21880 0.23280
C21B C 0.97826(19) 1.09811(13) 0.27095(7)
C22B C 1.06071(18) 1.02252(13) 0.26115(8)
C23B C 1.03153(18) 0.91854(13) 0.26674(8)
H24B H 1.08750 0.86800 0.25950
C24B C 0.92242(16) 0.88812(12) 0.28264(7)
C25B C 0.83995(16) 0.96426(13) 0.29287(8)
C26B C 0.86827(18) 1.06794(13) 0.28660(8)
H25B H 0.81190 1.11850 0.29310
C27B C 0.89104(17) 0.77450(12) 0.28637(8)
H26B H 0.95270 0.73450 0.26810
H27B H 0.82080 0.76330 0.26190
C28B C 0.5421(2) 0.9449(2) 0.33954(17)
H28B H 0.56290 0.90510 0.37510
H29B H 0.48170 0.99350 0.34910
H30B H 0.51480 0.89870 0.30800
C29B C 0.64564(19) 1.00267(17) 0.31859(13)
H31B H 0.67140 1.05240 0.34920
H32B H 0.62680 1.04020 0.28140
C30B C 1.2532(2) 0.98657(16) 0.22861(11)
H33B H 1.27230 0.93970 0.26200
H34B H 1.22590 0.94550 0.19410
C31B C 1.3563(2) 1.04840(19) 0.21236(14)
H35B H 1.38070 1.09050 0.24640
H36B H 1.41840 1.00230 0.20170
H37B H 1.33700 1.09250 0.17840
C32B C 1.3776(5) 1.2206(6) 0.3802(4)
H38B H 1.34600 1.15100 0.37500
H39B H 1.38690 1.25320 0.34090
C33B C 1.4874(7) 1.2208(9) 0.4171(7)
H40B H 1.47290 1.19330 0.45680
H41B H 1.54420 1.17830 0.39760
H42B H 1.51610 1.29080 0.42080
C37B C 0.9421(5) 1.0220(4) 0.44488(19)
H53B H 0.90480 1.03760 0.40800
C38B C 1.0479(4) 1.0654(3) 0.46047(19)
H54B H 1.08170 1.11100 0.43320
C39B C 1.1064(4) 1.0452(3) 0.5143(2)
C40B C 1.2142(9) 1.0763(8) 0.5270(5)
H55B H 1.22640 1.14250 0.50680
H56B H 1.22120 1.08870 0.57040
C41B C 1.3044(9) 1.0073(9) 0.5103(5)
H57B H 1.37790 1.03430 0.52470
H58B H 1.29140 0.94010 0.52810
H59B H 1.30480 1.00080 0.46690
#END
