
#######################################################################
#
#                 Cambridge Crystallographic Data Centre
#                                CCDC
#
#######################################################################
#
# If this CIF has been generated from an entry in the Cambridge
# Structural Database, then it will include bibliographic, chemical,
# crystal, experimental, refinement or atomic coordinate data resulting
# from the CCDC's data processing and validation procedures.
#
#######################################################################

data_CSD_CIF_TASQIQ
_audit_creation_date 2017-03-30
_audit_creation_method CSD-ConQuest-V1
_database_code_CSD TASQIQ
_database_code_depnum_ccdc_archive 'CCDC 1521813'
_chemical_formula_sum 'C63 H86 O12'
_chemical_formula_moiety
;
C55 H70 O10,2(C4 H8 O1)
;
_journal_coden_Cambridge 4
_journal_volume 138
_journal_year 2017
_journal_page_first 2908
_journal_name_full 'J.Am.Chem.Soc. '
loop_
_publ_author_name
"Kecheng Jie"
"Ming Liu"
"Yujuan Zhou"
"M.A.Little"
"S.Bonakala"
"Samantha Y.Chong"
"A.Stephenson"
"Linjiang Chen"
"Feihe Huang"
"A.I.Cooper"
_chemical_name_systematic
;
4,9,14,19,24,26,28,30,32,34-decaethoxyhexacyclo[21.2.2.2^3,6^.2^8,11^.2^13,16^
.2^18,21^]pentatriaconta-1(25),3,5,8,10,13,15,18,20,23,26,28,30,32,34-pentadec
aene tetrahydrofuran solvate
;
_cell_volume   5906.479
_exptl_crystal_colour 'colorless'
_exptl_crystal_density_diffrn 1.164
_exptl_crystal_description 'block'
_diffrn_ambient_temperature 150
_refine_special_details
;
C114,C115,C116,O16 and C14B,C15B,C1A,O16B disordered over two sites with 
occupancies 0.510:0.490; C38B,C39B and C38,C39 disordered over two sites with 
occupancies 0.524:0.476; C7B and C107 disordered over two sites with 
occupancies 0.631:0.369.
;
#These two values have been output from a single CSD field.
_refine_ls_R_factor_gt 0.0681
_refine_ls_wR_factor_gt 0.0681
_symmetry_cell_setting triclinic
_symmetry_space_group_name_H-M 'P -1'
_symmetry_Int_Tables_number 2
loop_
_symmetry_equiv_pos_site_id
_symmetry_equiv_pos_as_xyz
1 x,y,z
2 -x,-y,-z
_cell_length_a 11.9397(9)
_cell_length_b 21.1861(16)
_cell_length_c 23.6062(17)
_cell_angle_alpha 89.286(2)
_cell_angle_beta 87.831(2)
_cell_angle_gamma 81.840(2)
_cell_formula_units_Z 4
loop_
_atom_type_symbol
_atom_type_radius_bond
C 0.68
H 0.23
O 0.68
loop_
_atom_site_label
_atom_site_type_symbol
_atom_site_fract_x
_atom_site_fract_y
_atom_site_fract_z
O1 O 0.67512(15) 0.56849(9) 0.67214(8)
O2 O 0.62332(16) 0.76646(9) 0.79807(8)
O3 O 0.55091(17) 0.97939(9) 0.68758(8)
O4 O 0.58545(14) 0.89476(8) 0.48542(7)
O5 O 0.66198(14) 0.65390(8) 0.47119(7)
O6 O 0.23014(14) 0.78132(8) 0.44212(8)
O7 O 0.28345(16) 0.57623(9) 0.55283(8)
O8 O 0.25728(16) 0.63871(9) 0.76747(8)
O9 O 0.19307(17) 0.87648(9) 0.78965(8)
O10 O 0.16011(16) 0.96223(9) 0.58568(8)
C1 C 0.5780(2) 0.57081(12) 0.64144(11)
C2 C 0.5790(2) 0.57278(11) 0.58257(11)
H1 H 0.64930 0.57180 0.56210
C3 C 0.4808(2) 0.57618(11) 0.55279(10)
C4 C 0.3795(2) 0.57535(12) 0.58391(11)
C5 C 0.3773(2) 0.57422(12) 0.64277(11)
H2 H 0.30700 0.57490 0.66310
C6 C 0.4763(2) 0.57217(11) 0.67252(10)
C7 C 0.4836(2) 0.58233(11) 0.48865(10)
H3 H 0.42380 0.56020 0.47330
H4 H 0.55760 0.56150 0.47310
C8 C 0.4653(2) 0.65190(11) 0.47015(10)
C9 C 0.5559(2) 0.68680(11) 0.46283(10)
C10 C 0.5358(2) 0.75128(11) 0.44887(10)
H5 H 0.59810 0.77430 0.44360
C11 C 0.4268(2) 0.78289(11) 0.44237(9)
C12 C 0.3366(2) 0.74767(12) 0.44903(10)
C13 C 0.3565(2) 0.68313(12) 0.46255(10)
H6 H 0.29430 0.65980 0.46670
C14 C 0.4061(2) 0.85398(11) 0.43058(10)
H7 H 0.33830 0.86390 0.40750
H8 H 0.47160 0.86630 0.40820
C15 C 0.3890(2) 0.89306(11) 0.48454(10)
C16 C 0.4807(2) 0.91296(11) 0.51056(10)
C17 C 0.4629(2) 0.95035(12) 0.55906(10)
H9 H 0.52580 0.96490 0.57560
C18 C 0.3557(2) 0.96677(12) 0.58369(10)
C19 C 0.2649(2) 0.94510(12) 0.55908(11)
C20 C 0.2812(2) 0.90937(11) 0.50939(10)
H10 H 0.21780 0.89600 0.49230
C21 C 0.3405(3) 1.00715(13) 0.63684(11)
H11 H 0.39530 1.03820 0.63520
H12 H 0.26330 1.03140 0.63860
C22 C 0.3586(2) 0.96608(12) 0.68967(11)
C23 C 0.4652(2) 0.95076(13) 0.71271(11)
C24 C 0.4797(2) 0.90785(13) 0.75773(11)
H13 H 0.55310 0.89670 0.77220
C25 C 0.3899(2) 0.88091(12) 0.78212(10)
C26 C 0.2820(2) 0.89981(13) 0.76134(11)
C27 C 0.2682(2) 0.94022(12) 0.71494(11)
H14 H 0.19510 0.95060 0.69990
C28 C 0.4102(3) 0.83148(13) 0.82882(11)
H15 H 0.34470 0.83670 0.85620
H16 H 0.47810 0.83860 0.84930
C29 C 0.4272(2) 0.76407(13) 0.80598(10)
C30 C 0.5342(2) 0.73288(13) 0.79037(10)
C31 C 0.5472(2) 0.67132(13) 0.76887(10)
H17 H 0.62110 0.65050 0.75920
C32 C 0.4547(2) 0.63949(12) 0.76122(10)
C33 C 0.3473(2) 0.67149(13) 0.77635(11)
C34 C 0.3348(2) 0.73247(13) 0.79852(11)
H18 H 0.26120 0.75310 0.80890
C35 C 0.4712(2) 0.57287(12) 0.73685(11)
H19 H 0.40810 0.55050 0.75080
H20 H 0.54240 0.54910 0.75080
C36 C 0.1364(2) 0.74669(13) 0.44122(12)
H21 H 0.12970 0.72260 0.47710
H22 H 0.14610 0.71610 0.40940
C37 C 0.0329(2) 0.79477(15) 0.43387(13)
H23 H 0.04070 0.81820 0.39820
H24 H 0.02430 0.82470 0.46560
H25 H -0.03400 0.77280 0.43300
C38 C 0.0806(3) 0.90811(15) 0.77933(13)
H26 H 0.05330 0.89210 0.74390
H27 H 0.08130 0.95460 0.77510
C39 C 0.0051(3) 0.89516(18) 0.82768(15)
H28 H -0.07310 0.91300 0.81970
H29 H 0.02820 0.91490 0.86190
H30 H 0.00990 0.84900 0.83360
C40 C 0.1467(2) 0.66907(15) 0.78457(14)
H31 H 0.13090 0.71170 0.76660
H32 H 0.14080 0.67430 0.82620
C41 C 0.0642(3) 0.62724(16) 0.76601(17)
H33 H 0.07290 0.62110 0.72490
H34 H -0.01310 0.64740 0.77570
H35 H 0.07880 0.58580 0.78530
C42 C 0.1860(2) 0.55735(16) 0.57993(15)
H36 H 0.15240 0.58990 0.60780
H37 H 0.20580 0.51630 0.60020
C43 C 0.1031(3) 0.55029(19) 0.53457(17)
H38 H 0.13840 0.51930 0.50650
H39 H 0.08160 0.59160 0.51600
H40 H 0.03550 0.53540 0.55180
C44 C 0.7807(3) 0.5623(2) 0.64163(15)
H41 H 0.77830 0.59510 0.61130
H42 H 0.79620 0.51980 0.62370
C45 C 0.8714(3) 0.5701(2) 0.68075(17)
H43 H 0.94430 0.56610 0.65960
H44 H 0.87430 0.53720 0.71040
H45 H 0.85590 0.61230 0.69820
C46 C 0.7347(2) 0.73628(14) 0.78428(13)
H46 H 0.74110 0.72320 0.74400
H47 H 0.75370 0.69790 0.80820
C47 C 0.8139(3) 0.78399(16) 0.79486(14)
H48 H 0.79690 0.82070 0.76940
H49 H 0.89230 0.76400 0.78770
H50 H 0.80390 0.79820 0.83430
C48 C 0.6553(3) 0.97426(16) 0.71519(14)
H51 H 0.69600 0.93030 0.71190
H52 H 0.64180 0.98440 0.75590
C49 C 0.7244(3) 1.02073(18) 0.68708(15)
H53 H 0.73300 1.01200 0.64640
H54 H 0.79920 1.01620 0.70360
H55 H 0.68590 1.06430 0.69300
C50 C 0.6813(2) 0.91095(13) 0.51378(12)
H56 H 0.68230 0.89360 0.55290
H57 H 0.67750 0.95790 0.51570
C51 C 0.7853(2) 0.88282(15) 0.48082(15)
H58 H 0.78230 0.89940 0.44190
H59 H 0.78950 0.83630 0.48030
H60 H 0.85230 0.89430 0.49860
C52 C 0.7571(2) 0.68628(14) 0.45952(13)
H61 H 0.75320 0.72420 0.48400
H62 H 0.75880 0.70050 0.41940
C53 C 0.8609(2) 0.63979(16) 0.47139(15)
H63 H 0.86320 0.60230 0.44720
H64 H 0.85860 0.62660 0.51130
H65 H 0.92860 0.66010 0.46340
C54 C 0.0639(5) 0.9576(5) 0.5564(3)
H66 H 0.05660 0.91220 0.55030
H67 H 0.06790 0.97900 0.51900
C55 C -0.0361(6) 0.9893(6) 0.5914(4)
H68 H -0.03560 0.97000 0.62940
H69 H -0.10630 0.98350 0.57320
H70 H -0.03140 1.03490 0.59450
C56? C 0.0653(6) 0.9328(6) 0.5648(3)
H71? H 0.08150 0.88580 0.56780
H72? H 0.05250 0.94460 0.52460
C57? C -0.0377(6) 0.9579(6) 0.6017(4)
H73? H -0.03160 0.93760 0.63910
H74? H -0.10620 0.94810 0.58400
H75? H -0.04200 1.00420 0.60560
O11 O -0.19324(15) 1.28616(8) 0.70605(8)
O12 O -0.18177(16) 1.47220(9) 0.84926(7)
O13 O -0.11728(14) 1.37603(8) 1.04099(7)
O14 O -0.07062(14) 1.12779(8) 1.02878(7)
O15 O -0.11440(15) 1.09177(9) 0.82821(7)
O16 O 0.24162(14) 1.15711(8) 0.72175(7)
O17 O 0.18550(15) 1.39760(8) 0.70340(7)
O18 O 0.24602(15) 1.44365(8) 0.91302(7)
O19 O 0.30505(14) 1.25164(9) 1.04512(8)
O20 O 0.31666(14) 1.04589(8) 0.91247(7)
C58 C 0.4347(3) 1.43711(17) 0.87863(16)
H76 H 0.41730 1.41840 0.84280
H77 H 0.51380 1.42250 0.88730
H78 H 0.42260 1.48370 0.87520
C59 C -0.0863(2) 1.25211(12) 0.70953(10)
C60 C 0.1087(2) 1.44935(11) 0.79084(10)
H79 H 0.18080 1.45990 0.79950
C61 C 0.0970(2) 1.41585(11) 0.7418(1)
C62 C -0.0072(2) 1.39823(11) 0.72881(10)
C63 C -0.0997(2) 1.41813(12) 0.76471(10)
H80 H -0.17200 1.40770 0.75610
C64 C -0.0885(2) 1.45306(12) 0.81317(10)
C65 C 0.0163(2) 1.46772(11) 0.82756(10)
C66 C -0.0177(2) 1.35551(11) 0.67853(10)
H81 H -0.09450 1.36570 0.66350
H82 H 0.03770 1.36400 0.64810
C67 C 0.0033(2) 1.28575(11) 0.69509(9)
C68 C 0.1129(2) 1.25377(11) 0.69825(10)
H83 H 0.17470 1.27570 0.68790
C69 C 0.1347(2) 1.19050(11) 0.71609(10)
C70 C 0.0444(2) 1.15672(11) 0.73013(9)
C71 C -0.0651(2) 1.18847(12) 0.72633(10)
H84 H -0.12710 1.16620 0.73540
C72 C 0.0659(2) 1.08713(11) 0.74862(10)
H85 H 0.00060 1.06610 0.73850
H86 H 0.13360 1.06580 0.72730
C73 C 0.0842(2) 1.07784(11) 0.81158(10)
C74 C 0.1924(2) 1.06483(11) 0.83233(10)
H87 H 0.25580 1.06080 0.80640
C75 C 0.2104(2) 1.05760(11) 0.89009(10)
C76 C 0.1186(2) 1.06299(11) 0.9289(1)
C77 C 0.0103(2) 1.07382(11) 0.90805(10)
H88 H -0.05300 1.07630 0.93390
C78 C -0.0081(2) 1.08116(11) 0.85047(10)
C79 C 0.1352(2) 1.05995(11) 0.99247(10)
H89 H 0.21080 1.03620 1.00010
H90 H 0.07740 1.03670 1.01110
C80 C 0.1256(2) 1.12670(11) 1.01712(9)
C81 C 0.2215(2) 1.15635(12) 1.02181(10)
H91 H 0.29380 1.13350 1.01200
C82 C 0.2136(2) 1.21895(12) 1.04055(10)
C83 C 0.1081(2) 1.25326(11) 1.05569(10)
C84 C 0.0126(2) 1.22296(11) 1.05214(10)
H92 H -0.05960 1.24540 1.06280
C85 C 0.0208(2) 1.16016(11) 1.03319(9)
C86 C 0.0974(2) 1.32225(11) 1.07383(10)
H93 H 0.16690 1.32920 1.09310
H94 H 0.03270 1.33140 1.10140
C87 C 0.0799(2) 1.36813(11) 1.0239(1)
C88 C 0.1722(2) 1.38453(11) 0.9926(1)
H95 H 0.24650 1.36710 1.00270
C89 C 0.1576(2) 1.42627(11) 0.94651(10)
C90 C 0.0496(2) 1.45342(11) 0.93167(10)
C91 C -0.0426(2) 1.43649(11) 0.96306(10)
H96 H -0.11700 1.45440 0.95320
C92 C -0.0287(2) 1.39415(11) 1.00833(10)
C93 C 0.0316(2) 1.50060(11) 0.88297(10)
H97 H 0.09770 1.52400 0.87880
H98 H -0.03620 1.53210 0.89170
C94 C 0.4092(2) 1.02075(14) 0.87557(11)
H99 H 0.42990 1.05440 0.84940
H100 H 0.38820 0.98560 0.85280
C95 C 0.5070(2) 0.99661(16) 0.91190(13)
H101 H 0.57150 0.97800 0.88770
H102 H 0.48490 0.96400 0.93820
H103 H 0.52830 1.03210 0.93340
C96 C 0.3362(2) 1.18791(14) 0.70473(12)
H104 H 0.33180 1.22940 0.72410
H105 H 0.33690 1.19570 0.66330
C97 C 0.4417(2) 1.14487(14) 0.72059(13)
H106 H 0.44350 1.10330 0.70260
H107 H 0.44210 1.13930 0.76190
H108 H 0.50840 1.16400 0.70770
C98 C 0.2903(2) 1.42058(13) 0.71164(11)
H109 H 0.32470 1.40200 0.74670
H110 H 0.27790 1.46760 0.71520
C99 C 0.3669(2) 1.40114(14) 0.66098(12)
H111 H 0.33150 1.41940 0.62650
H112 H 0.37970 1.35450 0.65830
H113 H 0.43950 1.41690 0.66510
C100 C 0.3581(2) 1.41662(14) 0.92572(13)
H114 H 0.36450 1.36950 0.92750
H115 H 0.37890 1.43220 0.96270
C101 C 0.4153(2) 1.21923(14) 1.03235(13)
H116 H 0.42140 1.20470 0.99250
H117 H 0.43200 1.18160 1.05750
C102 C 0.4968(2) 1.26592(15) 1.04166(14)
H118 H 0.47880 1.30310 1.01690
H119 H 0.57430 1.24550 1.03290
H120 H 0.49040 1.27960 1.08130
C103 C -0.2295(2) 1.40427(13) 1.02816(12)
H121 H -0.24800 1.39220 0.98960
H122 H -0.23630 1.45130 1.02990
C104 C -0.3087(3) 1.37985(16) 1.07172(14)
H123 H -0.38700 1.39720 1.06360
H124 H -0.29110 1.39330 1.10950
H125 H -0.29950 1.33320 1.07040
C105 C -0.1801(2) 1.15844(12) 1.04713(11)
H126 H -0.20130 1.19810 1.02510
H127 H -0.18070 1.16940 1.08780
C106 C -0.2612(2) 1.11174(13) 1.03736(12)
H128 H -0.25810 1.10060 0.99710
H129 H -0.33820 1.13110 1.04850
H130 H -0.24010 1.07320 1.06010
C107 C -0.2096(2) 1.09473(16) 0.86741(12)
H131 H -0.20630 1.12830 0.89590
H132 H -0.20920 1.05340 0.88750
C108 C -0.3149(3) 1.10980(18) 0.83413(14)
H133 H -0.31790 1.07600 0.80650
H134 H -0.31400 1.15060 0.81420
H135 H -0.38160 1.11270 0.86000
C109 C -0.2882(2) 1.25228(15) 0.71148(14)
H136 H -0.29150 1.23230 0.74950
H137 H -0.28210 1.21840 0.68260
C110 C -0.3922(3) 1.29975(16) 0.70308(15)
H138 H -0.38930 1.31790 0.66480
H139 H -0.39560 1.33390 0.73100
H140 H -0.45960 1.27840 0.70800
C111 C -0.3356(3) 1.54996(17) 0.87741(14)
H141 H -0.38750 1.51810 0.87750
H142 H -0.37710 1.59210 0.86880
H143 H -0.30270 1.55080 0.91480
C112 C -0.2429(6) 1.5331(4) 0.8333(2)
H144 H -0.27520 1.53040 0.79550
H145 H -0.19160 1.56600 0.83160
C113? C -0.2803(9) 1.5046(6) 0.8288(3)
H146? H -0.33210 1.47430 0.81860
H147? H -0.26370 1.52970 0.79460
H148? H -0.35510 1.52440 0.91020
H149? H -0.40420 1.57570 0.86390
H150? H -0.28180 1.57810 0.88840
O21 O 0.6644(3) 0.77473(17) 0.61725(17)
C114 C 0.5888(3) 0.81621(19) 0.65140(17)
H151 H 0.59230 0.86110 0.64010
H152 H 0.60840 0.81080 0.69170
C115 C 0.4698(4) 0.79932(18) 0.64296(17)
H153 H 0.43210 0.79100 0.67980
H154 H 0.42240 0.83430 0.62320
C116 C 0.4889(4) 0.7411(2) 0.60793(19)
H155 H 0.45530 0.74880 0.57040
H156 H 0.45740 0.70540 0.62710
C117 C 0.6163(4) 0.7282(3) 0.6027(3)
H157 H 0.64310 0.69080 0.62660
H158 H 0.63910 0.71730 0.56290
O22 O 0.3007(4) 1.30303(15) 0.82668(15)
C118 C 0.1833(5) 1.29426(18) 0.84501(16)
H159 H 0.13840 1.28790 0.81170
H160 H 0.14580 1.33230 0.86570
C119 C 0.1920(4) 1.23575(18) 0.88352(17)
H161 H 0.18390 1.24800 0.92400
H162 H 0.13390 1.20850 0.87510
C120 C 0.3074(4) 1.20299(18) 0.86931(17)
H163 H 0.34080 1.17910 0.90240
H164 H 0.30700 1.17320 0.83730
C121 C 0.3684(4) 1.25508(18) 0.8537(2)
H165 H 0.39750 1.27220 0.88830
H166 H 0.43420 1.23920 0.82850
O23 O 0.2417(3) 0.74520(19) 1.06108(15)
C122 C 0.3193(4) 0.7124(2) 1.09558(18)
H167 H 0.36340 0.74220 1.11380
H168 H 0.37240 0.68130 1.07320
C123 C 0.2570(4) 0.6788(2) 1.13916(17)
H169 H 0.28960 0.68100 1.17690
H170 H 0.25740 0.63350 1.12910
C124 C 0.1408(5) 0.7150(3) 1.13795(19)
H171 H 0.08320 0.68670 1.14690
H172 H 0.13140 0.75020 1.16570
C125 C 0.1299(4) 0.7397(2) 1.08113(18)
H173 H 0.09560 0.71020 1.05710
H174 H 0.08190 0.78180 1.08100
C126 C 0.1548(6) 0.7878(3) 0.6492(3)
H175 H 0.19970 0.81930 0.63180
H176 H 0.17380 0.78110 0.68950
C127 C 0.1687(11) 0.7310(7) 0.6193(7)
H177 H 0.21410 0.69800 0.64230
H178 H 0.21350 0.73700 0.58400
O24 O 0.0684(12) 0.7070(7) 0.6044(7)
C128 C -0.0258(13) 0.7521(7) 0.6075(9)
H179 H -0.08920 0.73550 0.62830
H180 H -0.05010 0.76630 0.56930
C129 C 0.0164(12) 0.8089(9) 0.6415(11)
H181 H -0.02370 0.81450 0.67900
H182 H 0.00190 0.84940 0.62000
H183? H 0.21250 0.76740 0.67520
H184? H 0.17100 0.83160 0.64100
C130? C 0.1637(9) 0.7512(6) 0.5951(5)
H185? H 0.21520 0.71040 0.59860
H186? H 0.19120 0.77630 0.56320
C131? C 0.0441(14) 0.7397(11) 0.5873(7)
H187? H 0.04060 0.69380 0.58200
H188? H 0.01210 0.76360 0.55390
C132? C -0.0222(12) 0.7646(7) 0.6436(7)
H189? H -0.08810 0.79640 0.63420
H190? H -0.05070 0.72860 0.66390
O25? O 0.0453(9) 0.7911(5) 0.6766(5)
#END
