
#######################################################################
#
#                 Cambridge Crystallographic Data Centre
#                                CCDC
#
#######################################################################
#
# If this CIF has been generated from an entry in the Cambridge
# Structural Database, then it will include bibliographic, chemical,
# crystal, experimental, refinement or atomic coordinate data resulting
# from the CCDC's data processing and validation procedures.
#
#######################################################################

data_CSD_CIF_TASQEM
_audit_creation_date 2017-03-30
_audit_creation_method CSD-ConQuest-V1
_database_code_CSD TASQEM
_database_code_depnum_ccdc_archive 'CCDC 1521816'
_chemical_formula_sum 'C65 H82.5 O10'
_chemical_formula_moiety
;
C55 H70 O10,1.25(C8 H10)
;
_journal_coden_Cambridge 4
_journal_volume 138
_journal_year 2017
_journal_page_first 2908
_journal_name_full 'J.Am.Chem.Soc. '
loop_
_publ_author_name
"Kecheng Jie"
"Ming Liu"
"Yujuan Zhou"
"M.A.Little"
"S.Bonakala"
"Samantha Y.Chong"
"A.Stephenson"
"Linjiang Chen"
"Feihe Huang"
"A.I.Cooper"
_chemical_name_systematic
;
4,9,14,19,24,26,28,30,32,34-decaethoxyhexacyclo[21.2.2.2^3,6^.2^8,11^.2^13,16^
.2^18,21^]pentatriaconta-1(25),3,5,8,10,13,15,18,20,23,26,28,30,32,34-pentadec
aene ethylbenzene solvate
;
_cell_volume  11941.333
_exptl_crystal_colour 'colorless'
_exptl_crystal_density_diffrn 1.139
_exptl_crystal_description 'block'
_diffrn_ambient_temperature 240
_refine_special_details
;
The structure is disordered.

;
#These two values have been output from a single CSD field.
_refine_ls_R_factor_gt 0.0865
_refine_ls_wR_factor_gt 0.0865
_symmetry_cell_setting monoclinic
_symmetry_space_group_name_H-M 'P 21/n'
_symmetry_Int_Tables_number 14
loop_
_symmetry_equiv_pos_site_id
_symmetry_equiv_pos_as_xyz
1 x,y,z
2 1/2-x,1/2+y,1/2-z
3 -x,-y,-z
4 -1/2+x,-1/2-y,-1/2+z
_cell_length_a 13.5000(8)
_cell_length_b 20.6046(12)
_cell_length_c 43.205(3)
_cell_angle_alpha 90
_cell_angle_beta 96.475(1)
_cell_angle_gamma 90
_cell_formula_units_Z 8
loop_
_atom_type_symbol
_atom_type_radius_bond
C 0.68
H 0.23
O 0.68
loop_
_atom_site_label
_atom_site_type_symbol
_atom_site_fract_x
_atom_site_fract_y
_atom_site_fract_z
O1 O -0.04901(17) 0.86099(12) 0.62211(6)
O2 O 0.2400(2) 0.75823(13) 0.56286(6)
O3 O 0.56503(19) 0.86843(13) 0.63280(8)
O4 O 0.4039(2) 0.96852(13) 0.52585(7)
O5 O 0.2883(2) 0.76315(14) 0.69072(7)
O6 O -0.0824(2) 1.10443(13) 0.62908(7)
O7 O 0.1184(2) 0.96254(13) 0.72455(6)
O8 O 0.2116(2) 1.16473(15) 0.56335(8)
O9 O 0.5493(2) 1.10558(14) 0.63137(8)
O10 O 0.2708(2) 1.17706(17) 0.69151(8)
C1 C 0.0363(2) 0.83685(15) 0.63820(8)
C2 C 0.0517(2) 0.85174(15) 0.66980(8)
C3 C 0.1042(2) 0.79776(15) 0.62498(8)
H1 H 0.09250 0.78740 0.60370
C4 C -0.0216(3) 0.89498(16) 0.68470(8)
H2 H -0.08950 0.88540 0.67530
H3 H -0.01800 0.88480 0.70700
C5 C 0.1885(2) 0.77369(15) 0.64246(8)
C6 C 0.2041(3) 0.78908(16) 0.67383(8)
C7 C 0.3356(2) 0.77364(15) 0.61126(8)
C8 C 0.3220(3) 0.78670(16) 0.57964(9)
C9 C 0.2617(2) 0.73250(16) 0.62686(8)
H4 H 0.22480 0.70460 0.61120
H5 H 0.29840 0.70440 0.64250
C10 C 0.1350(3) 0.82804(16) 0.68716(8)
H6 H 0.14620 0.83810 0.70850
C11 C 0.4690(3) 0.85491(17) 0.58433(10)
C12 C 0.4454(3) 1.10073(17) 0.58427(10)
C13 C 0.4163(3) 0.80078(16) 0.62912(9)
H7 H 0.42650 0.79170 0.65060
C14 C 0.4829(3) 0.84107(17) 0.61612(10)
C15 C 0.0716(3) 0.99836(18) 0.70067(9)
C16 C -0.0008(3) 0.96667(17) 0.68083(9)
C17 C 0.3886(3) 0.82671(16) 0.56628(9)
H8 H 0.37910 0.83480 0.54470
C18 C 0.3218(3) 1.17055(16) 0.60948(11)
C19 C 0.4096(3) 1.06739(17) 0.5573(1)
H9 H 0.36500 1.08830 0.54220
C20 C 0.4383(3) 1.00351(18) 0.55207(10)
C21 C 0.1454(3) 1.16814(17) 0.61366(11)
H10 H 0.07960 1.16660 0.60390
C22 C 0.2233(3) 1.16779(17) 0.59529(10)
C23 C 0.1609(3) 1.17069(16) 0.64579(11)
C24 C 0.3368(3) 1.17436(17) 0.64152(10)
H11 H 0.40230 1.17720 0.65150
C25 C 0.5054(3) 0.97228(18) 0.57389(10)
C26 C 0.0429(3) 1.09883(17) 0.67106(9)
C27 C -0.0643(3) 0.85107(18) 0.58930(9)
H12 H -0.06740 0.80450 0.58460
H13 H -0.00930 0.87010 0.57940
C28 C -0.0529(3) 1.00238(17) 0.65727(9)
H14 H -0.10350 0.98210 0.64400
C29 C 0.5119(3) 1.06964(19) 0.60539(11)
C30 C -0.0323(3) 1.06797(18) 0.65278(9)
C31 C 0.2580(3) 1.17413(18) 0.65947(11)
C32 C 0.4085(3) 1.16937(17) 0.5899(1)
H15 H 0.46370 1.19480 0.60040
H16 H 0.38780 1.19000 0.56980
C33 C 0.5365(3) 0.90182(17) 0.56988(10)
H17 H 0.53490 0.89220 0.54760
H18 H 0.60510 0.89590 0.57950
C34 C 0.0936(3) 1.06423(18) 0.69542(10)
H19 H 0.14370 1.08500 0.70870
C35 C 0.0741(3) 1.16847(17) 0.66478(10)
H20 H 0.01750 1.19170 0.65360
H21 H 0.09230 1.19070 0.68470
C36 C 0.5422(3) 1.00651(19) 0.60039(11)
H22 H 0.58850 0.98650 0.61530
C37 C -0.1794(4) 1.0835(2) 0.61672(11)
H23 H -0.21990 1.07460 0.63370
H24 H -0.17480 1.04350 0.60470
C38 C 0.5769(3) 0.8607(2) 0.66551(13)
H25 H 0.57930 0.81440 0.67080
H26 H 0.52040 0.88030 0.67440
C39 C -0.2265(4) 1.1356(2) 0.59633(12)
H27 H -0.18600 1.14410 0.57960
H28 H -0.23160 1.17480 0.60850
H29 H -0.29250 1.12190 0.58760
C40 C 0.3432(4) 1.0008(2) 0.50177(11)
H30 H 0.37940 1.03740 0.49400
H31 H 0.28280 1.01750 0.50970
C41 C -0.1604(3) 0.8830(2) 0.5773(1)
H32 H -0.17340 0.87600 0.55500
H33 H -0.15590 0.92920 0.58160
H34 H -0.21410 0.86440 0.58750
C42 C 0.3159(4) 0.9525(2) 0.47605(11)
H35 H 0.27640 0.97380 0.45890
H36 H 0.27760 0.91740 0.48380
H37 H 0.37620 0.93510 0.46890
C43 C 0.1141(4) 1.1699(3) 0.54766(12)
H38 H 0.08640 1.21300 0.55110
H39 H 0.07050 1.13720 0.55540
C44 C 0.1725(4) 0.9945(2) 0.74962(11)
H40 H 0.13160 1.02840 0.75770
H41 H 0.23220 1.01470 0.74290
C45 C 0.2247(4) 0.7647(3) 0.53092(11)
H42 H 0.28250 0.74810 0.52150
H43 H 0.21560 0.81050 0.52530
C46 C 0.5790(5) 1.0732(3) 0.65923(14)
H44 H 0.63090 1.04140 0.65620
H45 H 0.52230 1.05030 0.66640
C47 C 0.2010(5) 0.9460(3) 0.77386(12)
H46 H 0.24910 0.91620 0.76670
H47 H 0.14240 0.92220 0.77830
H48 H 0.23040 0.96770 0.79260
C48 C 0.6718(4) 0.8929(3) 0.67852(15)
H49 H 0.72720 0.87380 0.66930
H50 H 0.68160 0.88690 0.70090
H51 H 0.66810 0.93890 0.67380
C49 C 0.3216(4) 0.7868(4) 0.71871(14)
H52 H 0.26980 0.78300 0.73280
H53 H 0.33840 0.83290 0.71700
C50 C 0.1214(5) 1.1597(4) 0.51411(16)
H54 H 0.05500 1.15850 0.50290
H55 H 0.15510 1.11890 0.51120
H56 H 0.15900 1.19500 0.50620
C51 C 0.1327(5) 0.7266(3) 0.51921(13)
H57 H 0.11870 0.73210 0.49680
H58 H 0.07650 0.74210 0.52930
H59 H 0.14360 0.68090 0.52400
C52 C 0.4132(5) 0.7489(4) 0.73155(14)
H60 H 0.46840 0.76000 0.72000
H61 H 0.39950 0.70280 0.72950
H62 H 0.43030 0.75970 0.75340
C53 C 0.3616(5) 1.1958(5) 0.70689(17)
H63 H 0.41310 1.18390 0.69360
H64 H 0.37340 1.16960 0.72590
C54 C 0.6176(5) 1.1218(3) 0.68222(16)
H65 H 0.67600 1.14240 0.67540
H66 H 0.63550 1.10090 0.70220
H67 H 0.56670 1.15430 0.68430
C55 C 0.3784(13) 1.2645(7) 0.7161(6)
H68 H 0.37430 1.29140 0.69750
H69 H 0.44390 1.26900 0.72760
H70 H 0.32790 1.27810 0.72900
O11 O 0.43792(17) 0.61167(12) 0.61122(6)
O12 O 1.05413(18) 0.61933(13) 0.63730(6)
O13 O 0.58027(19) 0.51314(12) 0.71753(6)
O14 O 0.75010(19) 0.71793(13) 0.68878(6)
O15 O 0.9069(2) 0.52043(12) 0.53022(6)
O16 O 0.7295(2) 0.71606(14) 0.56228(6)
O17 O 0.7610(2) 0.30217(14) 0.68696(6)
O18 O 0.4206(2) 0.36905(13) 0.61597(7)
O19 O 0.7186(2) 0.31649(15) 0.55828(7)
O20 O 1.0545(2) 0.37086(14) 0.63092(7)
C56 C 0.5167(2) 0.63803(15) 0.62992(8)
C57 C 0.9719(2) 0.64419(16) 0.61945(8)
C58 C 0.5871(2) 0.67865(15) 0.61893(8)
H71 H 0.58200 0.68840 0.59750
C59 C 0.9013(2) 0.68343(15) 0.63084(8)
H72 H 0.90860 0.69440 0.65210
C60 C 0.5233(2) 0.62357(15) 0.66148(8)
C61 C 0.9629(2) 0.62768(16) 0.58801(8)
C62 C 0.6644(2) 0.70514(15) 0.63860(8)
C63 C 0.8199(3) 0.70696(15) 0.61168(8)
C64 C 0.5430(3) 0.47622(17) 0.69213(8)
C65 C 0.6711(3) 0.69078(16) 0.67015(8)
C66 C 0.5299(3) 0.37663(16) 0.66226(9)
C67 C 0.6006(3) 0.65052(16) 0.68123(8)
H73 H 0.60530 0.64130 0.70260
C68 C 0.4486(3) 0.57793(16) 0.67375(9)
H74 H 0.38250 0.58590 0.66250
H75 H 0.44500 0.58730 0.69580
C69 C 0.8109(3) 0.69107(17) 0.58045(8)
C70 C 0.4755(2) 0.50682(16) 0.67022(8)
C71 C 0.9415(3) 0.48224(18) 0.55521(8)
C72 C 0.9128(3) 0.41782(18) 0.55840(8)
H76 H 0.86740 0.39900 0.54290
C73 C 0.6560(3) 0.30653(15) 0.63953(9)
C74 C 1.0375(3) 0.58216(17) 0.57527(9)
H77 H 1.04200 0.59270 0.55340
H78 H 1.10350 0.58890 0.58680
C75 C 0.5699(3) 0.41151(16) 0.68811(8)
H79 H 0.61570 0.39140 0.70310
C76 C 1.0081(3) 0.51127(17) 0.57787(9)
C77 C 0.5656(3) 0.30769(16) 0.65716(9)
H80 H 0.58200 0.28650 0.67740
H81 H 0.51160 0.28300 0.64550
C78 C 0.8229(3) 0.30919(16) 0.60563(9)
C79 C 0.8822(3) 0.65194(16) 0.56889(8)
H82 H 0.87540 0.64170 0.54760
C80 C 0.7420(2) 0.74744(16) 0.62533(8)
H83 H 0.70880 0.77570 0.60910
H84 H 0.77460 0.77510 0.64190
C81 C 0.4344(3) 0.47148(17) 0.64485(9)
H85 H 0.38810 0.49140 0.62990
C82 C 0.9496(3) 0.38100(17) 0.58398(9)
C83 C 0.6454(3) 0.31001(16) 0.60727(9)
H86 H 0.58090 0.31130 0.59650
C84 C 0.4605(3) 0.40633(17) 0.64082(9)
C85 C 0.9133(3) 0.31164(17) 0.58786(9)
H87 H 0.89650 0.29210 0.56730
H88 H 0.96720 0.28600 0.59900
C86 C 1.0460(3) 0.47430(18) 0.60320(9)
H89 H 1.09140 0.49320 0.61870
C87 C 1.0183(3) 0.40972(19) 0.60622(9)
C88 C 0.7274(3) 0.31161(17) 0.59045(9)
C89 C 0.7520(3) 0.30328(17) 0.65473(9)
C90 C 0.8334(3) 0.30466(17) 0.63771(9)
H90 H 0.89790 0.30240 0.64840
C91 C 1.0665(3) 0.6333(2) 0.66964(9)
H91 H 1.00870 0.61770 0.67930
H92 H 1.07240 0.68030 0.67300
C92 C 0.4303(3) 0.6243(2) 0.57865(9)
H93 H 0.48960 0.60810 0.57000
H94 H 0.42490 0.67110 0.57480
C93 C 0.6375(3) 0.48216(19) 0.74272(9)
H95 H 0.69740 0.46280 0.73580
H96 H 0.59850 0.44770 0.75120
C94 C 0.8311(3) 0.5434(2) 0.47987(10)
H97 H 0.79690 0.52440 0.46110
H98 H 0.89270 0.56330 0.47520
H99 H 0.78880 0.57610 0.48780
C95 C 0.6658(3) 0.5330(2) 0.76714(9)
H100 H 0.70660 0.56590 0.75870
H101 H 0.70310 0.51290 0.78510
H102 H 0.60590 0.55290 0.77330
C96 C 0.8539(3) 0.4916(2) 0.50387(9)
H103 H 0.79200 0.47220 0.50940
H104 H 0.89410 0.45730 0.49570
C97 C 0.7502(3) 0.7180(3) 0.72099(9)
H105 H 0.75190 0.67330 0.72880
H106 H 0.68950 0.73890 0.72660
C98 C 0.7234(4) 0.7106(3) 0.53048(11)
H107 H 0.71800 0.66480 0.52430
H108 H 0.78330 0.72880 0.52290
C99 C 0.8504(4) 0.2793(3) 0.70373(11)
H109 H 0.85290 0.29380 0.72540
H110 H 0.90720 0.29870 0.69490
C100 C 0.3393(3) 0.5904(2) 0.56378(11)
H111 H 0.33050 0.59990 0.54160
H112 H 0.28150 0.60530 0.57320
H113 H 0.34690 0.54400 0.56680
C101 C 0.6278(4) 0.3009(3) 0.54007(12)
H114 H 0.62940 0.31740 0.51890
H115 H 0.57250 0.32220 0.54890
C102 C 1.1589(3) 0.6000(3) 0.68370(11)
H116 H 1.21490 0.61380 0.67310
H117 H 1.15050 0.55340 0.68150
H118 H 1.17130 0.61110 0.70560
C103 C 0.8604(4) 0.2081(3) 0.70325(13)
H119 H 0.85890 0.19330 0.68190
H120 H 0.80580 0.18850 0.71270
H121 H 0.92320 0.19560 0.71490
C104 C 0.8399(4) 0.7542(3) 0.73513(12)
H122 H 0.83330 0.79970 0.72960
H123 H 0.89910 0.73650 0.72740
H124 H 0.84570 0.74980 0.75760
C105 C 0.6104(4) 0.2275(3) 0.53898(14)
H125 H 0.54840 0.21820 0.52620
H126 H 0.60680 0.21140 0.55990
H127 H 0.66510 0.20650 0.53020
C106 C 0.3431(5) 0.3917(3) 0.59574(14)
H128 H 0.36640 0.42670 0.58300
H129 H 0.29090 0.40910 0.60740
C107 C 0.3017(6) 0.3374(3) 0.57511(15)
H130 H 0.24350 0.35260 0.56190
H131 H 0.28290 0.30170 0.58780
H132 H 0.35180 0.32290 0.56230
C108 C 1.1248(5) 0.3952(3) 0.65369(14)
H133 H 1.09570 0.42950 0.66550
H134 H 1.18160 0.41330 0.64430
C109 C 0.6326(5) 0.7471(4) 0.51677(13)
H135 H 0.62550 0.74280 0.49430
H136 H 0.63970 0.79260 0.52230
H137 H 0.57400 0.72950 0.52480
C110 C 1.1579(7) 0.3388(3) 0.67467(19)
H138 H 1.19610 0.30860 0.66350
H139 H 1.09980 0.31700 0.68100
H140 H 1.19900 0.35470 0.69300
C111 C 0.1796(2) 0.97131(17) 0.58820(8)
C112 C 0.0948(3) 1.00561(16) 0.59383(8)
H141 H 0.09120 1.02500 0.61340
C113 C 0.0153(2) 1.01130(16) 0.57056(11)
H142 H -0.04200 1.03450 0.57440
C114 C 0.0207(2) 0.98269(19) 0.54166(9)
H143 H -0.03310 0.98650 0.52590
C115 C 0.1055(3) 0.94839(18) 0.53603(7)
H144 H 0.10910 0.92900 0.51650
C116 C 0.1849(2) 0.94270(16) 0.55930(9)
H145 H 0.24230 0.91950 0.55550
C117 C 0.2705(5) 0.9642(4) 0.61168(15)
H146 H 0.29890 0.92120 0.60890
H147 H 0.31980 0.99620 0.60650
C118 C 0.2587(6) 0.9716(4) 0.64391(15)
H148 H 0.23270 1.01450 0.64750
H149 H 0.32280 0.96620 0.65620
H150 H 0.21260 0.93900 0.64990
C119 C 0.8285(6) 0.5067(4) 0.6749(2)
C120 C 0.8934(8) 0.4544(4) 0.6800(2)
H151 H 0.89280 0.42110 0.66510
C121 C 0.9593(8) 0.4515(4) 0.7071(3)
H152 H 1.00320 0.41620 0.71060
C122 C 0.9602(7) 0.5007(5) 0.7291(2)
H153 H 1.00480 0.49870 0.74740
C123 C 0.8953(7) 0.5530(4) 0.7240(2)
H154 H 0.89590 0.58630 0.73890
C124 C 0.8294(6) 0.5559(4) 0.6969(2)
H155 H 0.78550 0.59120 0.69340
C125 C 0.7546(10) 0.5157(8) 0.6470(3)
H156 H 0.69750 0.48900 0.65120
H157 H 0.73260 0.56080 0.64840
C126 C 0.763(2) 0.5056(17) 0.6135(3)
H158 H 0.81460 0.53340 0.60710
H159 H 0.77900 0.46060 0.60990
H160? H 0.38200 1.23720 0.69830
H161? H 0.41230 1.16320 0.70360
H162? H 0.36750 0.45340 0.46600
C127? C 0.8392(16) 0.5320(12) 0.6919(4)
H163? H 0.84430 0.57920 0.68970
H164? H 0.77100 0.52330 0.69650
C128? C 0.3548(10) 1.2032(11) 0.7406(2)
H165? H 0.29450 1.22680 0.74360
H166? H 0.41240 1.22690 0.75010
H167? H 0.35300 1.16060 0.75010
C129? C 0.846(2) 0.5038(13) 0.6592(5)
H168? H 0.80470 0.52910 0.64380
H169? H 0.82350 0.45910 0.65850
H170? H 0.91490 0.50540 0.65460
C130? C 0.9055(7) 0.5150(6) 0.7211(2)
C131? C 0.9165(8) 0.4480(6) 0.7232(3)
H171? H 0.87640 0.42100 0.70940
C132? C 0.9868(10) 0.4211(4) 0.7455(3)
H172? H 0.99430 0.37580 0.74680
C133? C 1.0461(8) 0.4611(6) 0.7658(2)
H173? H 1.09370 0.44290 0.78090
C134? C 1.0351(8) 0.5281(6) 0.7638(3)
H174? H 1.07530 0.55520 0.77750
C135? C 0.9649(9) 0.5551(4) 0.7414(3)
H175? H 0.95740 0.60040 0.74010
C136? C 0.5831(15) 0.4621(11) 0.5613(3)
H176? H 0.53200 0.45860 0.57560
H177? H 0.61460 0.41930 0.56090
H178? H 0.72200 0.48370 0.58210
H179? H 0.63720 0.52460 0.59550
H180? H 0.67110 0.54230 0.56270
H181? H 0.69950 0.51620 0.60150
H182? H 0.71260 0.51590 0.59350
C137? C 0.5802(7) 0.5278(4) 0.5208(2)
C138? C 0.5494(6) 0.5515(5) 0.4925(2)
H183? H 0.58300 0.58840 0.48630
C139? C 0.4716(6) 0.5269(4) 0.4709(2)
H184? H 0.45530 0.54690 0.45140
C140? C 0.671(2) 0.5541(12) 0.5478(7)
H185? H 0.66100 0.59950 0.55330
H186? H 0.73700 0.54970 0.54030
C141? C 0.6616(16) 0.5078(11) 0.5764(4)
H187? H 0.66440 0.46220 0.57020
H188? H 0.59580 0.51470 0.58410
#END
