
#######################################################################
#
#                 Cambridge Crystallographic Data Centre
#                                CCDC
#
#######################################################################
#
# If this CIF has been generated from an entry in the Cambridge
# Structural Database, then it will include bibliographic, chemical,
# crystal, experimental, refinement or atomic coordinate data resulting
# from the CCDC's data processing and validation procedures.
#
#######################################################################

data_CSD_CIF_TASQOW
_audit_creation_date 2017-03-30
_audit_creation_method CSD-ConQuest-V1
_database_code_CSD TASQOW
_database_code_depnum_ccdc_archive 'CCDC 1521814'
_chemical_formula_sum 'C66 H84 O12'
_chemical_formula_moiety
;
C66 H84 O12
;
_journal_coden_Cambridge 4
_journal_volume 138
_journal_year 2017
_journal_page_first 2908
_journal_name_full 'J.Am.Chem.Soc. '
loop_
_publ_author_name
"Kecheng Jie"
"Ming Liu"
"Yujuan Zhou"
"M.A.Little"
"S.Bonakala"
"Samantha Y.Chong"
"A.Stephenson"
"Linjiang Chen"
"Feihe Huang"
"A.I.Cooper"
_chemical_name_systematic
;
4,9,14,19,24,29,31,33,35,37,39,41-dodecaethoxyheptacyclo[26.2.2.2^3,6^.2^8,11^
.2^13,16^.2^18,21^.2^23,26^]dotetraconta-1(30),3,5,8,10,13,15,18,20,23,25,28,3
1,33,35,37,39,41-octadecaene
;
_cell_volume   3781.266
_exptl_crystal_colour 'colorless'
_exptl_crystal_density_diffrn 1.092
_exptl_special_details
;
alpha polymorph

;
_exptl_crystal_description 'block'
_diffrn_ambient_temperature 240
#These two values have been output from a single CSD field.
_refine_ls_R_factor_gt 0.0498
_refine_ls_wR_factor_gt 0.0498
_symmetry_cell_setting monoclinic
_symmetry_space_group_name_H-M 'P 2/n'
_symmetry_Int_Tables_number 13
loop_
_symmetry_equiv_pos_site_id
_symmetry_equiv_pos_as_xyz
1 x,y,z
2 1/2-x,y,1/2-z
3 -x,-y,-z
4 -1/2+x,-y,-1/2+z
_cell_length_a 12.5845(8)
_cell_length_b 22.7005(16)
_cell_length_c 14.5054(10)
_cell_angle_alpha 90
_cell_angle_beta 114.1459(17)
_cell_angle_gamma 90
_cell_formula_units_Z 2
loop_
_atom_type_symbol
_atom_type_radius_bond
C 0.68
H 0.23
O 0.68
loop_
_atom_site_label
_atom_site_type_symbol
_atom_site_fract_x
_atom_site_fract_y
_atom_site_fract_z
O1 O 0.20018(12) 0.08821(7) 0.53969(10)
O2 O 0.23620(12) 0.31085(6) 0.61887(11)
O3 O 0.10517(12) 0.47266(7) 0.34438(11)
O4 O 0.47654(11) 0.03764(6) 0.33625(10)
O5 O 0.61872(12) 0.18668(6) 0.62906(11)
O6 O 0.56465(12) 0.40057(6) 0.52570(11)
C1 C 0.25000 0.50599(13) 0.25000
H1 H 0.18630 0.53150 0.24820
C2 C 0.29212(17) 0.46950(9) 0.34576(15)
C3 C 0.21972(17) 0.45448(9) 0.39242(16)
C4 C 0.26373(17) 0.42451(9) 0.48363(16)
H2 H 0.21400 0.41570 0.51550
C5 C 0.37954(17) 0.40718(8) 0.52902(15)
C6 C 0.45105(17) 0.41976(9) 0.47915(16)
C7 C 0.40755(18) 0.45115(9) 0.38986(16)
H3 H 0.45720 0.46030 0.35810
C8 C 0.42745(18) 0.37740(9) 0.63141(15)
H4 H 0.38150 0.39000 0.66850
H5 H 0.50770 0.39080 0.66950
C9 C 0.42682(17) 0.31068(9) 0.62726(14)
C10 C 0.33156(17) 0.27857(10) 0.62345(14)
C11 C 0.33537(18) 0.21753(9) 0.62677(14)
H6 H 0.27110 0.19650 0.62680
C12 C 0.43232(17) 0.18690(9) 0.63002(13)
C13 C 0.52539(17) 0.21870(9) 0.62871(14)
C14 C 0.52295(17) 0.27985(10) 0.62930(14)
H7 H 0.58810 0.30090 0.63110
C15 C 0.43409(18) 0.12010(9) 0.63520(14)
H8 H 0.51480 0.10690 0.67140
H9 H 0.39030 0.10730 0.67410
C16 C 0.38283(17) 0.09094(8) 0.53247(14)
C17 C 0.26658(17) 0.07417(9) 0.48736(14)
C18 C 0.22477(17) 0.04361(9) 0.39679(14)
H10 H 0.14660 0.03140 0.36860
C19 C 0.29510(16) 0.03047(8) 0.34634(13)
C20 C 0.41028(16) 0.05027(8) 0.38958(14)
C21 C 0.45284(17) 0.07907(8) 0.48170(14)
H11 H 0.53130 0.09090 0.51060
C22 C 0.25000 -0.00524(12) 0.25000
H12 H 0.18710 -0.03080 0.24980
C23 C -0.0905(2) 0.48258(15) 0.3187(2)
H13 H -0.11610 0.46480 0.25230
H14 H -0.08460 0.52490 0.31290
H15 H -0.14620 0.47380 0.34720
C24 C 0.0266(2) 0.45817(14) 0.3863(2)
H16 H 0.05230 0.47510 0.45410
H17 H 0.02200 0.41530 0.39150
C25 C 0.63947(18) 0.41254(11) 0.47583(18)
H18 H 0.64600 0.45510 0.46850
H19 H 0.60780 0.39470 0.40840
C26 C 0.75666(19) 0.38692(12) 0.5386(2)
H20 H 0.80990 0.39560 0.50740
H21 H 0.74980 0.34460 0.54330
H22 H 0.78620 0.40390 0.60580
C27 C 0.13418(18) 0.27975(11) 0.60974(18)
H23 H 0.15100 0.25470 0.66910
H24 H 0.10700 0.25460 0.54960
C28 C 0.0428(2) 0.32418(12) 0.6014(2)
H25 H 0.02080 0.34590 0.53870
H26 H 0.07340 0.35130 0.65790
H27 H -0.02490 0.30420 0.60220
C29 C 0.70670(19) 0.21604(11) 0.60968(18)
H28 H 0.74660 0.24470 0.66330
H29 H 0.67220 0.23720 0.54530
C30 C 0.7913(2) 0.17107(12) 0.6056(2)
H30 H 0.75340 0.14590 0.54730
H31 H 0.81850 0.14740 0.66670
H32 H 0.85700 0.19070 0.60030
C31 C 0.0817(2) 0.07563(13) 0.4978(2)
H33 H 0.06960 0.03310 0.48640
H34 H 0.04350 0.09570 0.43260
C32 C 0.0306(2) 0.09606(14) 0.5688(2)
H35 H -0.05120 0.08560 0.54200
H36 H 0.03860 0.13850 0.57640
H37 H 0.07130 0.07740 0.63400
C33 C 0.59387(18) 0.05883(10) 0.37771(16)
H38 H 0.63740 0.04150 0.44450
H39 H 0.59480 0.10180 0.38500
C34 C 0.6479(2) 0.04180(12) 0.30773(19)
H40 H 0.60710 0.06110 0.24310
H41 H 0.64300 -0.00060 0.29830
H42 H 0.72900 0.05380 0.33610
H43? H 0.18630 0.53150 0.24820
H44? H 0.18710 -0.03080 0.24980
H1A H 0.31370 0.53150 0.25180
H12A H 0.31290 -0.03080 0.25020
O1A O 0.29982(12) 0.08821(7) -0.03969(10)
O2A O 0.26380(12) 0.31085(6) -0.11887(11)
O3A O 0.39483(12) 0.47266(7) 0.15562(11)
O4A O 0.02346(11) 0.03764(6) 0.16375(10)
O5A O -0.11872(12) 0.18668(6) -0.12906(11)
O6A O -0.06465(12) 0.40057(6) -0.02570(11)
C2A C 0.20788(17) 0.46950(9) 0.15424(15)
C3A C 0.28028(17) 0.45448(9) 0.10758(16)
C4A C 0.23627(17) 0.42451(9) 0.01637(16)
H2A H 0.28600 0.41570 -0.01550
C5A C 0.12046(17) 0.40718(8) -0.02902(15)
C6A C 0.04895(17) 0.41976(9) 0.02085(16)
C7A C 0.09245(18) 0.45115(9) 0.11014(16)
H3A H 0.04280 0.46030 0.14190
C8A C 0.07255(18) 0.37740(9) -0.13141(15)
H4A H 0.11850 0.39000 -0.16850
H5A H -0.00770 0.39080 -0.16950
C9A C 0.07318(17) 0.31068(9) -0.12726(14)
C10A C 0.16844(17) 0.27857(10) -0.12345(14)
C11A C 0.16463(18) 0.21753(9) -0.12677(14)
H6A H 0.22890 0.19650 -0.12680
C12A C 0.06768(17) 0.18690(9) -0.13002(13)
C13A C -0.02539(17) 0.21870(9) -0.12871(14)
C14A C -0.02295(17) 0.27985(10) -0.12930(14)
H7A H -0.08810 0.30090 -0.13110
C15A C 0.06591(18) 0.12010(9) -0.13520(14)
H8A H -0.01480 0.10690 -0.17140
H9A H 0.10970 0.10730 -0.17410
C16A C 0.11717(17) 0.09094(8) -0.03247(14)
C17A C 0.23342(17) 0.07417(9) 0.01264(14)
C18A C 0.27523(17) 0.04361(9) 0.10321(14)
H10A H 0.35340 0.03140 0.13140
C19A C 0.20490(16) 0.03047(8) 0.15366(13)
C20A C 0.08972(16) 0.05027(8) 0.11042(14)
C21A C 0.04716(17) 0.07907(8) 0.01830(14)
H11A H -0.03130 0.09090 -0.01060
C23A C 0.5905(2) 0.48258(15) 0.1813(2)
H13A H 0.61610 0.46480 0.24770
H14A H 0.58460 0.52490 0.18710
H15A H 0.64620 0.47380 0.15280
C24A C 0.4734(2) 0.45817(14) 0.1137(2)
H16A H 0.44770 0.47510 0.04590
H17A H 0.47800 0.41530 0.10850
C25A C -0.13947(18) 0.41254(11) 0.02417(18)
H18A H -0.14600 0.45510 0.03150
H19A H -0.10780 0.39470 0.09160
C26A C -0.25666(19) 0.38692(12) -0.0386(2)
H20A H -0.30990 0.39560 -0.00740
H21A H -0.24980 0.34460 -0.04330
H22A H -0.28620 0.40390 -0.10580
C27A C 0.36582(18) 0.27975(11) -0.10974(18)
H23A H 0.34900 0.25470 -0.16910
H24A H 0.39300 0.25460 -0.04960
C28A C 0.4572(2) 0.32418(12) -0.1014(2)
H25A H 0.47920 0.34590 -0.03870
H26A H 0.42660 0.35130 -0.15790
H27A H 0.52490 0.30420 -0.10220
C29A C -0.20670(19) 0.21604(11) -0.10968(18)
H28A H -0.24660 0.24470 -0.16330
H29A H -0.17220 0.23720 -0.04530
C30A C -0.2913(2) 0.17107(12) -0.1056(2)
H30A H -0.25340 0.14590 -0.04730
H31A H -0.31850 0.14740 -0.16670
H32A H -0.35700 0.19070 -0.10030
C31A C 0.4183(2) 0.07563(13) 0.0022(2)
H33A H 0.43040 0.03310 0.01360
H34A H 0.45650 0.09570 0.06740
C32A C 0.4694(2) 0.09606(14) -0.0688(2)
H35A H 0.55120 0.08560 -0.04200
H36A H 0.46140 0.13850 -0.07640
H37A H 0.42870 0.07740 -0.13400
C33A C -0.09387(18) 0.05883(10) 0.12229(16)
H38A H -0.13740 0.04150 0.05550
H39A H -0.09480 0.10180 0.11500
C34A C -0.1479(2) 0.04180(12) 0.19227(19)
H40A H -0.10710 0.06110 0.25690
H41A H -0.14300 -0.00060 0.20170
H42A H -0.22900 0.05380 0.16390
#END
