
#######################################################################
#
#                 Cambridge Crystallographic Data Centre
#                                CCDC
#
#######################################################################
#
# If this CIF has been generated from an entry in the Cambridge
# Structural Database, then it will include bibliographic, chemical,
# crystal, experimental, refinement or atomic coordinate data resulting
# from the CCDC's data processing and validation procedures.
#
#######################################################################

data_CSD_CIF_WEDTEH
_audit_creation_date 2017-08-23
_audit_creation_method CSD-ConQuest-V1
_database_code_CSD WEDTEH
_database_code_depnum_ccdc_archive 'CCDC 1557690'
_chemical_formula_sum 'C16 H13 Cl1 N2 O1 S1'
_chemical_formula_moiety
;
C16 H13 Cl1 N2 O1 S1
;
_journal_coden_Cambridge 177
_journal_volume 15
_journal_year 2017
_journal_page_first 7267
_journal_name_full 'Org.Biomol.Chem. '
loop_
_publ_author_name
"P.Mukherjee"
"A.R.Das"
_chemical_name_systematic
;
4-((3-chlorophenyl)sulfanyl)-5-methyl-2-phenyl-1,2-dihydro-3H-pyrazol-3-one
;
_cell_volume   2959.721
_exptl_crystal_density_diffrn 1.422
_exptl_crystal_description 'needle'
_diffrn_ambient_temperature 296
#These two values have been output from a single CSD field.
_refine_ls_R_factor_gt 0.0472
_refine_ls_wR_factor_gt 0.0472
_symmetry_cell_setting monoclinic
_symmetry_space_group_name_H-M 'C 2/c'
_symmetry_Int_Tables_number 15
loop_
_symmetry_equiv_pos_site_id
_symmetry_equiv_pos_as_xyz
1 x,y,z
2 -x,y,1/2-z
3 1/2+x,1/2+y,z
4 1/2-x,1/2+y,1/2-z
5 -x,-y,-z
6 x,-y,-1/2+z
7 -1/2-x,-1/2-y,-z
8 -1/2+x,-1/2-y,-1/2+z
_cell_length_a 42.263(6)
_cell_length_b 5.9743(8)
_cell_length_c 11.7282(16)
_cell_angle_alpha 90
_cell_angle_beta 91.856(5)
_cell_angle_gamma 90
_cell_formula_units_Z 8
loop_
_atom_type_symbol
_atom_type_radius_bond
C 0.68
H 0.23
Cl 0.99
N 0.68
O 0.68
S 1.02
loop_
_atom_site_label
_atom_site_type_symbol
_atom_site_fract_x
_atom_site_fract_y
_atom_site_fract_z
Cl1 Cl 0.03835(2) 0.43758(18) 0.14920(9)
S1 S 0.114744(17) -0.26632(12) 0.05076(5)
O1 O 0.16751(4) 0.1289(3) 0.05181(13)
N1 N 0.16909(5) 0.1027(4) 0.24954(15)
N2 N 0.15456(5) -0.0334(4) 0.32757(16)
H1 H 0.15780 -0.02890 0.40030
C1 C 0.03133(8) 0.1806(8) -0.0403(3)
H2 H 0.01430 0.27170 -0.06130
C2 C 0.04877(7) 0.2209(6) 0.0592(3)
C3 C 0.07431(6) 0.0898(5) 0.0896(2)
H3 H 0.08600 0.11940 0.15640
C4 C 0.08249(6) -0.0856(5) 0.0207(2)
C5 C 0.13568(6) -0.1288(4) 0.15830(19)
C6 C 0.15806(6) 0.0425(4) 0.14095(19)
C7 C 0.18965(5) 0.2768(4) 0.2848(2)
C8 C 0.20393(7) 0.2741(5) 0.3918(2)
H4 H 0.20020 0.15680 0.44180
C9 C 0.22376(7) 0.4471(6) 0.4239(3)
H5 H 0.23340 0.44590 0.49620
C10 C 0.22951(7) 0.6205(6) 0.3519(3)
H6 H 0.24310 0.73580 0.37460
C11 C 0.06476(8) -0.1293(7) -0.0786(3)
H7 H 0.07000 -0.24890 -0.12510
C12 C 0.03958(9) 0.0052(8) -0.1071(3)
H8 H 0.02780 -0.02390 -0.17380
C13 C 0.19502(6) 0.4509(5) 0.2114(2)
H9 H 0.18520 0.45320 0.13920
C14 C 0.21506(7) 0.6229(5) 0.2457(3)
H10 H 0.21870 0.74100 0.19620
C15 C 0.13493(6) -0.1711(4) 0.2732(2)
C16 C 0.11700(8) -0.3417(5) 0.3351(2)
H11 H 0.12590 -0.48670 0.32190
H12 H 0.09530 -0.34000 0.30840
H13 H 0.11810 -0.30930 0.41530
#END
