
#######################################################################
#
#                 Cambridge Crystallographic Data Centre
#                                CCDC
#
#######################################################################
#
# If this CIF has been generated from an entry in the Cambridge
# Structural Database, then it will include bibliographic, chemical,
# crystal, experimental, refinement or atomic coordinate data resulting
# from the CCDC's data processing and validation procedures.
#
#######################################################################

data_CSD_CIF_WEMPUC
_audit_creation_date 2017-12-23
_audit_creation_method CSD-ConQuest-V1
_database_code_CSD WEMPUC
_database_code_depnum_ccdc_archive 'CCDC 1811751'
_chemical_formula_sum 'C17 H13 N1 O2'
_chemical_formula_moiety
;
C17 H13 N1 O2
;
_journal_coeditor_code "su5413"
_journal_coden_Cambridge 1828
_journal_volume 74
_journal_year 2018
_journal_page_first 59
_journal_name_full 'Acta Crystallogr.,Sect.E:Cryst.Commun. '
loop_
_publ_author_name
"A.Thiruvalluvar"
"M.Sridharan"
"K.J.Rajendra Prasad"
"M.Zeller"
_chemical_name_systematic
;
2-[(furan-2-yl)methylidene]-2,3,4,9-tetrahydro-1H-carbazol-1-one
;
_chemical_melting_point 493
_cell_volume   2595.242
_exptl_crystal_colour 'green'
_exptl_crystal_density_diffrn 1.348
_exptl_crystal_description 'plate'
_diffrn_ambient_temperature 100
#These two values have been output from a single CSD field.
_refine_ls_R_factor_gt 0.0802
_refine_ls_wR_factor_gt 0.0802
_symmetry_cell_setting monoclinic
_symmetry_space_group_name_H-M 'P 21/c'
_symmetry_Int_Tables_number 14
loop_
_symmetry_equiv_pos_site_id
_symmetry_equiv_pos_as_xyz
1 x,y,z
2 -x,1/2+y,1/2-z
3 -x,-y,-z
4 x,-1/2-y,-1/2+z
_cell_length_a 15.353(3)
_cell_length_b 6.3143(13)
_cell_length_c 26.941(6)
_cell_angle_alpha 90
_cell_angle_beta 96.446(4)
_cell_angle_gamma 90
_cell_formula_units_Z 8
loop_
_atom_type_symbol
_atom_type_radius_bond
C 0.68
H 0.23
N 0.68
O 0.68
loop_
_atom_site_label
_atom_site_type_symbol
_atom_site_fract_x
_atom_site_fract_y
_atom_site_fract_z
C1 C 0.61376(19) -0.2774(5) 0.60261(12)
C2 C 0.6086(2) -0.3856(5) 0.64790(12)
H1 H 0.57832 -0.51637 0.64906
C3 C 0.6495(2) -0.2924(5) 0.69026(12)
H2 H 0.64715 -0.36085 0.72147
C4 C 0.6952(2) -0.0974(6) 0.68913(13)
H3 H 0.72226 -0.03824 0.71944
C5 C 0.7008(2) 0.0072(5) 0.64487(12)
H4 H 0.73228 0.13662 0.64424
C6 C 0.65914(18) -0.0813(5) 0.60055(12)
C7 C 0.65038(19) -0.0186(5) 0.54922(12)
C8 C 0.6917(2) 0.1602(5) 0.52424(12)
H5 H 0.75440 0.12707 0.52267
H6 H 0.68872 0.28964 0.54471
C9 C 0.6481(2) 0.2046(5) 0.47127(12)
H7 H 0.60412 0.31804 0.47340
H8 H 0.69338 0.26100 0.45142
C10 C 0.60272(19) 0.0196(5) 0.44242(11)
C11 C 0.57529(19) -0.1702(5) 0.46952(12)
C12 C 0.60027(18) -0.1724(5) 0.52269(11)
C13 C 0.58102(19) 0.0203(5) 0.39250(12)
H9 H 0.55365 -0.10465 0.37868
C14 C 0.5942(2) 0.1873(6) 0.35736(12)
C15 C 0.6212(2) 0.3920(5) 0.35988(13)
H10 H 0.64085 0.46818 0.38944
C16 C 0.6147(2) 0.4717(6) 0.31037(14)
H11 H 0.62938 0.61037 0.30040
C17 C 0.5837(2) 0.3117(7) 0.28029(13)
H12 H 0.57247 0.32101 0.24496
N1 N 0.57937(16) -0.3319(4) 0.55481(9)
H13 H 0.539(3) -0.439(7) 0.5461(17)
O1 O 0.53202(14) -0.3178(3) 0.44786(8)
O2 O 0.57065(15) 0.1343(4) 0.30757(8)
C18 C 0.93890(19) 0.1893(5) 0.61166(12)
C19 C 0.9632(2) 0.0632(5) 0.65399(12)
H14 H 0.99430 -0.06581 0.65168
C20 C 0.9400(2) 0.1351(6) 0.69894(13)
H15 H 0.95451 0.05262 0.72819
C21 C 0.8948(2) 0.3294(6) 0.70257(13)
H16 H 0.88053 0.37512 0.73427
C22 C 0.8713(2) 0.4529(5) 0.66135(12)
H17 H 0.84076 0.58227 0.66442
C23 C 0.89304(19) 0.3854(5) 0.61422(12)
C24 C 0.87868(19) 0.4659(5) 0.56452(12)
C25 C 0.8270(2) 0.6529(5) 0.54360(12)
H18 H 0.84314 0.77769 0.56492
H19 H 0.76393 0.62453 0.54502
C26 C 0.8415(2) 0.7065(5) 0.48933(12)
H20 H 0.78633 0.76692 0.47265
H21 H 0.88664 0.81881 0.49027
C27 C 0.86940(18) 0.5264(5) 0.45686(12)
C28 C 0.91238(19) 0.3342(5) 0.48089(12)
C29 C 0.91589(18) 0.3218(5) 0.53430(12)
C30 C 0.86481(19) 0.5329(5) 0.40647(12)
H22 H 0.88431 0.40924 0.39094
C31 C 0.8343(2) 0.7024(5) 0.37323(12)
C32 C 0.8067(2) 0.9061(6) 0.37738(13)
H23 H 0.79896 0.97892 0.40743
C33 C 0.7916(2) 0.9893(6) 0.32760(14)
H24 H 0.77215 1.12801 0.31826
C34 C 0.8102(2) 0.8329(6) 0.29687(14)
H25 H 0.80572 0.84450 0.26152
N2 N 0.95203(17) 0.1539(4) 0.56271(10)
H26 H 0.985(2) 0.049(6) 0.5523(12)
O3 O 0.94238(15) 0.1899(4) 0.45586(8)
O4 O 0.83651(15) 0.6547(4) 0.32307(8)
#END
