
#######################################################################
#
#                 Cambridge Crystallographic Data Centre
#                                CCDC
#
#######################################################################
#
# If this CIF has been generated from an entry in the Cambridge
# Structural Database, then it will include bibliographic, chemical,
# crystal, experimental, refinement or atomic coordinate data resulting
# from the CCDC's data processing and validation procedures.
#
#######################################################################

data_CSD_CIF_XAMQIO
_audit_creation_date 2017-02-27
_audit_creation_method CSD-ConQuest-V1
_database_code_CSD XAMQIO
_database_code_depnum_ccdc_archive 'CCDC 1517627'
_chemical_formula_sum 'C27 H48 N6 O16'
_chemical_formula_moiety
;
C27 H28 N6 O6,10(H2 O1)
;
_journal_coden_Cambridge 179
_journal_volume 56
_journal_year 2017
_journal_page_first 2123
_journal_name_full 'Angew.Chem.,Int.Ed. '
loop_
_publ_author_name
"S.Bera"
"A.Basu"
"S.Tothadi"
"B.Garai"
"S.Banerjee"
"K.Vanka"
"R.Banerjee"
_chemical_name_systematic
;
5,9,17,21,26,30-hexaazatetracyclo[11.11.7.1^3,23^.1^11,15^]tritriaconta-1(25),
3,10,13(31),15,22-hexaene-2,12,14,24,32,33-hexone decahydrate
;
_cell_volume   3307.862
_exptl_crystal_colour 'yellow'
_diffrn_ambient_temperature 298
_refine_special_details
;
C14 disordered by symmetry over two configurations with occupancy 0.50.

;
#These two values have been output from a single CSD field.
_refine_ls_R_factor_gt 0.1359
_refine_ls_wR_factor_gt 0.1359
_symmetry_cell_setting orthorhombic
_symmetry_space_group_name_H-M 'I m m b'
_symmetry_Int_Tables_number 74
loop_
_symmetry_equiv_pos_site_id
_symmetry_equiv_pos_as_xyz
1 x,y,z
2 1/2-x,-y,z
3 1/2+x,-y,-z
4 -x,y,-z
5 1/2+x,1/2+y,1/2+z
6 -x,1/2-y,1/2+z
7 x,1/2-y,1/2-z
8 1/2-x,1/2+y,1/2-z
9 -x,-y,-z
10 -1/2+x,y,-z
11 -1/2-x,y,z
12 x,-y,z
13 -1/2-x,-1/2-y,-1/2-z
14 x,-1/2+y,-1/2-z
15 -x,-1/2+y,-1/2+z
16 -1/2+x,-1/2-y,-1/2+z
_cell_length_a 22.752(4)
_cell_length_b 12.9206(16)
_cell_length_c 11.2524(13)
_cell_angle_alpha 90
_cell_angle_beta 90
_cell_angle_gamma 90
_cell_formula_units_Z 4
loop_
_atom_type_symbol
_atom_type_radius_bond
C 0.68
H 0.23
N 0.68
O 0.68
loop_
_atom_site_label
_atom_site_type_symbol
_atom_site_fract_x
_atom_site_fract_y
_atom_site_fract_z
O1 O 0.75000 0.1291(4) 0.2445(6)
C1 C 0.8034(7) 0.1370(5) 0.4229(9)
C2 C 0.75000 0.1344(6) 0.3559(10)
C3 C 0.8024(10) 0.1379(6) 0.5501(11)
C4 C 0.75000 0.137(1) 0.6114(14)
O2 O 0.8494(8) 0.1397(7) 0.6103(10)
N1 N 0.8646(6) 0.1179(6) 0.2556(9)
H1 H 0.83440 0.12180 0.21000
N2 N 0.75000 0.1160(7) 0.8111(11)
C5 C 0.8572(9) 0.1263(7) 0.3680(14)
H2 H 0.89040 0.12500 0.41600
C6 C 0.9256(7) 0.00000 0.1298(16)
H3 H 0.89410 0.00000 0.07180
H4 H 0.96240 0.00000 0.08620
C7 C 0.9219(8) 0.1023(11) 0.2021(16)
H5 H 0.95140 0.10110 0.26420
H6 H 0.93060 0.16000 0.15000
C8 C 0.75000 0.00000 0.9778(13)
H7 H 0.78380 0.00000 1.03040
C9 C 0.75000 0.0974(9) 0.9374(10)
C10 C 0.7210(14) 0.1261(9) 0.7344(14)
H8 H 0.682(5) 0.121(7) 0.769(12)
H9 H 0.767(4) 0.143(7) 0.970(9)
O3 O 0.9210(19) 0.309(3) 0.611(2)
H10 H 0.91740 0.26580 0.66740
H11 H 0.91200 0.35400 0.66260
O4 O 1.00000 0.204(3) 0.50000
H12 H 1.028(8) 0.166(4) 0.53(6)
O5 O 0.9127(10) 0.00000 0.795(3)
O6 O 0.978(4) 0.00000 0.53(2)
H13? H 0.78380 0.00000 1.03040
H14? H 0.878(11) 0.00000 0.77(4)
O1A O 0.75000 -0.1291(4) 0.2445(6)
C1A C 0.6966(7) -0.1370(5) 0.4229(9)
C2A C 0.75000 -0.1344(6) 0.3559(10)
C3A C 0.6976(10) -0.1379(6) 0.5501(11)
C4A C 0.75000 -0.137(1) 0.6114(14)
O2A O 0.6506(8) -0.1397(7) 0.6103(10)
N1A N 0.6354(6) -0.1179(6) 0.2556(9)
H1A H 0.66560 -0.12180 0.21000
N2A N 0.75000 -0.1160(7) 0.8111(11)
C5A C 0.6428(9) -0.1263(7) 0.3680(14)
H2A H 0.60960 -0.12500 0.41600
C6A C 0.5744(7) 0.00000 0.1298(16)
H3A H 0.60590 0.00000 0.07180
H4A H 0.53760 0.00000 0.08620
C7A C 0.5781(8) -0.1023(11) 0.2021(16)
H5A H 0.54860 -0.10110 0.26420
H6A H 0.56940 -0.16000 0.15000
H7A H 0.71620 0.00000 1.03040
C9A C 0.75000 -0.0974(9) 0.9374(10)
C10A C 0.7790(14) -0.1261(9) 0.7344(14)
H8A H 0.818(5) -0.121(7) 0.769(12)
H9A H 0.733(4) -0.143(7) 0.970(9)
C1J C 0.6966(7) 0.1370(5) 0.4229(9)
C3J C 0.6976(10) 0.1379(6) 0.5501(11)
O2J O 0.6506(8) 0.1397(7) 0.6103(10)
N1J N 0.6354(6) 0.1179(6) 0.2556(9)
H1J H 0.66560 0.12180 0.21000
C5J C 0.6428(9) 0.1263(7) 0.3680(14)
H2J H 0.60960 0.12500 0.41600
C7J C 0.5781(8) 0.1023(11) 0.2021(16)
H5J H 0.54860 0.10110 0.26420
H6J H 0.56940 0.16000 0.15000
C10J C 0.7790(14) 0.1261(9) 0.7344(14)
H8J H 0.818(5) 0.121(7) 0.769(12)
H9J H 0.733(4) 0.143(7) 0.970(9)
C1K C 0.8034(7) -0.1370(5) 0.4229(9)
C3K C 0.8024(10) -0.1379(6) 0.5501(11)
O2K O 0.8494(8) -0.1397(7) 0.6103(10)
N1K N 0.8646(6) -0.1179(6) 0.2556(9)
H1K H 0.83440 -0.12180 0.21000
C5K C 0.8572(9) -0.1263(7) 0.3680(14)
H2K H 0.89040 -0.12500 0.41600
C7K C 0.9219(8) -0.1023(11) 0.2021(16)
H5K H 0.95140 -0.10110 0.26420
H6K H 0.93060 -0.16000 0.15000
C10K C 0.7210(14) -0.1261(9) 0.7344(14)
H8K H 0.682(5) -0.121(7) 0.769(12)
H9K H 0.767(4) -0.143(7) 0.970(9)
H12C H 0.972(8) 0.166(4) 0.47(6)
#END
