
#######################################################################
#
#                 Cambridge Crystallographic Data Centre
#                                CCDC
#
#######################################################################
#
# If this CIF has been generated from an entry in the Cambridge
# Structural Database, then it will include bibliographic, chemical,
# crystal, experimental, refinement or atomic coordinate data resulting
# from the CCDC's data processing and validation procedures.
#
#######################################################################

data_CSD_CIF_XAMQOU
_audit_creation_date 2017-02-27
_audit_creation_method CSD-ConQuest-V1
_database_code_CSD XAMQOU
_database_code_depnum_ccdc_archive 'CCDC 1517628'
_chemical_formula_sum 'C31 H40 N6 O7'
_chemical_formula_moiety
;
C30 H36 N6 O6,C1 H4 O1
;
_journal_coden_Cambridge 179
_journal_volume 56
_journal_year 2017
_journal_page_first 2123
_journal_name_full 'Angew.Chem.,Int.Ed. '
loop_
_publ_author_name
"S.Bera"
"A.Basu"
"S.Tothadi"
"B.Garai"
"S.Banerjee"
"K.Vanka"
"R.Banerjee"
_chemical_name_systematic
;
5,10,18,23,28,33-hexaazatetracyclo[12.12.8.1^3,25^.1^12,16^]hexatriaconta-1(27
),3,11,14(34),16,24-hexaene-2,13,15,26,35,36-hexone methanol solvate
;
_cell_volume   4434.651
_exptl_crystal_colour 'colorless'
_exptl_crystal_density_diffrn 1.351
_exptl_crystal_description 'needle'
_diffrn_ambient_temperature 298
_refine_special_details
;
C6,H6A,H6B,H6C,O1 disordered over two configurations with occupancies 
0.50,0.25,0.25,0.25,0.50.
;
#These two values have been output from a single CSD field.
_refine_ls_R_factor_gt 0.1098
_refine_ls_wR_factor_gt 0.1098
_symmetry_cell_setting rhombohedral
_symmetry_space_group_name_H-M 'R -3 c'
_symmetry_Int_Tables_number 167
loop_
_symmetry_equiv_pos_site_id
_symmetry_equiv_pos_as_xyz
1 x,y,z
2 -y,x-y,z
3 -x+y,-x,z
4 y,x,1/2-z
5 -x,-x+y,1/2-z
6 x-y,-y,1/2-z
7 2/3+x,1/3+y,1/3+z
8 2/3-y,1/3+x-y,1/3+z
9 2/3-x+y,1/3-x,1/3+z
10 2/3+y,1/3+x,5/6-z
11 2/3-x,1/3-x+y,5/6-z
12 2/3+x-y,1/3-y,5/6-z
13 1/3+x,2/3+y,2/3+z
14 1/3-y,2/3+x-y,2/3+z
15 1/3-x+y,2/3-x,2/3+z
16 1/3+y,2/3+x,1/6-z
17 1/3-x,2/3-x+y,1/6-z
18 1/3+x-y,2/3-y,1/6-z
19 -x,-y,-z
20 y,-x+y,-z
21 x-y,x,-z
22 -y,-x,-1/2+z
23 x,x-y,-1/2+z
24 -x+y,y,-1/2+z
25 -2/3-x,-1/3-y,-1/3-z
26 -2/3+y,-1/3-x+y,-1/3-z
27 -2/3+x-y,-1/3+x,-1/3-z
28 -2/3-y,-1/3-x,-5/6+z
29 -2/3+x,-1/3+x-y,-5/6+z
30 -2/3-x+y,-1/3+y,-5/6+z
31 -1/3-x,-2/3-y,-2/3-z
32 -1/3+y,-2/3-x+y,-2/3-z
33 -1/3+x-y,-2/3+x,-2/3-z
34 -1/3-y,-2/3-x,-1/6+z
35 -1/3+x,-2/3+x-y,-1/6+z
36 -1/3-x+y,-2/3+y,-1/6+z
_cell_length_a 10.8660(17)
_cell_length_b 10.8660(17)
_cell_length_c 43.37(3)
_cell_angle_alpha 90
_cell_angle_beta 90
_cell_angle_gamma 120
_cell_formula_units_Z 6
loop_
_atom_type_symbol
_atom_type_radius_bond
C 0.68
H 0.23
N 0.68
O 0.68
loop_
_atom_site_label
_atom_site_type_symbol
_atom_site_fract_x
_atom_site_fract_y
_atom_site_fract_z
O1 O 0.6151(4) 0.8632(4) 0.46361(13)
N1 N 0.6732(5) 0.6552(5) 0.46388(16)
H1 H 0.70970 0.74480 0.46720
C1 C 0.4372(5) 0.6226(5) 0.46414(17)
C2 C 0.4847(5) 0.7725(5) 0.46395(17)
C3 C 0.5347(5) 0.5753(6) 0.46384(18)
H2 H 0.49790 0.47750 0.46360
C4 C 0.7709(6) 0.6020(7) 0.45921(19)
H3 H 0.73200 0.50850 0.46840
H4 H 0.86090 0.66480 0.46920
C5 C 0.7947(6) 0.5933(6) 0.42457(19)
H5 H 0.70380 0.53320 0.41470
H6 H 0.85260 0.54930 0.42170
H7? H 0.96110 0.90440 0.46300
H8? H 0.96100 0.90430 0.46300
O2? O 1.00000 1.00000 0.50000
C6? C 1.00000 1.00000 0.4704(7)
H9? H 0.96100 0.90440 0.46300
O1A O 0.1368(4) 0.7519(4) 0.46361(13)
N1A N 0.3448(5) 1.0180(5) 0.46388(16)
H1A H 0.25520 0.96490 0.46720
C1A C 0.3774(5) 0.8146(5) 0.46414(17)
C2A C 0.2275(5) 0.7122(5) 0.46395(17)
C3A C 0.4247(5) 0.9594(6) 0.46384(18)
H2A H 0.52250 1.02040 0.46360
C4A C 0.3980(6) 1.1689(7) 0.45921(19)
H3A H 0.49150 1.22350 0.46840
H4A H 0.33520 1.19610 0.46920
C5A C 0.4067(6) 1.2014(6) 0.42457(19)
H5A H 0.46680 1.17060 0.41470
H6A H 0.45070 1.30330 0.42170
O1B O 0.2481(4) 0.3849(4) 0.46361(13)
N1B N -0.0180(5) 0.3268(5) 0.46388(16)
H1B H 0.03510 0.29030 0.46720
C1B C 0.1854(5) 0.5628(5) 0.46414(17)
C2B C 0.2878(5) 0.5153(5) 0.46395(17)
C3B C 0.0406(5) 0.4653(6) 0.46384(18)
H2B H -0.02040 0.50210 0.46360
C4B C -0.1689(6) 0.2291(7) 0.45921(19)
H3B H -0.22350 0.26800 0.46840
H4B H -0.19610 0.13910 0.46920
C5B C -0.2014(6) 0.2053(6) 0.42457(19)
H5B H -0.17060 0.29620 0.41470
H6B H -0.30330 0.14740 0.42170
O1K O 0.418567(400) 0.470133(400) 0.369723(130)
N1K N 0.684667(500) 0.678133(500) 0.369453(160)
H1K H 0.63157 0.58853 0.36613
C1K C 0.481267(500) 0.710733(500) 0.369193(170)
C2K C 0.378867(500) 0.560833(500) 0.369383(170)
C3K C 0.626067(500) 0.758033(600) 0.369493(180)
H2K H 0.68707 0.85583 0.36973
C4K C 0.835567(600) 0.731333(700) 0.374123(190)
H3K H 0.89017 0.82483 0.36493
H4K H 0.86277 0.66853 0.36413
C5K C 0.868067(600) 0.740033(600) 0.408763(190)
H5K H 0.83727 0.80013 0.41863
H6K H 0.96997 0.78403 0.41163
O1I O 0.529867(400) 0.948433(400) 0.369723(130)
N1I N 0.321867(500) 1.006533(500) 0.369453(160)
H1I H 0.41147 1.04303 0.36613
C1I C 0.289267(500) 0.770533(500) 0.369193(170)
C2I C 0.439167(500) 0.818033(500) 0.369383(170)
C3I C 0.241967(500) 0.868033(600) 0.369493(180)
H2I H 0.14417 0.83123 0.36973
C4I C 0.268667(600) 1.104233(700) 0.374123(190)
H3I H 0.17517 1.06533 0.36493
H4I H 0.33147 1.19423 0.36413
C5I C 0.259967(600) 1.128033(600) 0.408763(190)
H5I H 0.19987 1.03713 0.41863
H6I H 0.21597 1.18593 0.41163
O1J O 0.051567(400) 0.581433(400) 0.369723(130)
N1J N -0.006533(500) 0.315333(500) 0.369453(160)
H1J H -0.04303 0.36843 0.36613
C1J C 0.229467(500) 0.518733(500) 0.369193(170)
C2J C 0.181967(500) 0.621133(500) 0.369383(170)
C3J C 0.131967(500) 0.373933(600) 0.369493(180)
H2J H 0.16877 0.31293 0.36973
C4J C -0.104233(600) 0.164433(700) 0.374123(190)
H3J H -0.06533 0.10983 0.36493
H4J H -0.19423 0.13723 0.36413
C5J C -0.128033(600) 0.131933(600) 0.408763(190)
H5J H -0.03713 0.16273 0.41863
H6J H -0.18593 0.03003 0.41163
#END
