
#######################################################################
#
#                 Cambridge Crystallographic Data Centre
#                                CCDC
#
#######################################################################
#
# If this CIF has been generated from an entry in the Cambridge
# Structural Database, then it will include bibliographic, chemical,
# crystal, experimental, refinement or atomic coordinate data resulting
# from the CCDC's data processing and validation procedures.
#
#######################################################################

data_CSD_CIF_XAMQUA
_audit_creation_date 2017-02-27
_audit_creation_method CSD-ConQuest-V1
_database_code_CSD XAMQUA
_database_code_depnum_ccdc_archive 'CCDC 1517629'
_chemical_formula_sum 'C42 H63 N9 O9'
_chemical_formula_moiety
;
C33 H42 N6 O6,3(C3 H7 N1 O1)
;
_journal_coden_Cambridge 179
_journal_volume 56
_journal_year 2017
_journal_page_first 2123
_journal_name_full 'Angew.Chem.,Int.Ed. '
loop_
_publ_author_name
"S.Bera"
"A.Basu"
"S.Tothadi"
"B.Garai"
"S.Banerjee"
"K.Vanka"
"R.Banerjee"
_chemical_name_systematic
;
5,11,19,25,30,36-hexaazatetracyclo[13.13.9.1^3,27^.1^13,17^]nonatriaconta-1(29
),3,12,15(37),17,26-hexaene-2,14,16,28,38,39-hexone N,N-dimethylformamide 
solvate
;
_cell_volume   2276.780
_exptl_crystal_colour 'colorless'
_exptl_crystal_density_diffrn 1.222
_exptl_crystal_description 'needle'
_diffrn_ambient_temperature 298
_refine_special_details
;
The structure is disordered.

;
#These two values have been output from a single CSD field.
_refine_ls_R_factor_gt 0.1063
_refine_ls_wR_factor_gt 0.1063
_symmetry_cell_setting hexagonal
_symmetry_space_group_name_H-M 'P 63/m'
_symmetry_Int_Tables_number 176
loop_
_symmetry_equiv_pos_site_id
_symmetry_equiv_pos_as_xyz
1 x,y,z
2 x-y,x,1/2+z
3 -y,x-y,z
4 -x,-y,1/2+z
5 -x+y,-x,z
6 y,-x+y,1/2+z
7 -x,-y,-z
8 -x+y,-x,-1/2-z
9 y,-x+y,-z
10 x,y,-1/2-z
11 x-y,x,-z
12 -y,x-y,-1/2-z
_cell_length_a 14.666(2)
_cell_length_b 14.666(2)
_cell_length_c 12.2227(15)
_cell_angle_alpha 90
_cell_angle_beta 90
_cell_angle_gamma 120
_cell_formula_units_Z 2
loop_
_atom_type_symbol
_atom_type_radius_bond
C 0.68
H 0.23
N 0.68
O 0.68
loop_
_atom_site_label
_atom_site_type_symbol
_atom_site_fract_x
_atom_site_fract_y
_atom_site_fract_z
O1 O 0.4892(4) 0.3478(3) 0.5357(4)
N1 N 0.7595(4) 0.6221(4) 0.5385(4)
H1 H 0.81930 0.62460 0.53560
C1 C 0.6757(5) 0.4353(4) 0.5377(4)
C2 C 0.5713(5) 0.3419(5) 0.5379(5)
C3 C 0.6783(6) 0.5301(5) 0.5376(5)
C4 C 0.7638(6) 0.7238(5) 0.5438(5)
C5 C 0.8189(5) 0.7843(4) 0.6462(5)
H2 H 0.82160 0.85180 0.64560
H3 H 0.89070 0.79770 0.64650
C6 C 0.7631(8) 0.7245(8) 0.75000
H4 H 0.621(4) 0.537(4) 0.538(4)
H5 H 0.682(6) 0.712(5) 0.75000
H6 H 0.691(5) 0.712(4) 0.534(4)
H7 H 0.725(8) 0.652(9) 0.75000
H8 H 0.799(4) 0.763(4) 0.471(5)
N2 N 0.3589(6) 0.4425(6) 0.75000
C7 C 0.4688(7) 0.5219(8) 0.75000
C8 C 0.2852(8) 0.4779(8) 0.75000
O2 O 0.2341(7) 0.2718(6) 0.75000
C9 C 0.3285(12) 0.3432(11) 0.75000
H9 H 0.37990 0.32380 0.75000
H10? H 0.48780 0.55480 0.82060
H11? H 0.48120 0.57390 0.69540
H12? H 0.51050 0.48980 0.73390
H13? H 0.26620 0.48290 0.67600
H14? H 0.31590 0.54590 0.78420
H15? H 0.22350 0.42900 0.78980
O1B O 0.6522(4) 0.1414(3) 0.5357(4)
N1B N 0.3779(4) 0.1374(4) 0.5385(4)
H1B H 0.37540 0.19470 0.53560
C1B C 0.5647(5) 0.2404(4) 0.5377(4)
C2B C 0.6581(5) 0.2294(5) 0.5379(5)
C3B C 0.4699(6) 0.1482(5) 0.5376(5)
C4B C 0.2762(6) 0.0400(5) 0.5438(5)
C5B C 0.2157(5) 0.0346(4) 0.6462(5)
H2B H 0.14820 -0.03020 0.64560
H3B H 0.20230 0.09300 0.64650
C6B C 0.2755(8) 0.0386(8) 0.75000
H4B H 0.463(4) 0.084(4) 0.538(4)
H5B H 0.288(6) -0.030(5) 0.75000
H6B H 0.288(5) -0.021(4) 0.534(4)
H7B H 0.348(8) 0.073(9) 0.75000
H8B H 0.237(4) 0.036(4) 0.471(5)
O1D O 0.8586(4) 0.5108(3) 0.5357(4)
N1D N 0.8626(4) 0.2405(4) 0.5385(4)
H1D H 0.80530 0.18070 0.53560
C1D C 0.7596(5) 0.3243(4) 0.5377(4)
C2D C 0.7706(5) 0.4287(5) 0.5379(5)
C3D C 0.8518(6) 0.3217(5) 0.5376(5)
C4D C 0.9600(6) 0.2362(5) 0.5438(5)
C5D C 0.9654(5) 0.1811(4) 0.6462(5)
H2D H 1.03020 0.17840 0.64560
H3D H 0.90700 0.10930 0.64650
C6D C 0.9614(8) 0.2369(8) 0.75000
H4D H 0.916(4) 0.379(4) 0.538(4)
H5D H 1.030(6) 0.318(5) 0.75000
H6D H 1.021(5) 0.309(4) 0.534(4)
H7D H 0.927(8) 0.275(9) 0.75000
H8D H 0.964(4) 0.201(4) 0.471(5)
O1G O 0.8586(4) 0.5108(3) 0.9643(4)
N1G N 0.8626(4) 0.2405(4) 0.9615(4)
H1G H 0.80530 0.18070 0.96440
C1G C 0.7596(5) 0.3243(4) 0.9623(4)
C2G C 0.7706(5) 0.4287(5) 0.9621(5)
C3G C 0.8518(6) 0.3217(5) 0.9624(5)
C4G C 0.9600(6) 0.2362(5) 0.9562(5)
C5G C 0.9654(5) 0.1811(4) 0.8538(5)
H2G H 1.03020 0.17840 0.85440
H3G H 0.90700 0.10930 0.85350
H4G H 0.916(4) 0.379(4) 0.962(4)
H6G H 1.021(5) 0.309(4) 0.966(4)
H8G H 0.964(4) 0.201(4) 1.029(5)
O1I O 0.4892(4) 0.3478(3) 0.9643(4)
N1I N 0.7595(4) 0.6221(4) 0.9615(4)
H1I H 0.81930 0.62460 0.96440
C1I C 0.6757(5) 0.4353(4) 0.9623(4)
C2I C 0.5713(5) 0.3419(5) 0.9621(5)
C3I C 0.6783(6) 0.5301(5) 0.9624(5)
C4I C 0.7638(6) 0.7238(5) 0.9562(5)
C5I C 0.8189(5) 0.7843(4) 0.8538(5)
H2I H 0.82160 0.85180 0.85440
H3I H 0.89070 0.79770 0.85350
H4I H 0.621(4) 0.537(4) 0.962(4)
H6I H 0.691(5) 0.712(4) 0.966(4)
H8I H 0.799(4) 0.763(4) 1.029(5)
O1K O 0.6522(4) 0.1414(3) 0.9643(4)
N1K N 0.3779(4) 0.1374(4) 0.9615(4)
H1K H 0.37540 0.19470 0.96440
C1K C 0.5647(5) 0.2404(4) 0.9623(4)
C2K C 0.6581(5) 0.2294(5) 0.9621(5)
C3K C 0.4699(6) 0.1482(5) 0.9624(5)
C4K C 0.2762(6) 0.0400(5) 0.9562(5)
C5K C 0.2157(5) 0.0346(4) 0.8538(5)
H2K H 0.14820 -0.03020 0.85440
H3K H 0.20230 0.09300 0.85350
H4K H 0.463(4) 0.084(4) 0.962(4)
H6K H 0.288(5) -0.021(4) 0.966(4)
H8K H 0.237(4) 0.036(4) 1.029(5)
#END
