
#######################################################################
#
#                 Cambridge Crystallographic Data Centre
#                                CCDC
#
#######################################################################
#
# If this CIF has been generated from an entry in the Cambridge
# Structural Database, then it will include bibliographic, chemical,
# crystal, experimental, refinement or atomic coordinate data resulting
# from the CCDC's data processing and validation procedures.
#
#######################################################################

data_CSD_CIF_XAYMOC
_audit_creation_date 2017-07-19
_audit_creation_method CSD-ConQuest-V1
_database_code_CSD XAYMOC
_database_code_depnum_ccdc_archive 'CCDC 1547310'
_chemical_formula_sum 'C88 H52 N6 O12'
_chemical_formula_moiety
;
C88 H52 N6 O12
;
_journal_coden_Cambridge 182
_journal_volume 53
_journal_year 2017
_journal_page_first 8616
_journal_name_full 'Chem.Commun. '
loop_
_publ_author_name
"Xin-Yue Hu"
"Wen-Shan Zhang"
"F.Rominger"
"I.Wacker"
"R.R.Schroder"
"M.Mastalerz"
_chemical_name_systematic
;
tricyclo(4,4';12,12';17,17'-tris(2,2'-dioxo[2H,2'H-6,6'-bi-1,3-benzoxazine]-3,
3'(4H,4'H)-diyl)bis(triptycene)) unknown solvate
;
_cell_volume   9757.590
_exptl_crystal_colour 'colorless'
_exptl_crystal_density_diffrn 0.943
_exptl_special_details
;
alpha polymorph

;
_exptl_crystal_description 'needle'
_exptl_crystal_preparation 'methanol/N,N-dimethylformamide'
_diffrn_ambient_temperature 100
_refine_special_details
;
Disordered solvent molecules were not modelled and the disordered density was 
taken into account using the SQUEEZE/PLATON procedure.
;
#These two values have been output from a single CSD field.
_refine_ls_R_factor_gt 0.0707
_refine_ls_wR_factor_gt 0.0707
_symmetry_cell_setting triclinic
_symmetry_space_group_name_H-M 'P -1'
_symmetry_Int_Tables_number 2
loop_
_symmetry_equiv_pos_site_id
_symmetry_equiv_pos_as_xyz
1 x,y,z
2 -x,-y,-z
_cell_length_a 18.7671(3)
_cell_length_b 19.4091(4)
_cell_length_c 27.7570(6)
_cell_angle_alpha 76.070(2)
_cell_angle_beta 87.338(2)
_cell_angle_gamma 84.030(2)
_cell_formula_units_Z 4
loop_
_atom_type_symbol
_atom_type_radius_bond
C 0.68
H 0.23
N 0.68
O 0.68
loop_
_atom_site_label
_atom_site_type_symbol
_atom_site_fract_x
_atom_site_fract_y
_atom_site_fract_z
C1 C 0.50465(17) 0.86111(16) 0.32616(12)
H1 H 0.47150 0.90450 0.32730
C2 C 0.59046(18) 0.74797(17) 0.32324(12)
H2 H 0.62360 0.70450 0.32220
C3 C 0.23593(16) 1.30067(16) 0.42847(11)
H3 H 0.26560 1.25440 0.42990
C4 C 0.15884(16) 1.42116(16) 0.42523(11)
H4 H 0.12920 1.46750 0.42380
C5 C 0.46809(17) 0.80361(16) 0.31048(12)
C6 C 0.39640(18) 0.80653(17) 0.30170(12)
H5 H 0.36550 0.84830 0.30230
C7 C 0.36960(17) 0.74703(17) 0.29186(13)
C8 C 0.41411(19) 0.68616(17) 0.28969(13)
H6 H 0.39500 0.64640 0.28250
C9 C 0.48722(18) 0.68379(17) 0.29815(13)
H7 H 0.51820 0.64230 0.29690
C10 C 0.51421(18) 0.74251(17) 0.30840(12)
N1 N 0.29370(15) 0.75126(14) 0.28544(11)
C11 C 0.25358(19) 0.70762(18) 0.31900(15)
O1 O 0.27510(15) 0.65610(13) 0.34999(11)
O2 O 0.18037(13) 0.72782(12) 0.31759(11)
C12 C 0.53683(18) 0.82411(17) 0.37605(12)
C13 C 0.52362(18) 0.84484(18) 0.42035(12)
H8 H 0.49220 0.88610 0.42160
C14 C 0.55710(19) 0.80435(18) 0.46283(12)
C15 C 0.60307(19) 0.74369(19) 0.46191(13)
H9 H 0.62520 0.71660 0.49150
C16 C 0.61660(19) 0.72265(18) 0.41730(13)
H10 H 0.64820 0.68150 0.41610
C17 C 0.58294(18) 0.76306(17) 0.37485(12)
N2 N 0.54364(16) 0.82668(16) 0.50871(11)
C18 C 0.59932(19) 0.84382(19) 0.53103(13)
O3 O 0.66037(13) 0.84419(14) 0.51545(10)
O4 O 0.58424(13) 0.86217(14) 0.57577(9)
C19 C 0.56895(17) 0.87699(16) 0.29114(12)
C20 C 0.58537(17) 0.94351(17) 0.26463(12)
H11 H 0.55340 0.98470 0.26490
C21 C 0.64958(18) 0.94885(17) 0.23756(12)
C22 C 0.69565(19) 0.88900(18) 0.23541(13)
H12 H 0.73890 0.89380 0.21630
C23 C 0.67828(18) 0.82179(18) 0.26140(12)
H13 H 0.70950 0.78050 0.25990
C24 C 0.61530(17) 0.81538(16) 0.28952(12)
N3 N 0.67045(15) 1.01953(15) 0.21691(10)
C25 C 0.65970(17) 1.05184(18) 0.16871(12)
O5 O 0.64102(13) 1.02548(14) 0.13669(9)
O6 O 0.67190(12) 1.12382(13) 0.15505(8)
C26 C 0.17853(16) 1.31684(16) 0.38950(11)
C27 C 0.16537(17) 1.27503(16) 0.35757(12)
H14 H 0.19470 1.23210 0.35760
C28 C 0.10823(17) 1.29708(17) 0.32535(12)
C29 C 0.06536(17) 1.35994(17) 0.32505(13)
H15 H 0.02590 1.37360 0.30340
C30 C 0.07976(17) 1.40292(17) 0.35608(12)
H16 H 0.05100 1.44640 0.35540
C31 C 0.13665(16) 1.38146(16) 0.38812(12)
N4 N 0.09357(15) 1.25411(14) 0.29198(10)
C32 C 0.08967(19) 1.28502(17) 0.24302(12)
O7 O 0.10356(14) 1.34556(12) 0.22337(9)
O8 O 0.06772(14) 1.24474(12) 0.21302(9)
C33 C 0.19591(16) 1.30348(16) 0.47692(11)
C34 C 0.19596(17) 1.24824(17) 0.51893(12)
H17 H 0.22550 1.20500 0.52040
C35 C 0.15166(17) 1.25719(17) 0.55925(12)
C36 C 0.10887(19) 1.32037(18) 0.55761(13)
H18 H 0.07870 1.32550 0.58520
C37 C 0.11017(18) 1.37649(18) 0.51542(12)
H19 H 0.08150 1.42010 0.51430
C38 C 0.15348(16) 1.36797(16) 0.47528(12)
N5 N 0.15028(15) 1.19724(15) 0.60174(10)
C39 C 0.09288(19) 1.15877(19) 0.60876(13)
O9 O 0.03287(13) 1.18035(14) 0.59416(11)
O10 O 0.10567(13) 1.08846(13) 0.6351(1)
C40 C 0.27959(16) 1.36473(16) 0.41643(11)
C41 C 0.35259(17) 1.36268(17) 0.40717(12)
H20 H 0.38060 1.31850 0.40880
C42 C 0.38454(17) 1.42651(18) 0.39535(12)
C43 C 0.34400(18) 1.49152(18) 0.39194(13)
H21 H 0.36620 1.53480 0.38320
C44 C 0.27022(17) 1.49246(17) 0.40158(12)
H22 H 0.24180 1.53660 0.39900
C45 C 0.23856(16) 1.42943(16) 0.41483(12)
N6 N 0.46060(15) 1.42246(17) 0.38524(11)
C46 C 0.50480(18) 1.4100(2) 0.42403(14)
O11 O 0.48818(14) 1.41335(17) 0.46583(10)
O12 O 0.57623(12) 1.39069(15) 0.41405(9)
C47 C 0.11701(18) 0.94512(17) 0.27175(13)
C48 C 0.17507(18) 0.91430(17) 0.24798(13)
H23 H 0.20060 0.94330 0.22170
C49 C 0.19536(18) 0.84147(17) 0.26271(13)
C50 C 0.15778(19) 0.80070(17) 0.30106(14)
C51 C 0.09965(19) 0.82894(18) 0.32537(15)
H24 H 0.07440 0.79960 0.35160
C52 C 0.07971(19) 0.90190(18) 0.30984(14)
H25 H 0.03990 0.92260 0.32560
C53 C 0.26003(18) 0.80387(18) 0.24352(13)
H26 H 0.24600 0.77970 0.21830
H27 H 0.29420 0.83860 0.22770
C54 C 0.37903(18) 0.95267(17) 0.60185(12)
C55 C 0.38906(19) 0.90337(18) 0.57217(12)
H28 H 0.34880 0.89150 0.55740
C56 C 0.45652(19) 0.87152(18) 0.56396(12)
C57 C 0.51440(19) 0.89091(19) 0.58482(12)
C58 C 0.50726(19) 0.93837(19) 0.61524(13)
H29 H 0.54780 0.94990 0.63000
C59 C 0.43865(19) 0.96857(19) 0.62346(13)
H30 H 0.43240 1.00100 0.64440
C60 C 0.4723(2) 0.8182(2) 0.53298(14)
H31 H 0.47140 0.76930 0.55420
H32 H 0.43530 0.82540 0.50750
C61 C 0.63724(17) 1.24113(18) 0.26339(12)
C62 C 0.66391(17) 1.16916(17) 0.27619(12)
H33 H 0.67310 1.14660 0.31000
C63 C 0.67706(17) 1.13049(17) 0.24031(12)
C64 C 0.66145(17) 1.16304(18) 0.19158(12)
C65 C 0.63606(17) 1.23436(18) 0.17725(12)
H34 H 0.62680 1.25630 0.14340
C66 C 0.62426(17) 1.27331(18) 0.21357(12)
H35 H 0.60720 1.32240 0.20420
C67 C 0.7056(2) 1.05388(18) 0.25001(14)
H36 H 0.75810 1.04990 0.24380
H37 H 0.69590 1.02990 0.28510
C68 C 0.09897(17) 1.02358(17) 0.25668(13)
C69 C 0.08602(18) 1.06370(17) 0.29243(13)
H38 H 0.08440 1.04010 0.32660
C70 C 0.07556(17) 1.13745(16) 0.27853(12)
C71 C 0.07667(18) 1.17075(17) 0.22878(12)
C72 C 0.08876(19) 1.13301(18) 0.19211(13)
H39 H 0.08920 1.15710 0.15800
C73 C 0.10015(19) 1.05948(18) 0.20655(13)
H40 H 0.10890 1.03290 0.18200
C74 C 0.0654(2) 1.18484(17) 0.31451(13)
H41 H 0.01380 1.19270 0.32290
H42 H 0.09090 1.16160 0.34550
C75 C 0.30638(18) 0.98793(17) 0.61027(12)
C76 C 0.29925(18) 1.05889(17) 0.61479(12)
H43 H 0.34030 1.08460 0.61140
C77 C 0.23289(18) 1.09147(17) 0.62419(12)
C78 C 0.17350(18) 1.05433(18) 0.62727(13)
C79 C 0.1782(2) 0.98453(18) 0.62255(13)
H44 H 0.13670 0.95960 0.62540
C80 C 0.24499(19) 0.95214(19) 0.61350(13)
H45 H 0.24910 0.90470 0.60940
C81 C 0.21671(18) 1.16763(18) 0.62732(13)
H46 H 0.21180 1.17010 0.66250
H47 H 0.25650 1.19560 0.61180
C82 C 0.62380(17) 1.28245(18) 0.30235(12)
C83 C 0.56474(17) 1.33393(18) 0.29862(12)
H48 H 0.53500 1.34350 0.27050
C84 C 0.54921(17) 1.37086(18) 0.33505(12)
C85 C 0.59251(17) 1.35588(19) 0.37568(13)
C86 C 0.65160(18) 1.30590(19) 0.38094(13)
H49 H 0.68100 1.29670 0.40920
C87 C 0.66652(18) 1.26972(19) 0.34368(12)
H50 H 0.70700 1.23540 0.34650
C88 C 0.48630(19) 1.4262(2) 0.33395(13)
H51 H 0.50100 1.47430 0.31870
H52 H 0.44760 1.41690 0.31400
C89 C -0.00705(15) 0.49168(16) 0.20127(11)
H53 H 0.01880 0.46080 0.18070
C90 C -0.07392(16) 0.57125(16) 0.25510(11)
H54 H -0.09980 0.60220 0.27570
C91 C 0.28389(15) 0.20870(16) -0.03415(12)
H55 H 0.26050 0.23900 -0.01230
C92 C 0.34451(17) 0.13044(17) -0.09109(13)
H56 H 0.36800 0.09990 -0.11280
C93 C 0.04255(15) 0.51781(16) 0.23322(11)
C94 C 0.11649(16) 0.50514(16) 0.23284(12)
H57 H 0.14040 0.47610 0.21280
C95 C 0.15494(16) 0.53575(16) 0.26235(12)
C96 C 0.12073(17) 0.57853(17) 0.29193(12)
H58 H 0.14780 0.59830 0.31240
C97 C 0.04620(17) 0.59195(17) 0.29103(12)
H59 H 0.02240 0.62210 0.31030
C98 C 0.00704(16) 0.56155(16) 0.26218(11)
N7 N 0.23163(13) 0.52096(13) 0.2617(1)
C99 C 0.27246(16) 0.57525(17) 0.24402(13)
O13 O 0.25248(12) 0.63809(12) 0.23282(10)
O14 O 0.34485(11) 0.55541(12) 0.23806(9)
C100 C -0.06332(16) 0.45423(16) 0.23637(12)
C101 C -0.07975(16) 0.38544(16) 0.24129(12)
H60 H -0.05510 0.35620 0.22170
C102 C -0.13295(17) 0.35912(17) 0.27534(12)
C103 C -0.16896(17) 0.40015(18) 0.30482(13)
H61 H -0.20510 0.38130 0.32790
C104 C -0.15139(17) 0.46979(18) 0.30023(12)
H62 H -0.17520 0.49840 0.32050
C105 C -0.09911(16) 0.49700(17) 0.26595(12)
N8 N -0.15011(15) 0.28774(14) 0.27685(11)
C106 C -0.13121(19) 0.23385(18) 0.31583(13)
O15 O -0.10970(16) 0.23973(14) 0.35494(10)
O16 O -0.13612(14) 0.16583(12) 0.30969(9)
C107 C -0.04543(15) 0.55929(16) 0.17035(11)
C108 C -0.04275(17) 0.58170(17) 0.11944(12)
H63 H -0.01740 0.55250 0.10010
C109 C -0.07738(18) 0.64732(17) 0.09652(12)
C110 C -0.11618(18) 0.68962(18) 0.12470(12)
H64 H -0.14070 0.73400 0.10880
C111 C -0.11894(17) 0.66647(17) 0.17639(12)
H65 H -0.14580 0.69470 0.19580
C112 C -0.08232(16) 0.60234(16) 0.19914(11)
N9 N -0.06826(15) 0.67272(15) 0.04397(10)
C113 C -0.12161(19) 0.6704(2) 0.01384(13)
O17 O -0.17919(14) 0.64906(16) 0.02639(10)
O18 O -0.10762(15) 0.69625(16) -0.03637(9)
C114 C 0.35196(16) 0.16588(17) -0.01290(12)
C115 C 0.38078(17) 0.16744(17) 0.03124(13)
H66 H 0.35680 0.19510 0.05210
C116 C 0.44601(17) 0.12748(18) 0.04489(13)
C117 C 0.48212(19) 0.08917(19) 0.01335(14)
H67 H 0.52790 0.06450 0.02200
C118 C 0.45090(17) 0.08690(18) -0.03138(14)
H68 H 0.47500 0.06020 -0.05290
C119 C 0.38479(16) 0.12407(17) -0.04353(12)
N10 N 0.47559(16) 0.13110(15) 0.09084(11)
C120 C 0.4804(2) 0.0733(2) 0.12918(14)
O19 O 0.47031(16) 0.01328(14) 0.12750(11)
O20 O 0.49616(14) 0.08464(13) 0.17481(10)
C121 C 0.23593(16) 0.15572(16) -0.04400(12)
C122 C 0.16620(16) 0.14918(16) -0.02700(13)
H69 H 0.14490 0.17790 -0.00590
C123 C 0.12742(17) 0.10038(18) -0.04097(14)
C124 C 0.15882(18) 0.05697(18) -0.07043(14)
H70 H 0.13240 0.02240 -0.07880
C125 C 0.22972(18) 0.06382(18) -0.08806(14)
H71 H 0.25120 0.03470 -0.10880
C126 C 0.26812(17) 0.11368(17) -0.07480(13)
N11 N 0.05485(14) 0.09507(15) -0.02182(11)
C127 C 0.00036(18) 0.1163(2) -0.05365(14)
O21 O 0.00646(14) 0.13348(16) -0.09849(10)
O22 O -0.06787(12) 0.11781(14) -0.03314(9)
C128 C 0.30634(16) 0.25218(16) -0.08511(12)
C129 C 0.30016(16) 0.32530(17) -0.10040(12)
H72 H 0.27860 0.35370 -0.07920
C130 C 0.32606(17) 0.35704(17) -0.14756(13)
C131 C 0.35773(19) 0.31672(19) -0.17894(14)
H73 H 0.37460 0.33910 -0.21110
C132 C 0.36455(19) 0.24206(19) -0.16255(13)
H74 H 0.38670 0.21360 -0.18350
C133 C 0.33899(17) 0.21002(17) -0.11594(12)
N12 N 0.32011(15) 0.43418(15) -0.16076(12)
C134 C 0.37802(19) 0.46641(19) -0.15533(15)
O23 O 0.43909(13) 0.43825(14) -0.15200(12)
O24 O 0.36669(13) 0.53711(13) -0.15327(10)
C135 C 0.41000(16) 0.35506(17) 0.21296(12)
C136 C 0.34912(16) 0.36504(18) 0.24261(12)
H75 H 0.32300 0.32560 0.25720
C137 C 0.32655(15) 0.43131(17) 0.25088(12)
C138 C 0.36510(16) 0.48806(17) 0.22955(13)
C139 C 0.42610(17) 0.48093(19) 0.20005(13)
H76 H 0.45230 0.52060 0.18590
C140 C 0.44739(16) 0.41394(18) 0.19203(13)
H77 H 0.48860 0.40800 0.17170
C141 C 0.26154(16) 0.44697(16) 0.28123(13)
H78 H 0.22530 0.41400 0.27980
H79 H 0.27470 0.44000 0.31630
C142 C -0.11569(17) 0.13146(19) 0.16680(13)
C143 C -0.14718(18) 0.19605(19) 0.17523(14)
H80 H -0.16390 0.23280 0.14780
C144 C -0.15474(16) 0.20794(18) 0.22220(13)
C145 C -0.12949(18) 0.15479(18) 0.26190(13)
C146 C -0.09753(18) 0.08868(19) 0.25548(14)
H81 H -0.08140 0.05200 0.28320
C147 C -0.09022(18) 0.07845(19) 0.20791(14)
H82 H -0.06750 0.03460 0.20290
C148 C -0.18565(18) 0.27720(18) 0.23339(14)
H83 H -0.17820 0.31720 0.20440
H84 H -0.23780 0.27620 0.24030
C149 C 0.0990(2) 0.6398(2) -0.08274(13)
C150 C 0.0878(2) 0.6616(2) -0.03838(13)
H85 H 0.12720 0.66180 -0.01820
C151 C 0.0186(2) 0.6829(2) -0.02367(13)
C152 C -0.0376(2) 0.6811(2) -0.05312(13)
C153 C -0.0282(2) 0.6639(3) -0.09835(14)
H86 H -0.06770 0.66590 -0.11900
C154 C 0.0404(2) 0.6435(3) -0.11280(15)
H87 H 0.04800 0.63160 -0.14400
C155 C -0.0004(2) 0.7022(2) 0.02464(14)
H88 H 0.03820 0.68240 0.04870
H89 H -0.00580 0.75470 0.01970
C156 C 0.43321(17) 0.28372(18) 0.20320(13)
C157 C 0.45223(17) 0.27770(18) 0.15486(13)
H90 H 0.45030 0.31920 0.12840
C158 C 0.47383(17) 0.21187(18) 0.14541(13)
C159 C 0.47572(18) 0.15200(18) 0.18393(13)
C160 C 0.45888(19) 0.15541(19) 0.23256(14)
H91 H 0.46140 0.11350 0.25880
C161 C 0.43823(18) 0.22202(19) 0.24178(13)
H92 H 0.42730 0.22570 0.27490
C162 C 0.4964(2) 0.2012(2) 0.09527(14)
H93 H 0.47290 0.24000 0.06930
H94 H 0.54890 0.20230 0.09070
C163 C -0.10449(18) 0.12355(19) 0.11517(14)
C164 C -0.03841(17) 0.09536(18) 0.09946(13)
H95 H -0.00180 0.07730 0.12300
C165 C -0.02501(17) 0.09311(18) 0.05013(13)
C166 C -0.07884(17) 0.11919(19) 0.01655(13)
C167 C -0.14550(18) 0.1458(2) 0.03113(14)
H96 H -0.18240 0.16230 0.00770
C168 C -0.15773(18) 0.1481(2) 0.08019(14)
H97 H -0.20330 0.16680 0.09020
C169 C 0.04575(18) 0.06591(18) 0.03201(13)
H98 H 0.08450 0.07970 0.04970
H99 H 0.04930 0.01320 0.03920
C170 C 0.17011(19) 0.6108(2) -0.09887(13)
C171 C 0.17484(19) 0.55586(19) -0.12351(13)
H100 H 0.13260 0.53520 -0.12790
C172 C 0.23990(18) 0.53047(18) -0.14184(13)
C173 C 0.30049(18) 0.56053(19) -0.13414(13)
C174 C 0.2993(2) 0.6120(2) -0.10722(14)
H101 H 0.34230 0.62940 -0.10060
C175 C 0.2340(2) 0.6371(2) -0.09032(14)
H102 H 0.23210 0.67320 -0.07240
C176 C 0.24854(18) 0.47322(19) -0.16978(14)
H103 H 0.21120 0.44000 -0.15870
H104 H 0.24300 0.49460 -0.20570
#END
