
#######################################################################
#
#                 Cambridge Crystallographic Data Centre
#                                CCDC
#
#######################################################################
#
# If this CIF has been generated from an entry in the Cambridge
# Structural Database, then it will include bibliographic, chemical,
# crystal, experimental, refinement or atomic coordinate data resulting
# from the CCDC's data processing and validation procedures.
#
#######################################################################

data_CSD_CIF_XAYMUI
_audit_creation_date 2017-07-19
_audit_creation_method CSD-ConQuest-V1
_database_code_CSD XAYMUI
_database_code_depnum_ccdc_archive 'CCDC 1547704'
_chemical_formula_sum 'C88 H52 N6 O12'
_chemical_formula_moiety
;
C88 H52 N6 O12
;
_journal_coden_Cambridge 182
_journal_volume 53
_journal_year 2017
_journal_page_first 8616
_journal_name_full 'Chem.Commun. '
loop_
_publ_author_name
"Xin-Yue Hu"
"Wen-Shan Zhang"
"F.Rominger"
"I.Wacker"
"R.R.Schroder"
"M.Mastalerz"
_chemical_name_systematic
;
tricyclo(4,4';12,12';17,17'-tris(2,2'-dioxo[2H,2'H-6,6'-bi-1,3-benzoxazine]-3,
3'(4H,4'H)-diyl)bis(triptycene)) unknown solvate
;
_cell_volume   4204.624
_exptl_crystal_colour 'colorless'
_exptl_crystal_density_diffrn 1.094
_exptl_special_details
;
beta polymorph

;
_exptl_crystal_description 'needle'
_exptl_crystal_preparation 'dimethyl sulfoxide/acetone'
_diffrn_ambient_temperature 100
_refine_special_details
;
Disordered solvent molecules were not modelled and the disordered density was 
taken into account using the SQUEEZE/PLATON procedure.
;
#These two values have been output from a single CSD field.
_refine_ls_R_factor_gt 0.1255
_refine_ls_wR_factor_gt 0.1255
_symmetry_cell_setting triclinic
_symmetry_space_group_name_H-M 'P -1'
_symmetry_Int_Tables_number 2
loop_
_symmetry_equiv_pos_site_id
_symmetry_equiv_pos_as_xyz
1 x,y,z
2 -x,-y,-z
_cell_length_a 15.638(3)
_cell_length_b 16.513(3)
_cell_length_c 18.346(3)
_cell_angle_alpha 83.365(13)
_cell_angle_beta 68.721(13)
_cell_angle_gamma 72.264(12)
_cell_formula_units_Z 2
loop_
_atom_type_symbol
_atom_type_radius_bond
C 0.68
H 0.23
N 0.68
O 0.68
loop_
_atom_site_label
_atom_site_type_symbol
_atom_site_fract_x
_atom_site_fract_y
_atom_site_fract_z
C1 C 0.4000(8) 0.1883(8) 0.8085(9)
H1 H 0.41448 0.21933 0.75728
C2 C 0.3610(8) 0.1064(8) 0.9448(9)
H2 H 0.34663 0.07568 0.99615
C3 C 0.5692(8) 0.3190(7) 0.2071(9)
H3 H 0.54621 0.29371 0.26029
C4 C 0.6321(8) 0.3843(7) 0.0661(9)
H4 H 0.65543 0.40960 0.01294
C5 C 0.3827(11) 0.1016(8) 0.8055(8)
C6 C 0.3868(11) 0.0690(9) 0.7384(9)
H5 H 0.39785 0.09991 0.69047
C7 C 0.3737(11) -0.0125(9) 0.7442(8)
C8 C 0.3558(12) -0.0571(9) 0.8128(8)
H6 H 0.34606 -0.11141 0.81458
C9 C 0.3517(11) -0.0223(9) 0.8808(9)
H7 H 0.34125 -0.05350 0.92858
C10 C 0.3631(11) 0.0574(8) 0.8771(8)
C11 C 0.4389(12) -0.1208(10) 0.6463(9)
O1 O 0.4993(8) -0.1643(7) 0.6730(7)
O2 O 0.4398(7) -0.1521(6) 0.5790(6)
N1 N 0.3761(9) -0.0450(7) 0.6724(7)
C12 C 0.2944(11) -0.0040(11) 0.6444(8)
H8 H 0.23946 -0.02639 0.67437
H9 H 0.27397 0.05821 0.65248
C13 C 0.4808(9) 0.1658(8) 0.8443(8)
C14 C 0.5677(9) 0.1811(9) 0.8063(9)
H10 H 0.58165 0.20802 0.75648
C15 C 0.6356(9) 0.1551(10) 0.8443(9)
C16 C 0.6158(10) 0.1136(10) 0.9140(9)
H11 H 0.66390 0.09363 0.93708
C17 C 0.5258(9) 0.0994(9) 0.9530(8)
H12 H 0.51083 0.07445 1.00366
C18 C 0.4602(9) 0.1228(9) 0.9154(8)
C19 C 0.7506(11) 0.2376(10) 0.8055(9)
O3 O 0.704(1) 0.2923(8) 0.8552(8)
O4 O 0.8307(8) 0.2515(7) 0.7462(7)
N2 N 0.7307(8) 0.1642(7) 0.8020(7)
C20 C 0.7989(11) 0.0986(9) 0.7425(8)
H13 H 0.85273 0.06541 0.75967
H14 H 0.76600 0.05898 0.73555
C21 C 0.3097(10) 0.2368(8) 0.8743(8)
C22 C 0.2544(10) 0.3167(8) 0.8648(9)
H15 H 0.27002 0.34598 0.81617
C23 C 0.1737(9) 0.3540(7) 0.9292(8)
C24 C 0.1526(11) 0.3127(9) 0.9981(9)
H16 H 0.09882 0.33980 1.04116
C25 C 0.2079(9) 0.2310(8) 1.0077(8)
H17 H 0.19001 0.20124 1.05583
C26 C 0.2890(9) 0.1942(8) 0.9461(8)
C27 C 0.0289(10) 0.4472(9) 0.9120(9)
O5 O -0.0220(8) 0.4019(7) 0.9439(7)
O6 O -0.0048(7) 0.5202(6) 0.8744(6)
N3 N 0.1165(8) 0.4382(7) 0.9179(8)
C28 C 0.1648(10) 0.5075(9) 0.8860(8)
H18 H 0.13662 0.55506 0.92354
H19 H 0.23394 0.48520 0.87778
C29 C 0.5233(10) 0.3037(9) 0.1501(8)
C30 C 0.4512(10) 0.2649(9) 0.1718(9)
H20 H 0.42988 0.24026 0.22216
C31 C 0.4108(9) 0.2639(9) 0.1142(8)
C32 C 0.4428(10) 0.2963(9) 0.0419(9)
H21 H 0.41501 0.29240 0.00465
C33 C 0.5161(10) 0.3356(9) 0.0205(9)
H22 H 0.53738 0.35944 -0.03027
C34 C 0.5567(10) 0.3387(9) 0.0750(8)
C35 C 0.2428(9) 0.2744(9) 0.1638(9)
O7 O 0.2132(8) 0.3493(6) 0.1507(7)
O8 O 0.1763(7) 0.2364(6) 0.2162(6)
N4 N 0.3338(8) 0.2235(7) 0.1377(7)
C36 C 0.3550(11) 0.1313(8) 0.1570(8)
H23 H 0.33771 0.10113 0.12326
H24 H 0.42419 0.10689 0.14801
C37 C 0.6781(8) 0.2852(8) 0.1635(8)
C38 C 0.7406(8) 0.2293(8) 0.1958(8)
H25 H 0.71831 0.20411 0.24575
C39 C 0.8382(9) 0.2115(9) 0.1517(9)
C40 C 0.8724(11) 0.2472(10) 0.0799(9)
H26 H 0.93939 0.23542 0.05303
C41 C 0.8084(9) 0.3009(10) 0.0462(9)
H27 H 0.83072 0.32411 -0.00463
C42 C 0.7122(9) 0.3192(8) 0.0888(8)
C43 C 0.9178(13) 0.0710(9) 0.1828(10)
O9 O 0.8982(8) 0.0359(7) 0.1388(7)
O10 O 0.9629(8) 0.0204(6) 0.2316(6)
N5 N 0.9040(9) 0.1548(7) 0.1872(8)
C44 C 0.9405(12) 0.1905(9) 0.2371(8)
H28 H 1.00825 0.18868 0.20861
H29 H 0.90302 0.25063 0.24944
C45 C 0.5513(11) 0.4162(8) 0.2069(9)
C46 C 0.5105(11) 0.4671(8) 0.2718(9)
H30 H 0.48563 0.44410 0.32231
C47 C 0.5062(11) 0.5534(8) 0.2625(8)
C48 C 0.5364(11) 0.5873(9) 0.1898(8)
H31 H 0.52755 0.64689 0.18362
C49 C 0.5802(10) 0.5350(8) 0.1243(8)
H32 H 0.60704 0.55805 0.07420
C50 C 0.5848(10) 0.4505(8) 0.1319(8)
C51 C 0.5254(10) 0.6373(10) 0.3488(9)
O11 O 0.6053(8) 0.6393(7) 0.3061(7)
O12 O 0.4891(8) 0.6794(7) 0.4193(7)
N6 N 0.4653(8) 0.6023(8) 0.3334(7)
C52 C 0.3636(9) 0.6167(11) 0.3837(8)
H33 H 0.32430 0.66907 0.36642
H34 H 0.34122 0.56847 0.37823
C53 C 0.3137(11) 0.0086(9) 0.4301(8)
C54 C 0.2853(11) 0.0309(9) 0.5085(8)
H35 H 0.23812 0.08308 0.52719
C55 C 0.3254(11) -0.0227(9) 0.5599(8)
C56 C 0.3968(11) -0.0954(9) 0.5286(8)
C57 C 0.4232(12) -0.1236(10) 0.4552(9)
H36 H 0.46643 -0.17815 0.43903
C58 C 0.3839(11) -0.0687(9) 0.4040(9)
H37 H 0.40517 -0.08410 0.35065
C59 C 0.2779(10) 0.0659(9) 0.3726(8)
C60 C 0.3334(10) 0.0678(9) 0.2939(8)
H38 H 0.39707 0.03164 0.27633
C61 C 0.2987(9) 0.1209(8) 0.2401(7)
C62 C 0.2057(10) 0.1735(9) 0.2695(8)
C63 C 0.1490(11) 0.1771(9) 0.3447(8)
H39 H 0.08749 0.21721 0.36159
C64 C 0.1828(10) 0.1197(9) 0.3989(9)
H40 H 0.14232 0.11740 0.45177
C65 C 0.8888(11) 0.1552(9) 0.5258(8)
C66 C 0.8528(10) 0.1134(9) 0.5946(7)
H41 H 0.83962 0.06171 0.59131
C67 C 0.8345(12) 0.1428(9) 0.6688(8)
C68 C 0.8512(13) 0.2203(10) 0.6706(9)
C69 C 0.8873(13) 0.2637(11) 0.6061(9)
H42 H 0.89669 0.31669 0.61099
C70 C 0.9115(13) 0.2313(10) 0.5308(9)
H43 H 0.94192 0.25945 0.48500
C71 C 0.9103(11) 0.1204(8) 0.4486(8)
C72 C 0.9115(11) 0.1727(9) 0.3840(8)
H44 H 0.89786 0.23221 0.38998
C73 C 0.9322(12) 0.1411(8) 0.3098(8)
C74 C 0.9487(11) 0.0540(8) 0.3050(8)
C75 C 0.9450(12) 0.0015(9) 0.3667(8)
H45 H 0.95423 -0.05727 0.36052
C76 C 0.9277(12) 0.0322(9) 0.4397(9)
H46 H 0.92757 -0.00542 0.48295
C77 C 0.1998(10) 0.5906(9) 0.6774(8)
C78 C 0.2194(10) 0.5580(9) 0.7439(8)
H47 H 0.28211 0.54918 0.74443
C79 C 0.1507(9) 0.5377(9) 0.8104(8)
C80 C 0.0604(9) 0.5481(9) 0.8074(8)
C81 C 0.0397(10) 0.5709(9) 0.7411(8)
H48 H -0.01922 0.56934 0.73825
C82 C 0.1078(10) 0.597(1) 0.6769(9)
H49 H 0.09185 0.61949 0.63191
C83 C 0.2721(10) 0.6127(10) 0.6068(8)
C84 C 0.2809(10) 0.6007(10) 0.5304(8)
H50 H 0.23859 0.57541 0.52131
C85 C 0.3509(11) 0.6251(10) 0.4665(8)
C86 C 0.4144(11) 0.6566(11) 0.4827(9)
C87 C 0.4097(11) 0.6694(10) 0.5546(9)
H51 H 0.45479 0.69227 0.56198
C88 C 0.3377(10) 0.6489(10) 0.6190(9)
H52 H 0.33261 0.65896 0.67055
#END
