
#######################################################################
#
#                 Cambridge Crystallographic Data Centre
#                                CCDC
#
#######################################################################
#
# If this CIF has been generated from an entry in the Cambridge
# Structural Database, then it will include bibliographic, chemical,
# crystal, experimental, refinement or atomic coordinate data resulting
# from the CCDC's data processing and validation procedures.
#
#######################################################################

data_CSD_CIF_YEZLUN
_audit_creation_date 2018-06-12
_audit_creation_method CSD-ConQuest-V1
_database_code_CSD YEZLUN
_database_code_depnum_ccdc_archive 'CCDC 1817584'
_chemical_formula_sum 'C55 H70 O10'
_chemical_formula_moiety
;
C55 H70 O10
;
_journal_coden_Cambridge 4
_journal_volume 140
_journal_year 2018
_journal_page_first 6921
_journal_name_full 'J.Am.Chem.Soc. '
loop_
_publ_author_name
"Kecheng Jie"
"Ming Liu"
"Yujuan Zhou"
"M.A.Little"
"Angeles Pulido"
"Samantha Y.Chong"
"A.Stephenson"
"A.R.Hughes"
"F.Sakakibara"
"T.Ogoshi"
"F.Blanc"
"G.M.Day"
"Feihe Huang"
"A.I.Cooper"
_chemical_name_systematic
;
4,9,14,19,24,26,28,30,32,34-decaethoxyhexacyclo[21.2.2.2^3,6^.2^8,11^.2^13,16^
.2^18,21^]pentatriaconta-1(25),3,5,8,10,13,15,18,20,23,26,28,30,32,34-pentadec
aene
;
_chemical_name_common
;
4,9,14,19,24,26,28,30,32,34-decaethoxypillar[5]arene
;
_cell_volume   2513.153
_exptl_crystal_colour 'colorless'
_exptl_crystal_density_diffrn 1.178
_exptl_crystal_description 'block'
_diffrn_ambient_temperature 240
_refine_special_details
;
C46 and C47 disordered over two sites with occupancies 0.583:0.417.

;
#These two values have been output from a single CSD field.
_refine_ls_R_factor_gt 0.0635
_refine_ls_wR_factor_gt 0.0635
_symmetry_cell_setting triclinic
_symmetry_space_group_name_H-M 'P -1'
_symmetry_Int_Tables_number 2
loop_
_symmetry_equiv_pos_site_id
_symmetry_equiv_pos_as_xyz
1 x,y,z
2 -x,-y,-z
_cell_length_a 12.6553(9)
_cell_length_b 14.9068(10)
_cell_length_c 15.8129(12)
_cell_angle_alpha 102.503(2)
_cell_angle_beta 108.766(2)
_cell_angle_gamma 108.108(2)
_cell_formula_units_Z 2
loop_
_atom_type_symbol
_atom_type_radius_bond
C 0.68
H 0.23
O 0.68
loop_
_atom_site_label
_atom_site_type_symbol
_atom_site_fract_x
_atom_site_fract_y
_atom_site_fract_z
O1 O -0.05240(12) 0.37489(9) 0.62262(9)
O2 O -0.14831(11) 0.00523(9) 0.52476(8)
O3 O -0.04192(12) 0.25662(11) 0.88258(9)
O4 O 0.23735(12) 0.07047(10) 0.99093(9)
O5 O 0.38864(12) 0.39908(11) 0.8829(1)
O6 O 0.53090(15) 0.18344(11) 0.82902(11)
O7 O 0.72209(13) 0.55869(10) 0.80440(9)
O8 O 0.45610(12) 0.22380(9) 0.48087(10)
O9 O 0.33309(12) 0.54682(10) 0.56707(10)
O10 O -0.00577(12) 0.17228(10) 0.30860(9)
C1 C 0.06040(14) 0.32506(13) 0.43584(11)
C2 C 0.04868(15) 0.37626(13) 0.51503(12)
H1 H 0.09960 0.44520 0.54830
C3 C -0.03679(15) 0.32745(12) 0.54568(11)
C4 C -0.11480(14) 0.22496(12) 0.49748(11)
C5 C -0.10359(15) 0.17516(12) 0.41778(11)
H2 H -0.15480 0.10640 0.38390
C6 C -0.01859(15) 0.22430(13) 0.38667(11)
C7 C -0.20774(14) 0.17082(13) 0.53088(12)
H3 H -0.25170 0.21220 0.54360
H4 H -0.26770 0.10700 0.47960
C8 C -0.15043(14) 0.14924(12) 0.61998(11)
C9 C -0.12972(14) 0.21012(12) 0.70902(12)
H5 H -0.15690 0.26220 0.71320
C10 C -0.06912(15) 0.19519(13) 0.79243(12)
C11 C -0.02589(14) 0.12043(13) 0.78793(11)
C12 C -0.05144(14) 0.05616(12) 0.69855(12)
H6 H -0.02560 0.00330 0.69450
C13 C -0.11465(14) 0.06910(12) 0.61526(11)
C14 C 0.05475(15) 0.11204(14) 0.87725(12)
H7 H 0.04010 0.04110 0.86640
H8 H 0.03290 0.13550 0.92940
C15 C 0.19048(15) 0.17397(13) 0.90648(11)
C16 C 0.22831(16) 0.25681(14) 0.87981(12)
H9 H 0.16910 0.27500 0.84330
C17 C 0.35108(16) 0.31362(14) 0.90547(12)
C18 C 0.44106(15) 0.28767(14) 0.95687(12)
C19 C 0.40346(16) 0.20537(14) 0.98589(12)
H10 H 0.46260 0.18680 1.02190
C20 C 0.28014(16) 0.15049(13) 0.96242(11)
C21 C 0.57517(16) 0.34607(17) 0.98050(13)
H11 H 0.60430 0.41300 1.02780
H12 H 0.62220 0.31130 1.01010
C22 C 0.60175(15) 0.35917(15) 0.89598(12)
C23 C 0.65469(16) 0.45401(15) 0.89273(12)
H13 H 0.67980 0.51120 0.94590
C24 C 0.67169(15) 0.46688(14) 0.81251(12)
C25 C 0.63250(14) 0.38263(13) 0.73187(12)
C26 C 0.58464(16) 0.28779(14) 0.73682(13)
H14 H 0.56100 0.23050 0.68420
C27 C 0.57079(16) 0.27544(14) 0.81821(13)
C28 C 0.63285(15) 0.39466(14) 0.63891(12)
H15 H 0.69810 0.45950 0.65270
H16 H 0.64920 0.34090 0.60500
C29 C 0.51062(14) 0.39000(12) 0.57666(11)
C30 C 0.42322(15) 0.30399(12) 0.49879(12)
C31 C 0.31185(15) 0.30223(13) 0.44352(12)
H17 H 0.25530 0.24470 0.38960
C32 C 0.28226(15) 0.38384(13) 0.46641(11)
C33 C 0.36838(15) 0.46904(12) 0.54578(12)
C34 C 0.48138(15) 0.47221(13) 0.59833(11)
H18 H 0.53980 0.53130 0.64990
C35 C 0.15851(15) 0.37936(14) 0.40706(12)
H19 H 0.13520 0.34430 0.33950
H20 H 0.16450 0.44810 0.41500
C36 C 0.02960(19) 0.47708(14) 0.67769(14)
H21 H 0.01540 0.52040 0.64070
H22 H 0.11450 0.48480 0.69600
C37 C 0.0063(3) 0.50588(17) 0.76508(17)
H23 H -0.07940 0.49310 0.74600
H24 H 0.05650 0.57690 0.80190
H25 H 0.02700 0.46620 0.80370
C38 C -0.1117(2) 0.12342(17) 0.22150(14)
H26 H -0.17350 0.07050 0.22880
H27 H -0.09090 0.09070 0.17220
C39 C -0.1649(3) 0.1909(3) 0.18905(19)
H28 H -0.23400 0.15320 0.12730
H29 H -0.10360 0.24490 0.18360
H30 H -0.19230 0.21930 0.23470
C40 C -0.1154(2) 0.30852(19) 0.89216(15)
H31 H -0.20200 0.26170 0.85910
H32 H -0.10210 0.36080 0.86360
C41 C -0.0824(3) 0.3552(2) 0.99535(16)
H33 H -0.13180 0.39200 1.00290
H34 H 0.00360 0.40110 1.02760
H35 H -0.09740 0.30290 1.02280
C42 C -0.11646(17) -0.07957(13) 0.51723(13)
H36 H -0.14100 -0.11520 0.55770
H37 H -0.02770 -0.05670 0.53860
C43 C -0.1813(2) -0.14895(16) 0.41489(15)
H38 H -0.15920 -0.11240 0.37500
H39 H -0.26910 -0.17420 0.39540
H40 H -0.15740 -0.20500 0.40820
C44 C 0.3657(2) 0.4880(2) 0.77617(19)
H41 H 0.30760 0.49550 0.72370
H42 H 0.40960 0.55120 0.82980
H43 H 0.42340 0.46980 0.75620
C45 C 0.4272(2) 0.00770(19) 0.7792(2)
H44 H 0.38790 -0.05320 0.72340
H45 H 0.37050 0.01090 0.80780
H46 H 0.49920 0.00700 0.82510
C46 C 0.75237(19) 0.64833(14) 0.87893(14)
H47 H 0.81480 0.65460 0.93860
H48 H 0.67970 0.64720 0.88920
C47 C 0.8002(3) 0.73471(17) 0.84764(17)
H49 H 0.73830 0.72650 0.78770
H50 H 0.87330 0.73590 0.83930
H51 H 0.82010 0.79750 0.89570
C48 C 0.41972(19) 0.63842(14) 0.64257(15)
H52 H 0.48950 0.66920 0.62840
H53 H 0.45000 0.62600 0.70230
C49 C 0.3198(2) 0.0515(2) 1.06066(19)
H54 H 0.37320 0.11330 1.11640
H55 H 0.37100 0.02740 1.03530
C50 C 0.2447(3) -0.0279(3) 1.0882(3)
H56 H 0.18310 -0.08430 1.03100
H57 H 0.20500 0.00060 1.12260
H58 H 0.29780 -0.05110 1.12840
C51 C 0.2993(4) 0.4080(4) 0.8048(4)
H59 H 0.24050 0.42560 0.82490
H60 H 0.25440 0.34390 0.75100
C52 C 0.4637(3) 0.09654(18) 0.7509(2)
H61 H 0.51220 0.08890 0.71470
H62 H 0.39020 0.10080 0.70950
C53 C 0.37281(18) 0.13580(14) 0.40070(17)
H63 H 0.36330 0.15020 0.34170
H64 H 0.29240 0.11190 0.40250
C54 C 0.4228(2) 0.05762(17) 0.4038(2)
H65 H 0.36660 -0.00400 0.34990
H66 H 0.43270 0.04450 0.46270
H67 H 0.50160 0.08150 0.40070
C55 C 0.3550(3) 0.70664(19) 0.6513(2)
H68 H 0.32180 0.71550 0.59070
H69 H 0.41240 0.77160 0.70010
H70 H 0.28880 0.67690 0.66850
C56? C 0.342(1) 0.3886(5) 0.7868(4)
H71? H 0.25360 0.34720 0.75670
H72? H 0.38020 0.35420 0.75430
H73? H 0.33260 0.47910 0.70890
H74? H 0.32680 0.52160 0.80750
H75? H 0.45330 0.52870 0.80510
#END
