
#######################################################################
#
#                 Cambridge Crystallographic Data Centre
#                                CCDC
#
#######################################################################
#
# If this CIF has been generated from an entry in the Cambridge
# Structural Database, then it will include bibliographic, chemical,
# crystal, experimental, refinement or atomic coordinate data resulting
# from the CCDC's data processing and validation procedures.
#
#######################################################################

data_CSD_CIF_YEZLOH
_audit_creation_date 2018-06-12
_audit_creation_method CSD-ConQuest-V1
_database_code_CSD YEZLOH
_database_code_depnum_ccdc_archive 'CCDC 1817583'
_chemical_formula_sum 'C82 H104 O12'
_chemical_formula_moiety
;
C66 H84 O12,2(C8 H10)
;
_journal_coden_Cambridge 4
_journal_volume 140
_journal_year 2018
_journal_page_first 6921
_journal_name_full 'J.Am.Chem.Soc. '
loop_
_publ_author_name
"Kecheng Jie"
"Ming Liu"
"Yujuan Zhou"
"M.A.Little"
"Angeles Pulido"
"Samantha Y.Chong"
"A.Stephenson"
"A.R.Hughes"
"F.Sakakibara"
"T.Ogoshi"
"F.Blanc"
"G.M.Day"
"Feihe Huang"
"A.I.Cooper"
_chemical_name_systematic
;
4,9,14,19,24,29,31,33,35,37,39,41-dodecaethoxyheptacyclo[26.2.2.2^3,6^.2^8,11^
.2^13,16^.2^18,21^.2^23,26^]dotetraconta-1(30),3,5,8,10,13,15,18,20,23,25,28,3
1,33,35,37,39,41-octadecaene bis(1,3-dimethylbenzene) clathrate
;
_chemical_name_common
;
4,9,14,19,24,29,31,33,35,37,39,41-dodecaethoxypillar[6]arene 
bis(1,3-dimethylbenzene) clathrate
;
_cell_volume   1863.849
_exptl_crystal_colour 'colorless'
_exptl_crystal_density_diffrn 1.142
_exptl_crystal_description 'block'
_diffrn_ambient_temperature 100
#These two values have been output from a single CSD field.
_refine_ls_R_factor_gt 0.0914
_refine_ls_wR_factor_gt 0.0914
_symmetry_cell_setting triclinic
_symmetry_space_group_name_H-M 'P -1'
_symmetry_Int_Tables_number 2
loop_
_symmetry_equiv_pos_site_id
_symmetry_equiv_pos_as_xyz
1 x,y,z
2 -x,-y,-z
_cell_length_a 12.867(6)
_cell_length_b 13.018(6)
_cell_length_c 13.291(6)
_cell_angle_alpha 95.741(11)
_cell_angle_beta 116.713(11)
_cell_angle_gamma 104.680(11)
_cell_formula_units_Z 1
loop_
_atom_type_symbol
_atom_type_radius_bond
C 0.68
H 0.23
O 0.68
loop_
_atom_site_label
_atom_site_type_symbol
_atom_site_fract_x
_atom_site_fract_y
_atom_site_fract_z
O1 O -0.0956(3) 0.1645(3) 0.1750(3)
O2 O 0.3695(3) 0.1599(3) 0.4801(3)
O3 O 0.2084(3) 0.4609(3) 0.3924(3)
O4 O 0.1300(3) 0.5394(3) 0.7659(3)
O5 O 0.2907(3) 0.8401(3) 0.6132(3)
O6 O 0.7617(3) 0.8356(3) 0.9018(3)
C1 C 0.2535(4) 0.1626(4) 0.4078(4)
C2 C 0.1952(4) 0.2263(4) 0.4400(4)
H1 H 0.23640 0.27040 0.51720
C3 C 0.0794(5) 0.2265(4) 0.3619(4)
C4 C 0.0184(4) 0.1597(4) 0.2475(4)
C5 C 0.0769(4) 0.0959(4) 0.2170(5)
H2 H 0.03440 0.04900 0.14100
C6 C 0.1936(5) 0.0986(4) 0.2930(4)
C7 C 0.2577(4) 0.0325(4) 0.2559(5)
H3 H 0.19680 -0.01780 0.17860
H4 H 0.28500 -0.01310 0.31140
C8 C 0.0163(5) 0.2995(4) 0.3900(5)
H5 H -0.04570 0.25460 0.40690
H6 H -0.02900 0.32380 0.31950
C9 C 0.0982(4) 0.4003(4) 0.4904(4)
C10 C 0.0767(4) 0.4202(4) 0.5832(4)
H7 H 0.01300 0.36700 0.58640
C11 C 0.1463(4) 0.5161(4) 0.6709(4)
C12 C 0.2407(4) 0.5958(4) 0.6689(4)
C13 C 0.2627(4) 0.5754(4) 0.5768(4)
H8 H 0.32650 0.62860 0.57390
C14 C 0.1941(4) 0.4794(4) 0.4890(4)
C15 C 0.3125(4) 0.7022(4) 0.7652(5)
H9 H 0.25620 0.74400 0.75820
H10 H 0.34130 0.68390 0.84160
C16 C 0.4231(5) 0.7741(4) 0.7611(4)
C17 C 0.5397(5) 0.7729(4) 0.8338(4)
H11 H 0.54960 0.72940 0.88860
C18 C 0.6437(5) 0.8330(4) 0.8301(4)
C19 C 0.6304(4) 0.9000(4) 0.7511(4)
C20 C 0.5143(5) 0.9021(4) 0.6799(4)
H12 H 0.50470 0.94620 0.62560
C21 C 0.4087(4) 0.8420(4) 0.6833(4)
C22 C 0.4379(5) 0.2329(4) 0.5944(4)
H13 H 0.39490 0.21350 0.63910
H14 H 0.44530 0.30940 0.58860
C23 C 0.5638(5) 0.2221(5) 0.6541(5)
H15 H 0.60180 0.23310 0.60480
H16 H 0.55620 0.14870 0.66810
H17 H 0.61560 0.27730 0.72850
C24 C -0.1578(5) 0.1067(5) 0.0540(4)
H18 H -0.18950 0.02670 0.04500
H19 H -0.10030 0.12120 0.02260
C25 C -0.2627(5) 0.1482(5) -0.0091(5)
H20 H -0.30880 0.11000 -0.09170
H21 H -0.22980 0.22710 -0.00070
H22 H -0.31790 0.13460 0.02390
C26 C 0.0316(5) 0.4618(4) 0.7706(5)
H23 H 0.04660 0.39110 0.77610
H24 H -0.04810 0.44880 0.69970
C27 C 0.0288(6) 0.5101(5) 0.8766(5)
H25 H 0.01530 0.58050 0.87060
H26 H 0.10770 0.52130 0.94620
H27 H -0.03840 0.45980 0.88210
C28 C 0.3324(5) 0.4851(5) 0.4145(5)
H28 H 0.37960 0.45540 0.47960
H29 H 0.37410 0.56530 0.43520
C29 C 0.3250(5) 0.4314(5) 0.3030(5)
H30 H 0.27630 0.46030 0.23910
H31 H 0.28530 0.35190 0.28460
H32 H 0.40840 0.44750 0.31370
C30 C 0.7749(5) 0.7586(4) 0.9750(5)
H33 H 0.72140 0.68320 0.92720
H34 H 0.75070 0.77740 1.03350
C31 C 0.9079(5) 0.7659(5) 1.0340(6)
H35 H 0.93230 0.75190 0.97540
H36 H 0.91890 0.71120 1.08010
H37 H 0.95940 0.83930 1.08530
C32 C 0.2770(5) 0.9212(5) 0.5463(5)
H38 H 0.30720 0.91060 0.49080
H39 H 0.32530 0.99570 0.59840
C33 C 0.1419(5) 0.9077(5) 0.4818(6)
H40 H 0.09590 0.83600 0.42590
H41 H 0.13030 0.96560 0.44040
H42 H 0.11150 0.91270 0.53720
C34 C 0.5595(5) 0.4463(5) 0.9123(6)
H43 H 0.61350 0.44950 0.99390
H44 H 0.53250 0.51050 0.90750
H45 H 0.60470 0.44570 0.86960
C35 C 0.4471(5) 0.3425(4) 0.8593(5)
C36 C 0.4617(5) 0.2440(4) 0.8849(5)
H46 H 0.54150 0.24300 0.93690
C37 C 0.3597(5) 0.1459(4) 0.8346(4)
C38 C 0.2435(5) 0.1489(5) 0.7600(5)
H47 H 0.17370 0.08370 0.72580
C39 C 0.2294(5) 0.2473(5) 0.7354(5)
H48 H 0.14990 0.24880 0.68320
C40 C 0.3299(5) 0.3430(5) 0.7861(5)
H49 H 0.31820 0.41000 0.77040
C41 C 0.3795(6) 0.0413(5) 0.8666(5)
H50 H 0.44280 0.02780 0.85050
H51 H 0.30190 -0.02030 0.82050
H52 H 0.40670 0.04860 0.94950
O1A O 1.0956(3) 0.8355(3) 0.8250(3)
O2A O 0.6305(3) 0.8401(3) 0.5199(3)
O3A O 0.7916(3) 0.5391(3) 0.6076(3)
O4A O 0.8700(3) 0.4606(3) 0.2341(3)
O5A O 0.7093(3) 0.1599(3) 0.3868(3)
O6A O 0.2383(3) 0.1644(3) 0.0982(3)
C1A C 0.7465(4) 0.8374(4) 0.5922(4)
C2A C 0.8048(4) 0.7737(4) 0.5600(4)
H1A H 0.76360 0.72960 0.48280
C3A C 0.9206(5) 0.7735(4) 0.6381(4)
C4A C 0.9816(4) 0.8403(4) 0.7525(4)
C5A C 0.9231(4) 0.9041(4) 0.7830(5)
H2A H 0.96560 0.95100 0.85900
C6A C 0.8064(5) 0.9014(4) 0.7070(4)
C7A C 0.7423(4) 0.9675(4) 0.7441(5)
H3A H 0.80320 1.01780 0.82140
H4A H 0.71500 1.01310 0.68860
C8A C 0.9837(5) 0.7005(4) 0.6100(5)
H5A H 1.04570 0.74540 0.59310
H6A H 1.02900 0.67620 0.68050
C9A C 0.9018(4) 0.5997(4) 0.5096(4)
C10A C 0.9233(4) 0.5798(4) 0.4168(4)
H7A H 0.98700 0.63300 0.41360
C11A C 0.8537(4) 0.4839(4) 0.3291(4)
C12A C 0.7593(4) 0.4042(4) 0.3311(4)
C13A C 0.7373(4) 0.4246(4) 0.4232(4)
H8A H 0.67350 0.37140 0.42610
C14A C 0.8059(4) 0.5206(4) 0.5110(4)
C15A C 0.6875(4) 0.2978(4) 0.2348(5)
H9A H 0.74380 0.25600 0.24180
H10A H 0.65870 0.31610 0.15840
C16A C 0.5769(5) 0.2259(4) 0.2389(4)
C17A C 0.4603(5) 0.2271(4) 0.1662(4)
H11A H 0.45040 0.27060 0.11140
C18A C 0.3563(5) 0.1670(4) 0.1699(4)
C19A C 0.3696(4) 0.1000(4) 0.2489(4)
C20A C 0.4857(5) 0.0979(4) 0.3201(4)
H12A H 0.49530 0.05380 0.37440
C21A C 0.5913(4) 0.1580(4) 0.3167(4)
C22A C 0.5621(5) 0.7671(4) 0.4056(4)
H13A H 0.60510 0.78650 0.36090
H14A H 0.55470 0.69060 0.41140
C23A C 0.4362(5) 0.7779(5) 0.3459(5)
H15A H 0.39820 0.76690 0.39520
H16A H 0.44380 0.85130 0.33190
H17A H 0.38440 0.72270 0.27150
C24A C 1.1578(5) 0.8933(5) 0.9460(4)
H18A H 1.18950 0.97330 0.95500
H19A H 1.10030 0.87880 0.97740
C25A C 1.2627(5) 0.8518(5) 1.0091(5)
H20A H 1.30880 0.89000 1.09170
H21A H 1.22980 0.77290 1.00070
H22A H 1.31790 0.86540 0.97610
C26A C 0.9684(5) 0.5382(4) 0.2294(5)
H23A H 0.95340 0.60890 0.22390
H24A H 1.04810 0.55120 0.30030
C27A C 0.9712(6) 0.4899(5) 0.1234(5)
H25A H 0.98470 0.41950 0.12940
H26A H 0.89230 0.47870 0.05380
H27A H 1.03840 0.54020 0.11790
C28A C 0.6676(5) 0.5149(5) 0.5855(5)
H28A H 0.62040 0.54460 0.52040
H29A H 0.62590 0.43470 0.56480
C29A C 0.6750(5) 0.5686(5) 0.6970(5)
H30A H 0.72370 0.53970 0.76090
H31A H 0.71470 0.64810 0.71540
H32A H 0.59160 0.55250 0.68630
C30A C 0.2251(5) 0.2414(4) 0.0250(5)
H33A H 0.27860 0.31680 0.07280
H34A H 0.24930 0.22260 -0.03350
C31A C 0.0921(5) 0.2341(5) -0.0340(6)
H35A H 0.06770 0.24810 0.02460
H36A H 0.08110 0.28880 -0.08010
H37A H 0.04060 0.16070 -0.08530
C32A C 0.7230(5) 0.0788(5) 0.4537(5)
H38A H 0.69280 0.08940 0.50920
H39A H 0.67470 0.00430 0.40160
C33A C 0.8581(5) 0.0923(5) 0.5182(6)
H40A H 0.90410 0.16400 0.57410
H41A H 0.86970 0.03440 0.55960
H42A H 0.88850 0.08730 0.46280
#END
