
#######################################################################
#
#                 Cambridge Crystallographic Data Centre
#                                CCDC
#
#######################################################################
#
# If this CIF has been generated from an entry in the Cambridge
# Structural Database, then it will include bibliographic, chemical,
# crystal, experimental, refinement or atomic coordinate data resulting
# from the CCDC's data processing and validation procedures.
#
#######################################################################

data_CSD_CIF_YEZMAU
_audit_creation_date 2018-06-12
_audit_creation_method CSD-ConQuest-V1
_database_code_CSD YEZMAU
_database_code_depnum_ccdc_archive 'CCDC 1817585'
_chemical_formula_sum 'C74 H94 O12'
_chemical_formula_moiety
;
C66 H84 O12,C8 H10
;
_journal_coden_Cambridge 4
_journal_volume 140
_journal_year 2018
_journal_page_first 6921
_journal_name_full 'J.Am.Chem.Soc. '
loop_
_publ_author_name
"Kecheng Jie"
"Ming Liu"
"Yujuan Zhou"
"M.A.Little"
"Angeles Pulido"
"Samantha Y.Chong"
"A.Stephenson"
"A.R.Hughes"
"F.Sakakibara"
"T.Ogoshi"
"F.Blanc"
"G.M.Day"
"Feihe Huang"
"A.I.Cooper"
_chemical_name_systematic
;
4,9,14,19,24,29,31,33,35,37,39,41-dodecaethoxyheptacyclo[26.2.2.2^3,6^.2^8,11^
.2^13,16^.2^18,21^.2^23,26^]dotetraconta-1(30),3,5,8,10,13,15,18,20,23,25,28,3
1,33,35,37,39,41-octadecaene 1,3-dimethylbenzene clathrate
;
_chemical_name_common
;
4,9,14,19,24,29,31,33,35,37,39,41-dodecaethoxypillar[6]arene 
1,3-dimethylbenzene clathrate
;
_cell_volume   1848.881
_exptl_crystal_colour 'colorless'
_exptl_crystal_density_diffrn 1.055
_exptl_crystal_description 'block'
_diffrn_ambient_temperature 298
_diffrn_radiation_probe x-ray
_diffrn_source synchrotron
_refine_special_details
;
C34,C35,C36,C37,C38,C39,C40,C41 disordered by symmetry over two 
configurations with occupancy 0.5.
;
#These two values have been output from a single CSD field.
_refine_ls_R_factor_gt 0.1173
_refine_ls_wR_factor_gt 0.1173
_symmetry_cell_setting triclinic
_symmetry_space_group_name_H-M 'P -1'
_symmetry_Int_Tables_number 2
loop_
_symmetry_equiv_pos_site_id
_symmetry_equiv_pos_as_xyz
1 x,y,z
2 -x,-y,-z
_cell_length_a 11.10(2)
_cell_length_b 12.196(19)
_cell_length_c 14.06(3)
_cell_angle_alpha 93.34(17)
_cell_angle_beta 94.55(18)
_cell_angle_gamma 102.22(16)
_cell_formula_units_Z 1
loop_
_atom_type_symbol
_atom_type_radius_bond
C 0.68
H 0.23
O 0.68
loop_
_atom_site_label
_atom_site_type_symbol
_atom_site_fract_x
_atom_site_fract_y
_atom_site_fract_z
O1 O 0.4511(6) 0.1487(5) 0.6180(5)
O2 O 0.5572(6) 0.6594(5) 0.6957(5)
O3 O 0.2599(7) 0.1125(6) 0.8039(6)
O4 O 0.0828(7) 0.6906(6) 0.7903(6)
O5 O 0.2343(6) -0.0105(6) 0.2398(5)
O6 O 0.0666(6) 0.3936(5) 0.5574(5)
C1 C 0.1824(8) 0.1450(8) 0.6492(8)
C2 C 0.2097(9) 0.1868(9) 0.7440(8)
C3 C 0.1128(9) 0.3175(9) 0.6178(8)
C4 C 0.2201(9) 0.0080(7) 0.4185(8)
H1 H 0.13960 -0.03500 0.41160
C5 C 0.1394(8) 0.3594(8) 0.7167(8)
C6 C 0.4059(9) 0.1081(7) 0.5228(9)
C7 C 0.4711(9) 0.1177(7) 0.2536(8)
H2 H 0.40820 0.13210 0.20700
H3 H 0.49730 0.05130 0.22920
C8 C 0.2804(10) 0.0292(7) 0.3370(9)
C9 C 0.1105(8) 0.4723(7) 0.7534(7)
H4 H 0.09630 0.46950 0.82050
H5 H 0.03490 0.48190 0.71860
C10 C 0.1288(8) 0.2136(7) 0.5841(7)
H6 H 0.10550 0.18770 0.52040
C11 C 0.2193(9) 0.5788(8) 0.7415(7)
C12 C 0.2065(8) 0.0350(7) 0.6057(7)
H7 H 0.12790 -0.01770 0.58910
H8 H 0.25390 0.00270 0.65320
C13 C 0.2768(10) 0.0502(7) 0.5163(8)
C14 C 0.4366(9) 0.6674(9) 0.7150(7)
C15 C 0.3358(8) 0.5707(8) 0.7170(7)
H9 H 0.34980 0.49960 0.70120
C16 C 0.1933(8) 0.2908(7) 0.7814(7)
H10 H 0.21600 0.31500 0.84550
C17 C 0.4119(9) 0.0915(7) 0.3470(8)
C18 C 0.1952(10) 0.6934(9) 0.7698(8)
C19 C 0.4673(9) 0.1348(7) 0.4430(8)
H11 H 0.54590 0.18160 0.45050
C20 C 0.4124(9) 0.7776(9) 0.7383(8)
C21 C 0.2953(9) 0.7859(8) 0.7610(7)
H12 H 0.28090 0.85790 0.77130
C22 C 0.5706(9) 0.2195(8) 0.6342(7)
H13 H 0.57340 0.28510 0.59780
H14 H 0.63100 0.17950 0.61180
C23 C 0.3115(11) 0.1593(10) 0.8974(8)
H15 H 0.24680 0.18130 0.93180
H16 H 0.37420 0.22670 0.89170
C24 C -0.0164(9) 0.3463(8) 0.4701(8)
H17 H 0.01170 0.28410 0.43960
H18 H -0.01650 0.40350 0.42490
C25 C 0.0532(9) 0.8034(9) 0.8182(10)
H19 H 0.10970 0.84140 0.87200
H20 H 0.06190 0.85090 0.76510
C26 C 0.564(1) 0.5657(10) 0.6295(10)
H21 H 0.50600 0.56110 0.57340
H22 H 0.54550 0.49530 0.65970
C27 C -0.1488(9) 0.3050(8) 0.5012(8)
H23 H -0.19860 0.25450 0.45130
H24 H -0.18560 0.36840 0.51300
H25 H -0.14390 0.26650 0.55860
C28 C 0.1122(10) -0.0845(10) 0.2263(8)
H26 H 0.04990 -0.04430 0.24450
H27 H 0.10920 -0.14790 0.26530
C29 C 0.6047(10) 0.2581(9) 0.7414(8)
H28 H 0.67970 0.31530 0.74890
H29 H 0.61680 0.19500 0.77600
H30 H 0.53900 0.28780 0.76610
C30 C 0.6965(10) 0.5902(9) 0.6026(10)
H31 H 0.71810 0.52110 0.58170
H32 H 0.75150 0.62510 0.65720
H33 H 0.70370 0.63980 0.55180
C31 C 0.3677(11) 0.0806(8) 0.9539(8)
H34 H 0.42550 0.05210 0.91740
H35 H 0.30390 0.01920 0.96850
H36 H 0.41010 0.11970 1.01230
C32 C -0.0789(9) 0.7818(9) 0.8452(9)
H37 H -0.13410 0.74510 0.79120
H38 H -0.09960 0.85210 0.86370
H39 H -0.08660 0.73460 0.89760
C33 C 0.0883(11) -0.1262(10) 0.1174(8)
H40 H 0.05720 -0.07130 0.08220
H41 H 0.02860 -0.19640 0.10940
H42 H 0.16440 -0.13640 0.09400
C34? C 0.628(2) 0.5948(15) 0.9119(15)
H43? H 0.64340 0.65580 0.87460
C35? C 0.7123(14) 0.5256(15) 0.9210(11)
H44? H 0.78410 0.54030 0.88980
C36? C 0.6893(13) 0.4343(13) 0.9768(10)
C37? C 0.5820(19) 0.4123(17) 1.0235(17)
H45? H 0.56660 0.35120 1.06080
C38? C 0.498(2) 0.481(2) 1.014(2)
C39? C 0.521(2) 0.573(2) 0.959(2)
H46? H 0.46420 0.61900 0.95250
C40? C 0.7780(19) 0.3606(18) 0.9869(17)
H47? H 0.83830 0.38060 0.93970
H48? H 0.73570 0.28530 0.97310
H49? H 0.81970 0.37420 1.04870
C41? C 0.389(2) 0.471(2) 1.055(3)
H50? H 0.40520 0.50260 1.11950
H51? H 0.35050 0.39240 1.05350
H52? H 0.33600 0.50930 1.01910
O1A O 0.5489(6) 0.8513(5) 0.3820(5)
O2A O 0.4428(6) 0.3406(5) 0.3043(5)
O3A O 0.7401(7) 0.8875(6) 0.1961(6)
O4A O 0.9172(7) 0.3094(6) 0.2097(6)
O5A O 0.7657(6) 1.0105(6) 0.7602(5)
O6A O 0.9334(6) 0.6064(5) 0.4426(5)
C1A C 0.8176(8) 0.8550(8) 0.3508(8)
C2A C 0.7903(9) 0.8132(9) 0.2560(8)
C3A C 0.8872(9) 0.6825(9) 0.3822(8)
C4A C 0.7799(9) 0.9920(7) 0.5815(8)
H1A H 0.86040 1.03500 0.58840
C5A C 0.8606(8) 0.6406(8) 0.2833(8)
C6A C 0.5941(9) 0.8919(7) 0.4772(9)
C7A C 0.5289(9) 0.8823(7) 0.7464(8)
H2A H 0.59180 0.86790 0.79300
H3A H 0.50270 0.94870 0.77080
C8A C 0.7196(10) 0.9708(7) 0.6630(9)
C9A C 0.8895(8) 0.5277(7) 0.2466(7)
H4A H 0.90370 0.53050 0.17950
H5A H 0.96510 0.51810 0.28140
C10A C 0.8712(8) 0.7864(7) 0.4159(7)
H6A H 0.89450 0.81230 0.47960
C11A C 0.7807(9) 0.4212(8) 0.2585(7)
C12A C 0.7935(8) 0.9650(7) 0.3943(7)
H7A H 0.87210 1.01770 0.41090
H8A H 0.74610 0.99730 0.34680
C13A C 0.7232(10) 0.9498(7) 0.4837(8)
C14A C 0.5634(9) 0.3326(9) 0.2850(7)
C15A C 0.6642(8) 0.4293(8) 0.2830(7)
H9A H 0.65020 0.50040 0.29880
C16A C 0.8067(8) 0.7092(7) 0.2186(7)
H10A H 0.78400 0.68500 0.15450
C17A C 0.5881(9) 0.9085(7) 0.6530(8)
C18A C 0.8048(10) 0.3066(9) 0.2302(8)
C19A C 0.5327(9) 0.8652(7) 0.5570(8)
H11A H 0.45410 0.81840 0.54950
C20A C 0.5876(9) 0.2224(9) 0.2617(8)
C21A C 0.7047(9) 0.2141(8) 0.2390(7)
H12A H 0.71910 0.14210 0.22870
C22A C 0.4294(9) 0.7805(8) 0.3658(7)
H13A H 0.42660 0.71490 0.40220
H14A H 0.36900 0.82050 0.38820
C23A C 0.6885(11) 0.8407(10) 0.1026(8)
H15A H 0.75320 0.81870 0.06820
H16A H 0.62580 0.77330 0.10830
C24A C 1.0164(9) 0.6537(8) 0.5299(8)
H17A H 0.98830 0.71590 0.56040
H18A H 1.01650 0.59650 0.57510
C25A C 0.9468(9) 0.1966(9) 0.1818(10)
H19A H 0.89030 0.15860 0.12800
H20A H 0.93810 0.14910 0.23490
C26A C 0.436(1) 0.4343(10) 0.3705(10)
H21A H 0.49400 0.43890 0.42660
H22A H 0.45450 0.50470 0.34030
C27A C 1.1488(9) 0.6950(8) 0.4988(8)
H23A H 1.19860 0.74550 0.54870
H24A H 1.18560 0.63160 0.48700
H25A H 1.14390 0.73350 0.44140
C28A C 0.8878(10) 1.0845(10) 0.7737(8)
H26A H 0.95010 1.04430 0.75550
H27A H 0.89080 1.14790 0.73470
C29A C 0.3953(10) 0.7419(9) 0.2586(8)
H28A H 0.32030 0.68470 0.25110
H29A H 0.38320 0.80500 0.22400
H30A H 0.46100 0.71220 0.23390
C30A C 0.3035(10) 0.4098(9) 0.3974(10)
H31A H 0.28190 0.47890 0.41830
H32A H 0.24850 0.37490 0.34280
H33A H 0.29630 0.36020 0.44820
C31A C 0.6323(11) 0.9194(8) 0.0461(8)
H34A H 0.57450 0.94790 0.08260
H35A H 0.69610 0.98080 0.03150
H36A H 0.58990 0.88030 -0.01230
C32A C 1.0789(9) 0.2182(9) 0.1548(9)
H37A H 1.13410 0.25490 0.20880
H38A H 1.09960 0.14790 0.13630
H39A H 1.08660 0.26540 0.10240
C33A C 0.9117(11) 1.1262(10) 0.8826(8)
H40A H 0.94280 1.07130 0.91780
H41A H 0.97140 1.19640 0.89060
H42A H 0.83560 1.13640 0.90600
#END
