
#######################################################################
#
#                 Cambridge Crystallographic Data Centre
#                                CCDC
#
#######################################################################
#
# If this CIF has been generated from an entry in the Cambridge
# Structural Database, then it will include bibliographic, chemical,
# crystal, experimental, refinement or atomic coordinate data resulting
# from the CCDC's data processing and validation procedures.
#
#######################################################################

data_CSD_CIF_YEZMIC
_audit_creation_date 2018-06-12
_audit_creation_method CSD-ConQuest-V1
_database_code_CSD YEZMIC
_database_code_depnum_ccdc_archive 'CCDC 1817587'
_chemical_formula_sum 'C74 H94 O12'
_chemical_formula_moiety
;
C66 H84 O12,C8 H10
;
_journal_coden_Cambridge 4
_journal_volume 140
_journal_year 2018
_journal_page_first 6921
_journal_name_full 'J.Am.Chem.Soc. '
loop_
_publ_author_name
"Kecheng Jie"
"Ming Liu"
"Yujuan Zhou"
"M.A.Little"
"Angeles Pulido"
"Samantha Y.Chong"
"A.Stephenson"
"A.R.Hughes"
"F.Sakakibara"
"T.Ogoshi"
"F.Blanc"
"G.M.Day"
"Feihe Huang"
"A.I.Cooper"
_chemical_name_systematic
;
4,9,14,19,24,29,31,33,35,37,39,41-dodecaethoxyheptacyclo[26.2.2.2^3,6^.2^8,11^
.2^13,16^.2^18,21^.2^23,26^]dotetraconta-1(30),3,5,8,10,13,15,18,20,23,25,28,3
1,33,35,37,39,41-octadecaene 1,2-dimethylbenzene clathrate
;
_chemical_name_common
;
4,9,14,19,24,29,31,33,35,37,39,41-dodecaethoxypillar[6]arene 
1,2-dimethylbenzene clathrate
;
_cell_volume   7248.904
_exptl_crystal_colour 'colorless'
_exptl_crystal_density_diffrn 1.077
_exptl_crystal_description 'block'
_diffrn_ambient_temperature 100
#These two values have been output from a single CSD field.
_refine_ls_R_factor_gt 0.0792
_refine_ls_wR_factor_gt 0.0792
_symmetry_cell_setting monoclinic
_symmetry_space_group_name_H-M 'I 2/a'
_symmetry_Int_Tables_number 15
loop_
_symmetry_equiv_pos_site_id
_symmetry_equiv_pos_as_xyz
1 x,y,z
2 1/2-x,y,-z
3 1/2+x,1/2+y,1/2+z
4 -x,1/2+y,1/2-z
5 -x,-y,-z
6 -1/2+x,-y,z
7 -1/2-x,-1/2-y,-1/2-z
8 x,-1/2-y,-1/2+z
_cell_length_a 24.6748(18)
_cell_length_b 12.5778(9)
_cell_length_c 26.133(3)
_cell_angle_alpha 90
_cell_angle_beta 116.6494(18)
_cell_angle_gamma 90
_cell_formula_units_Z 4
loop_
_atom_type_symbol
_atom_type_radius_bond
C 0.68
H 0.23
O 0.68
loop_
_atom_site_label
_atom_site_type_symbol
_atom_site_fract_x
_atom_site_fract_y
_atom_site_fract_z
O1 O 0.70092(12) 0.46974(17) 0.26371(12)
O2 O 0.82301(8) 0.83782(14) 0.36754(9)
O3 O 0.53043(9) 0.45625(14) 0.33730(8)
O4 O 0.59387(9) 0.83999(14) 0.27530(8)
O5 O 0.59925(8) 0.47008(13) 0.55524(7)
O6 O 0.51316(10) 0.83249(14) 0.42318(8)
C1 C 0.89373(12) 0.6575(2) 0.38503(11)
H1 H 0.91090 0.59610 0.37350
H2 H 0.90890 0.72290 0.37470
C2 C 0.72917(6) 0.74731(10) 0.30631(7)
H3 H 0.70650 0.81110 0.30010
C3 C 0.70014(5) 0.65326(13) 0.28062(7)
C4 C 0.73332(7) 0.55986(10) 0.28976(8)
C5 C 0.79554(7) 0.56051(10) 0.32460(8)
H4 H 0.81820 0.49670 0.33080
C6 C 0.82458(5) 0.65456(12) 0.35029(7)
C7 C 0.79140(7) 0.74796(10) 0.34115(7)
C8 C 0.63209(12) 0.6559(2) 0.24073(11)
H5 H 0.62220 0.72160 0.21740
H6 H 0.62120 0.59440 0.21440
C9 C 0.59474(12) 0.6526(2) 0.27368(11)
C10 C 0.57942(12) 0.5556(2) 0.28909(11)
H7 H 0.59190 0.49160 0.27820
C11 C 0.54618(12) 0.5505(2) 0.32005(11)
C12 C 0.52478(11) 0.6429(2) 0.33386(11)
C13 C 0.54085(12) 0.7403(2) 0.31904(11)
H8 H 0.52750 0.80430 0.32900
C14 C 0.57605(12) 0.7451(2) 0.28993(11)
C15 C 0.48637(12) 0.6396(2) 0.36545(11)
H9 H 0.46300 0.57240 0.35590
H10 H 0.45700 0.69900 0.35200
C16 C 0.52296(12) 0.6473(2) 0.42985(11)
C17 C 0.54543(12) 0.5553(2) 0.46211(11)
H11 H 0.53990 0.48880 0.44310
C18 C 0.57577(12) 0.55889(19) 0.52157(11)
C19 C 0.58221(11) 0.65499(19) 0.55022(11)
C20 C 0.56148(12) 0.7474(2) 0.51780(11)
H12 H 0.56670 0.81390 0.53660
C21 C 0.53323(12) 0.7437(2) 0.45825(11)
C22 C 0.7197(2) 0.3745(3) 0.2828(2)
H13 H 0.73000 0.37100 0.32400
H14 H 0.75700 0.35880 0.27880
C23 C 0.6720(2) 0.2925(3) 0.2505(2)
H15 H 0.66160 0.29640 0.20970
H16 H 0.63570 0.30640 0.25580
H17 H 0.68770 0.22150 0.26510
C24 C 0.78783(14) 0.9313(2) 0.36031(16)
H18 H 0.75830 0.91990 0.37580
H19 H 0.76520 0.94900 0.31910
C25 C 0.83011(17) 1.0200(3) 0.3917(2)
H20 H 0.85580 1.03650 0.37310
H21 H 0.85560 0.99850 0.43140
H22 H 0.80660 1.08310 0.39120
C26 C 0.55814(14) 0.3607(2) 0.33082(13)
H23 H 0.60280 0.36790 0.34990
H24 H 0.54480 0.34550 0.28970
C27 C 0.53884(15) 0.2723(2) 0.35797(14)
H25 H 0.49450 0.26680 0.33910
H26 H 0.55300 0.28760 0.39870
H27 H 0.55640 0.20510 0.35370
C28 C 0.58467(14) 0.9353(2) 0.29939(13)
H28 H 0.60290 0.92910 0.34160
H29 H 0.54070 0.94940 0.28470
C29 C 0.61434(14) 1.0245(2) 0.28274(14)
H30 H 0.59720 1.02810 0.24090
H31 H 0.65810 1.01160 0.29910
H32 H 0.60710 1.09200 0.29740
C30 C 0.59348(13) 0.3720(2) 0.52587(12)
H33 H 0.61280 0.37760 0.50000
H34 H 0.55010 0.35430 0.50260
C31 C 0.62419(14) 0.2869(2) 0.57014(13)
H35 H 0.61960 0.21810 0.55110
H36 H 0.60550 0.28350 0.59620
H37 H 0.66740 0.30380 0.59190
C32 C 0.51651(18) 0.9307(2) 0.44822(14)
H38 H 0.55860 0.94480 0.47740
H39 H 0.48970 0.93220 0.46730
C33 C 0.49674(19) 1.0142(2) 0.40172(16)
H40 H 0.45640 0.99630 0.37140
H41 H 0.52570 1.01680 0.38560
H42 H 0.49520 1.08380 0.41800
C34 C 0.7429(2) 0.3068(11) 0.4709(3)
H43 H 0.73810 0.24130 0.45120
C35 C 0.7356(4) 0.4047(11) 0.4411(5)
H44 H 0.72590 0.40530 0.40160
C36 C 0.7429(3) 0.4970(11) 0.4702(3)
C37 C 0.7367(5) 0.6061(13) 0.4454(8)
H45 H 0.73330 0.65820 0.47170
H46 H 0.70040 0.60930 0.40860
H47 H 0.77250 0.62230 0.43980
C38? C 0.6848(7) 0.8720(13) 0.4679(4)
H48? H 0.69980 0.83070 0.44500
H49? H 0.64120 0.88470 0.44540
H50? H 0.69200 0.83240 0.50260
C39? C 0.7180(3) 0.9781(12) 0.4842(2)
C40? C 0.6865(7) 1.0751(12) 0.4687(5)
H51? H 0.64360 1.07650 0.44760
C41? C 0.7195(3) 1.1681(13) 0.4849(2)
H52? H 0.69860 1.23410 0.47460
C42? C 0.71835(14) 0.8107(12) 0.48502(8)
C43? C 0.6844(3) 0.7102(13) 0.46896(19)
H53? H 0.69260 0.66920 0.50360
H54? H 0.69710 0.66900 0.44430
H55? H 0.64090 0.72530 0.44820
C44? C 0.6846(7) 0.9042(13) 0.4690(3)
H56? H 0.64160 0.90410 0.44870
C45? C 0.7184(2) 0.9983(17) 0.48503(13)
H57? H 0.69760 1.06440 0.47520
O1A O 0.79908(12) 0.46974(17) 0.73629(12)
O2A O 0.67699(8) 0.83782(14) 0.63246(9)
O3A O 0.96957(9) 0.45625(14) 0.66270(8)
O4A O 0.90613(9) 0.83999(14) 0.72470(8)
O5A O 0.90075(8) 0.47008(13) 0.44476(7)
O6A O 0.98684(10) 0.83249(14) 0.57682(8)
C1A C 0.60627(12) 0.6575(2) 0.61497(11)
H1A H 0.58910 0.59610 0.62650
H2A H 0.59110 0.72290 0.62530
C2A C 0.77083(6) 0.74731(10) 0.69369(7)
H3A H 0.79350 0.81110 0.69990
C3A C 0.79986(5) 0.65326(13) 0.71938(7)
C4A C 0.76668(7) 0.55986(10) 0.71024(8)
C5A C 0.70446(7) 0.56051(10) 0.67540(8)
H4A H 0.68180 0.49670 0.66920
C6A C 0.67542(5) 0.65456(12) 0.64971(7)
C7A C 0.70860(7) 0.74796(10) 0.65885(7)
C8A C 0.86791(12) 0.6559(2) 0.75927(11)
H5A H 0.87780 0.72160 0.78260
H6A H 0.87880 0.59440 0.78560
C9A C 0.90526(12) 0.6526(2) 0.72632(11)
C10A C 0.92058(12) 0.5556(2) 0.71091(11)
H7A H 0.90810 0.49160 0.72180
C11A C 0.95382(12) 0.5505(2) 0.67995(11)
C12A C 0.97522(11) 0.6429(2) 0.66614(11)
C13A C 0.95915(12) 0.7403(2) 0.68096(11)
H8A H 0.97250 0.80430 0.67100
C14A C 0.92395(12) 0.7451(2) 0.71007(11)
C15A C 1.01363(12) 0.6396(2) 0.63455(11)
H9A H 1.03700 0.57240 0.64410
H10A H 1.04300 0.69900 0.64800
C16A C 0.97704(12) 0.6473(2) 0.57015(11)
C17A C 0.95457(12) 0.5553(2) 0.53789(11)
H11A H 0.96010 0.48880 0.55690
C18A C 0.92423(12) 0.55889(19) 0.47843(11)
C19A C 0.91779(11) 0.65499(19) 0.44978(11)
C20A C 0.93852(12) 0.7474(2) 0.48220(11)
H12A H 0.93330 0.81390 0.46340
C21A C 0.96677(12) 0.7437(2) 0.54175(11)
C22A C 0.7803(2) 0.3745(3) 0.7172(2)
H13A H 0.77000 0.37100 0.67600
H14A H 0.74300 0.35880 0.72120
C23A C 0.8280(2) 0.2925(3) 0.7495(2)
H15A H 0.83840 0.29640 0.79030
H16A H 0.86430 0.30640 0.74420
H17A H 0.81230 0.22150 0.73490
C24A C 0.71217(14) 0.9313(2) 0.63969(16)
H18A H 0.74170 0.91990 0.62420
H19A H 0.73480 0.94900 0.68090
C25A C 0.66989(17) 1.0200(3) 0.6083(2)
H20A H 0.64420 1.03650 0.62690
H21A H 0.64440 0.99850 0.56860
H22A H 0.69340 1.08310 0.60880
C26A C 0.94186(14) 0.3607(2) 0.66918(13)
H23A H 0.89720 0.36790 0.65010
H24A H 0.95520 0.34550 0.71030
C27A C 0.96116(15) 0.2723(2) 0.64203(14)
H25A H 1.00550 0.26680 0.66090
H26A H 0.94700 0.28760 0.60130
H27A H 0.94360 0.20510 0.64630
C28A C 0.91533(14) 0.9353(2) 0.70061(13)
H28A H 0.89710 0.92910 0.65840
H29A H 0.95930 0.94940 0.71530
C29A C 0.88566(14) 1.0245(2) 0.71726(14)
H30A H 0.90280 1.02810 0.75910
H31A H 0.84190 1.01160 0.70090
H32A H 0.89290 1.09200 0.70260
C30A C 0.90652(13) 0.3720(2) 0.47413(12)
H33A H 0.88720 0.37760 0.50000
H34A H 0.94990 0.35430 0.49740
C31A C 0.87581(14) 0.2869(2) 0.42986(13)
H35A H 0.88040 0.21810 0.44890
H36A H 0.89450 0.28350 0.40380
H37A H 0.83260 0.30380 0.40810
C32A C 0.98349(18) 0.9307(2) 0.55178(14)
H38A H 0.94140 0.94480 0.52260
H39A H 1.01030 0.93220 0.53270
C33A C 1.00326(19) 1.0142(2) 0.59828(16)
H40A H 1.04360 0.99630 0.62860
H41A H 0.97430 1.01680 0.61440
H42A H 1.00480 1.08380 0.58200
C34A C 0.7571(2) 0.3068(11) 0.5291(3)
H43A H 0.76190 0.24130 0.54880
C35A C 0.7644(4) 0.4047(11) 0.5589(5)
H44A H 0.77410 0.40530 0.59840
C36A C 0.7571(3) 0.4970(11) 0.5298(3)
C37A C 0.7633(5) 0.6061(13) 0.5546(8)
H45A H 0.76670 0.65820 0.52830
H46A H 0.79960 0.60930 0.59140
H47A H 0.72750 0.62230 0.56020
#END
