
#######################################################################
#
#                 Cambridge Crystallographic Data Centre
#                                CCDC
#
#######################################################################
#
# If this CIF has been generated from an entry in the Cambridge
# Structural Database, then it will include bibliographic, chemical,
# crystal, experimental, refinement or atomic coordinate data resulting
# from the CCDC's data processing and validation procedures.
#
#######################################################################

data_CSD_CIF_YEZMOI
_audit_creation_date 2018-06-12
_audit_creation_method CSD-ConQuest-V1
_database_code_CSD YEZMOI
_database_code_depnum_ccdc_archive 'CCDC 1817588'
_chemical_formula_sum 'C74 H94 O12'
_chemical_formula_moiety
;
C66 H84 O12,C8 H10
;
_journal_coden_Cambridge 4
_journal_volume 140
_journal_year 2018
_journal_page_first 6921
_journal_name_full 'J.Am.Chem.Soc. '
loop_
_publ_author_name
"Kecheng Jie"
"Ming Liu"
"Yujuan Zhou"
"M.A.Little"
"Angeles Pulido"
"Samantha Y.Chong"
"A.Stephenson"
"A.R.Hughes"
"F.Sakakibara"
"T.Ogoshi"
"F.Blanc"
"G.M.Day"
"Feihe Huang"
"A.I.Cooper"
_chemical_name_systematic
;
4,9,14,19,24,29,31,33,35,37,39,41-dodecaethoxyheptacyclo[26.2.2.2^3,6^.2^8,11^
.2^13,16^.2^18,21^.2^23,26^]dotetraconta-1(30),3,5,8,10,13,15,18,20,23,25,28,3
1,33,35,37,39,41-octadecaene 1,4-dimethylbenzene clathrate
;
_chemical_name_common
;
4,9,14,19,24,29,31,33,35,37,39,41-dodecaethoxypillar[6]arene 
1,4-dimethylbenzene clathrate
;
_cell_volume   3345.109
_exptl_crystal_colour 'colorless'
_exptl_crystal_density_diffrn 1.167
_exptl_crystal_description 'block'
_diffrn_ambient_temperature 240
_refine_special_details
;
C32,C33 and C32B,C33B disordered over two sites with occupancies 0.752:0.248.

;
#These two values have been output from a single CSD field.
_refine_ls_R_factor_gt 0.0528
_refine_ls_wR_factor_gt 0.0528
_symmetry_cell_setting monoclinic
_symmetry_space_group_name_H-M 'P 21/n'
_symmetry_Int_Tables_number 14
loop_
_symmetry_equiv_pos_site_id
_symmetry_equiv_pos_as_xyz
1 x,y,z
2 1/2-x,1/2+y,1/2-z
3 -x,-y,-z
4 -1/2+x,-1/2-y,-1/2+z
_cell_length_a 11.5241(9)
_cell_length_b 12.9030(11)
_cell_length_c 22.5069(19)
_cell_angle_alpha 90
_cell_angle_beta 91.752(2)
_cell_angle_gamma 90
_cell_formula_units_Z 2
loop_
_atom_type_symbol
_atom_type_radius_bond
C 0.68
H 0.23
O 0.68
loop_
_atom_site_label
_atom_site_type_symbol
_atom_site_fract_x
_atom_site_fract_y
_atom_site_fract_z
O1 O 0.76469(8) 0.43350(7) 0.69250(5)
O2 O 0.43492(8) 0.26690(8) 0.62366(4)
O3 O 0.86292(9) 0.10483(9) 0.56918(5)
O4 O 0.32444(10) 0.55831(8) 0.75080(6)
O5 O 0.81946(9) 0.22078(10) 0.42442(6)
O6 O 0.37935(12) 0.15485(12) 0.32921(7)
C1 C 0.66840(11) 0.13886(9) 0.54097(6)
C2 C 0.62946(11) 0.23363(9) 0.65168(6)
C3 C 0.54057(11) 0.22734(9) 0.60837(6)
C4 C 0.75800(11) 0.14733(10) 0.58367(6)
C5 C 0.65621(12) 0.46763(10) 0.70672(6)
C6 C 0.57407(12) 0.39045(9) 0.71634(5)
C7 C 0.51468(13) 0.60078(9) 0.72711(5)
C8 C 0.56080(11) 0.18054(10) 0.55401(6)
H1 H 0.50000 0.17700 0.52520
C9 C 0.60752(12) 0.27683(9) 0.71304(6)
H2 H 0.67790 0.26640 0.73790
H3 H 0.54560 0.23590 0.73050
C10 C 0.64075(12) 0.13580(9) 0.42800(6)
C11 C 0.62602(13) 0.57190(9) 0.71248(6)
H4 H 0.68220 0.62330 0.70630
C12 C 0.73746(11) 0.19415(10) 0.63822(6)
H5 H 0.79860 0.19910 0.66670
C13 C 0.68550(13) 0.08028(10) 0.48339(6)
H6 H 0.76860 0.06670 0.47940
H7 H 0.64620 0.01310 0.48590
C14 C 0.55979(13) 0.23546(9) 0.32362(6)
C15 C 0.43283(13) 0.52385(10) 0.73656(6)
C16 C 0.71136(12) 0.2052(1) 0.39848(6)
C17 C 0.46343(12) 0.4199(1) 0.73137(6)
H8 H 0.40750 0.36860 0.73830
C18 C 0.67133(13) 0.25253(10) 0.34631(6)
H9 H 0.72100 0.29710 0.32600
C19 C 0.48312(15) 0.71428(10) 0.73396(6)
H10 H 0.55150 0.75210 0.74920
H11 H 0.42260 0.72040 0.76340
C20 C 0.52991(14) 0.11856(11) 0.40523(6)
H12 H 0.48150 0.07160 0.42460
C21 C 0.48788(14) 0.16917(11) 0.35410(7)
C22 C 0.24120(15) 0.48789(12) 0.77148(8)
H13 H 0.27300 0.44860 0.80550
H14 H 0.21790 0.43900 0.74000
C23 C 0.34794(13) 0.27851(15) 0.57805(8)
H15 H 0.32210 0.21040 0.56360
H16 H 0.37870 0.31740 0.54460
C24 C 0.95892(14) 0.11717(16) 0.60930(8)
H17 H 0.94280 0.08450 0.64750
H18 H 0.97440 0.19090 0.61620
C25 C 0.85299(14) 0.50813(13) 0.68450(9)
H19 H 0.87040 0.54460 0.72190
H20 H 0.82800 0.55910 0.65450
C26 C 0.95880(15) 0.45081(15) 0.66445(11)
H21 H 0.93920 0.41160 0.62880
H22 H 0.98560 0.40380 0.69560
H23 H 1.01970 0.50010 0.65610
C27 C 0.13934(17) 0.55169(15) 0.78949(11)
H24 H 0.11180 0.59320 0.75600
H25 H 0.16270 0.59690 0.82210
H26 H 0.07760 0.50620 0.80200
C28 C 1.06190(15) 0.06636(19) 0.58191(10)
H27 H 1.07480 0.09700 0.54330
H28 H 1.04720 -0.00720 0.57720
H29 H 1.13020 0.07650 0.60750
C29 C 0.89170(16) 0.29931(18) 0.40205(11)
H30 H 0.84820 0.36420 0.39700
H31 H 0.92150 0.27890 0.36340
C30 C 0.24814(16) 0.3362(2) 0.60426(10)
H32 H 0.18740 0.34600 0.57400
H33 H 0.27480 0.40320 0.61870
H34 H 0.21790 0.29660 0.63700
C31 C 0.3004(3) 0.0896(3) 0.35504(16)
H35 H 0.33940 0.02780 0.37120
H36 H 0.24060 0.06770 0.32580
C32 C 0.99100(18) 0.3132(2) 0.44727(14)
H37 H 1.04340 0.36630 0.43360
H38 H 1.03280 0.24830 0.45200
H39 H 0.96030 0.33380 0.48510
C33 C 0.2475(4) 0.1516(4) 0.4039(2)
H40 H 0.21390 0.21470 0.38750
H41 H 0.30710 0.16920 0.43360
H42 H 0.18750 0.11100 0.42220
C34? C 0.1630(7) 0.1378(8) 0.3608(4)
H43? H 0.14910 0.09320 0.32660
H44? H 0.14960 0.20940 0.34940
H45? H 0.11060 0.11900 0.39200
C35? C 0.2861(8) 0.1253(7) 0.3832(5)
H46? H 0.29890 0.05360 0.39620
H47? H 0.30050 0.17080 0.41750
C36 C 0.61264(19) 0.46472(14) 0.51478(8)
C37 C 0.5565(2) 0.43609(16) 0.46235(9)
H48 H 0.59410 0.39190 0.43590
C38 C 0.5531(2) 0.52920(16) 0.55202(8)
H49 H 0.58870 0.54990 0.58820
C39 C 0.7330(2) 0.42701(19) 0.53043(12)
H50 H 0.74870 0.36460 0.50810
H51 H 0.73920 0.41200 0.57260
H52 H 0.78890 0.48010 0.52070
O1B O 0.23531(8) 0.56650(7) 0.30750(5)
O2B O 0.56508(8) 0.73310(8) 0.37634(4)
O3B O 0.13708(9) 0.89517(9) 0.43082(5)
O4B O 0.67556(10) 0.44169(8) 0.24920(6)
O5B O 0.18054(9) 0.77922(10) 0.57558(6)
O6B O 0.62065(12) 0.84515(12) 0.67079(7)
C1B C 0.33160(11) 0.86114(9) 0.45903(6)
C2B C 0.37054(11) 0.76637(9) 0.34832(6)
C3B C 0.45943(11) 0.77266(9) 0.39163(6)
C4B C 0.24200(11) 0.85267(10) 0.41633(6)
C5B C 0.34379(12) 0.53237(10) 0.29328(6)
C6B C 0.42593(12) 0.60955(9) 0.28366(5)
C7B C 0.48532(13) 0.39922(9) 0.27289(5)
C8B C 0.43920(11) 0.81946(10) 0.44599(6)
H1B H 0.50000 0.82300 0.47480
C9B C 0.39248(12) 0.72317(9) 0.28696(6)
H2B H 0.32210 0.73360 0.26210
H3B H 0.45440 0.76410 0.26950
C10B C 0.35925(12) 0.86420(9) 0.57200(6)
C11B C 0.37398(13) 0.42810(9) 0.28752(6)
H4B H 0.31780 0.37670 0.29370
C12B C 0.26254(11) 0.80585(10) 0.36178(6)
H5B H 0.20140 0.80090 0.33330
C13B C 0.31450(13) 0.91972(10) 0.51661(6)
H6B H 0.23140 0.93330 0.52060
H7B H 0.35380 0.98690 0.51410
C14B C 0.44021(13) 0.76454(9) 0.67638(6)
C15B C 0.56717(13) 0.47615(10) 0.26344(6)
C16B C 0.28864(12) 0.7948(1) 0.60152(6)
C17B C 0.53657(12) 0.5801(1) 0.26863(6)
H8B H 0.59250 0.63140 0.26170
C18B C 0.32867(13) 0.74747(10) 0.65369(6)
H9B H 0.27900 0.70290 0.67400
C19B C 0.51688(15) 0.28572(10) 0.26604(6)
H10B H 0.44850 0.24790 0.25080
H11B H 0.57740 0.27960 0.23660
C20B C 0.47009(14) 0.88144(11) 0.59477(6)
H12B H 0.51850 0.92840 0.57540
C21B C 0.51212(14) 0.83083(11) 0.64590(7)
C22B C 0.75880(15) 0.51211(12) 0.22852(8)
H13B H 0.72700 0.55140 0.19450
H14B H 0.78210 0.56100 0.26000
C23B C 0.65206(13) 0.72149(15) 0.42195(8)
H15B H 0.67790 0.78960 0.43640
H16B H 0.62130 0.68260 0.45540
C24B C 0.04108(14) 0.88283(16) 0.39070(8)
H17B H 0.05720 0.91550 0.35250
H18B H 0.02560 0.80910 0.38380
C25B C 0.14701(14) 0.49187(13) 0.31550(9)
H19B H 0.12960 0.45540 0.27810
H20B H 0.17200 0.44090 0.34550
C26B C 0.04120(15) 0.54919(15) 0.33555(11)
H21B H 0.06080 0.58840 0.37120
H22B H 0.01440 0.59620 0.30440
H23B H -0.01970 0.49990 0.34390
C27B C 0.86066(17) 0.44831(15) 0.21051(11)
H24B H 0.88820 0.40680 0.24400
H25B H 0.83730 0.40310 0.17790
H26B H 0.92240 0.49380 0.19800
C28B C -0.06190(15) 0.93364(19) 0.41809(10)
H27B H -0.07480 0.90300 0.45670
H28B H -0.04720 1.00720 0.42280
H29B H -0.13020 0.92350 0.39250
C29B C 0.10830(16) 0.70069(18) 0.59795(11)
H30B H 0.15180 0.63580 0.60300
H31B H 0.07850 0.72110 0.63660
C30B C 0.75186(16) 0.6638(2) 0.39574(10)
H32B H 0.81260 0.65400 0.42600
H33B H 0.72520 0.59680 0.38130
H34B H 0.78210 0.70340 0.36300
C31B C 0.6996(3) 0.9104(3) 0.64496(16)
H35B H 0.66060 0.97220 0.62880
H36B H 0.75940 0.93230 0.67420
C32B C 0.00900(18) 0.6868(2) 0.55273(14)
H37B H -0.04340 0.63370 0.56640
H38B H -0.03280 0.75170 0.54800
H39B H 0.03970 0.66620 0.51490
C33B C 0.7525(4) 0.8484(4) 0.5961(2)
H40B H 0.78610 0.78530 0.61250
H41B H 0.69290 0.83080 0.56640
H42B H 0.81250 0.88900 0.57780
C36B C 0.38736(19) 0.53528(14) 0.48522(8)
C37B C 0.4435(2) 0.56391(16) 0.53765(9)
H48B H 0.40590 0.60810 0.56410
C38B C 0.4469(2) 0.47080(16) 0.44798(8)
H49B H 0.41130 0.45010 0.41180
C39B C 0.2670(2) 0.57299(19) 0.46957(12)
H50B H 0.25130 0.63540 0.49190
H51B H 0.26080 0.58800 0.42740
H52B H 0.21110 0.51990 0.47930
#END
