
#######################################################################
#
#                 Cambridge Crystallographic Data Centre
#                                CCDC
#
#######################################################################
#
# If this CIF has been generated from an entry in the Cambridge
# Structural Database, then it will include bibliographic, chemical,
# crystal, experimental, refinement or atomic coordinate data resulting
# from the CCDC's data processing and validation procedures.
#
#######################################################################

data_CSD_CIF_YEZMUO
_audit_creation_date 2018-06-12
_audit_creation_method CSD-ConQuest-V1
_database_code_CSD YEZMUO
_database_code_depnum_ccdc_archive 'CCDC 1817589'
_chemical_formula_sum 'C63 H80 O10'
_chemical_formula_moiety
;
C55 H70 O10,C8 H10
;
_journal_coden_Cambridge 4
_journal_volume 140
_journal_year 2018
_journal_page_first 6921
_journal_name_full 'J.Am.Chem.Soc. '
loop_
_publ_author_name
"Kecheng Jie"
"Ming Liu"
"Yujuan Zhou"
"M.A.Little"
"Angeles Pulido"
"Samantha Y.Chong"
"A.Stephenson"
"A.R.Hughes"
"F.Sakakibara"
"T.Ogoshi"
"F.Blanc"
"G.M.Day"
"Feihe Huang"
"A.I.Cooper"
_chemical_name_systematic
;
4,9,14,19,24,26,28,30,32,34-decaethoxyhexacyclo[21.2.2.2^3,6^.2^8,11^.2^13,16^
.2^18,21^]pentatriaconta-1(25),3,5,8,10,13,15,18,20,23,26,28,30,32,34-pentadec
aene 1,4-dimethylbenzene clathrate
;
_chemical_name_common
;
4,9,14,19,24,26,28,30,32,34-decaethoxypillar[5]arene 1,4-dimethylbenzene 
clathrate
;
_cell_volume   5587.344
_exptl_crystal_colour 'colorless'
_exptl_crystal_density_diffrn 1.186
_exptl_crystal_description 'plate'
_diffrn_ambient_temperature 150
_refine_special_details
;
C44 and C45 disordered over two sites with occupancies 0.615:0.385.

;
#These two values have been output from a single CSD field.
_refine_ls_R_factor_gt 0.051
_refine_ls_wR_factor_gt 0.051
_symmetry_cell_setting triclinic
_symmetry_space_group_name_H-M 'P -1'
_symmetry_Int_Tables_number 2
loop_
_symmetry_equiv_pos_site_id
_symmetry_equiv_pos_as_xyz
1 x,y,z
2 -x,-y,-z
_cell_length_a 12.6961(10)
_cell_length_b 20.7685(18)
_cell_length_c 21.3724(18)
_cell_angle_alpha 82.538(2)
_cell_angle_beta 89.865(2)
_cell_angle_gamma 89.331(2)
_cell_formula_units_Z 4
loop_
_atom_type_symbol
_atom_type_radius_bond
C 0.68
H 0.23
O 0.68
loop_
_atom_site_label
_atom_site_type_symbol
_atom_site_fract_x
_atom_site_fract_y
_atom_site_fract_z
O1 O 0.27228(8) 0.82239(4) 0.80595(4)
O2 O 0.04954(7) 0.98889(5) 0.60014(5)
O3 O -0.27440(8) 0.85527(4) 0.61947(5)
O4 O -0.28408(9) 0.66861(6) 0.79925(6)
O5 O 0.09626(8) 0.63286(5) 0.91714(4)
O6 O 0.00416(8) 0.49031(5) 0.72630(5)
O7 O 0.34618(8) 0.62091(5) 0.70590(5)
O8 O 0.37367(8) 0.81433(5) 0.55468(4)
O9 O -0.00015(7) 0.76457(5) 0.48879(5)
O10 O -0.25535(9) 0.60124(5) 0.56632(5)
C1 C -0.06990(11) 0.53390(6) 0.74313(6)
C2 C -0.16002(11) 0.55269(6) 0.70808(6)
H1 H -0.1717(13) 0.5341(8) 0.6685(7)
C3 C -0.23199(11) 0.59719(6) 0.72742(6)
C4 C -0.21263(11) 0.62292(6) 0.78335(7)
C5 C -0.12428(11) 0.60256(6) 0.81958(7)
H2 H -0.1121(13) 0.6181(8) 0.8597(7)
C6 C -0.05178(11) 0.55858(6) 0.80006(6)
C7 C 0.04433(12) 0.53847(7) 0.84024(7)
H3 H 0.0242(14) 0.5378(8) 0.8869(8)
H4 H 0.0668(12) 0.4946(8) 0.8329(7)
C8 C 0.13610(11) 0.58422(6) 0.82572(6)
C9 C 0.19702(12) 0.58146(6) 0.77191(7)
H5 H 0.1803(12) 0.5491(8) 0.7440(7)
C10 C 0.28060(11) 0.62327(7) 0.75710(6)
C11 C 0.30490(11) 0.66989(6) 0.79626(6)
C12 C 0.24494(11) 0.67237(6) 0.85048(6)
H6 H 0.2597(13) 0.7057(8) 0.8760(7)
C13 C 0.16107(11) 0.63046(6) 0.86527(6)
C14 C 0.39294(11) 0.71807(7) 0.77873(7)
H7 H 0.4156(13) 0.7374(8) 0.8182(8)
H8 H 0.4559(13) 0.6959(8) 0.7628(7)
C15 C 0.35883(10) 0.77184(6) 0.72780(6)
C16 C 0.38638(11) 0.77148(7) 0.66491(6)
H9 H 0.4341(12) 0.7382(7) 0.6528(7)
C17 C 0.34839(10) 0.81862(7) 0.61770(6)
C18 C 0.28146(10) 0.86788(6) 0.63224(6)
C19 C 0.25528(10) 0.86970(6) 0.69576(6)
H10 H 0.2079(12) 0.9034(7) 0.7065(7)
C20 C 0.29381(10) 0.82288(6) 0.74281(6)
C21 C 0.23291(11) 0.91738(7) 0.58168(7)
H11 H 0.2791(12) 0.9223(7) 0.5427(7)
H12 H 0.2281(13) 0.9610(8) 0.5964(7)
C22 C 0.12436(10) 0.89724(6) 0.56193(6)
C23 C 0.11350(11) 0.84053(6) 0.53430(6)
H13 H 0.1755(13) 0.8149(7) 0.5282(7)
C24 C 0.01523(10) 0.82038(6) 0.51595(6)
C25 C -0.07476(10) 0.85792(6) 0.52421(6)
C26 C -0.06355(10) 0.91499(6) 0.55105(6)
H14 H -0.1242(12) 0.9426(7) 0.5559(7)
C27 C 0.03481(10) 0.93451(6) 0.57065(6)
C28 C -0.18247(10) 0.83624(6) 0.50498(6)
H15 H -0.2316(12) 0.8752(7) 0.5025(6)
H16 H -0.1784(12) 0.8226(7) 0.4626(7)
C29 C -0.22502(10) 0.78043(6) 0.55038(6)
C30 C -0.26718(10) 0.79128(6) 0.60872(6)
C31 C -0.30101(10) 0.73928(6) 0.65164(6)
H17 H -0.3289(13) 0.7471(8) 0.6925(8)
C32 C -0.29555(10) 0.67580(6) 0.63723(6)
C33 C -0.25669(11) 0.66513(6) 0.57819(7)
C34 C -0.22164(11) 0.71685(7) 0.53567(7)
H18 H -0.1942(13) 0.7084(8) 0.4950(8)
C35 C -0.32598(11) 0.61956(7) 0.68610(7)
H19 H -0.3847(14) 0.6340(8) 0.7118(8)
H20 H -0.3498(13) 0.5817(8) 0.6648(7)
C36 C -0.32484(13) 0.86839(7) 0.67647(7)
H21 H -0.3962(15) 0.8483(9) 0.6781(8)
H22 H -0.2815(14) 0.8472(8) 0.7128(8)
C37 C -0.33035(16) 0.94114(8) 0.67442(9)
H23 H -0.2587(16) 0.9605(9) 0.6709(9)
H24 H -0.3735(18) 0.9605(11) 0.6393(11)
H25 H -0.3578(18) 0.9535(10) 0.7144(10)
C38 C -0.03900(11) 1.03004(7) 0.60752(7)
H26 H -0.0964(13) 1.0043(8) 0.6321(7)
H27 H -0.0659(12) 1.0478(7) 0.5649(7)
C39 C -0.00077(14) 1.08376(8) 0.64248(8)
H28 H -0.0577(16) 1.1145(9) 0.6491(8)
H29 H 0.0571(19) 1.1069(11) 0.6189(10)
H30 H 0.0252(16) 1.0666(9) 0.6852(10)
C40 C 0.21767(13) 0.87745(7) 0.82461(7)
H31 H 0.2583(14) 0.9166(8) 0.8080(8)
H32 H 0.1485(14) 0.8810(8) 0.8058(8)
C41 C 0.21162(15) 0.86783(8) 0.89558(7)
H33 H 0.1763(16) 0.9067(10) 0.9104(9)
H34 H 0.1728(15) 0.8285(9) 0.9110(9)
H35 H 0.2837(16) 0.8642(9) 0.9148(9)
C42 C 0.13205(13) 0.66768(8) 0.96599(7)
H36 H 0.1372(15) 0.7137(9) 0.9498(9)
H37 H 0.2037(15) 0.6515(9) 0.9787(8)
C43 C 0.05335(16) 0.65737(10) 1.01903(8)
H38 H 0.0763(16) 0.6809(10) 1.0552(10)
H39 H -0.0162(17) 0.6753(9) 1.0048(9)
H40 H 0.0417(18) 0.6088(11) 1.0319(10)
C44 C -0.33671(13) 0.76129(8) 0.84481(8)
H41 H -0.29470 0.79570 0.82140
H42 H -0.35390 0.77310 0.88660
H43 H -0.40200 0.75590 0.82170
C45 C 0.08990(12) 0.72568(7) 0.47850(9)
H44 H 0.1307(15) 0.7190(9) 0.5189(9)
H45 H 0.1336(18) 0.7512(11) 0.4434(10)
C46 C 0.05257(14) 0.66239(8) 0.45999(9)
H46 H 0.0128(16) 0.6395(9) 0.4946(9)
H47 H 0.1130(16) 0.6337(9) 0.4534(9)
H48 H 0.0067(17) 0.6676(10) 0.4204(10)
C47 C -0.24317(15) 0.58811(8) 0.50293(8)
H49 H -0.1692(17) 0.5976(10) 0.4877(9)
H50 H -0.2936(16) 0.6169(10) 0.4753(9)
C48 C -0.2694(2) 0.5178(1) 0.50187(11)
H51 H -0.2605(18) 0.5068(11) 0.4576(11)
H52 H -0.345(2) 0.5085(11) 0.5185(11)
H53 H -0.224(2) 0.4909(12) 0.5299(11)
C49 C -0.01437(13) 0.45908(7) 0.67121(7)
H54 H 0.0284(13) 0.4176(8) 0.6782(7)
H55 H -0.0913(14) 0.4452(8) 0.6691(7)
C50 C 0.01889(17) 0.50058(10) 0.61155(9)
H56 H 0.0066(17) 0.4736(10) 0.5759(10)
H57 H -0.0231(19) 0.5441(12) 0.6047(10)
H58 H 0.096(2) 0.5070(11) 0.6144(10)
C51 C 0.30726(15) 0.59113(8) 0.65355(8)
H59 H 0.2821(13) 0.5459(8) 0.6685(8)
H60 H 0.3720(16) 0.5862(9) 0.6282(9)
C52 C 0.22492(16) 0.63288(9) 0.61694(8)
H61 H 0.2495(16) 0.6773(10) 0.6053(9)
H62 H 0.1596(17) 0.6371(10) 0.6411(10)
H63 H 0.2079(16) 0.6132(9) 0.5778(9)
C53 C 0.48202(12) 0.82930(9) 0.53883(8)
H64 H 0.4919(13) 0.8119(8) 0.4974(8)
H65 H 0.5287(15) 0.8035(9) 0.5704(9)
C54 C 0.50341(15) 0.90067(11) 0.53399(10)
H66 H 0.4625(17) 0.9266(10) 0.4999(10)
H67 H 0.4860(18) 0.9176(10) 0.5758(11)
H68 H 0.5769(19) 0.9074(10) 0.5255(10)
C55 C -0.2723(2) 0.69618(18) 0.85236(16)
H69 H -0.19690 0.70470 0.85920
H70 H -0.29830 0.66680 0.88920
H71? H -0.37840 0.77690 0.80720
H72? H -0.31070 0.79850 0.86390
H73? H -0.38090 0.73450 0.87530
C56? C -0.2458(4) 0.7218(3) 0.8266(3)
H74? H -0.20050 0.74860 0.79610
H75? H -0.20310 0.70610 0.86430
O11 O 0.46848(8) 0.48849(5) 0.78351(5)
O12 O 0.19892(9) 0.38372(5) 0.92941(5)
O13 O 0.48144(7) 0.22910(5) 1.00386(5)
O14 O 0.85565(7) 0.18633(5) 0.94143(4)
O15 O 0.55250(7) 0.00198(4) 0.89904(5)
O16 O 0.82291(8) 0.37987(5) 0.78802(5)
O17 O 0.21786(8) 0.12969(4) 0.87625(5)
O18 O 0.17867(8) 0.33401(5) 0.68145(5)
O19 O 0.55868(8) 0.36371(5) 0.58479(4)
O20 O 0.75975(8) 0.17126(5) 0.69076(4)
C57 C 0.41232(11) 0.43486(6) 0.69909(6)
C58 C 0.39396(11) 0.45022(6) 0.76027(6)
C59 C 0.30473(11) 0.42818(6) 0.79362(7)
H76 H 0.2921(13) 0.4399(8) 0.8351(8)
C60 C 0.23163(11) 0.38888(6) 0.76825(7)
C61 C 0.25027(11) 0.37322(6) 0.70764(7)
C62 C 0.33884(11) 0.39637(7) 0.67395(7)
H77 H 0.3517(14) 0.3840(8) 0.6320(8)
C63 C 0.13873(11) 0.36192(7) 0.80760(7)
H78 H 0.0855(13) 0.3437(8) 0.7793(8)
H79 H 0.1076(13) 0.3977(8) 0.8272(7)
C64 C 0.17482(10) 0.30791(6) 0.85783(7)
C65 C 0.20858(11) 0.31993(6) 0.91731(7)
C66 C 0.25002(11) 0.26969(6) 0.95994(7)
H80 H 0.2783(12) 0.2783(7) 1.0003(7)
C67 C 0.25652(10) 0.20611(6) 0.94531(6)
C68 C 0.21744(10) 0.19368(6) 0.88687(6)
C69 C 0.17878(10) 0.24428(6) 0.84377(7)
H81 H 0.1543(13) 0.2344(8) 0.8025(7)
C70 C 0.30528(10) 0.15208(6) 0.99106(6)
H82 H 0.3071(12) 0.1667(7) 1.0344(7)
H83 H 0.2591(12) 0.1126(7) 0.9943(7)
C71 C 0.41497(10) 0.13263(6) 0.97175(6)
C72 C 0.50157(10) 0.17262(6) 0.97834(6)
C73 C 0.60149(10) 0.15371(6) 0.96051(6)
H84 H 0.6636(13) 0.1798(8) 0.9666(7)
C74 C 0.61826(10) 0.09609(6) 0.93487(6)
C75 C 0.53211(10) 0.05668(6) 0.92731(6)
C76 C 0.43208(10) 0.07482(6) 0.94673(6)
H85 H 0.3706(12) 0.0469(7) 0.9417(7)
C77 C 0.72867(11) 0.07805(7) 0.91562(6)
H86 H 0.7266(12) 0.0344(8) 0.8999(7)
H87 H 0.7729(14) 0.0749(8) 0.9531(8)
C78 C 0.77253(10) 0.12843(6) 0.86473(6)
C79 C 0.83265(10) 0.18022(7) 0.87857(6)
C80 C 0.86486(10) 0.22826(7) 0.83080(6)
H88 H 0.9035(13) 0.2639(8) 0.8423(7)
C81 C 0.83838(10) 0.22604(6) 0.76810(6)
C82 C 0.78064(10) 0.17249(6) 0.75387(6)
C83 C 0.74781(10) 0.12494(6) 0.80135(6)
H89 H 0.7040(13) 0.0881(8) 0.7910(7)
C84 C 0.86642(11) 0.28050(7) 0.71646(6)
H90 H 0.8862(12) 0.2615(7) 0.6777(7)
H91 H 0.9264(12) 0.3044(7) 0.7319(7)
C85 C 0.77574(10) 0.32809(6) 0.70090(6)
C86 C 0.75357(11) 0.37653(6) 0.73906(6)
C87 C 0.66904(11) 0.41894(7) 0.72522(6)
H92 H 0.6518(13) 0.4500(8) 0.7534(7)
C88 C 0.60335(11) 0.41455(6) 0.67377(6)
C89 C 0.62637(11) 0.36688(6) 0.63507(6)
C90 C 0.71123(11) 0.32448(7) 0.64871(6)
H93 H 0.7247(12) 0.2903(8) 0.6222(7)
C91 C 0.50861(11) 0.45959(6) 0.66158(7)
H94 H 0.5270(12) 0.5036(7) 0.6730(7)
H95 H 0.4898(13) 0.4635(8) 0.6134(8)
C92 C 0.59561(13) 0.33000(9) 0.53472(7)
H96 H 0.6073(15) 0.2848(9) 0.5503(8)
H97 H 0.6669(15) 0.3494(9) 0.5188(8)
C93 C 0.51419(15) 0.33999(11) 0.48308(9)
H98 H 0.5382(16) 0.3171(10) 0.4472(9)
H99 H 0.4465(18) 0.3186(10) 0.4991(9)
H100 H 0.5013(16) 0.3867(10) 0.4708(9)
C94 C 0.22455(12) 0.27327(7) 0.66951(8)
H101 H 0.2684(14) 0.2812(8) 0.6308(8)
H102 H 0.2725(16) 0.2576(9) 0.7076(9)
C95 C 0.13801(13) 0.22619(8) 0.66140(8)
H103 H 0.1687(15) 0.1815(9) 0.6574(8)
H104 H 0.0927(16) 0.2221(9) 0.6995(9)
H105 H 0.0940(15) 0.2398(9) 0.6238(9)
C96 C 0.16326(14) 0.11509(7) 0.82138(8)
H106 H 0.2033(14) 0.1340(8) 0.7825(8)
H107 H 0.0921(14) 0.1347(8) 0.8211(8)
C97 C 0.15993(18) 0.04209(8) 0.82596(11)
H108 H 0.1161(18) 0.0256(11) 0.8649(11)
H109 H 0.2328(18) 0.0238(10) 0.8276(9)
H110 H 0.1248(19) 0.0293(11) 0.7881(11)
C98 C 0.46682(11) -0.04014(6) 0.89093(7)
H111 H 0.4082(13) -0.0135(7) 0.8665(7)
H112 H 0.4373(13) -0.0577(7) 0.9338(8)
C99 C 0.50928(14) -0.09344(8) 0.85627(8)
H113 H 0.5369(15) -0.0742(9) 0.8143(9)
H114 H 0.4530(16) -0.1255(10) 0.8470(9)
H115 H 0.5665(18) -0.1187(10) 0.8807(10)
C100 C 0.70724(12) 0.11521(7) 0.67404(7)
H116 H 0.7513(12) 0.0753(7) 0.6903(7)
H117 H 0.6360(14) 0.1113(8) 0.6944(8)
C101 C 0.69925(14) 0.12334(8) 0.60305(7)
H118 H 0.6600(14) 0.1619(9) 0.5884(8)
H119 H 0.7713(17) 0.1266(9) 0.5823(9)
H120 H 0.6623(16) 0.0875(10) 0.5879(9)
C102 C 0.45380(13) 0.50417(7) 0.84637(7)
H121 H 0.3859(14) 0.5284(8) 0.8489(7)
H122 H 0.4551(14) 0.4625(9) 0.8770(8)
C103 C 0.54409(15) 0.54684(9) 0.85968(9)
H123 H 0.5422(18) 0.5897(11) 0.8282(11)
H124 H 0.5386(16) 0.5558(9) 0.9047(10)
H125 H 0.6139(17) 0.5229(10) 0.8561(9)
C104 C 0.22324(14) 0.39784(8) 0.99120(8)
H126 H 0.1795(15) 0.3692(9) 1.0246(8)
H127 H 0.2982(16) 0.3871(9) 0.9997(9)
C105 C 0.1985(2) 0.46883(10) 0.99319(11)
H128 H 0.2174(17) 0.4791(10) 1.0360(11)
H129 H 0.242(2) 0.4941(12) 0.9629(12)
H130 H 0.123(2) 0.4803(12) 0.9848(11)
C106 C 0.56780(13) 0.27162(8) 1.00726(9)
H131 H 0.6239(19) 0.2497(11) 1.0399(11)
H132 H 0.6028(16) 0.2797(9) 0.9647(9)
C107 C 0.52634(15) 0.33399(9) 1.02705(11)
H133 H 0.4775(17) 0.3536(10) 0.9942(9)
H134 H 0.5859(17) 0.3658(10) 1.0315(9)
H135 H 0.485(2) 0.3240(11) 1.0680(11)
C108 C 0.96469(12) 0.17422(9) 0.95787(7)
H136 H 0.9720(14) 0.1924(8) 0.9990(8)
H137 H 1.0116(15) 0.2002(9) 0.9269(8)
C109 C 0.99393(14) 0.10349(11) 0.9640(1)
H138 H 0.9821(17) 0.0852(10) 0.9233(10)
H139 H 0.9537(16) 0.0789(9) 0.9986(9)
H140 H 1.0694(18) 0.0976(10) 0.9712(9)
C110 C 0.79191(13) 0.41732(8) 0.83712(7)
H141 H 0.7675(13) 0.4637(8) 0.8198(7)
H142 H 0.8570(14) 0.4203(8) 0.8604(8)
C111 C 0.70719(16) 0.38385(10) 0.87870(8)
H143 H 0.7307(16) 0.341(1) 0.8962(9)
H144 H 0.6363(17) 0.3818(9) 0.8551(9)
H145 H 0.6915(16) 0.4107(10) 0.9149(10)
C112 C 0.03568(18) 0.73937(10) 0.71338(10)
H146 H 0.09490 0.71590 0.73560
H147 H 0.05940 0.76030 0.67210
H148 H -0.02060 0.70880 0.70760
C113 C -0.00527(13) 0.79018(8) 0.75158(8)
C114 C -0.01403(15) 0.77783(9) 0.81693(9)
H149 H 0.0070(15) 0.7379(10) 0.8366(9)
C115 C -0.05351(14) 0.82406(9) 0.85207(8)
H150 H -0.0601(17) 0.8141(10) 0.8972(10)
C116 C -0.08454(13) 0.88520(9) 0.82390(8)
C117 C -0.07399(15) 0.89792(9) 0.75884(9)
H151 H -0.0921(16) 0.9421(10) 0.7386(9)
C118 C -0.03620(15) 0.85152(9) 0.72335(8)
H152 H -0.0304(17) 0.8615(10) 0.678(1)
C119 C -0.12884(19) 0.93598(11) 0.86186(11)
H153 H -0.20390 0.92800 0.87000
H154 H -0.12020 0.97920 0.83810
H155 H -0.09110 0.93360 0.90210
C120 C 0.36549(19) 0.05711(11) 0.64289(11)
H156 H 0.38150 0.01410 0.66570
H157 H 0.39880 0.06130 0.60120
H158 H 0.28900 0.06250 0.63800
C121 C 0.40727(13) 0.10868(9) 0.67959(8)
C122 C 0.41908(16) 0.09773(9) 0.74466(9)
H159 H 0.4053(18) 0.0544(11) 0.7661(10)
C123 C 0.45491(15) 0.14522(9) 0.77884(8)
H160 H 0.4589(17) 0.1364(10) 0.8256(10)
C124 C 0.48259(12) 0.20635(8) 0.74900(8)
C125 C 0.47277(13) 0.21674(8) 0.68362(8)
H161 H 0.4886(15) 0.2573(10) 0.6641(9)
C126 C 0.43527(13) 0.16946(9) 0.65003(8)
H162 H 0.4269(15) 0.1788(9) 0.6033(9)
C127 C 0.51996(16) 0.25841(10) 0.78595(10)
H163 H 0.47050 0.29530 0.78020
H164 H 0.58990 0.27280 0.77090
H165 H 0.52380 0.24110 0.83080
#END
