
#######################################################################
#
#                 Cambridge Crystallographic Data Centre
#                                CCDC
#
#######################################################################
#
# If this CIF has been generated from an entry in the Cambridge
# Structural Database, then it will include bibliographic, chemical,
# crystal, experimental, refinement or atomic coordinate data resulting
# from the CCDC's data processing and validation procedures.
#
#######################################################################

data_CSD_CIF_YEZNAV
_audit_creation_date 2018-06-12
_audit_creation_method CSD-ConQuest-V1
_database_code_CSD YEZNAV
_database_code_depnum_ccdc_archive 'CCDC 1817590'
_chemical_formula_sum 'C69 H87.5 O10'
_chemical_formula_moiety
;
C55 H70 O10,1.75(C8 H10)
;
_journal_coden_Cambridge 4
_journal_volume 140
_journal_year 2018
_journal_page_first 6921
_journal_name_full 'J.Am.Chem.Soc. '
loop_
_publ_author_name
"Kecheng Jie"
"Ming Liu"
"Yujuan Zhou"
"M.A.Little"
"Angeles Pulido"
"Samantha Y.Chong"
"A.Stephenson"
"A.R.Hughes"
"F.Sakakibara"
"T.Ogoshi"
"F.Blanc"
"G.M.Day"
"Feihe Huang"
"A.I.Cooper"
_chemical_name_systematic
;
4,9,14,19,24,26,28,30,32,34-decaethoxyhexacyclo[21.2.2.2^3,6^.2^8,11^.2^13,16^
.2^18,21^]pentatriaconta-1(25),3,5,8,10,13,15,18,20,23,26,28,30,32,34-pentadec
aene 1,3-dimethylbenzene clathrate
;
_chemical_name_common
;
4,9,14,19,24,26,28,30,32,34-decaethoxypillar[5]arene 1,3-dimethylbenzene 
clathrate
;
_cell_volume   6356.564
_exptl_crystal_colour 'colorless'
_exptl_crystal_density_diffrn 1.124
_exptl_crystal_description 'block'
_diffrn_ambient_temperature 240
_refine_special_details
;
C10B,C9B,O21 and C109,C110,C137,C138,C139,C140,C141,C142,C143,C144,O20 
disordered over two sites with occupancies 0.513:0.487; C56,C57,O10 and 
C54,C55,O11 disordered over two sites with occupancies 0.64:0.36.
;
#These two values have been output from a single CSD field.
_refine_ls_R_factor_gt 0.0525
_refine_ls_wR_factor_gt 0.0525
_symmetry_cell_setting triclinic
_symmetry_space_group_name_H-M 'P -1'
_symmetry_Int_Tables_number 2
loop_
_symmetry_equiv_pos_site_id
_symmetry_equiv_pos_as_xyz
1 x,y,z
2 -x,-y,-z
_cell_length_a 14.0646(13)
_cell_length_b 21.414(2)
_cell_length_c 21.8397(19)
_cell_angle_alpha 76.973(2)
_cell_angle_beta 84.468(2)
_cell_angle_gamma 84.137(2)
_cell_formula_units_Z 4
loop_
_atom_type_symbol
_atom_type_radius_bond
C 0.68
H 0.23
O 0.68
loop_
_atom_site_label
_atom_site_type_symbol
_atom_site_fract_x
_atom_site_fract_y
_atom_site_fract_z
O1 O 0.08948(15) 0.38620(9) 0.45106(9)
O2 O -0.02117(16) 0.37204(11) 0.23054(9)
O3 O 0.31455(15) 0.25052(10) 0.32911(9)
O4 O 0.56508(17) 0.41288(9) 0.23283(10)
O5 O 0.30414(18) 0.36589(11) 0.07836(10)
O6 O 0.52059(17) 0.62220(11) 0.28972(10)
O7 O 0.40864(16) 0.59282(10) 0.06251(10)
O8 O 0.18753(17) 0.60436(12) 0.43222(10)
O9 O -0.08424(17) 0.58967(10) 0.28459(10)
C1 C 0.0466(2) 0.43831(14) 0.41068(13)
C2 C -0.0050(2) 0.42370(13) 0.36490(13)
C3 C -0.0493(2) 0.47453(15) 0.32313(14)
H1 H -0.08490 0.46580 0.29220
C4 C -0.0421(2) 0.53785(15) 0.32603(14)
C5 C 0.0076(2) 0.55223(13) 0.37221(13)
C6 C 0.0511(2) 0.50129(14) 0.41436(13)
H2 H 0.08450 0.51010 0.44630
C7 C -0.0125(2) 0.35480(13) 0.36013(13)
H3 H -0.01190 0.32690 0.40240
H4 H -0.07360 0.35180 0.34330
C8 C 0.0689(2) 0.33122(13) 0.31807(13)
C9 C 0.1520(2) 0.29961(13) 0.34281(13)
H5 H 0.15580 0.29030 0.38670
C10 C 0.2300(2) 0.28112(13) 0.30491(14)
C11 C 0.2278(2) 0.29561(13) 0.23990(13)
C12 C 0.1432(2) 0.32633(14) 0.21468(14)
H6 H 0.13950 0.33580 0.17080
C13 C 0.0647(2) 0.34313(14) 0.25292(14)
C14 C 0.3138(2) 0.28096(14) 0.19707(14)
H7 H 0.29190 0.26960 0.16000
H8 H 0.35270 0.24360 0.21930
C15 C 0.3759(2) 0.33736(13) 0.17542(13)
C16 C 0.4415(2) 0.34851(13) 0.21416(14)
H9 H 0.44800 0.32040 0.25360
C17 C 0.4979(2) 0.40000(14) 0.19635(14)
C18 C 0.4873(2) 0.44341(13) 0.13880(13)
C19 C 0.4227(2) 0.43178(14) 0.10004(14)
H10 H 0.41540 0.46020 0.06080
C20 C 0.3682(2) 0.37934(15) 0.11715(13)
C21 C 0.5465(2) 0.50135(13) 0.11909(14)
H11 H 0.61180 0.48880 0.13200
H12 H 0.55030 0.51550 0.07310
C22 C 0.5038(2) 0.55673(13) 0.14819(14)
C23 C 0.5331(2) 0.56396(14) 0.20471(14)
H13 H 0.58190 0.53510 0.22410
C24 C 0.4921(2) 0.61304(15) 0.23367(14)
C25 C 0.4201(2) 0.65582(14) 0.20601(15)
C26 C 0.3910(2) 0.64938(14) 0.14889(15)
H14 H 0.34230 0.67840 0.12960
C27 C 0.4326(2) 0.60069(14) 0.11973(14)
C28 C 0.3724(2) 0.70873(15) 0.23755(15)
H15 H 0.41600 0.71800 0.26610
H16 H 0.36000 0.74800 0.20530
C29 C 0.2791(2) 0.69013(14) 0.27423(15)
C30 C 0.2777(2) 0.65742(15) 0.33694(15)
H17 H 0.33500 0.64910 0.35730
C31 C 0.1933(2) 0.63681(15) 0.36999(14)
C32 C 0.1074(2) 0.64756(13) 0.34088(14)
C33 C 0.1087(2) 0.68141(14) 0.27901(14)
H18 H 0.05120 0.69060 0.25880
C34 C 0.1934(3) 0.70215(14) 0.24596(15)
C35 C 0.0164(2) 0.62149(14) 0.37598(14)
H19 H -0.03910 0.64850 0.35820
H20 H 0.01580 0.62380 0.42030
C36 C 0.1582(2) 0.39806(15) 0.48988(14)
H21 H 0.12750 0.42290 0.52010
H22 H 0.20860 0.42250 0.46410
C37 C 0.2002(3) 0.33365(15) 0.52403(15)
H23 H 0.23130 0.30990 0.49360
H24 H 0.14950 0.30970 0.54890
H25 H 0.24680 0.33980 0.55160
C38 C -0.1244(3) 0.57775(17) 0.23210(16)
H26 H -0.17800 0.55080 0.24600
H27 H -0.07620 0.55540 0.20740
C39 C -0.1587(3) 0.64158(18) 0.19304(18)
H28 H -0.18310 0.63530 0.15500
H29 H -0.10580 0.66880 0.18180
H30 H -0.20930 0.66200 0.21700
C40 C 0.3077(2) 0.20552(15) 0.38865(14)
H31 H 0.27630 0.22780 0.42070
H32 H 0.37240 0.18940 0.40090
C41 C 0.2528(3) 0.14992(16) 0.38706(16)
H33 H 0.27960 0.13030 0.35260
H34 H 0.18620 0.16480 0.38100
H35 H 0.25700 0.11850 0.42650
C42 C -0.0367(3) 0.3765(2) 0.16643(16)
H36 H -0.02750 0.33370 0.15660
H37 H 0.00900 0.40390 0.13890
C43 C -0.1374(3) 0.4049(3) 0.15600(19)
H38 H -0.15050 0.40690 0.11280
H39 H -0.14490 0.44790 0.16410
H40 H -0.18190 0.37820 0.18440
C44 C 0.6003(2) 0.36328(15) 0.28122(16)
H41 H 0.62850 0.32670 0.26370
H42 H 0.54770 0.34870 0.31240
C45 C 0.6744(3) 0.38810(18) 0.31198(17)
H43 H 0.72550 0.40320 0.28070
H44 H 0.70030 0.35390 0.34470
H45 H 0.64540 0.42330 0.33050
C46 C 0.3179(3) 0.3946(2) 0.01284(16)
H46 H 0.38480 0.38600 -0.00230
H47 H 0.30370 0.44130 0.00620
C47 C 0.2545(4) 0.3680(3) -0.0223(2)
H48 H 0.25840 0.39080 -0.06610
H49 H 0.18900 0.37280 -0.00440
H50 H 0.27390 0.32280 -0.01980
C48 C 0.6081(3) 0.58954(19) 0.31119(17)
H51 H 0.65900 0.59610 0.27700
H52 H 0.60120 0.54330 0.32490
C49 C 0.6335(4) 0.6155(2) 0.3652(2)
H53 H 0.64020 0.66130 0.35130
H54 H 0.69360 0.59380 0.38020
H55 H 0.58330 0.60830 0.39910
C50 C 0.3325(2) 0.63341(16) 0.03288(15)
H56 H 0.34630 0.67850 0.02580
H57 H 0.27270 0.62760 0.05970
C51 C 0.3228(3) 0.61593(18) -0.02848(17)
H58 H 0.38050 0.62490 -0.05590
H59 H 0.26810 0.64100 -0.04820
H60 H 0.31340 0.57050 -0.02120
C52 C 0.2602(3) 0.6035(2) 0.46984(17)
H61 H 0.27360 0.64760 0.46940
H62 H 0.31860 0.58130 0.45380
C53 C 0.2322(3) 0.5696(3) 0.53559(17)
H63 H 0.20980 0.52830 0.53510
H64 H 0.18130 0.59540 0.55380
H65 H 0.28720 0.56290 0.56060
O10 O 0.1934(8) 0.7275(5) 0.1802(4)
C54 C 0.1156(9) 0.7661(6) 0.1564(4)
H66 H 0.09190 0.79480 0.18470
H67 H 0.06420 0.73930 0.15400
C55 C 0.1417(11) 0.8057(8) 0.0917(5)
H68 H 0.08440 0.81860 0.06900
H69 H 0.18680 0.78020 0.06870
H70 H 0.17080 0.84360 0.09560
O11 O 1.00647(19) 0.16812(11) 0.09697(13)
O12 O 0.74653(17) 0.20634(11) 0.31262(11)
O13 O 0.67506(15) 0.01451(9) 0.48529(9)
O14 O 0.88466(16) -0.17938(11) 0.39842(9)
O15 O 1.03831(16) -0.07138(11) 0.18909(10)
O16 O 0.44781(16) 0.09681(10) 0.28462(10)
O17 O 0.49359(16) -0.1410(1) 0.37526(11)
O18 O 0.72593(16) -0.20905(10) 0.19289(10)
O19 O 0.61339(17) 0.21159(13) 0.08141(10)
C56 C 0.7772(2) 0.21345(14) 0.19954(17)
H71 H 0.84250 0.21830 0.20140
C57 C 0.7170(2) 0.20600(14) 0.25433(15)
C58 C 0.6206(2) 0.19782(13) 0.25273(14)
C59 C 0.5861(2) 0.20029(14) 0.19499(14)
H72 H 0.52070 0.19610 0.19290
C60 C 0.6461(2) 0.20879(15) 0.14007(15)
C61 C 0.7431(2) 0.21388(15) 0.14206(15)
C62 C 0.5544(2) 0.18832(13) 0.31211(13)
H73 H 0.48860 0.20230 0.30080
H74 H 0.57150 0.21590 0.33890
C63 C 0.5574(2) 0.11907(13) 0.34985(13)
C64 C 0.6146(2) 0.09897(14) 0.40006(13)
H75 H 0.65160 0.12860 0.41070
C65 C 0.6186(2) 0.03610(14) 0.43506(13)
C66 C 0.5634(2) -0.00822(13) 0.42119(13)
C67 C 0.5062(2) 0.01193(14) 0.37079(14)
H76 H 0.46840 -0.01750 0.36060
C68 C 0.5037(2) 0.07449(14) 0.33504(13)
C69 C 0.5663(2) -0.07788(13) 0.45766(13)
H77 H 0.59130 -0.08110 0.49870
H78 H 0.50110 -0.09170 0.46510
C70 C 0.6289(2) -0.12188(13) 0.42194(13)
C71 C 0.7266(2) -0.13257(13) 0.42912(13)
H79 H 0.75250 -0.11520 0.45910
C72 C 0.7871(2) -0.16812(14) 0.39332(13)
C73 C 0.7503(2) -0.19391(13) 0.34836(13)
C74 C 0.6528(2) -0.18477(13) 0.34266(13)
H80 H 0.62680 -0.20260 0.31300
C75 C 0.5915(2) -0.15019(13) 0.37910(14)
C76 C 0.8154(2) -0.22923(14) 0.30579(13)
H81 H 0.78070 -0.26220 0.29500
H82 H 0.87080 -0.25090 0.32830
C77 C 0.8505(2) -0.18380(13) 0.24547(13)
C78 C 0.9278(2) -0.14906(14) 0.24543(14)
H83 H 0.95930 -0.15460 0.28260
C79 C 0.9601(2) -0.10600(14) 0.19173(14)
C80 C 0.9158(2) -0.09761(14) 0.13596(13)
C81 C 0.8386(2) -0.13280(14) 0.13617(14)
H84 H 0.80790 -0.12810 0.09880
C82 C 0.8052(2) -0.17503(14) 0.19035(14)
C83 C 0.9493(2) -0.05040(15) 0.07664(14)
H85 H 1.01950 -0.05440 0.07200
H86 H 0.92630 -0.06200 0.04010
C84 C 0.9150(2) 0.01907(15) 0.07653(13)
C85 C 0.9755(2) 0.06124(16) 0.08625(14)
H87 H 1.03970 0.04640 0.09290
C86 C 0.9462(2) 0.12525(16) 0.08669(14)
C87 C 0.8519(2) 0.14761(16) 0.07873(14)
C88 C 0.7915(3) 0.10509(19) 0.0675(2)
H88 H 0.72720 0.11960 0.06070
C89 C 0.8219(3) 0.04211(19) 0.0660(2)
C90 C 0.8130(3) 0.21527(16) 0.08417(16)
H89 H 0.78050 0.23640 0.04630
H90 H 0.86640 0.24030 0.08690
C91 C 0.8410(3) 0.22203(19) 0.31717(19)
H91 H 0.84950 0.26610 0.29390
H92 H 0.88790 0.19280 0.29910
C92 C 0.8553(3) 0.2157(2) 0.3851(2)
H93 H 0.91890 0.22720 0.38920
H94 H 0.84850 0.17160 0.40750
H95 H 0.80770 0.24410 0.40280
C93 C 0.7245(3) 0.06105(16) 0.50447(16)
H96 H 0.67860 0.09500 0.51580
H97 H 0.76910 0.08080 0.47000
C94 C 0.7779(3) 0.02744(19) 0.56000(19)
H98 H 0.82340 -0.00590 0.54820
H99 H 0.73310 0.00820 0.59390
H100 H 0.81210 0.05820 0.57400
C95 C 0.9242(3) -0.1693(2) 0.45217(17)
H101 H 0.89190 -0.19340 0.49070
H102 H 0.91670 -0.12350 0.45320
C96 C 1.0286(3) -0.1924(3) 0.4476(2)
H103 H 1.05990 -0.16810 0.40940
H104 H 1.03500 -0.23770 0.44650
H105 H 1.05840 -0.18640 0.48390
C97 C 1.0841(3) -0.0768(2) 0.24587(18)
H106 H 1.10710 -0.12160 0.26260
H107 H 1.03920 -0.06200 0.27780
C98 C 1.1672(3) -0.0351(2) 0.2292(2)
H108 H 1.21410 -0.05280 0.20080
H109 H 1.19650 -0.03390 0.26730
H110 H 1.14420 0.00810 0.20880
C99 C 1.1058(3) 0.1546(2) 0.0838(2)
H111 H 1.11820 0.14800 0.04070
H112 H 1.12870 0.11530 0.11290
C100 C 1.1574(4) 0.2100(2) 0.0909(3)
H113 H 1.13740 0.24810 0.06010
H114 H 1.22590 0.20000 0.08430
H115 H 1.14220 0.21770 0.13300
C101 C 0.3952(3) 0.05339(18) 0.26484(17)
H116 H 0.34920 0.03450 0.29890
H117 H 0.43820 0.01860 0.25260
C102 C 0.3434(4) 0.0913(2) 0.2093(2)
H118 H 0.38980 0.10840 0.17540
H119 H 0.30280 0.12650 0.22170
H120 H 0.30420 0.06340 0.19500
C103 C 0.4503(3) -0.17746(19) 0.3402(2)
H121 H 0.46890 -0.22340 0.35480
H122 H 0.47120 -0.16480 0.29540
C104 C 0.3439(3) -0.1645(3) 0.3499(3)
H123 H 0.31250 -0.18530 0.32320
H124 H 0.32690 -0.11850 0.33920
H125 H 0.32320 -0.18120 0.39370
C105 C 0.6872(3) -0.21028(19) 0.13592(17)
H126 H 0.73590 -0.22780 0.10770
H127 H 0.66440 -0.16670 0.11460
C106 C 0.6054(3) -0.2524(2) 0.1529(2)
H128 H 0.58220 -0.25930 0.11470
H129 H 0.55400 -0.23160 0.17600
H130 H 0.62710 -0.29340 0.17880
C107 C 0.5153(3) 0.2194(2) 0.07514(17)
H131 H 0.48820 0.25950 0.08680
H132 H 0.48420 0.18370 0.10330
C108 C 0.4977(3) 0.2213(3) 0.00832(19)
H133 H 0.52170 0.25980 -0.01870
H134 H 0.42940 0.22180 0.00470
H135 H 0.53050 0.18360 -0.00430
O20 O 0.7481(5) 0.0030(3) 0.0731(4)
C109 C 0.6475(7) 0.0183(5) 0.0970(6)
H136 H 0.60830 0.03290 0.06090
H137 H 0.64640 0.05410 0.11830
C110 C 0.6018(12) -0.0382(7) 0.1429(9)
H138 H 0.61920 -0.07750 0.12780
H139 H 0.53260 -0.02970 0.14550
H140 H 0.62470 -0.04310 0.18440
C111 C 0.7820(3) 0.0175(2) 0.2658(2)
H141 H 0.75870 -0.02290 0.28900
H142 H 0.80400 0.01400 0.22320
H143 H 0.73060 0.05160 0.26460
C112 C 0.8628(3) 0.03281(18) 0.29761(19)
C113 C 0.8714(3) 0.0107(2) 0.3616(2)
H144 H 0.82530 -0.01510 0.38610
C114 C 0.9468(4) 0.0260(2) 0.3901(2)
H145 H 0.95240 0.00910 0.43330
C115 C 1.0114(4) 0.0639(2) 0.3579(2)
H146 H 1.06200 0.07350 0.37850
C116 C 1.0052(3) 0.0890(2) 0.2957(2)
C117 C 0.9318(3) 0.0722(2) 0.26583(19)
H147 H 0.92900 0.08830 0.22220
C118 C 1.0746(4) 0.1385(3) 0.2607(3)
H148 H 1.06740 0.17550 0.28000
H149 H 1.06030 0.15210 0.21690
H150 H 1.14000 0.11910 0.26320
C119 C 0.8666(3) 0.4549(3) -0.1351(2)
C120 C 0.8613(4) 0.4945(3) -0.0913(3)
H151 H 0.82950 0.53590 -0.09990
C121 C 0.9041(5) 0.4711(4) -0.0351(3)
H152 H 0.90220 0.49740 -0.00570
C122 C 0.9497(5) 0.4097(4) -0.0215(3)
H153 H 0.97740 0.39480 0.01720
C123 C 0.9552(4) 0.3706(4) -0.0631(3)
C124 C 0.9131(3) 0.3945(3) -0.1184(2)
H154 H 0.91610 0.36760 -0.14720
C125 C 0.8211(4) 0.4760(3) -0.1956(2)
H155 H 0.76980 0.50910 -0.19190
H156 H 0.79510 0.43960 -0.20570
H157 H 0.86850 0.49300 -0.22880
C126 C 1.0047(5) 0.3033(3) -0.0462(3)
H158 H 1.06810 0.30250 -0.06810
H159 H 0.96730 0.27320 -0.05860
H160 H 1.01050 0.29120 -0.00100
C127 C 0.3110(3) 0.4525(2) 0.3198(2)
H161 H 0.27180 0.49100 0.32580
H162 H 0.27010 0.41830 0.32130
H163 H 0.34740 0.46150 0.27920
C128 C 0.3784(3) 0.4322(2) 0.37088(18)
C129 C 0.4264(4) 0.4768(2) 0.3892(2)
H164 H 0.41740 0.52050 0.36920
C130 C 0.4863(5) 0.4585(3) 0.4357(3)
H165 H 0.51730 0.49010 0.44800
C131 C 0.5038(4) 0.3954(3) 0.4657(2)
H166 H 0.54560 0.38400 0.49830
C132 C 0.4586(3) 0.3485(2) 0.44740(19)
C133 C 0.3963(3) 0.36872(19) 0.40055(17)
H167 H 0.36440 0.33760 0.38820
C134 C 0.4766(4) 0.2785(2) 0.4785(2)
H168 H 0.52420 0.27370 0.50890
H169 H 0.49980 0.25420 0.44670
H170 H 0.41730 0.26240 0.49980
O21? O 0.2040(14) 0.7463(9) 0.1894(9)
C135? C 0.1588(17) 0.789(1) 0.1662(8)
H171? H 0.16210 0.82370 0.18820
H172? H 0.09210 0.77800 0.17120
C136? C 0.1852(18) 0.8140(13) 0.097(1)
H173? H 0.16910 0.78380 0.07330
H174? H 0.25350 0.81890 0.09040
H175? H 0.15010 0.85530 0.08270
O22? O 0.7779(5) -0.0042(3) 0.0364(3)
C137? C 0.6996(6) 0.0202(4) 0.0005(4)
H176? H 0.71980 0.05340 -0.03600
H177? H 0.64940 0.04010 0.02600
C138? C 0.662(1) -0.0311(5) -0.0208(6)
H178? H 0.71300 -0.05280 -0.04340
H179? H 0.61150 -0.01320 -0.04860
H180? H 0.63620 -0.06160 0.01520
C139? C 0.3914(4) 0.0125(4) 0.0813(2)
C140? C 0.4704(5) 0.0235(3) 0.1097(3)
H181? H 0.48910 0.06550 0.10370
C141? C 0.5218(4) -0.0275(4) 0.1470(2)
C142? C 0.4942(5) -0.0896(3) 0.1559(3)
H182? H 0.52890 -0.12410 0.18110
C143? C 0.4151(6) -0.1007(3) 0.1274(4)
H183? H 0.39640 -0.14260 0.13340
C144? C 0.3637(4) -0.0496(4) 0.0901(3)
H184? H 0.31030 -0.05710 0.07080
C145? C 0.6083(6) -0.0116(6) 0.1769(4)
H185? H 0.65900 0.00070 0.14440
H186? H 0.63120 -0.04910 0.20750
H187? H 0.58920 0.02360 0.19790
C146? C 0.3371(8) 0.0664(6) 0.0419(4)
H188? H 0.37510 0.10320 0.03040
H189? H 0.27800 0.07760 0.06520
H190? H 0.32230 0.05400 0.00400
#END
