
#######################################################################
#
#                 Cambridge Crystallographic Data Centre
#                                CCDC
#
#######################################################################
#
# If this CIF has been generated from an entry in the Cambridge
# Structural Database, then it will include bibliographic, chemical,
# crystal, experimental, refinement or atomic coordinate data resulting
# from the CCDC's data processing and validation procedures.
#
#######################################################################

data_CSD_CIF_YIGPOW
_audit_creation_date 2018-06-15
_audit_creation_method CSD-ConQuest-V1
_database_code_CSD YIGPOW
_database_code_depnum_ccdc_archive 'CCDC 1839254'
_chemical_formula_sum 'C116 H32 B12 Br12 F12 O24'
_chemical_formula_moiety
;
C116 H32 B12 Br12 F12 O24
;
_journal_coden_Cambridge 1220
_journal_volume 24
_journal_year 2018
_journal_page_first 11438
_journal_name_full 'Chem.-Eur.J. '
loop_
_publ_author_name
"M.Mastalerz"
"S.Elbert"
"N.Regenauer"
"D.Schindler"
"Wen-Shan Zhang"
"F.Rominger"
"R.Schroder"
_chemical_name_systematic
;
tetrakis(\m-6,10,19-tribromopentacyclo[6.6.6.02,7.09,14.015,20]icosa-2,4,6,9,1
1,13,15,17,19-nonaene-3,4,12,13,16,17-hexolato)-hexakis(\m-2,3-difluoro-1,4-ph
enylene)-dodeca-boron unknown solvate
;
_cell_volume   9074.531
_exptl_crystal_colour 'colorless'
_exptl_crystal_density_diffrn 1.144
_exptl_crystal_description 'polyhedron'
_diffrn_ambient_temperature 100
_refine_special_details
;
F1,F2 and F1B,F2B disordered over two sites with occupancies 0.821:0.179; 
F3,F4 and F3B,F4B disordered over two sites with occupancies 0.622:0.378.
;
#These two values have been output from a single CSD field.
_refine_ls_R_factor_gt 0.0627
_refine_ls_wR_factor_gt 0.0627
_symmetry_cell_setting triclinic
_symmetry_space_group_name_H-M 'P -1'
_symmetry_Int_Tables_number 2
loop_
_symmetry_equiv_pos_site_id
_symmetry_equiv_pos_as_xyz
1 x,y,z
2 -x,-y,-z
_cell_length_a 20.6749(5)
_cell_length_b 21.1707(5)
_cell_length_c 26.0201(6)
_cell_angle_alpha 67.218(2)
_cell_angle_beta 87.315(2)
_cell_angle_gamma 61.313(2)
_cell_formula_units_Z 2
loop_
_atom_type_symbol
_atom_type_radius_bond
C 0.68
H 0.23
B 0.83
Br 1.21
F 0.64
O 0.68
loop_
_atom_site_label
_atom_site_type_symbol
_atom_site_fract_x
_atom_site_fract_y
_atom_site_fract_z
Br1 Br 0.51337(4) 0.02445(4) 0.80760(3)
Br2 Br 0.87435(3) -0.02839(4) 0.18588(3)
Br3 Br 0.78608(3) 0.18736(4) 0.01182(3)
Br4 Br 0.33077(4) 1.09195(4) 0.07953(3)
Br5 Br 0.23284(4) 1.12141(4) 0.22870(3)
Br6 Br 0.34957(4) 0.26043(5) 0.81220(3)
Br7 Br 0.26498(4) 0.11106(4) 0.80183(3)
Br8 Br 0.69687(3) 0.02173(3) 0.05790(3)
Br9 Br 0.08114(4) 1.22391(3) 0.05543(3)
Br10 Br -0.36310(4) 0.49882(4) 0.17721(3)
Br11 Br -0.27809(4) 0.50995(4) 0.01029(3)
Br12 Br -0.41754(3) 0.73098(4) 0.04885(3)
F1 F 0.7150(3) 0.0489(5) 0.5511(2)
F2 F 0.7726(3) 0.0429(5) 0.4590(2)
F3 F 0.5254(3) 0.6135(3) -0.0104(2)
F4 F 0.4468(2) 0.7477(3) -0.0010(2)
F5 F 0.2847(3) 0.6486(2) 0.35787(17)
F6 F 0.3088(3) 0.5173(2) 0.44468(18)
F7 F 0.1597(3) 0.3393(3) 0.4274(2)
F8 F 0.3018(2) 0.3154(3) 0.1806(2)
F9 F -0.12000(18) 1.02033(19) -0.00216(15)
F10 F 0.0618(3) 0.4034(3) 0.3350(2)
F11 F 0.1536(2) 0.3994(3) 0.1620(2)
F12 F -0.18883(18) 0.94293(19) -0.00288(15)
C1 C 0.6664(5) 0.0895(6) 0.5016(3)
C2 C 0.6972(4) 0.0868(5) 0.4528(3)
C3 C 0.5775(4) 0.1774(4) 0.3973(3)
C4 C 0.5466(4) 0.1805(4) 0.4461(3)
C5 C 0.4918(3) 0.6153(3) 0.0344(3)
C6 C 0.4512(3) 0.6848(3) 0.0400(2)
C7 C 0.4218(3) 0.6207(3) 0.1261(3)
C8 C 0.4614(3) 0.5504(3) 0.1208(3)
C9 C 0.3619(3) 0.1841(4) 0.7221(2)
H1 H 0.37030 0.15760 0.76440
C10 C 0.3411(4) 0.2531(4) 0.6128(3)
H2 H 0.33320 0.27950 0.57060
C11 C 0.7085(3) 0.1264(3) 0.1197(2)
H3 H 0.74840 0.09320 0.10330
C12 C 0.6052(3) 0.2120(3) 0.1622(2)
H4 H 0.56550 0.24500 0.17890
C13 C 0.2114(3) 1.0452(3) 0.1467(2)
H5 H 0.21160 1.09590 0.13500
C14 C 0.2103(3) 0.9139(3) 0.1758(2)
H6 H 0.21030 0.86300 0.18750
C15 C -0.2573(3) 0.5664(3) 0.1075(3)
H7 H -0.30450 0.57250 0.09240
C16 C -0.1341(3) 0.5492(3) 0.1474(2)
H8 H -0.08700 0.54270 0.16310
C17 C 0.4300(3) 0.1430(4) 0.6974(3)
C18 C 0.4180(3) 0.1810(3) 0.6387(2)
C19 C 0.4781(4) 0.1514(4) 0.6125(3)
C20 C 0.5459(4) 0.0880(4) 0.6439(3)
C21 C 0.5591(4) 0.0480(4) 0.7017(3)
H9 H 0.60630 0.00350 0.72240
C22 C 0.4986(4) 0.0775(4) 0.7274(3)
B1 B 0.5579(5) 0.1285(5) 0.5541(4)
O1 O 0.4832(2) 0.1799(3) 0.55522(17)
O2 O 0.5975(2) 0.0716(3) 0.60751(19)
C23 C 0.7323(3) 0.0984(3) 0.1827(3)
C24 C 0.6756(3) 0.1456(3) 0.2051(3)
C25 C 0.6903(3) 0.1267(4) 0.2615(3)
C26 C 0.7564(3) 0.0648(4) 0.2946(3)
C27 C 0.8149(3) 0.0165(4) 0.2734(3)
H10 H 0.86130 -0.02630 0.29650
C28 C 0.7995(3) 0.0361(4) 0.2172(3)
B2 B 0.6864(5) 0.1167(5) 0.3472(4)
O3 O 0.6436(2) 0.1623(3) 0.29393(18)
O4 O 0.7556(2) 0.0572(3) 0.34997(19)
C29 C 0.6875(3) 0.2126(3) 0.0908(3)
C30 C 0.6315(3) 0.2595(3) 0.1147(2)
C31 C 0.6071(3) 0.3374(3) 0.0930(2)
C32 C 0.6324(3) 0.3729(3) 0.0468(3)
C33 C 0.6864(3) 0.3303(4) 0.0211(3)
H11 H 0.70430 0.35490 -0.01030
C34 C 0.7121(3) 0.2500(3) 0.0443(3)
B3 B 0.5489(3) 0.4646(4) 0.0709(3)
O5 O 0.55376(19) 0.3946(2) 0.10900(17)
O6 O 0.5958(2) 0.4540(2) 0.03175(17)
C35 C 0.2732(3) 0.9879(3) 0.1266(2)
C36 C 0.2714(3) 0.9168(3) 0.1421(2)
C37 C 0.3202(3) 0.8646(3) 0.1207(2)
C38 C 0.3701(3) 0.8799(3) 0.0890(2)
C39 C 0.3765(3) 0.9453(4) 0.0769(3)
H12 H 0.41320 0.95320 0.05640
C40 C 0.3261(3) 0.9991(3) 0.0965(2)
B4 B 0.3821(3) 0.7677(4) 0.0950(3)
O7 O 0.32720(19) 0.7938(2) 0.12582(16)
O8 O 0.40930(19) 0.8198(2) 0.07088(16)
C41 C 0.2219(3) 1.0029(3) 0.2095(3)
C42 C 0.2224(3) 0.9303(3) 0.2264(2)
C43 C 0.2335(3) 0.8852(3) 0.2825(3)
C44 C 0.2437(4) 0.9092(4) 0.3222(3)
C45 C 0.2434(4) 0.9790(4) 0.3082(3)
H13 H 0.25000 0.99500 0.33610
C46 C 0.2332(3) 1.0236(3) 0.2521(3)
B5 B 0.2498(4) 0.7941(5) 0.3667(3)
O9 O 0.2372(2) 0.8124(2) 0.31000(17)
O10 O 0.2541(3) 0.8526(3) 0.37595(19)
C47 C 0.3452(3) 0.2690(4) 0.7002(2)
C48 C 0.3349(3) 0.3062(4) 0.6413(3)
C49 C 0.3214(4) 0.3811(4) 0.6173(3)
C50 C 0.3161(4) 0.4211(4) 0.6507(3)
C51 C 0.3240(4) 0.3881(4) 0.7078(3)
H14 H 0.31920 0.41630 0.72990
C52 C 0.3397(4) 0.3099(4) 0.7319(3)
B6 B 0.2985(4) 0.5012(5) 0.5600(3)
O11 O 0.3104(2) 0.4315(2) 0.56033(17)
O12 O 0.3012(3) 0.4971(3) 0.61533(19)
C53 C 0.2962(3) 0.1885(3) 0.6945(2)
C54 C 0.2848(3) 0.2263(3) 0.6348(3)
C55 C 0.2258(3) 0.2357(4) 0.6054(3)
C56 C 0.1792(4) 0.2080(4) 0.6342(3)
C57 C 0.1875(4) 0.1712(4) 0.6919(3)
H15 H 0.15500 0.15330 0.71050
C58 C 0.2490(4) 0.1626(4) 0.7209(3)
B7 B 0.1357(5) 0.2664(5) 0.5422(4)
O13 O 0.1996(2) 0.2716(2) 0.54792(17)
O14 O 0.1223(3) 0.2267(3) 0.5948(2)
C59 C 0.6361(3) 0.1243(3) 0.1140(2)
C60 C 0.5794(3) 0.1742(3) 0.1353(2)
C61 C 0.5088(3) 0.1863(3) 0.1256(2)
C62 C 0.4957(3) 0.1485(3) 0.0971(2)
C63 C 0.5490(3) 0.0982(3) 0.0785(2)
H16 H 0.53880 0.07140 0.06080
C64 C 0.6201(3) 0.0880(3) 0.0870(2)
B8 B 0.3877(4) 0.2302(4) 0.1127(3)
O15 O 0.44205(19) 0.2363(2) 0.13722(17)
O16 O 0.4195(2) 0.1746(2) 0.09013(17)
C65 C 0.1392(3) 1.0578(3) 0.1206(2)
C66 C 0.1380(3) 0.9859(3) 0.1375(2)
C67 C 0.0794(3) 0.9888(3) 0.1143(2)
C68 C 0.0215(3) 1.0588(3) 0.0745(2)
C69 C 0.0199(3) 1.1292(3) 0.0575(3)
H17 H -0.02010 1.17730 0.03070
C70 C 0.0802(3) 1.1261(3) 0.0818(3)
B9 B 0.0014(3) 0.9619(4) 0.0853(3)
O17 O 0.06772(19) 0.92624(19) 0.12269(16)
O18 O -0.02735(19) 1.0420(2) 0.05533(16)
C71 C -0.2348(3) 0.5191(3) 0.1713(3)
C72 C -0.1686(3) 0.5108(3) 0.1923(2)
C73 C -0.1431(3) 0.4676(3) 0.2489(3)
C74 C -0.1806(3) 0.4335(4) 0.2849(3)
C75 C -0.2466(3) 0.4407(4) 0.2652(3)
H18 H -0.27210 0.41730 0.28970
C76 C -0.2725(3) 0.4846(4) 0.2070(3)
B10 B -0.0799(4) 0.4034(4) 0.3355(3)
O19 O -0.0802(2) 0.4495(2) 0.28127(18)
O20 O -0.1418(2) 0.3929(3) 0.33910(19)
C77 C -0.1903(3) 0.5241(3) 0.0820(3)
C78 C -0.1227(3) 0.5136(3) 0.1050(3)
C79 C -0.0589(3) 0.4753(3) 0.0870(2)
C80 C -0.0586(3) 0.4469(3) 0.0474(3)
C81 C -0.1226(3) 0.4559(3) 0.0230(3)
H19 H -0.12170 0.43670 -0.00460
C82 C -0.1882(3) 0.4951(3) 0.0420(3)
B11 B 0.0572(4) 0.4132(4) 0.0757(3)
O21 O 0.01256(19) 0.4560(2) 0.10491(17)
O22 O 0.0143(2) 0.4080(2) 0.03865(17)
C83 C -0.2629(3) 0.6453(3) 0.0951(2)
C84 C -0.1948(3) 0.6365(3) 0.1148(2)
C85 C -0.1908(3) 0.7028(3) 0.1019(2)
C86 C -0.2528(3) 0.7771(3) 0.0715(2)
C87 C -0.3210(3) 0.7875(3) 0.0557(2)
H20 H -0.36360 0.83860 0.03670
C88 C -0.3240(3) 0.7190(3) 0.0690(2)
B12 B -0.1583(3) 0.7930(4) 0.0850(3)
O23 O -0.13084(19) 0.7123(2) 0.11066(16)
O24 O -0.23374(19) 0.8349(2) 0.06114(16)
C89 C 0.5903(4) 0.1359(4) 0.4985(3)
C90 C 0.6535(4) 0.1279(4) 0.4004(3)
H21 H 0.54580 0.20990 0.36130
H22 H 0.49440 0.21410 0.44260
C91 C 0.4986(3) 0.5455(3) 0.0746(2)
C92 C 0.4169(3) 0.6898(3) 0.0859(2)
H23 H 0.39730 0.62210 0.15780
H24 H 0.46380 0.50410 0.14890
C93 C 0.2601(4) 0.7169(4) 0.4160(3)
C94 C 0.2785(4) 0.6498(4) 0.4095(3)
C95 C 0.2893(4) 0.5823(4) 0.4548(3)
C96 C 0.2845(4) 0.5773(4) 0.5086(3)
C97 C 0.2662(5) 0.6448(4) 0.5157(3)
H25 H 0.26100 0.64450 0.55220
C98 C 0.2553(5) 0.7130(4) 0.4706(3)
H26 H 0.24430 0.75810 0.47700
C99 C 0.0831(4) 0.2997(4) 0.4876(3)
C100 C 0.0946(4) 0.3374(4) 0.4338(3)
C101 C 0.0441(4) 0.3689(4) 0.3858(3)
C102 C -0.0217(4) 0.3667(4) 0.3884(3)
C103 C -0.0344(5) 0.3301(5) 0.4424(3)
H27 H -0.07890 0.32710 0.44600
C104 C 0.0162(5) 0.2981(5) 0.4904(3)
H28 H 0.00530 0.27450 0.52640
C105 C 0.3024(3) 0.2795(3) 0.1053(3)
C106 C 0.2636(3) 0.3199(4) 0.1373(3)
C107 C 0.1861(3) 0.3627(4) 0.1283(3)
C108 C 0.1432(3) 0.3694(3) 0.0846(3)
C109 C 0.1812(3) 0.3313(3) 0.0513(3)
H29 H 0.15390 0.33490 0.02090
C110 C 0.2595(3) 0.2874(3) 0.0614(3)
H30 H 0.28410 0.26220 0.03730
C111 C -0.0370(3) 0.9155(3) 0.0823(2)
C112 C -0.0959(3) 0.9468(3) 0.0412(2)
C113 C -0.1319(3) 0.9075(3) 0.0405(2)
C114 C -0.1124(3) 0.8338(3) 0.0828(2)
C115 C -0.0506(3) 0.7992(3) 0.1251(3)
H31 H -0.03400 0.74770 0.15410
C116 C -0.0139(3) 0.8395(3) 0.1249(3)
H32 H 0.02740 0.81540 0.15380
F13? F 0.4700(16) 0.2380(16) 0.4377(12)
F14? F 0.5270(13) 0.2353(14) 0.3448(10)
H33? H 0.69830 0.05890 0.53740
H34? H 0.74990 0.05560 0.45630
F15? F 0.4668(7) 0.4902(7) 0.1611(5)
F16? F 0.3892(6) 0.6259(6) 0.1700(4)
H35? H 0.51570 0.61480 0.00230
H36? H 0.44650 0.73180 0.01090
#END
