
#######################################################################
#
#                 Cambridge Crystallographic Data Centre
#                                CCDC
#
#######################################################################
#
# If this CIF has been generated from an entry in the Cambridge
# Structural Database, then it will include bibliographic, chemical,
# crystal, experimental, refinement or atomic coordinate data resulting
# from the CCDC's data processing and validation procedures.
#
#######################################################################

data_CSD_CIF_YIGQEN
_audit_creation_date 2018-06-15
_audit_creation_method CSD-ConQuest-V1
_database_code_CSD YIGQEN
_database_code_depnum_ccdc_archive 'CCDC 1839253'
_chemical_formula_sum 'C116 H44 B12 Br12 O24'
_chemical_formula_moiety
;
C116 H44 B12 Br12 O24
;
_journal_coden_Cambridge 1220
_journal_volume 24
_journal_year 2018
_journal_page_first 11438
_journal_name_full 'Chem.-Eur.J. '
loop_
_publ_author_name
"M.Mastalerz"
"S.Elbert"
"N.Regenauer"
"D.Schindler"
"Wen-Shan Zhang"
"F.Rominger"
"R.Schroder"
_chemical_name_systematic
;
tetrakis(\m-6,10,19-tribromopentacyclo[6.6.6.02,7.09,14.015,20]icosa-2,4,6,9,1
1,13,15,17,19-nonaene-3,4,12,13,16,17-hexolato)-hexakis(\m-1,4-phenylene)-dode
ca-boron unknown solvate
;
_cell_volume  17577.519
_exptl_crystal_colour 'colorless'
_exptl_crystal_density_diffrn 1.1
_exptl_crystal_description 'octahedron'
_diffrn_ambient_temperature 200
_refine_special_details
;
Disordered solvent molecules were not modelled and the disordered density was 
taken into account using the SQUEEZE/PLATON procedure.
;
#These two values have been output from a single CSD field.
_refine_ls_R_factor_gt 0.0613
_refine_ls_wR_factor_gt 0.0613
_symmetry_cell_setting monoclinic
_symmetry_space_group_name_H-M 'P 21/c'
_symmetry_Int_Tables_number 14
loop_
_symmetry_equiv_pos_site_id
_symmetry_equiv_pos_as_xyz
1 x,y,z
2 -x,1/2+y,1/2-z
3 -x,-y,-z
4 x,-1/2-y,-1/2+z
_cell_length_a 24.635(2)
_cell_length_b 22.3101(17)
_cell_length_c 32.056(2)
_cell_angle_alpha 90
_cell_angle_beta 93.898(2)
_cell_angle_gamma 90
_cell_formula_units_Z 4
loop_
_atom_type_symbol
_atom_type_radius_bond
C 0.68
H 0.23
B 0.83
Br 1.21
O 0.68
loop_
_atom_site_label
_atom_site_type_symbol
_atom_site_fract_x
_atom_site_fract_y
_atom_site_fract_z
Br1 Br 1.20091(3) 0.49693(4) 0.66486(4)
Br2 Br 1.27026(3) 0.33264(4) 0.74754(3)
Br3 Br 1.23935(3) 0.31935(4) 0.61582(3)
Br4 Br 0.51198(3) 0.73106(3) 0.69681(3)
Br5 Br 0.40225(3) 0.63346(4) 0.78245(3)
Br6 Br 0.39311(3) 0.61294(4) 0.63604(3)
Br7 Br 0.85136(4) -0.02443(5) 1.09803(3)
Br8 Br 0.68407(4) 0.06127(5) 1.11305(3)
Br9 Br 0.70075(4) -0.12203(4) 1.05719(3)
Br10 Br 0.71384(4) -0.17359(5) 0.43505(3)
Br11 Br 0.59761(4) -0.24921(4) 0.51710(3)
Br12 Br 0.55086(4) -0.08534(4) 0.42022(3)
B1 B 0.9519(3) 0.4928(3) 0.6989(3)
B2 B 1.0598(3) 0.2282(4) 0.8211(3)
B3 B 1.0122(3) 0.1905(4) 0.6000(3)
B4 B 0.7244(3) 0.5729(3) 0.7057(3)
B5 B 0.5400(3) 0.4075(3) 0.8428(2)
B6 B 0.5173(3) 0.3691(3) 0.6154(2)
B7 B 0.9245(3) 0.0985(4) 0.9349(3)
B8 B 0.6415(4) 0.2206(4) 0.9520(2)
B9 B 0.6597(3) -0.0641(3) 0.8649(2)
B10 B 0.8421(3) 0.0177(5) 0.5463(3)
B11 B 0.6191(3) -0.1038(3) 0.6854(2)
B12 B 0.5667(4) 0.1345(3) 0.5438(3)
C1 C 1.0608(3) 0.3283(3) 0.6986(2)
H1 H 1.02280 0.31470 0.70260
C2 C 1.1592(3) 0.3626(3) 0.6878(2)
H2 H 1.19720 0.37620 0.68370
C3 C 0.5551(2) 0.5016(3) 0.71972(19)
H3 H 0.58170 0.46770 0.72240
C4 C 0.4861(2) 0.5898(3) 0.71305(19)
H4 H 0.45960 0.62370 0.71050
C5 C 0.7492(2) 0.0572(3) 0.9589(2)
H5 H 0.75010 0.07530 0.93040
C6 C 0.7471(2) 0.0094(3) 1.0325(2)
H6 H 0.74600 -0.00890 1.06090
C7 C 0.6661(2) -0.0330(3) 0.5608(2)
H7 H 0.67730 -0.00340 0.58320
C8 C 0.6373(3) -0.1103(3) 0.5029(2)
H8 H 0.62600 -0.13990 0.48060
C9 C 1.0658(2) 0.3954(3) 0.6937(2)
C10 C 1.1192(2) 0.4142(3) 0.6867(2)
C11 C 1.1303(2) 0.4738(3) 0.6795(3)
C12 C 1.0906(3) 0.5181(3) 0.6798(3)
H9 H 1.09830 0.55900 0.67470
C13 C 1.0397(2) 0.4987(3) 0.6879(3)
C14 C 1.0270(2) 0.4394(3) 0.6943(2)
O1 O 0.99271(18) 0.5335(2) 0.69017(17)
O2 O 0.97238(17) 0.4344(2) 0.70120(16)
C15 C 1.1010(2) 0.3123(3) 0.7347(2)
C16 C 1.1552(2) 0.3298(3) 0.7290(2)
C17 C 1.1973(2) 0.3119(3) 0.7572(2)
C18 C 1.1887(3) 0.2790(4) 0.7928(3)
H10 H 1.21780 0.26700 0.81200
C19 C 1.1357(3) 0.2649(3) 0.7984(2)
C20 C 1.0933(2) 0.2806(3) 0.7703(2)
O3 O 1.11653(19) 0.2313(2) 0.83069(17)
O4 O 1.04500(17) 0.2579(2) 0.78451(16)
C21 C 1.0845(2) 0.3011(3) 0.6605(2)
C22 C 1.1384(2) 0.3196(3) 0.6542(2)
C23 C 1.1662(3) 0.2952(3) 0.6225(2)
C24 C 1.1433(3) 0.2525(3) 0.5951(3)
H11 H 1.16240 0.23620 0.57290
C25 C 1.0916(3) 0.2357(3) 0.6020(2)
C26 C 1.0626(3) 0.2591(3) 0.6338(2)
O5 O 1.0602(2) 0.1928(2) 0.58021(18)
O6 O 1.01191(18) 0.2319(2) 0.63255(16)
C27 C 0.5820(2) 0.5616(3) 0.7139(2)
C28 C 0.5452(2) 0.6100(3) 0.7103(2)
C29 C 0.5637(2) 0.6675(3) 0.7032(2)
C30 C 0.6182(2) 0.6808(3) 0.6993(2)
H12 H 0.63070 0.72030 0.69460
C31 C 0.6526(2) 0.6326(3) 0.7029(2)
C32 C 0.6360(2) 0.5751(3) 0.7097(2)
O7 O 0.70894(17) 0.6320(2) 0.70022(17)
O8 O 0.67996(17) 0.5359(2) 0.71125(15)
C33 C 0.5214(2) 0.5078(3) 0.7576(2)
C34 C 0.4845(2) 0.5562(3) 0.75429(19)
C35 C 0.4525(2) 0.5683(3) 0.7872(2)
C36 C 0.4544(3) 0.5342(3) 0.8233(2)
H13 H 0.43220 0.54300 0.84570
C37 C 0.4899(3) 0.4870(3) 0.8250(2)
C38 C 0.5232(3) 0.4748(3) 0.7931(2)
O9 O 0.49938(19) 0.4449(2) 0.85631(15)
O10 O 0.55476(18) 0.4244(2) 0.80345(15)
C39 C 0.5142(2) 0.4947(3) 0.6828(2)
C40 C 0.4774(2) 0.5438(3) 0.67795(19)
C41 C 0.4413(2) 0.5470(3) 0.6431(2)
C42 C 0.4392(3) 0.5029(3) 0.6122(2)
H14 H 0.41550 0.50620 0.58770
C43 C 0.4730(2) 0.4549(3) 0.6190(2)
C44 C 0.5103(2) 0.4511(3) 0.6535(2)
O11 O 0.47792(18) 0.4049(2) 0.59409(15)
O12 O 0.53844(17) 0.39703(19) 0.65162(15)
C45 C 0.8058(2) 0.0495(3) 0.9813(2)
C46 C 0.8049(2) 0.0227(3) 1.0211(2)
C47 C 0.8530(3) 0.0119(3) 1.0447(2)
C48 C 0.9030(3) 0.0266(3) 1.0303(2)
H15 H 0.93610 0.01840 1.04630
C49 C 0.9026(3) 0.0533(3) 0.9923(2)
C50 C 0.8551(2) 0.0646(3) 0.9676(2)
O13 O 0.94656(19) 0.0732(2) 0.97146(16)
O14 O 0.86776(18) 0.0929(2) 0.93104(15)
C51 C 0.7167(3) 0.0935(3) 0.9884(2)
C52 C 0.7155(3) 0.0682(3) 1.0285(2)
C53 C 0.6850(3) 0.0951(3) 1.0581(2)
C54 C 0.6544(3) 0.1473(3) 1.0497(2)
H16 H 0.63380 0.16600 1.07010
C55 C 0.6563(3) 0.1692(3) 1.0103(2)
C56 C 0.6866(3) 0.1442(3) 0.9803(2)
O15 O 0.6277(2) 0.2181(2) 0.99308(16)
O16 O 0.67893(19) 0.1768(2) 0.94347(14)
C57 C 0.7222(3) -0.0036(3) 0.9588(2)
C58 C 0.7226(3) -0.0310(3) 0.9984(2)
C59 C 0.6986(3) -0.0860(3) 1.0028(2)
C60 C 0.6735(3) -0.1175(3) 0.9696(2)
H17 H 0.65790 -0.15600 0.97310
C61 C 0.6727(3) -0.0897(3) 0.9317(2)
C62 C 0.6973(3) -0.0340(3) 0.9261(2)
O17 O 0.64960(19) -0.1098(2) 0.89378(15)
O18 O 0.69013(17) -0.01780(19) 0.88445(14)
C63 C 0.7128(3) -0.0517(3) 0.5343(2)
C64 C 0.6966(3) -0.0936(3) 0.5028(2)
C65 C 0.7338(3) -0.1141(4) 0.4754(3)
C66 C 0.7870(3) -0.0928(4) 0.4767(3)
H18 H 0.81210 -0.10610 0.45750
C67 C 0.8012(3) -0.0517(4) 0.5072(3)
C68 C 0.7648(3) -0.0308(3) 0.5349(2)
O19 O 0.8498(2) -0.0218(3) 0.5140(2)
O20 O 0.7899(2) 0.0130(2) 0.56042(17)
C69 C 0.6421(3) -0.0905(3) 0.5776(2)
C70 C 0.6281(3) -0.1330(3) 0.5464(2)
C71 C 0.6090(3) -0.1883(3) 0.5583(2)
C72 C 0.5984(3) -0.2021(3) 0.5992(2)
H19 H 0.58450 -0.24010 0.60650
C73 C 0.6091(3) -0.1585(3) 0.6282(2)
C74 C 0.6316(3) -0.1036(3) 0.6179(2)
O21 O 0.6012(2) -0.1589(2) 0.67034(16)
O22 O 0.63805(18) -0.0683(2) 0.65362(14)
C75 C 0.6220(3) -0.0098(3) 0.5299(2)
C76 C 0.6068(3) -0.0506(3) 0.4978(2)
C77 C 0.5695(3) -0.0327(3) 0.4659(2)
C78 C 0.5446(3) 0.0227(3) 0.4655(2)
H20 H 0.51880 0.03410 0.44360
C79 C 0.5588(3) 0.0605(3) 0.4978(2)
C80 C 0.5963(3) 0.0445(3) 0.5298(2)
O23 O 0.5401(2) 0.1174(2) 0.50596(16)
O24 O 0.6026(2) 0.0902(2) 0.55869(15)
C81 C 0.8926(3) 0.5119(3) 0.7025(2)
C82 C 0.8516(3) 0.4723(3) 0.7106(3)
H21 H 0.86020 0.43140 0.71600
C83 C 0.7977(3) 0.4912(3) 0.7110(3)
H22 H 0.77010 0.46280 0.71600
C84 C 0.7836(2) 0.5506(3) 0.7045(2)
C85 C 0.8252(2) 0.5906(3) 0.6976(2)
H23 H 0.81670 0.63180 0.69330
C86 C 0.8788(3) 0.5721(3) 0.6969(2)
H24 H 0.90640 0.60070 0.69250
C87 C 1.0234(3) 0.1936(3) 0.8495(2)
C88 C 0.9667(3) 0.1959(3) 0.8440(3)
H25 H 0.94960 0.21890 0.82190
C89 C 0.9356(3) 0.1646(3) 0.8707(2)
H26 H 0.89710 0.16650 0.86660
C90 C 0.9586(3) 0.1307(3) 0.9032(2)
C91 C 1.0149(3) 0.1290(4) 0.9084(3)
H27 H 1.03180 0.10630 0.93080
C92 C 1.0466(3) 0.1593(4) 0.8822(3)
H28 H 1.08510 0.15690 0.88640
C93 C 0.9665(3) 0.1461(4) 0.5874(3)
C94 C 0.9160(3) 0.1471(4) 0.6045(3)
H29 H 0.90880 0.17620 0.62500
C95 C 0.8764(3) 0.1057(4) 0.5919(3)
H30 H 0.84230 0.10670 0.60410
C96 C 0.8852(3) 0.0635(4) 0.5622(3)
C97 C 0.9344(4) 0.0642(5) 0.5443(4)
H31 H 0.94040 0.03700 0.52230
C98 C 0.9750(4) 0.1030(5) 0.5575(4)
H32 H 1.00950 0.10030 0.54610
C99 C 0.5649(3) 0.3553(3) 0.8688(2)
C100 C 0.6107(3) 0.3248(3) 0.8573(3)
H33 H 0.62550 0.33410 0.83150
C101 C 0.6350(3) 0.2809(3) 0.8828(2)
H34 H 0.66620 0.26060 0.87430
C102 C 0.6144(3) 0.2663(3) 0.9207(2)
C103 C 0.5686(3) 0.2963(3) 0.9317(3)
H35 H 0.55370 0.28710 0.95750
C104 C 0.5438(3) 0.3395(3) 0.9061(2)
H36 H 0.51170 0.35860 0.91430
C105 C 0.6413(3) -0.0693(3) 0.8182(2)
C106 C 0.6559(3) -0.0258(3) 0.7896(2)
H37 H 0.67290 0.01010 0.79950
C107 C 0.6458(3) -0.0345(3) 0.7470(2)
H38 H 0.65620 -0.00470 0.72790
C108 C 0.6201(3) -0.0869(3) 0.7321(2)
C109 C 0.6017(3) -0.1279(3) 0.7608(2)
H39 H 0.58140 -0.16200 0.75100
C110 C 0.6126(3) -0.1193(3) 0.8032(2)
H40 H 0.60040 -0.14800 0.82240
C111 C 0.5564(3) 0.1953(3) 0.5644(2)
C112 C 0.5772(3) 0.2112(3) 0.6041(2)
H41 H 0.59960 0.18380 0.62020
C113 C 0.5654(3) 0.2675(3) 0.6207(2)
H42 H 0.58070 0.27830 0.64770
C114 C 0.5317(3) 0.3078(3) 0.5982(2)
C115 C 0.5103(3) 0.2903(3) 0.5593(2)
H43 H 0.48670 0.31670 0.54350
C116 C 0.5227(3) 0.2357(3) 0.5429(3)
H44 H 0.50750 0.22530 0.51590
#END
