####################################################################### 
# 
# This file contains crystal structure data downloaded from the 
# Cambridge Structural Database (CSD) hosted by the Cambridge 
# Crystallographic Data Centre (CCDC).
# 
# Full information about CCDC data access policies and citation 
# guidelines are available at http://www.ccdc.cam.ac.uk/access/V1 
# 
# Audit and citation data items may have been added by the CCDC. 
# Please retain this information to preserve the provenance of 
# this file and to allow appropriate attribution of the data. 
# 
#######################################################################

data_Noria
_audit_block_doi                 10.5517/ccs320y
_database_code_depnum_ccdc_archive 'CCDC 717929'
loop_
_citation_id
_citation_doi
_citation_year
1 10.1002/anie.200900479 2009
_audit_update_record             
;
2009-01-25 deposited with the CCDC.
2015-03-09 downloaded from the CCDC.
;

_audit_creation_method           SHELXL-97
_chemical_name_systematic        
;
?
;
_chemical_name_common            NoriaDMSOMeOH
_chemical_melting_point          ?
_chemical_formula_moiety         ?
_chemical_formula_sum            'C63 H84 O18 S6'
_chemical_formula_weight         1321.66

loop_
_atom_type_symbol
_atom_type_description
_atom_type_scat_dispersion_real
_atom_type_scat_dispersion_imag
_atom_type_scat_source
C C 0.0033 0.0016 'International Tables Vol C Tables 4.2.6.8 and 6.1.1.4'
H H 0.0000 0.0000 'International Tables Vol C Tables 4.2.6.8 and 6.1.1.4'
O O 0.0106 0.0060 'International Tables Vol C Tables 4.2.6.8 and 6.1.1.4'
S S 0.1246 0.1234 'International Tables Vol C Tables 4.2.6.8 and 6.1.1.4'

_symmetry_cell_setting           triclinic
_symmetry_space_group_name_H-M   P-1

loop_
_symmetry_equiv_pos_as_xyz
'x, y, z'
'-x, -y, -z'

_cell_length_a                   15.169(5)
_cell_length_b                   15.637(5)
_cell_length_c                   18.838(6)
_cell_angle_alpha                99.509(5)
_cell_angle_beta                 111.210(6)
_cell_angle_gamma                100.259(5)
_cell_volume                     3969(2)
_cell_formula_units_Z            2
_cell_measurement_temperature    173(2)
_cell_measurement_reflns_used    .
_cell_measurement_theta_min      .
_cell_measurement_theta_max      .

_exptl_crystal_description       Prism
_exptl_crystal_colour            Colourless
_exptl_crystal_size_max          0.25
_exptl_crystal_size_mid          0.20
_exptl_crystal_size_min          0.10
_exptl_crystal_density_meas      ?
_exptl_crystal_density_diffrn    1.106
_exptl_crystal_density_method    'not measured'
_exptl_crystal_F_000             1404
_exptl_absorpt_coefficient_mu    0.230
_exptl_absorpt_correction_type   multi-scan
_exptl_absorpt_correction_T_min  0.7455
_exptl_absorpt_correction_T_max  0.9774
_exptl_absorpt_process_details   Bruker-SADABS

_exptl_special_details           
;
Data were corrected for decay and absorption using the program SADABS
based on the method of R.H. Blessing (Acta Cryst. A51, 33-38, 1995).
;

_diffrn_ambient_temperature      173(2)
_diffrn_radiation_wavelength     0.71073
_diffrn_radiation_type           MoK\a
_diffrn_radiation_source         'fine-focus sealed tube'
_diffrn_radiation_monochromator  graphite
_diffrn_measurement_device_type  'Bruker SMART 1000 CCD diffractometer'
_diffrn_measurement_method       ?
_diffrn_detector_area_resol_mean ?
_diffrn_standards_number         .
_diffrn_standards_interval_count .
_diffrn_standards_interval_time  .
_diffrn_standards_decay_%        .
_diffrn_reflns_number            27936
_diffrn_reflns_av_R_equivalents  0.0333
_diffrn_reflns_av_sigmaI/netI    0.0795
_diffrn_reflns_limit_h_min       -19
_diffrn_reflns_limit_h_max       19
_diffrn_reflns_limit_k_min       -20
_diffrn_reflns_limit_k_max       20
_diffrn_reflns_limit_l_min       -24
_diffrn_reflns_limit_l_max       24
_diffrn_reflns_theta_min         1.37
_diffrn_reflns_theta_max         27.19
_reflns_number_total             17012
_reflns_number_gt                9046
_reflns_threshold_expression     >2sigma(I)

_computing_data_collection       'SMART (Bruker, 1998)'
_computing_cell_refinement       'SAINT (Bruker, 1998)'
_computing_data_reduction        'SAINT (Bruker, 1998)'
_computing_structure_solution    'SHELXS-97 (Sheldrick, 1990)'
_computing_structure_refinement  'SHELXL-97 (Sheldrick, 1997)'
_computing_molecular_graphics    'X-Seed (Barbour, v2.0, 2005)'
_computing_publication_material  'local program'

_refine_special_details          
;
Refinement of F^2^ against ALL reflections. The weighted R-factor wR and
goodness of fit S are based on F^2^, conventional R-factors R are based
on F, with F set to zero for negative F^2^. The threshold expression of
F^2^ > 2sigma(F^2^) is used only for calculating R-factors(gt) etc. and is
not relevant to the choice of reflections for refinement. R-factors based
on F^2^ are statistically about twice as large as those based on F, and R-
factors based on ALL data will be even larger. The lack of convergence is
due to disorder in a dimethylsulfoxide solvent molecule.
;

_refine_ls_structure_factor_coef Fsqd
_refine_ls_matrix_type           full
_refine_ls_weighting_scheme      calc
_refine_ls_weighting_details     
'calc w=1/[\s^2^(Fo^2^)+(0.1000P)^2^+0.0000P] where P=(Fo^2^+2Fc^2^)/3'
_atom_sites_solution_primary     direct
_atom_sites_solution_secondary   difmap
_atom_sites_solution_hydrogens   geom
_refine_ls_hydrogen_treatment    mixed
_refine_ls_extinction_method     none
_refine_ls_extinction_coef       ?
_refine_ls_number_reflns         17012
_refine_ls_number_parameters     845
_refine_ls_number_restraints     5
_refine_ls_R_factor_all          0.1454
_refine_ls_R_factor_gt           0.0955
_refine_ls_wR_factor_ref         0.2524
_refine_ls_wR_factor_gt          0.2345
_refine_ls_goodness_of_fit_ref   1.282
_refine_ls_restrained_S_all      1.283
_refine_ls_shift/su_max          0.113
_refine_ls_shift/su_mean         0.002

loop_
_atom_site_label
_atom_site_type_symbol
_atom_site_fract_x
_atom_site_fract_y
_atom_site_fract_z
_atom_site_U_iso_or_equiv
_atom_site_adp_type
_atom_site_occupancy
_atom_site_symmetry_multiplicity
_atom_site_calc_flag
_atom_site_refinement_flags
_atom_site_disorder_assembly
_atom_site_disorder_group
S1 S 0.74178(9) 0.58337(9) 0.49204(7) 0.0588(3) Uani 1 1 d . . .
O1 O 0.00351(19) 0.66716(19) -0.36485(16) 0.0485(7) Uani 1 1 d . . .
H1 H -0.0572 0.6488 -0.3915 0.058 Uiso 1 1 calc R . .
C1 C 0.3107(2) 1.0772(2) -0.3076(2) 0.0322(8) Uani 1 1 d . . .
S2 S 0.48926(10) 0.58208(9) 0.26231(8) 0.0692(4) Uani 1 1 d . . .
O2 O 0.2851(2) 0.44254(16) -0.12760(17) 0.0503(8) Uani 1 1 d . . .
H2 H 0.2495 0.3950 -0.1617 0.060 Uiso 1 1 calc R . .
C2 C 0.2526(3) 1.1025(2) -0.3728(2) 0.0348(8) Uani 1 1 d . . .
S3 S 0.0700(4) 0.6841(5) 0.3983(3) 0.115(2) Uani 0.50 1 d PD A 1
C3 C 0.1986(3) 1.1640(2) -0.3642(2) 0.0377(9) Uani 1 1 d . . .
H3 H 0.1603 1.1816 -0.4089 0.045 Uiso 1 1 calc R . .
S4 S 0.0862(3) 0.7285(4) 0.4451(4) 0.133(2) Uani 0.50 1 d PD A 2
O4 O -0.10798(18) 0.84297(19) -0.19754(16) 0.0483(7) Uani 1 1 d . . .
H4 H -0.1621 0.8143 -0.2340 0.058 Uiso 1 1 calc R . .
C4 C 0.1999(2) 1.1992(2) -0.2927(2) 0.0333(8) Uani 1 1 d . . .
S5 S 0.00039(11) 0.51187(11) -0.16997(10) 0.0863(5) Uani 1 1 d . . .
O5 O 0.14554(19) 1.25887(17) -0.28384(16) 0.0458(7) Uani 1 1 d . . .
H5 H 0.1144 1.2677 -0.3278 0.055 Uiso 1 1 calc R . .
C5 C 0.2561(2) 1.1752(2) -0.2250(2) 0.0287(8) Uani 1 1 d . . .
S6 S -0.01192(11) 0.96191(10) -0.41709(8) 0.0501(4) Uani 0.75 1 d P B 1
C6 C 0.3103(2) 1.1143(2) -0.2357(2) 0.0287(8) Uani 1 1 d . . .
H6 H 0.3492 1.0973 -0.1908 0.034 Uiso 1 1 calc R . .
S7 S -0.0793(4) 0.9514(3) -0.3528(3) 0.0576(12) Uani 0.25 1 d P B 2
C7 C 0.2504(2) 1.2109(2) -0.1467(2) 0.0313(8) Uani 1 1 d . . .
H7 H 0.2425 1.2731 -0.1456 0.038 Uiso 1 1 calc R . .
S8 S -0.324(2) 0.9030(11) -0.311(2) 0.35(2) Uani 0.25 1 d P C 1
C8 C 0.3430(2) 1.2183(2) -0.0742(2) 0.0324(8) Uani 1 1 d . . .
H8A H 0.3299 1.2342 -0.0265 0.039 Uiso 1 1 calc R . .
H8B H 0.3574 1.1588 -0.0768 0.039 Uiso 1 1 calc R . .
S9 S -0.3246(9) 0.8703(13) -0.3298(10) 0.139(7) Uani 0.25 1 d P C 2
O9 O 0.2509(2) 1.06464(19) -0.44495(15) 0.0472(7) Uani 1 1 d . . .
H9 H 0.2139 1.0847 -0.4797 0.057 Uiso 1 1 calc R . .
C9 C 0.1598(3) 1.1567(2) -0.1419(2) 0.0325(8) Uani 1 1 d . . .
S10 S -0.3211(3) 0.8638(3) -0.3706(3) 0.0764(12) Uani 0.50 1 d PD C 3
C10 C 0.0752(3) 1.1876(2) -0.1550(2) 0.0401(9) Uani 1 1 d . . .
C11 C -0.0054(3) 1.1377(3) -0.1484(3) 0.0466(10) Uani 1 1 d . . .
H11 H -0.0620 1.1596 -0.1576 0.056 Uiso 1 1 calc R . .
C12 C -0.0047(3) 1.0570(3) -0.1286(2) 0.0397(9) Uani 1 1 d . . .
O13 O -0.08768(19) 1.01246(19) -0.12240(17) 0.0493(7) Uani 1 1 d . . .
H13 H -0.1077 0.9600 -0.1514 0.059 Uiso 1 1 calc R . .
C13 C 0.0780(2) 1.0234(2) -0.1141(2) 0.0300(8) Uani 1 1 d . . .
C14 C 0.1571(2) 1.0751(2) -0.12268(19) 0.0274(7) Uani 1 1 d . . .
H14 H 0.2131 1.0524 -0.1147 0.033 Uiso 1 1 calc R . .
C15 C 0.0828(2) 0.9347(2) -0.0896(2) 0.0300(8) Uani 1 1 d . . .
H15 H 0.0277 0.9193 -0.0728 0.036 Uiso 1 1 calc R . .
O16 O 0.1936(2) 0.6601(2) 0.17403(17) 0.0587(8) Uani 1 1 d . . .
H16 H 0.1766 0.6105 0.1833 0.070 Uiso 1 1 calc R . .
C16 C 0.0629(2) 0.8597(2) -0.1602(2) 0.0288(8) Uani 1 1 d . . .
O17 O 0.1095(2) 0.54612(18) -0.34354(16) 0.0516(8) Uani 1 1 d . . .
H17 H 0.0760 0.5838 -0.3499 0.062 Uiso 1 1 calc R . .
C17 C -0.0338(3) 0.8177(2) -0.2137(2) 0.0358(9) Uani 1 1 d . . .
C18 C -0.0535(3) 0.7541(3) -0.2814(2) 0.0402(9) Uani 1 1 d . . .
H18 H -0.1194 0.7267 -0.3172 0.048 Uiso 1 1 calc R . .
O19 O 0.3257(3) 0.48006(18) 0.02659(18) 0.0615(9) Uani 1 1 d . . .
H19 H 0.3050 0.4674 -0.0227 0.074 Uiso 1 1 calc R . .
C19 C 0.0219(3) 0.7298(2) -0.2974(2) 0.0352(9) Uani 1 1 d . . .
C20 C 0.1195(2) 0.7683(2) -0.2449(2) 0.0296(8) Uani 1 1 d . . .
C21 C 0.1363(2) 0.8326(2) -0.1785(2) 0.0283(8) Uani 1 1 d . . .
H21 H 0.2023 0.8602 -0.1430 0.034 Uiso 1 1 calc R . .
C22 C 0.2026(2) 0.7362(2) -0.2604(2) 0.0307(8) Uani 1 1 d . . .
H22 H 0.1779 0.7128 -0.3186 0.037 Uiso 1 1 calc R . .
C23 C 0.2960(3) 0.8118(2) -0.2357(2) 0.0338(8) Uani 1 1 d . . .
H23A H 0.3178 0.8421 -0.1795 0.041 Uiso 1 1 calc R . .
H23B H 0.3483 0.7848 -0.2410 0.041 Uiso 1 1 calc R . .
C24 C 0.2837(3) 0.8814(2) -0.2831(2) 0.0369(9) Uani 1 1 d . . .
H24A H 0.2385 0.9147 -0.2721 0.044 Uiso 1 1 calc R . .
H24B H 0.2539 0.8507 -0.3399 0.044 Uiso 1 1 calc R . .
C25 C 0.2237(2) 0.6578(2) -0.2249(2) 0.0298(8) Uani 1 1 d . . .
C26 C 0.1769(3) 0.5686(2) -0.2671(2) 0.0364(9) Uani 1 1 d . . .
C27 C 0.1993(3) 0.4994(2) -0.2336(2) 0.0397(9) Uani 1 1 d . . .
H27 H 0.1670 0.4392 -0.2632 0.048 Uiso 1 1 calc R . .
C28 C 0.2675(3) 0.5158(2) -0.1579(2) 0.0368(9) Uani 1 1 d . . .
C29 C 0.3169(2) 0.6037(2) -0.1130(2) 0.0294(8) Uani 1 1 d . . .
C30 C 0.2921(2) 0.6716(2) -0.1484(2) 0.0321(8) Uani 1 1 d . . .
H30 H 0.3240 0.7318 -0.1185 0.039 Uiso 1 1 calc R . .
C31 C 0.3935(3) 0.6237(2) -0.0290(2) 0.0343(8) Uani 1 1 d . . .
H31 H 0.4186 0.5690 -0.0245 0.041 Uiso 1 1 calc R . .
C32 C 0.4819(3) 0.7010(2) -0.0123(2) 0.0328(8) Uani 1 1 d . . .
H32A H 0.5046 0.6899 -0.0553 0.039 Uiso 1 1 calc R . .
H32B H 0.4609 0.7574 -0.0125 0.039 Uiso 1 1 calc R . .
C33 C 0.5673(3) 0.7132(2) 0.0657(2) 0.0342(8) Uani 1 1 d . . .
H33A H 0.5481 0.7330 0.1095 0.041 Uiso 1 1 calc R . .
H33B H 0.5832 0.6549 0.0693 0.041 Uiso 1 1 calc R . .
C34 C 0.3457(3) 0.6348(2) 0.0289(2) 0.0326(8) Uani 1 1 d . . .
C35 C 0.3102(3) 0.5614(3) 0.0529(2) 0.0434(10) Uani 1 1 d . . .
C36 C 0.2595(3) 0.5702(3) 0.1002(3) 0.0514(11) Uani 1 1 d . . .
H36 H 0.2346 0.5189 0.1149 0.062 Uiso 1 1 calc R . .
C37 C 0.2439(3) 0.6508(3) 0.1267(2) 0.0438(10) Uani 1 1 d . . .
C38 C 0.2807(2) 0.7289(2) 0.1069(2) 0.0328(8) Uani 1 1 d . . .
C39 C 0.3305(2) 0.7174(2) 0.0582(2) 0.0324(8) Uani 1 1 d . . .
H39 H 0.3561 0.7686 0.0438 0.039 Uiso 1 1 calc R . .
O40 O 0.0682(2) 1.2680(2) -0.1736(2) 0.0665(9) Uani 1 1 d . . .
H40 H 0.0810 1.2696 -0.2133 0.080 Uiso 1 1 calc R . .
C40 C 0.2743(3) 0.8200(3) 0.1449(2) 0.0349(9) Uani 1 1 d . . .
H40A H 0.2115 0.8093 0.1521 0.042 Uiso 1 1 calc R . .
C41 C 0.2700(3) 0.8884(2) 0.0953(2) 0.0343(8) Uani 1 1 d . . .
H41A H 0.2738 0.9467 0.1277 0.041 Uiso 1 1 calc R . .
H41B H 0.3288 0.8961 0.0832 0.041 Uiso 1 1 calc R . .
O42 O 0.5793(2) 0.9620(2) 0.45235(16) 0.0614(9) Uani 1 1 d . . .
H42 H 0.6258 0.9379 0.4575 0.074 Uiso 1 1 calc R . .
C42 C 0.1812(3) 0.8666(3) 0.0191(2) 0.0356(8) Uani 1 1 d . . .
H42A H 0.1214 0.8499 0.0290 0.043 Uiso 1 1 calc R . .
H42B H 0.1827 0.8144 -0.0178 0.043 Uiso 1 1 calc R . .
C43 C 0.1776(3) 0.9456(2) -0.0178(2) 0.0340(8) Uani 1 1 d . . .
H43A H 0.2332 0.9564 -0.0338 0.041 Uiso 1 1 calc R . .
H43B H 0.1870 0.9996 0.0226 0.041 Uiso 1 1 calc R . .
C44 C 0.3560(3) 0.8575(2) 0.2270(2) 0.0333(8) Uani 1 1 d . . .
C45 C 0.3404(3) 0.8503(3) 0.2954(2) 0.0424(9) Uani 1 1 d . . .
C46 C 0.4159(3) 0.8859(3) 0.3685(2) 0.0510(11) Uani 1 1 d . . .
H46 H 0.4041 0.8812 0.4141 0.061 Uiso 1 1 calc R . .
C47 C 0.5081(3) 0.9283(3) 0.3768(2) 0.0444(10) Uani 1 1 d . . .
C48 C 0.5274(3) 0.9371(2) 0.3105(2) 0.0333(8) Uani 1 1 d . . .
C49 C 0.4505(3) 0.8998(2) 0.2376(2) 0.0321(8) Uani 1 1 d . . .
H49 H 0.4630 0.9033 0.1921 0.039 Uiso 1 1 calc R . .
C50 C 0.6283(3) 0.9876(2) 0.3179(2) 0.0321(8) Uani 1 1 d . . .
H50 H 0.6633 1.0256 0.3731 0.038 Uiso 1 1 calc R . .
O51 O 0.2495(2) 0.8118(2) 0.29226(17) 0.0587(8) Uani 1 1 d . . .
H51 H 0.2290 0.7590 0.2639 0.070 Uiso 1 1 calc R . .
C51 C 0.6187(3) 1.0521(2) 0.2641(2) 0.0347(8) Uani 1 1 d . . .
H51A H 0.5926 1.0169 0.2088 0.042 Uiso 1 1 calc R . .
H51B H 0.5712 1.0860 0.2694 0.042 Uiso 1 1 calc R . .
C52 C 0.7992(6) 0.5998(7) 0.4277(4) 0.128(3) Uani 1 1 d . . .
H52A H 0.8574 0.6506 0.4542 0.192 Uiso 1 1 calc R . .
H52B H 0.7537 0.6125 0.3809 0.192 Uiso 1 1 calc R . .
H52C H 0.8184 0.5455 0.4121 0.192 Uiso 1 1 calc R . .
C53 C 0.7302(6) 0.6965(5) 0.5094(4) 0.124(3) Uani 1 1 d . . .
H53A H 0.7110 0.7085 0.5537 0.186 Uiso 1 1 calc R . .
H53B H 0.6802 0.7043 0.4622 0.186 Uiso 1 1 calc R . .
H53C H 0.7931 0.7385 0.5217 0.186 Uiso 1 1 calc R . .
C54 C 0.5462(5) 0.5484(5) 0.1998(4) 0.103(2) Uani 1 1 d . . .
H54A H 0.6086 0.5926 0.2149 0.155 Uiso 1 1 calc R . .
H54B H 0.5036 0.5444 0.1453 0.155 Uiso 1 1 calc R . .
H54C H 0.5582 0.4897 0.2045 0.155 Uiso 1 1 calc R . .
C55 C 0.5098(4) 0.6963(3) 0.2613(3) 0.0658(13) Uani 1 1 d . . .
H55A H 0.4912 0.7291 0.3003 0.099 Uiso 1 1 calc R . .
H55B H 0.4704 0.7020 0.2089 0.099 Uiso 1 1 calc R . .
H55C H 0.5793 0.7213 0.2741 0.099 Uiso 1 1 calc R . .
C56 C 0.1841(11) 0.7785(10) 0.4439(10) 0.128(5) Uiso 0.50 1 d PD A 1
H56A H 0.1716 0.8300 0.4220 0.191 Uiso 0.50 1 calc PR A 1
H56B H 0.2366 0.7591 0.4325 0.191 Uiso 0.50 1 calc PR A 1
H56C H 0.2037 0.7959 0.5009 0.191 Uiso 0.50 1 calc PR A 1
C57 C 0.0865(19) 0.6284(16) 0.4789(13) 0.120(4) Uiso 0.50 1 d PD A 1
H57D H 0.0926 0.6711 0.5258 0.180 Uiso 0.50 1 calc PR A 1
H57E H 0.1459 0.6071 0.4903 0.180 Uiso 0.50 1 calc PR A 1
H57F H 0.0298 0.5774 0.4635 0.180 Uiso 0.50 1 calc PR A 1
C58 C 0.1106(14) 0.7091(13) 0.3581(9) 0.132(6) Uiso 0.50 1 d PD A 2
H58A H 0.0643 0.6540 0.3206 0.198 Uiso 0.50 1 calc PR A 2
H58B H 0.1776 0.7030 0.3721 0.198 Uiso 0.50 1 calc PR A 2
H58C H 0.1032 0.7599 0.3341 0.198 Uiso 0.50 1 calc PR A 2
C59 C 0.0612(4) 0.6243(4) -0.1187(4) 0.094(2) Uani 1 1 d . . .
H59A H 0.0391 0.6637 -0.1531 0.140 Uiso 1 1 calc R . .
H59B H 0.1320 0.6327 -0.1021 0.140 Uiso 1 1 calc R . .
H59C H 0.0465 0.6391 -0.0723 0.140 Uiso 1 1 calc R . .
C60 C 0.0583(5) 0.4635(4) -0.0957(4) 0.096(2) Uani 1 1 d . . .
H60A H 0.0315 0.4714 -0.0556 0.144 Uiso 1 1 calc R . .
H60B H 0.1287 0.4925 -0.0718 0.144 Uiso 1 1 calc R . .
H60C H 0.0475 0.3993 -0.1177 0.144 Uiso 1 1 calc R . .
O61 O 0.8215(2) 0.5768(2) 0.56589(19) 0.0687(9) Uani 1 1 d . . .
C61 C 0.0585(5) 0.8896(5) -0.4346(4) 0.0693(18) Uani 0.75 1 d P B 1
H61A H 0.0538 0.8419 -0.4073 0.104 Uiso 0.75 1 calc PR B 1
H61B H 0.1270 0.9236 -0.4150 0.104 Uiso 0.75 1 calc PR B 1
H61C H 0.0340 0.8630 -0.4912 0.104 Uiso 0.75 1 calc PR B 1
O63 O -0.1214(3) 0.8990(2) -0.43912(18) 0.0767(11) Uani 1 1 d . . .
C63 C -0.0820(19) 1.0657(14) -0.3591(14) 0.085(7) Uani 0.25 1 d P B 2
H63A H -0.0249 1.0940 -0.3677 0.127 Uiso 0.25 1 calc PR B 2
H63B H -0.0806 1.0999 -0.3100 0.127 Uiso 0.25 1 calc PR B 2
H63C H -0.1420 1.0648 -0.4031 0.127 Uiso 0.25 1 calc PR B 2
C65 C -0.3902(16) 0.8950(14) -0.2976(14) 0.049(5) Uiso 0.25 1 d P C 2
H65A H -0.3954 0.8587 -0.2609 0.073 Uiso 0.25 1 calc PR C 2
H65B H -0.4548 0.8847 -0.3401 0.073 Uiso 0.25 1 calc PR C 2
H65C H -0.3658 0.9587 -0.2697 0.073 Uiso 0.25 1 calc PR C 2
C66 C -0.4303(16) 0.8609(18) -0.4049(14) 0.167(8) Uiso 0.50 1 d P C 3
H66A H -0.4655 0.8088 -0.4502 0.250 Uiso 0.50 1 calc PR C 3
H66B H -0.4388 0.9159 -0.4219 0.250 Uiso 0.50 1 calc PR C 3
H66C H -0.4563 0.8560 -0.3647 0.250 Uiso 0.50 1 calc PR C 3
O68 O -0.2749(3) 0.8034(3) -0.3175(2) 0.0918(12) Uani 1 1 d . . .
O69 O 0.5538(3) 0.5794(3) 0.3441(2) 0.0857(12) Uani 1 1 d . . .
O70 O -0.1040(3) 0.4982(3) -0.1767(3) 0.0974(14) Uani 1 1 d . . .
C70 C 0.0336(14) 0.9531(15) -0.3543(11) 0.0510(15) Uani 0.25 1 d P B 2
H70A H 0.0284 0.8995 -0.3924 0.077 Uiso 0.25 1 calc PR B 2
H70B H 0.0800 0.9538 -0.3019 0.077 Uiso 0.25 1 calc PR B 2
H70C H 0.0569 1.0069 -0.3694 0.077 Uiso 0.25 1 calc PR B 2
C71 C 0.0422(4) 0.9880(4) -0.3134(3) 0.0510(15) Uani 0.75 1 d P B 1
H71A H 0.0046 1.0215 -0.2923 0.077 Uiso 0.75 1 calc PR B 1
H71B H 0.1096 1.0245 -0.2944 0.077 Uiso 0.75 1 calc PR B 1
H71C H 0.0424 0.9323 -0.2960 0.077 Uiso 0.75 1 calc PR B 1
O72 O -0.0097(3) 0.7344(4) 0.4123(3) 0.1162(16) Uani 1 1 d . . .
C72 C -0.4109(17) 0.8926(16) -0.3472(16) 0.064(5) Uiso 0.25 1 d P C 1
H72A H -0.4267 0.9508 -0.3406 0.095 Uiso 0.25 1 calc PR C 1
H72B H -0.4476 0.8520 -0.3271 0.095 Uiso 0.25 1 calc PR C 1
H72C H -0.4289 0.8667 -0.4031 0.095 Uiso 0.25 1 calc PR C 1
C57A C 0.0986(19) 0.6251(13) 0.4643(14) 0.120(4) Uiso 0.50 1 d PD A 2
H57A H 0.0366 0.5909 0.4623 0.180 Uiso 0.50 1 calc PR A 2
H57B H 0.1503 0.6347 0.5167 0.180 Uiso 0.50 1 calc PR A 2
H57C H 0.1160 0.5916 0.4248 0.180 Uiso 0.50 1 calc PR A 2
C75 C -0.2436(7) 0.9688(6) -0.3363(5) 0.142(3) Uiso 1 1 d D C 3
H75A H -0.2796 1.0132 -0.3285 0.213 Uiso 1 1 calc R C 3
H75B H -0.2163 0.9809 -0.3746 0.213 Uiso 1 1 calc R C 3
H75C H -0.1903 0.9727 -0.2862 0.213 Uiso 1 1 calc R C 3

loop_
_atom_site_aniso_label
_atom_site_aniso_U_11
_atom_site_aniso_U_22
_atom_site_aniso_U_33
_atom_site_aniso_U_23
_atom_site_aniso_U_13
_atom_site_aniso_U_12
S1 0.0435(6) 0.0642(8) 0.0509(7) 0.0052(6) 0.0071(5) 0.0052(6)
O1 0.0297(15) 0.0507(17) 0.0474(17) -0.0010(14) 0.0012(13) 0.0107(13)
C1 0.0261(18) 0.0310(18) 0.040(2) 0.0176(17) 0.0125(16) 0.0033(15)
S2 0.0607(8) 0.0670(8) 0.0760(9) 0.0382(7) 0.0179(7) 0.0091(6)
O2 0.0637(19) 0.0170(12) 0.0569(18) 0.0115(12) 0.0098(15) 0.0076(12)
C2 0.0276(19) 0.041(2) 0.029(2) 0.0143(17) 0.0065(16) -0.0014(16)
S3 0.092(4) 0.190(6) 0.090(3) 0.059(3) 0.036(3) 0.083(4)
C3 0.028(2) 0.037(2) 0.044(2) 0.0229(18) 0.0048(17) 0.0078(16)
S4 0.049(2) 0.156(5) 0.180(6) 0.111(5) 0.008(3) 0.013(3)
O4 0.0211(13) 0.0586(18) 0.0540(18) 0.0047(14) 0.0101(13) 0.0032(12)
C4 0.0246(18) 0.0300(18) 0.038(2) 0.0112(17) 0.0056(16) 0.0026(15)
S5 0.0634(9) 0.0913(11) 0.0933(11) 0.0144(9) 0.0403(8) -0.0168(8)
O5 0.0409(16) 0.0374(15) 0.0542(17) 0.0192(13) 0.0060(14) 0.0192(13)
C5 0.0196(17) 0.0245(17) 0.041(2) 0.0144(16) 0.0104(15) 0.0021(14)
S6 0.0505(9) 0.0538(9) 0.0383(8) 0.0227(7) 0.0073(7) 0.0073(7)
C6 0.0240(17) 0.0289(18) 0.0313(19) 0.0152(15) 0.0078(15) 0.0026(14)
S7 0.060(3) 0.061(3) 0.039(2) 0.029(2) 0.005(2) 0.004(2)
C7 0.0278(18) 0.0219(16) 0.042(2) 0.0100(16) 0.0107(16) 0.0063(14)
S8 0.23(2) 0.075(8) 0.45(4) 0.065(14) -0.13(3) -0.076(11)
C8 0.0284(19) 0.0317(19) 0.036(2) 0.0129(16) 0.0103(16) 0.0079(15)
S9 0.091(7) 0.258(16) 0.186(12) 0.192(13) 0.094(9) 0.124(9)
O9 0.0423(16) 0.0644(19) 0.0337(15) 0.0211(14) 0.0089(13) 0.0167(14)
C9 0.0290(19) 0.0288(18) 0.039(2) 0.0075(16) 0.0144(17) 0.0059(15)
S10 0.051(2) 0.054(2) 0.097(3) 0.0034(19) 0.003(2) 0.0217(18)
C10 0.037(2) 0.0298(19) 0.064(3) 0.0185(19) 0.025(2) 0.0168(17)
C11 0.037(2) 0.046(2) 0.071(3) 0.022(2) 0.027(2) 0.0258(19)
C12 0.029(2) 0.041(2) 0.055(3) 0.0142(19) 0.0232(19) 0.0094(17)
O13 0.0348(15) 0.0492(17) 0.075(2) 0.0188(15) 0.0321(15) 0.0127(13)
C13 0.0274(18) 0.0302(18) 0.0307(19) 0.0060(15) 0.0106(15) 0.0070(15)
C14 0.0240(17) 0.0291(18) 0.0289(19) 0.0085(15) 0.0079(15) 0.0112(14)
C15 0.0228(17) 0.0341(19) 0.038(2) 0.0172(16) 0.0141(16) 0.0090(15)
O16 0.0604(19) 0.0597(19) 0.0602(19) 0.0252(16) 0.0361(17) -0.0087(15)
C16 0.0265(18) 0.0300(18) 0.0332(19) 0.0201(16) 0.0113(16) 0.0057(15)
O17 0.0570(19) 0.0342(15) 0.0452(17) 0.0045(13) 0.0022(14) 0.0120(14)
C17 0.0239(19) 0.038(2) 0.044(2) 0.0149(18) 0.0101(17) 0.0079(16)
C18 0.0244(19) 0.041(2) 0.045(2) 0.0114(19) 0.0047(17) 0.0034(17)
O19 0.105(3) 0.0288(15) 0.0499(18) 0.0166(13) 0.0298(18) 0.0113(16)
C19 0.035(2) 0.0305(19) 0.034(2) 0.0096(17) 0.0064(17) 0.0077(16)
C20 0.0285(19) 0.0270(18) 0.036(2) 0.0162(16) 0.0125(16) 0.0084(15)
C21 0.0236(17) 0.0244(17) 0.036(2) 0.0161(16) 0.0082(15) 0.0046(14)
C22 0.0294(19) 0.0262(17) 0.033(2) 0.0122(15) 0.0075(16) 0.0064(15)
C23 0.0290(19) 0.0274(18) 0.047(2) 0.0154(17) 0.0150(17) 0.0076(15)
C24 0.032(2) 0.033(2) 0.046(2) 0.0168(18) 0.0140(18) 0.0079(16)
C25 0.0269(18) 0.0252(17) 0.036(2) 0.0084(15) 0.0107(16) 0.0080(15)
C26 0.036(2) 0.0301(19) 0.035(2) 0.0043(16) 0.0076(17) 0.0074(16)
C27 0.042(2) 0.0198(17) 0.046(2) 0.0020(17) 0.0105(19) 0.0022(16)
C28 0.042(2) 0.0225(17) 0.045(2) 0.0140(17) 0.0136(19) 0.0120(16)
C29 0.0232(18) 0.0241(17) 0.040(2) 0.0110(16) 0.0089(16) 0.0079(14)
C30 0.0271(19) 0.0212(17) 0.042(2) 0.0049(16) 0.0096(17) 0.0028(14)
C31 0.0302(19) 0.0246(17) 0.047(2) 0.0137(17) 0.0114(17) 0.0089(15)
C32 0.0306(19) 0.0281(18) 0.040(2) 0.0119(16) 0.0120(17) 0.0098(15)
C33 0.0294(19) 0.0294(18) 0.042(2) 0.0147(17) 0.0095(17) 0.0080(15)
C34 0.0284(19) 0.0277(18) 0.037(2) 0.0172(16) 0.0053(16) 0.0036(15)
C35 0.053(3) 0.032(2) 0.041(2) 0.0178(18) 0.014(2) 0.0036(18)
C36 0.062(3) 0.035(2) 0.050(3) 0.018(2) 0.020(2) -0.008(2)
C37 0.040(2) 0.051(3) 0.038(2) 0.020(2) 0.0166(19) -0.0028(19)
C38 0.0238(18) 0.038(2) 0.036(2) 0.0196(17) 0.0095(16) 0.0028(15)
C39 0.0224(18) 0.0357(19) 0.038(2) 0.0226(17) 0.0068(16) 0.0031(15)
O40 0.060(2) 0.0476(18) 0.118(3) 0.0465(19) 0.045(2) 0.0322(16)
C40 0.0259(19) 0.048(2) 0.039(2) 0.0241(18) 0.0172(17) 0.0089(17)
C41 0.037(2) 0.038(2) 0.036(2) 0.0178(17) 0.0178(17) 0.0146(17)
O42 0.0471(18) 0.102(3) 0.0376(17) 0.0213(17) 0.0193(15) 0.0157(18)
C42 0.033(2) 0.040(2) 0.039(2) 0.0165(17) 0.0155(17) 0.0134(17)
C43 0.0287(19) 0.038(2) 0.036(2) 0.0099(17) 0.0131(17) 0.0093(16)
C44 0.0298(19) 0.039(2) 0.039(2) 0.0191(17) 0.0172(17) 0.0124(16)
C45 0.034(2) 0.053(2) 0.046(2) 0.020(2) 0.0206(19) 0.0091(19)
C46 0.047(3) 0.079(3) 0.039(2) 0.024(2) 0.027(2) 0.015(2)
C47 0.036(2) 0.064(3) 0.036(2) 0.018(2) 0.0164(19) 0.011(2)
C48 0.032(2) 0.0338(19) 0.038(2) 0.0171(17) 0.0143(17) 0.0103(16)
C49 0.0310(19) 0.038(2) 0.036(2) 0.0197(17) 0.0162(17) 0.0139(16)
C50 0.0319(19) 0.0342(19) 0.032(2) 0.0110(16) 0.0135(16) 0.0107(16)
O51 0.0414(17) 0.085(2) 0.0533(19) 0.0223(17) 0.0286(15) -0.0015(15)
C51 0.032(2) 0.0338(19) 0.041(2) 0.0153(17) 0.0136(17) 0.0120(16)
C52 0.104(6) 0.208(9) 0.087(5) 0.067(6) 0.034(4) 0.057(6)
C53 0.134(7) 0.103(5) 0.091(5) 0.002(4) 0.002(5) 0.035(5)
C54 0.111(5) 0.127(6) 0.107(5) 0.059(4) 0.051(4) 0.072(5)
C55 0.069(3) 0.063(3) 0.069(3) 0.038(3) 0.023(3) 0.017(3)
C59 0.077(4) 0.061(3) 0.148(6) 0.043(4) 0.052(4) 0.000(3)
C60 0.077(4) 0.068(4) 0.145(6) 0.023(4) 0.052(4) 0.012(3)
O61 0.0414(18) 0.075(2) 0.066(2) 0.0149(18) 0.0018(16) 0.0020(16)
C61 0.054(4) 0.083(5) 0.067(5) 0.021(4) 0.023(4) 0.011(4)
O63 0.083(3) 0.073(2) 0.0386(18) 0.0119(16) -0.0124(17) 0.015(2)
C63 0.104(18) 0.055(12) 0.077(15) 0.010(11) 0.023(14) 0.008(12)
O68 0.057(2) 0.107(3) 0.092(3) 0.023(2) 0.013(2) 0.016(2)
O69 0.092(3) 0.093(3) 0.071(2) 0.050(2) 0.018(2) 0.027(2)
O70 0.059(2) 0.087(3) 0.151(4) 0.061(3) 0.046(3) -0.007(2)
C70 0.045(3) 0.062(4) 0.029(3) 0.010(3) 0.004(3) -0.003(3)
C71 0.045(3) 0.062(4) 0.029(3) 0.010(3) 0.004(3) -0.003(3)
O72 0.087(3) 0.145(4) 0.111(4) 0.062(3) 0.010(3) 0.052(3)

_geom_special_details            
;
All esds (except the esd in the dihedral angle between two l.s. planes)
are estimated using the full covariance matrix. The cell esds are taken
into account individually in the estimation of esds in distances, angles
and torsion angles; correlations between esds in cell parameters are only
used when they are defined by crystal symmetry. An approximate (isotropic)
treatment of cell esds is used for estimating esds involving l.s. planes.
;

loop_
_geom_bond_atom_site_label_1
_geom_bond_atom_site_label_2
_geom_bond_distance
_geom_bond_site_symmetry_2
_geom_bond_publ_flag
S1 O61 1.511(3) . ?
S1 C52 1.754(7) . ?
S1 C53 1.797(7) . ?
O1 C19 1.374(4) . ?
C1 C6 1.386(5) . ?
C1 C2 1.394(5) . ?
C1 C50 1.522(5) 2_675 ?
S2 O69 1.510(4) . ?
S2 C55 1.761(5) . ?
S2 C54 1.762(7) . ?
O2 C28 1.387(4) . ?
C2 O9 1.379(4) . ?
C2 C3 1.396(5) . ?
S3 O72 1.628(7) . ?
S3 C57 1.833(15) . ?
S3 C56 1.873(14) . ?
C3 C4 1.360(5) . ?
S4 O72 1.387(6) . ?
S4 C57A 1.741(16) . ?
S4 C58 1.796(14) . ?
O4 C17 1.371(4) . ?
C4 O5 1.378(4) . ?
C4 C5 1.407(5) . ?
S5 O70 1.515(4) . ?
S5 C60 1.732(7) . ?
S5 C59 1.758(6) . ?
C5 C6 1.400(5) . ?
C5 C7 1.527(5) . ?
S6 O63 1.638(4) . ?
S6 C61 1.758(7) . ?
S6 C71 1.764(6) . ?
S7 O63 1.532(6) . ?
S7 C70 1.72(2) . ?
S7 C63 1.82(2) . ?
C7 C9 1.522(5) . ?
C7 C8 1.534(5) . ?
S8 C72 1.21(3) . ?
S8 O68 1.85(3) . ?
C8 C33 1.514(5) 2_675 ?
S9 O68 1.397(13) . ?
S9 C65 1.42(2) . ?
C9 C14 1.381(5) . ?
C9 C10 1.404(5) . ?
S10 C66 1.53(2) . ?
S10 O68 1.557(6) . ?
S10 C75 1.705(9) . ?
C10 O40 1.372(4) . ?
C10 C11 1.386(5) . ?
C11 C12 1.372(5) . ?
C12 O13 1.381(4) . ?
C12 C13 1.400(5) . ?
C13 C14 1.400(5) . ?
C13 C15 1.537(5) . ?
C15 C16 1.519(5) . ?
C15 C43 1.535(5) . ?
O16 C37 1.373(5) . ?
C16 C21 1.390(5) . ?
C16 C17 1.403(5) . ?
O17 C26 1.372(4) . ?
C17 C18 1.381(5) . ?
C18 C19 1.381(5) . ?
O19 C35 1.380(5) . ?
C19 C20 1.400(5) . ?
C20 C21 1.379(5) . ?
C20 C22 1.539(5) . ?
C22 C25 1.519(4) . ?
C22 C23 1.538(5) . ?
C23 C24 1.513(5) . ?
C24 C51 1.531(5) 2_675 ?
C25 C30 1.391(5) . ?
C25 C26 1.398(5) . ?
C26 C27 1.373(5) . ?
C27 C28 1.373(5) . ?
C28 C29 1.399(5) . ?
C29 C30 1.382(4) . ?
C29 C31 1.525(5) . ?
C31 C34 1.517(5) . ?
C31 C32 1.532(5) . ?
C32 C33 1.522(5) . ?
C33 C8 1.514(5) 2_675 ?
C34 C35 1.393(5) . ?
C34 C39 1.410(5) . ?
C35 C36 1.378(6) . ?
C36 C37 1.371(6) . ?
C37 C38 1.414(5) . ?
C38 C39 1.393(5) . ?
C38 C40 1.521(5) . ?
C40 C44 1.526(5) . ?
C40 C41 1.526(5) . ?
C41 C42 1.505(5) . ?
O42 C47 1.380(5) . ?
C42 C43 1.515(5) . ?
C44 C49 1.394(5) . ?
C44 C45 1.410(5) . ?
C45 C46 1.378(6) . ?
C45 O51 1.379(5) . ?
C46 C47 1.377(6) . ?
C47 C48 1.405(5) . ?
C48 C49 1.385(5) . ?
C48 C50 1.538(5) . ?
C50 C1 1.522(5) 2_675 ?
C50 C51 1.533(5) . ?
C51 C24 1.531(5) 2_675 ?

loop_
_geom_angle_atom_site_label_1
_geom_angle_atom_site_label_2
_geom_angle_atom_site_label_3
_geom_angle
_geom_angle_site_symmetry_1
_geom_angle_site_symmetry_3
_geom_angle_publ_flag
O61 S1 C52 105.0(3) . . ?
O61 S1 C53 106.7(3) . . ?
C52 S1 C53 93.7(4) . . ?
C6 C1 C2 117.0(3) . . ?
C6 C1 C50 123.4(3) . 2_675 ?
C2 C1 C50 119.5(3) . 2_675 ?
O69 S2 C55 105.9(2) . . ?
O69 S2 C54 107.2(3) . . ?
C55 S2 C54 97.6(3) . . ?
O9 C2 C1 117.6(3) . . ?
O9 C2 C3 122.0(3) . . ?
C1 C2 C3 120.4(3) . . ?
O72 S3 C57 96.3(8) . . ?
O72 S3 C56 101.2(7) . . ?
C57 S3 C56 100.4(10) . . ?
C4 C3 C2 121.0(3) . . ?
O72 S4 C57A 114.6(9) . . ?
O72 S4 C58 99.8(7) . . ?
C57A S4 C58 95.1(11) . . ?
C3 C4 O5 121.4(3) . . ?
C3 C4 C5 121.1(3) . . ?
O5 C4 C5 117.5(3) . . ?
O70 S5 C60 105.7(3) . . ?
O70 S5 C59 106.6(3) . . ?
C60 S5 C59 97.1(3) . . ?
C6 C5 C4 116.3(3) . . ?
C6 C5 C7 123.8(3) . . ?
C4 C5 C7 119.7(3) . . ?
O63 S6 C61 107.0(3) . . ?
O63 S6 C71 103.4(2) . . ?
C61 S6 C71 97.6(3) . . ?
C1 C6 C5 124.1(3) . . ?
O63 S7 C70 85.9(7) . . ?
O63 S7 C63 103.1(8) . . ?
C70 S7 C63 98.9(11) . . ?
C9 C7 C5 111.1(3) . . ?
C9 C7 C8 111.2(3) . . ?
C5 C7 C8 114.2(3) . . ?
C72 S8 O68 117.9(16) . . ?
C33 C8 C7 114.4(3) 2_675 . ?
O68 S9 C65 128.9(11) . . ?
C14 C9 C10 116.2(3) . . ?
C14 C9 C7 121.6(3) . . ?
C10 C9 C7 122.1(3) . . ?
C66 S10 O68 124.9(11) . . ?
C66 S10 C75 115.0(11) . . ?
O68 S10 C75 108.7(4) . . ?
O40 C10 C11 116.8(3) . . ?
O40 C10 C9 122.4(3) . . ?
C11 C10 C9 120.8(3) . . ?
C12 C11 C10 121.1(3) . . ?
C11 C12 O13 117.1(3) . . ?
C11 C12 C13 120.7(3) . . ?
O13 C12 C13 122.1(3) . . ?
C12 C13 C14 116.4(3) . . ?
C12 C13 C15 122.3(3) . . ?
C14 C13 C15 121.3(3) . . ?
C9 C14 C13 124.8(3) . . ?
C16 C15 C43 114.9(3) . . ?
C16 C15 C13 110.0(3) . . ?
C43 C15 C13 111.5(3) . . ?
C21 C16 C17 116.6(3) . . ?
C21 C16 C15 123.6(3) . . ?
C17 C16 C15 119.6(3) . . ?
O4 C17 C18 121.1(3) . . ?
O4 C17 C16 118.2(3) . . ?
C18 C17 C16 120.7(3) . . ?
C17 C18 C19 120.6(3) . . ?
O1 C19 C18 121.3(3) . . ?
O1 C19 C20 118.0(3) . . ?
C18 C19 C20 120.7(3) . . ?
C21 C20 C19 117.0(3) . . ?
C21 C20 C22 122.5(3) . . ?
C19 C20 C22 120.4(3) . . ?
C20 C21 C16 124.3(3) . . ?
C25 C22 C23 112.0(3) . . ?
C25 C22 C20 111.4(3) . . ?
C23 C22 C20 113.8(3) . . ?
C24 C23 C22 114.1(3) . . ?
C23 C24 C51 112.2(3) . 2_675 ?
C30 C25 C26 116.5(3) . . ?
C30 C25 C22 121.2(3) . . ?
C26 C25 C22 122.3(3) . . ?
O17 C26 C27 117.2(3) . . ?
O17 C26 C25 122.1(3) . . ?
C27 C26 C25 120.6(3) . . ?
C28 C27 C26 121.1(3) . . ?
C27 C28 O2 117.9(3) . . ?
C27 C28 C29 120.8(3) . . ?
O2 C28 C29 121.3(3) . . ?
C30 C29 C28 116.5(3) . . ?
C30 C29 C31 121.7(3) . . ?
C28 C29 C31 121.9(3) . . ?
C29 C30 C25 124.5(3) . . ?
C34 C31 C29 110.1(3) . . ?
C34 C31 C32 114.9(3) . . ?
C29 C31 C32 112.1(3) . . ?
C33 C32 C31 113.8(3) . . ?
C8 C33 C32 111.5(3) 2_675 . ?
C35 C34 C39 116.5(4) . . ?
C35 C34 C31 120.8(3) . . ?
C39 C34 C31 122.7(3) . . ?
C36 C35 O19 121.5(3) . . ?
C36 C35 C34 120.6(4) . . ?
O19 C35 C34 117.9(4) . . ?
C37 C36 C35 121.8(4) . . ?
C36 C37 O16 122.1(4) . . ?
C36 C37 C38 120.8(4) . . ?
O16 C37 C38 117.1(4) . . ?
C39 C38 C37 115.8(3) . . ?
C39 C38 C40 123.6(3) . . ?
C37 C38 C40 120.3(3) . . ?
C38 C39 C34 124.4(3) . . ?
C38 C40 C44 110.7(3) . . ?
C38 C40 C41 114.8(3) . . ?
C44 C40 C41 111.5(3) . . ?
C42 C41 C40 116.6(3) . . ?
C41 C42 C43 111.4(3) . . ?
C42 C43 C15 115.2(3) . . ?
C49 C44 C45 116.9(3) . . ?
C49 C44 C40 121.1(3) . . ?
C45 C44 C40 122.0(3) . . ?
C46 C45 O51 117.7(3) . . ?
C46 C45 C44 120.2(3) . . ?
O51 C45 C44 122.0(4) . . ?
C47 C46 C45 121.3(4) . . ?
C46 C47 O42 117.3(3) . . ?
C46 C47 C48 120.6(4) . . ?
O42 C47 C48 122.1(3) . . ?
C49 C48 C47 116.9(3) . . ?
C49 C48 C50 121.2(3) . . ?
C47 C48 C50 121.9(3) . . ?
C48 C49 C44 124.0(3) . . ?
C1 C50 C51 114.3(3) 2_675 . ?
C1 C50 C48 111.2(3) 2_675 . ?
C51 C50 C48 111.3(3) . . ?
C24 C51 C50 112.8(3) 2_675 . ?
S7 O63 S6 71.6(2) . . ?
S9 O68 S10 30.0(5) . . ?
S9 O68 S8 12.3(15) . . ?
S10 O68 S8 40.3(13) . . ?
S4 O72 S3 35.5(3) . . ?

_diffrn_measured_fraction_theta_max 0.963
_diffrn_reflns_theta_full        27.19
_diffrn_measured_fraction_theta_full 0.963
_refine_diff_density_max         0.962
_refine_diff_density_min         -0.504
_refine_diff_density_rms         0.109


