
#######################################################################
#
#                 Cambridge Crystallographic Data Centre
#                                CCDC 
#
#######################################################################
#
# If this CIF has been generated directly or indirectly from an entry in the 
# Cambridge Structural Database, then it will include bibliographic, chemical, 
# crystal, experimental, refinement or atomic coordinate data resulting from 
# the CCDC's data processing and validation procedures. Files generated from 
# CSD entries are Copyright 2015 Cambridge Crystallographic Data Centre. They 
# may be used in bona fide research applications only, and may not be copied or 
# further disseminated in any form, whether machine-readable or not, except for 
# the purposes of generating routine backup copies on your local computer 
# system.
# 
# Files arising from any other source may also contain material that is the 
# copyright of third parties, including the originator, and you should check 
# with the originator concerning the permitted uses of the information 
# contained in this CIF.
#
# For further information on the CCDC and the free tools enCIFer and Mercury
# for validating and visualising CIF files, please visit www.ccdc.cam.ac.uk
#
#######################################################################

data_POZZEK
_audit_creation_date             2009-12-22
_database_code_depnum_ccdc_archive 'CCDC 732655'
_chemical_formula_moiety         'C123 H120 B6 N6 O12,8(C7 H8)'
_chemical_name_systematic        
'1^2^,1^4^,1^6^,13^2^,13^4^,13^6^-Hexaethyl-3,11,15,23,26,34-hexaaza-1,13(1,3,5),5,6,8,9,17,18,20,21,28,29,31,32(1,4)-tetradecabenzena-7,19,20(3,9)-tri(2,4,8,10-tetraoxa-3,9-diboraspiro(5.5)undecana)bicyclo(11.11.11)pentatriacontaphane-3,10,15,22,26,33-hexaene toluene solvate'
_journal_coden_Cambridge         4
_journal_volume                  131
_journal_year                    2009
_journal_page_first              3154
_journal_name_full               J.Am.Chem.Soc.
loop_
_publ_author_name
B.Icli
N.Christinat
J.Tonnemann
C.Schuttler
R.Scopelliti
K.Severin
_chemical_absolute_configuration unk
_diffrn_ambient_temperature      100
_exptl_crystal_density_diffrn    1.055
#These two values have been output from a single CSD field.
_refine_ls_R_factor_gt           0.1541
_refine_ls_wR_factor_gt          0.1541
_diffrn_radiation_probe          x-ray
_symmetry_cell_setting           triclinic
_symmetry_space_group_name_H-M   'P -1'
_symmetry_Int_Tables_number      2
loop_
_symmetry_equiv_pos_site_id
_symmetry_equiv_pos_as_xyz
1 x,y,z
2 -x,-y,-z
_cell_length_a                   17.665(8)
_cell_length_b                   18.127(10)
_cell_length_c                   30.45(3)
_cell_angle_alpha                82.86(7)
_cell_angle_beta                 74.86(6)
_cell_angle_gamma                63.57(4)
_cell_volume                     8427.94
_exptl_crystal_colour            colorless
_exptl_crystal_description       needle
_cell_formula_units_Z            2
_exptl_crystal_recrystallization_method toluene
loop_
_atom_site_label
_atom_site_type_symbol
_atom_site_fract_x
_atom_site_fract_y
_atom_site_fract_z
O1 O 0.3722(4) -0.0684(4) 0.5264(2)
O2 O 0.2809(4) 0.0770(3) 0.5264(2)
O3 O 0.4125(4) 0.0950(4) 0.41148(18)
O4 O 0.3293(4) 0.0539(3) 0.37801(18)
O5 O 0.6763(5) 0.6186(5) 0.5772(2)
O6 O 0.5224(4) 0.7030(4) 0.5758(2)
O7 O 0.5951(4) 0.6663(4) 0.4485(2)
O8 O 0.6203(5) 0.7853(5) 0.4402(2)
O9 O -0.1137(5) 0.9505(4) 0.7474(2)
O10 O -0.1687(4) 0.8876(4) 0.7088(2)
O11 O -0.0309(4) 0.9216(4) 0.5984(3)
O12 O -0.1468(5) 1.0572(5) 0.5946(3)
N1 N 0.3489(4) 0.0580(4) 0.8955(3)
N2 N 0.1935(5) 0.5895(5) 0.1295(3)
N3 N 0.4808(4) 0.3249(4) 0.9142(2)
N4 N 0.2901(4) 0.8698(4) 0.1413(3)
N5 N 0.1134(4) 0.3962(4) 0.9788(2)
N6 N -0.0861(7) 0.9266(9) 0.2252(3)
B1 B 0.3294(8) 0.0058(8) 0.5490(4)
B2 B 0.3699(7) 0.1026(7) 0.3807(4)
B3 B 0.5871(12) 0.6414(9) 0.5940(4)
B4 B 0.5852(8) 0.7436(8) 0.4262(3)
B5 B -0.1359(9) 0.8890(7) 0.7393(5)
B6 B -0.0860(9) 0.9821(9) 0.5748(5)
C1 C 0.4075(6) 0.0166(5) 0.8636(3)
H1 H 0.4649 -0.0150 0.8677
C2 C 0.3878(5) 0.0166(5) 0.8199(3)
C3 C 0.4551(7) -0.0373(5) 0.7853(4)
H2 H 0.5107 -0.0717 0.7912
C4 C 0.4396(6) -0.0396(5) 0.7436(3)
H3 H 0.4861 -0.0738 0.7207
C5 C 0.3612(6) 0.0047(6) 0.7340(3)
C6 C 0.2938(6) 0.0636(5) 0.7683(3)
H4 H 0.2406 0.1016 0.7610
C7 C 0.3060(5) 0.0647(5) 0.8103(3)
H5 H 0.2591 0.0982 0.8334
C8 C 0.3491(6) 0.0047(6) 0.6883(3)
C9 C 0.3822(6) -0.0638(6) 0.6640(3)
H6 H 0.4129 -0.1149 0.6778
C10 C 0.3746(5) -0.0648(6) 0.6216(4)
H7 H 0.3988 -0.1165 0.6072
C11 C 0.3327(6) 0.0064(6) 0.5975(3)
C12 C 0.2914(6) 0.0817(7) 0.6225(4)
H8 H 0.2598 0.1317 0.6082
C13 C 0.2964(5) 0.0833(6) 0.6655(3)
H9 H 0.2668 0.1337 0.6817
C14 C 0.3711(6) -0.0771(6) 0.4827(3)
H10 H 0.3272 -0.0973 0.4834
H11 H 0.4285 -0.1196 0.4677
C15 C 0.2716(5) 0.0739(5) 0.4817(3)
H12 H 0.2661 0.1262 0.4655
H13 H 0.2180 0.0677 0.4836
C16 C 0.3513(6) 0.0005(6) 0.4546(3)
C17 C 0.4274(5) 0.0238(5) 0.4403(3)
H14 H 0.4408 0.0337 0.4680
H15 H 0.4791 -0.0234 0.4243
C18 C 0.3344(6) -0.0115(5) 0.4129(3)
H16 H 0.2788 -0.0164 0.4203
H17 H 0.3808 -0.0644 0.3996
C19 C 0.3570(6) 0.1735(5) 0.3420(3)
C20 C 0.3131(6) 0.1767(5) 0.3086(3)
H18 H 0.2956 0.1347 0.3071
C21 C 0.2960(7) 0.2429(6) 0.2776(3)
H19 H 0.2574 0.2524 0.2587
C22 C 0.3354(7) 0.2934(6) 0.2748(3)
C23 C 0.3895(6) 0.2862(7) 0.3021(3)
H20 H 0.4194 0.3200 0.2976
C24 C 0.3981(5) 0.2263(6) 0.3368(3)
H21 H 0.4326 0.2212 0.3572
C25 C 0.3194(5) 0.3628(4) 0.2384(2)
C26 C 0.2356(5) 0.4041(4) 0.2315(2)
H22 H 0.1902 0.3922 0.2505
C27 C 0.2182(5) 0.4627(4) 0.1970(3)
H23 H 0.1609 0.4909 0.1923
C28 C 0.2846(6) 0.4801(4) 0.1693(2)
C29 C 0.3684(5) 0.4388(5) 0.1761(2)
H24 H 0.4137 0.4507 0.1572
C30 C 0.3858(4) 0.3802(4) 0.2107(3)
H25 H 0.4431 0.3519 0.2154
C31 C 0.2671(7) 0.5442(6) 0.1346(3)
H26 H 0.3149 0.5515 0.1149
C32 C 0.4369(6) 0.3441(5) 0.8858(3)
H27 H 0.3875 0.3326 0.8927
C33 C 0.4558(6) 0.3840(5) 0.8417(3)
C34 C 0.5317(7) 0.4006(6) 0.8308(4)
H28 H 0.5677 0.3848 0.8519
C35 C 0.5520(8) 0.4377(6) 0.7917(3)
H29 H 0.6013 0.4491 0.7862
C36 C 0.5008(6) 0.4612(5) 0.7574(3)
C37 C 0.4272(6) 0.4441(6) 0.7717(3)
H30 H 0.3898 0.4596 0.7514
C38 C 0.4042(6) 0.4070(5) 0.8123(3)
H31 H 0.3533 0.3981 0.8191
C39 C 0.5176(8) 0.5028(6) 0.7152(3)
C40 C 0.6042(7) 0.4894(6) 0.6962(3)
H32 H 0.6483 0.4511 0.7106
C41 C 0.6267(8) 0.5289(7) 0.6585(4)
H33 H 0.6855 0.5206 0.6483
C42 C 0.5662(8) 0.5817(8) 0.6340(3)
C43 C 0.4839(9) 0.5975(8) 0.6530(5)
H34 H 0.4389 0.6362 0.6393
C44 C 0.4623(7) 0.5550(7) 0.6954(4)
H35 H 0.4028 0.5680 0.7085
C45 C 0.7010(7) 0.6661(8) 0.5418(4)
H36 H 0.7601 0.6317 0.5241
H37 H 0.7034 0.7121 0.5549
C46 C 0.5471(7) 0.7508(6) 0.5402(3)
H38 H 0.5469 0.7982 0.5533
H39 H 0.5037 0.7727 0.5213
C47 C 0.6386(8) 0.7018(7) 0.5093(4)
C48 C 0.6387(6) 0.6366(6) 0.4857(3)
H40 H 0.6996 0.5969 0.4737
H41 H 0.6100 0.6067 0.5078
C49 C 0.6638(7) 0.7594(8) 0.4758(3)
H42 H 0.6522 0.8086 0.4922
H43 H 0.7272 0.7318 0.4625
C50 C 0.5468(6) 0.7701(6) 0.3872(3)
C51 C 0.5531(6) 0.8342(6) 0.3579(3)
H44 H 0.5838 0.8624 0.3635
C52 C 0.5152(6) 0.8575(5) 0.3203(3)
H45 H 0.5207 0.9015 0.3014
C53 C 0.4709(6) 0.8194(6) 0.3100(3)
C54 C 0.4603(8) 0.7602(7) 0.3367(4)
H46 H 0.4284 0.7344 0.3297
C55 C 0.4972(7) 0.7331(7) 0.3773(4)
H47 H 0.4878 0.6912 0.3966
C56 C 0.4321(7) 0.8456(6) 0.2708(4)
C57 C 0.3980(7) 0.9294(6) 0.2538(3)
H48 H 0.4032 0.9696 0.2686
C58 C 0.3588(7) 0.9547(6) 0.2178(3)
H49 H 0.3405 1.0101 0.2072
C59 C 0.3462(6) 0.8980(5) 0.1969(3)
C60 C 0.3893(6) 0.8127(5) 0.2091(3)
H50 H 0.3930 0.7711 0.1914
C61 C 0.4250(7) 0.7913(6) 0.2461(3)
H51 H 0.4464 0.7351 0.2554
C62 C 0.2977(6) 0.9223(6) 0.1614(3)
H52 H 0.2712 0.9789 0.1533
C63 C 0.0471(6) 0.4089(4) 0.9631(3)
H53 H 0.0193 0.3733 0.9724
C64 C 0.0131(5) 0.4780(4) 0.9307(3)
C65 C 0.0495(5) 0.5349(6) 0.9203(3)
H54 H 0.0913 0.5294 0.9363
C66 C 0.0297(6) 0.5969(5) 0.8892(3)
H55 H 0.0600 0.6305 0.8814
C67 C -0.0357(6) 0.6082(4) 0.8701(3)
C68 C -0.0718(5) 0.5507(5) 0.8769(3)
H56 H -0.1121 0.5542 0.8604
C69 C -0.0441(6) 0.4871(6) 0.9100(3)
H57 H -0.0699 0.4497 0.9167
C70 C -0.0660(6) 0.6791(5) 0.8372(3)
C71 C -0.0689(6) 0.7536(6) 0.8450(3)
H58 H -0.0540 0.7588 0.8719
C72 C -0.0921(7) 0.8217(6) 0.8162(3)
H59 H -0.0969 0.8726 0.8248
C73 C -0.1079(6) 0.8152(7) 0.7754(4)
C74 C -0.1061(6) 0.7397(7) 0.7663(3)
H60 H -0.1211 0.7344 0.7395
C75 C -0.0825(6) 0.6730(6) 0.7962(3)
H61 H -0.0777 0.6218 0.7882
C76 C -0.1324(9) 1.0182(7) 0.7132(4)
H62 H -0.1904 1.0627 0.7254
H63 H -0.0894 1.0409 0.7094
C77 C -0.1881(6) 0.9553(6) 0.6757(3)
H64 H -0.2492 0.9962 0.6859
H65 H -0.1819 0.9336 0.6460
C78 C -0.1308(7) 0.9965(7) 0.6696(4)
C79 C -0.0371(8) 0.9388(8) 0.6460(4)
H66 H 0.0019 0.9645 0.6460
H67 H -0.0176 0.8863 0.6632
C80 C -0.1561(8) 1.0732(6) 0.6395(4)
H68 H -0.2174 1.1112 0.6521
H69 H -0.1199 1.1015 0.6404
C81 C -0.0804(7) 0.9661(8) 0.5273(4)
C82 C -0.1280(6) 1.0299(6) 0.5005(4)
H70 H -0.1633 1.0830 0.5134
C83 C -0.1258(6) 1.0184(7) 0.4543(4)
H71 H -0.1558 1.0632 0.4362
C84 C -0.0785(8) 0.9400(7) 0.4373(4)
C85 C -0.0322(6) 0.8743(7) 0.4627(5)
H72 H 0.0008 0.8207 0.4501
C86 C -0.0350(8) 0.8881(9) 0.5062(5)
H73 H -0.0045 0.8422 0.5235
C87 C -0.0727(7) 0.9265(8) 0.3902(3)
C88 C -0.1354(6) 0.9908(6) 0.3714(4)
H74 H -0.1771 1.0374 0.3892
C89 C -0.1371(6) 0.9870(6) 0.3263(4)
H75 H -0.1800 1.0310 0.3134
C90 C -0.0762(8) 0.9189(8) 0.3002(3)
C91 C -0.0135(7) 0.8545(5) 0.3191(4)
H76 H 0.0282 0.8080 0.3012
C92 C -0.0118(7) 0.8584(6) 0.3641(4)
H77 H 0.0311 0.8144 0.3770
C93 C -0.0437(10) 0.8858(8) 0.2524(4)
H78 H 0.0071 0.8359 0.2441
C94 C 0.3527(5) 0.1416(4) 0.9514(3)
C95 C 0.4142(4) 0.1701(4) 0.9457(2)
C96 C 0.3904(5) 0.2512(4) 0.9617(2)
C97 C 0.3062(4) 0.2990(4) 0.9836(3)
C98 C 0.2413(4) 0.2694(4) 0.9881(3)
C99 C 0.2605(4) 0.1917(4) 0.9744(2)
C100 C 0.3750(5) 0.0552(4) 0.9377(3)
H79 H 0.4383 0.0208 0.9334
H80 H 0.3446 0.0299 0.9622
C101 C 0.5052(5) 0.1216(4) 0.9204(3)
H81 H 0.5286 0.1601 0.9034
H82 H 0.5052 0.0865 0.8980
C102 C 0.5692(5) 0.0634(4) 0.9531(3)
H83 H 0.6275 0.0321 0.9345
H84 H 0.5465 0.0251 0.9702
H85 H 0.5720 0.0979 0.9744
C103 C 0.4606(5) 0.2805(4) 0.9576(3)
H86 H 0.4427 0.3176 0.9834
H87 H 0.5148 0.2320 0.9610
C104 C 0.2825(5) 0.3847(4) 1.0016(3)
H88 H 0.3216 0.4077 0.9822
H89 H 0.2221 0.4227 1.0000
C105 C 0.2910(5) 0.3785(4) 1.0511(3)
H90 H 0.2795 0.4326 1.0610
H91 H 0.3499 0.3388 1.0530
H92 H 0.2489 0.3601 1.0707
C106 C 0.1459(4) 0.3257(4) 1.0093(3)
H93 H 0.1105 0.2944 1.0141
H94 H 0.1413 0.3454 1.0392
C107 C 0.1964(5) 0.1608(4) 0.9787(3)
H95 H 0.2179 0.1184 0.9553
H96 H 0.1424 0.2065 0.9727
C108 C 0.1751(6) 0.1234(6) 1.0254(3)
H97 H 0.1312 0.1039 1.0261
H98 H 0.1525 0.1653 1.0488
H99 H 0.2278 0.0770 1.0313
C109 C 0.1503(6) 0.7381(5) 0.1100(3)
C110 C 0.2095(5) 0.7735(5) 0.1005(3)
C111 C 0.1729(5) 0.8590(5) 0.1165(3)
C112 C 0.0854(4) 0.8996(4) 0.1404(3)
C113 C 0.0311(5) 0.8630(6) 0.1481(3)
C114 C 0.0612(6) 0.7828(6) 0.1336(3)
C115 C 0.1755(6) 0.6565(5) 0.0922(3)
H100 H 0.2282 0.6423 0.0671
H101 H 0.1283 0.6584 0.0796
C116 C 0.2997(5) 0.7300(5) 0.0778(4)
H102 H 0.3194 0.6708 0.0859
H103 H 0.3343 0.7503 0.0895
C117 C 0.3179(6) 0.7383(7) 0.0286(4)
H104 H 0.3805 0.7081 0.0160
H105 H 0.2992 0.7967 0.0202
H106 H 0.2864 0.7158 0.0165
C118 C 0.2366(5) 0.8969(5) 0.1089(3)
H107 H 0.2745 0.8830 0.0780
H108 H 0.2037 0.9576 0.1105
C119 C 0.0567(5) 0.9881(4) 0.1573(3)
H109 H 0.0107 0.9992 0.1857
H110 H 0.1068 0.9917 0.1640
C120 C 0.0221(6) 1.0532(4) 0.1209(3)
H111 H 0.0089 1.1078 0.1310
H112 H -0.0308 1.0532 0.1163
H113 H 0.0663 1.0401 0.0922
C121 C -0.0589(6) 0.9038(8) 0.1763(4)
H114 H -0.0871 0.8684 0.1740
H115 H -0.0876 0.9556 0.1599
C122 C -0.0024(6) 0.7426(6) 0.1422(3)
H116 H 0.0310 0.6821 0.1443
H117 H -0.0439 0.7616 0.1719
C123 C -0.0529(7) 0.7612(7) 0.1062(3)
H118 H -0.0942 0.7366 0.1150
H119 H -0.0128 0.7381 0.0771
H120 H -0.0847 0.8210 0.1029

#END

