
#######################################################################
#
#                 Cambridge Crystallographic Data Centre
#                                CCDC 
#
#######################################################################
#
# If this CIF has been generated directly or indirectly from an entry in the 
# Cambridge Structural Database, then it will include bibliographic, chemical, 
# crystal, experimental, refinement or atomic coordinate data resulting from 
# the CCDC's data processing and validation procedures. Files generated from 
# CSD entries are Copyright 2015 Cambridge Crystallographic Data Centre. They 
# may be used in bona fide research applications only, and may not be copied or 
# further disseminated in any form, whether machine-readable or not, except for 
# the purposes of generating routine backup copies on your local computer 
# system.
# 
# Files arising from any other source may also contain material that is the 
# copyright of third parties, including the originator, and you should check 
# with the originator concerning the permitted uses of the information 
# contained in this CIF.
#
# For further information on the CCDC and the free tools enCIFer and Mercury
# for validating and visualising CIF files, please visit www.ccdc.cam.ac.uk
#
#######################################################################

data_KATJEW
_audit_creation_date             2012-02-24
_database_code_depnum_ccdc_archive 'CCDC 862528'
_chemical_formula_moiety         'C240 H216 N32,75(C1 H2 Cl2)'
_chemical_name_systematic        
'1,4,6,9,12,14,17,20,22,25,28,30,33,36,38,41,44,46,51,53,56,59,61,66,68,71,74,76,81,83,88,90-dotriacontaaza-2,8,10,16,18,24,26,32,34,40,42,48,49,55,57,63,64,70,72,78,79,85,86,92(1,4)-tetracosabenzena-5,13,21,29,37,45,52,60,67,75,82,89(1,2)-dodecacyclohex-4-ena-pentacyclo(31.15.15,15^9,41^.7^25,71^.7^17,56^)dononacontaphane-3,6,11,14,19,22,27,30,35,38,43,46,50,53,58,61,65,68,73,76,80,83,87,90-tetracosaene dichloromethane solvate'
_journal_coden_Cambridge         179
_journal_volume                  50
_journal_year                    2011
_journal_page_first              10653
_journal_name_full               Angew.Chem.,Int.Ed.
loop_
_publ_author_name
K.E.Jelfs
'Xiaofeng Wu'
M.Schmidtmann
J.T.A.Jones
J.E.Warren
D.J.Adams
A.I.Cooper
_chemical_absolute_configuration unk
_diffrn_ambient_temperature      90
_exptl_crystal_density_meas      1.279
_exptl_crystal_density_diffrn    1.279
#These two values have been output from a single CSD field.
_refine_ls_R_factor_gt           0.0373
_refine_ls_wR_factor_gt          0.0373
_diffrn_radiation_probe          x-ray
_symmetry_cell_setting           cubic
_symmetry_space_group_name_H-M   'P 21 3'
_symmetry_Int_Tables_number      198
loop_
_symmetry_equiv_pos_site_id
_symmetry_equiv_pos_as_xyz
1 x,y,z
2 1/2-x,-y,1/2+z
3 -x,1/2+y,1/2-z
4 1/2+x,1/2-y,-z
5 z,x,y
6 1/2+z,1/2-x,-y
7 1/2-z,-x,1/2+y
8 -z,1/2+x,1/2-y
9 y,z,x
10 -y,1/2+z,1/2-x
11 1/2+y,1/2-z,-x
12 1/2-y,-z,1/2+x
_cell_length_a                   46.875(3)
_cell_length_b                   46.875(3)
_cell_length_c                   46.875(3)
_cell_angle_alpha                90
_cell_angle_beta                 90
_cell_angle_gamma                90
_cell_volume                     102997
_exptl_crystal_colour            'pale yellow'
_exptl_crystal_description       block
_cell_formula_units_Z            8
loop_
_atom_site_label
_atom_site_type_symbol
_atom_site_fract_x
_atom_site_fract_y
_atom_site_fract_z
N13 N 0.21851(5) 0.71851(5) 0.78149(5)
N14 N 0.20237(9) 0.70632(9) 0.56300(10)
N15 N 0.23575(8) 0.92520(9) 0.57816(8)
N16 N 0.45342(6) 0.95342(6) 0.54658(6)
N17 N 0.09954(10) 0.72857(10) 0.71062(8)
N18 N 0.09765(9) 0.72918(9) 0.64984(9)
N19 N 0.23626(9) 0.78811(8) 0.46000(8)
N20 N 0.24024(11) 0.85015(8) 0.46408(10)
N21 N 0.11639(11) 0.90537(10) 0.64737(9)
N22 N 0.10415(9) 0.90439(9) 0.70670(8)
N23 N 0.30162(7) 1.04593(9) 0.58314(10)
N24 N 0.36240(7) 1.05267(8) 0.57988(8)
C81 C 0.19408(9) 0.72704(12) 0.76445(7)
C82 C 0.17487(11) 0.70402(10) 0.75720(8)
H73 H 0.1786 0.6851 0.7635
C83 C 0.15185(10) 0.70982(10) 0.74151(8)
H74 H 0.1395 0.6946 0.7365
C84 C 0.14493(12) 0.73801(14) 0.73193(10)
C85 C 0.16446(12) 0.75741(9) 0.73959(9)
H75 H 0.1619 0.7763 0.7327
C86 C 0.18830(9) 0.75253(10) 0.75680(9)
H76 H 0.2000 0.7680 0.7627
C87 C 0.17876(12) 0.70492(15) 0.58425(13)
C88 C 0.16617(13) 0.68233(10) 0.59090(10)
H77 H 0.1735 0.6650 0.5833
C89 C 0.14325(12) 0.68061(11) 0.60778(11)
H78 H 0.1342 0.6628 0.6109
C90 C 0.13329(11) 0.70388(14) 0.62004(12)
C91 C 0.14786(11) 0.73015(11) 0.61409(10)
H79 H 0.1411 0.7477 0.6217
C92 C 0.17033(11) 0.72946(11) 0.59822(11)
H80 H 0.1814 0.7463 0.5961
C93 C 0.22377(10) 0.68409(11) 0.56677(12)
C94 C 0.23333(10) 0.67023(12) 0.54233(11)
H81 H 0.2280 0.6763 0.5237
C95 C 0.25008(11) 0.64819(11) 0.54654(12)
H82 H 0.2546 0.6373 0.5301
C96 C 0.26145(12) 0.63932(13) 0.57054(12)
C97 C 0.25212(10) 0.65238(11) 0.59258(10)
H83 H 0.2590 0.6461 0.6106
C98 C 0.23254(10) 0.67522(11) 0.59256(10)
H84 H 0.2260 0.6838 0.6097
C99 C 0.20285(13) 0.72454(11) 0.54149(11)
C100 C 0.17984(9) 0.73813(11) 0.53051(10)
H85 H 0.1616 0.7346 0.5387
C101 C 0.18176(10) 0.75643(9) 0.50845(11)
H86 H 0.1651 0.7642 0.4999
C102 C 0.20813(13) 0.76343(9) 0.49869(9)
C103 C 0.23145(10) 0.75299(10) 0.50734(9)
H87 H 0.2491 0.7577 0.4987
C104 C 0.22972(10) 0.73300(10) 0.53171(10)
H88 H 0.2466 0.7260 0.5406
C105 C 0.24183(13) 0.90856(9) 0.55309(10)
C106 C 0.26825(11) 0.90307(10) 0.54538(10)
H89 H 0.2836 0.9105 0.5564
C107 C 0.27400(10) 0.88708(10) 0.52226(12)
H90 H 0.2932 0.8833 0.5172
C108 C 0.25108(14) 0.87569(11) 0.50514(12)
C109 C 0.22507(12) 0.88127(10) 0.51457(11)
H91 H 0.2095 0.8742 0.5037
C110 C 0.21902(10) 0.89622(9) 0.53847(12)
H92 H 0.2000 0.8983 0.5451
C111 C 0.21047(10) 0.91632(12) 0.59696(8)
C112 C 0.20875(10) 0.88817(10) 0.60323(10)
H93 H 0.2230 0.8747 0.5979
C113 C 0.18461(12) 0.88090(9) 0.61799(10)
H94 H 0.1815 0.8615 0.6230
C114 C 0.16403(11) 0.90197(14) 0.62607(11)
C115 C 0.16913(11) 0.92784(12) 0.62005(10)
H95 H 0.1563 0.9422 0.6265
C116 C 0.19113(12) 0.93521(10) 0.60550(9)
H96 H 0.1937 0.9547 0.6007
C117 C 0.24971(10) 0.94989(11) 0.58497(11)
C118 C 0.25680(9) 0.95607(9) 0.61253(10)
H97 H 0.2522 0.9436 0.6278
C119 C 0.27129(9) 0.98198(13) 0.61695(10)
H98 H 0.2757 0.9870 0.6361
C120 C 0.27967(10) 1.00069(12) 0.59589(15)
C121 C 0.27456(8) 0.99212(10) 0.56847(11)
H99 H 0.2818 1.0030 0.5530
C122 C 0.25845(8) 0.96690(10) 0.56296(9)
H100 H 0.2538 0.9619 0.5439
C123 C 0.43291(8) 0.97300(8) 0.54851(10)
C124 C 0.42265(10) 0.98267(8) 0.57470(10)
H101 H 0.4301 0.9746 0.5917
C125 C 0.40120(9) 1.00442(10) 0.57683(9)
H102 H 0.3930 1.0093 0.5947
C126 C 0.39293(8) 1.01807(9) 0.55185(11)
C127 C 0.40247(9) 1.00756(9) 0.52578(9)
H103 H 0.3944 1.0151 0.5088
C128 C 0.42324(8) 0.98661(10) 0.52354(9)
H104 H 0.4308 0.9815 0.5054
C129 C 0.11998(13) 0.74276(11) 0.71732(10)
H105 H 0.1184 0.7619 0.7109
C130 C 0.10771(10) 0.70792(11) 0.64010(10)
H106 H 0.0984 0.6908 0.6456
C131 C 0.28449(12) 0.61515(9) 0.57236(11)
H107 H 0.2924 0.6083 0.5550
C132 C 0.21135(10) 0.78360(9) 0.46978(9)
H108 H 0.1950 0.7916 0.4608
C133 C 0.25941(13) 0.85744(14) 0.48123(12)
H109 H 0.2786 0.8514 0.4788
C134 C 0.13564(12) 0.89063(11) 0.64297(9)
H110 H 0.1350 0.8714 0.6493
C135 C 0.29600(9) 1.02702(12) 0.60326(12)
H111 H 0.3023 1.0302 0.6223
C136 C 0.37196(9) 1.04360(9) 0.55460(10)
H112 H 0.3658 1.0531 0.5378
C137 C 0.07542(11) 0.74132(11) 0.69526(10)
H113 H 0.0790 0.7619 0.6910
C138 C 0.07110(10) 0.72458(12) 0.66858(11)
H114 H 0.0675 0.7039 0.6725
C139 C 0.04656(10) 0.73840(12) 0.65093(9)
H115 H 0.0532 0.7568 0.6431
H116 H 0.0418 0.7258 0.6347
C140 C 0.02171(10) 0.74314(14) 0.66743(13)
H117 H 0.0038 0.7460 0.6584
C141 C 0.02369(10) 0.74348(14) 0.69614(12)
H118 H 0.0069 0.7481 0.7065
C142 C 0.04902(10) 0.73755(11) 0.71262(9)
H119 H 0.0482 0.7177 0.7198
H120 H 0.0497 0.7505 0.7293
C143 C 0.23262(12) 0.80732(11) 0.43509(9)
H121 H 0.2122 0.8126 0.4316
C144 C 0.25236(12) 0.83413(11) 0.44000(11)
H122 H 0.2723 0.8280 0.4444
C145 C 0.25172(11) 0.85259(10) 0.41232(10)
H123 H 0.2331 0.8623 0.4105
H124 H 0.2669 0.8673 0.4131
C146 C 0.25607(19) 0.83463(12) 0.38920(14)
H125 H 0.2653 0.8436 0.3735
C147 C 0.25022(14) 0.80872(15) 0.38486(11)
H126 H 0.2478 0.8020 0.3659
C148 C 0.24722(10) 0.78952(8) 0.40795(10)
H127 H 0.2661 0.7819 0.4136
H128 H 0.2348 0.7733 0.4024
C149 C 0.09289(11) 0.88855(10) 0.66006(10)
H129 H 0.0984 0.8684 0.6642
C150 C 0.08294(11) 0.90510(10) 0.68705(11)
H130 H 0.0786 0.9253 0.6819
C151 C 0.05569(8) 0.89107(10) 0.70194(11)
H131 H 0.0609 0.8730 0.7116
H132 H 0.0473 0.9042 0.7162
C152 C 0.03552(12) 0.88577(10) 0.67823(15)
H133 H 0.0165 0.8826 0.6844
C153 C 0.03865(12) 0.88447(11) 0.64929(14)
H134 H 0.0232 0.8798 0.6370
C154 C 0.06776(11) 0.89089(9) 0.63808(10)
H135 H 0.0677 0.9105 0.6302
H136 H 0.0717 0.8777 0.6221
C155 C 0.31743(12) 1.07199(10) 0.59488(11)
H137 H 0.3223 1.0691 0.6155
C156 C 0.34362(11) 1.07750(10) 0.57804(11)
H138 H 0.3384 1.0811 0.5577
C157 C 0.35841(8) 1.10087(9) 0.58885(10)
H139 H 0.3736 1.1063 0.5752
H140 H 0.3677 1.0954 0.6070
C158 C 0.33835(11) 1.12745(11) 0.59428(13)
H141 H 0.3458 1.1462 0.5958
C159 C 0.31183(12) 1.12234(10) 0.59647(12)
H142 H 0.3004 1.1382 0.6019
C160 C 0.29571(9) 1.09478(10) 0.59174(11)
H143 H 0.2804 1.0925 0.6061
H144 H 0.2871 1.0943 0.5724
N14G N 0.437 0.70237 0.79368
N14J N 0.20632 0.937 0.79763
N15G N 0.42184 0.73575 0.5748
N15J N 0.4252 0.92184 0.76425
N17G N 0.28938 0.59954 0.77143
N17J N 0.22857 0.78938 0.90046
N18G N 0.35016 0.59765 0.77082
N18J N 0.22918 0.85016 0.90235
N19G N 0.54 0.73626 0.71189
N19J N 0.28811 1.04 0.76374
N20G N 0.53592 0.74024 0.64985
N20J N 0.35015 1.03592 0.75976
N21G N 0.35263 0.61639 0.59463
N21J N 0.40537 0.85263 0.88361
N22G N 0.2933 0.60415 0.59561
N22J N 0.40439 0.7933 0.89585
N23G N 0.41686 0.80162 0.45407
N23J N 0.54593 0.91686 0.69838
N24G N 0.42012 0.8624 0.44733
N24J N 0.55267 0.92012 0.6376
C81G C 0.23555 0.69408 0.77296
C81J C 0.22704 0.73555 0.80592
C82G C 0.2428 0.67487 0.79598
C82J C 0.20402 0.7428 0.82513
H73G H 0.2365 0.6786 0.8149
H73J H 0.1851 0.7365 0.8214
C83G C 0.25849 0.65185 0.79018
C83J C 0.20982 0.75849 0.84815
H74G H 0.2635 0.6395 0.8054
H74J H 0.1946 0.7635 0.8605
C84G C 0.26807 0.64493 0.76199
C84J C 0.23801 0.76807 0.85507
C85G C 0.26041 0.66446 0.74259
C85J C 0.25741 0.76041 0.83554
H75G H 0.2673 0.6619 0.7237
H75J H 0.2763 0.7673 0.8381
C86G C 0.2432 0.6883 0.74747
C86J C 0.25253 0.7432 0.8117
H76G H 0.2373 0.7 0.732
H76J H 0.268 0.7373 0.8
C87G C 0.41575 0.67876 0.79508
C87J C 0.20492 0.91575 0.82124
C88G C 0.4091 0.66617 0.81767
C88J C 0.18233 0.9091 0.83383
H77G H 0.4167 0.6735 0.835
H77J H 0.165 0.9167 0.8265
C89G C 0.39222 0.64325 0.81939
C89J C 0.18061 0.89222 0.85675
H78G H 0.3891 0.6342 0.8372
H78J H 0.1628 0.8891 0.8658
C90G C 0.37996 0.63329 0.79612
C90J C 0.20388 0.87996 0.86671
C91G C 0.38591 0.64786 0.76985
C91J C 0.23015 0.88591 0.85214
H79G H 0.3783 0.6411 0.7523
H79J H 0.2477 0.8783 0.8589
C92G C 0.40178 0.67033 0.77054
C92J C 0.22946 0.90178 0.82967
H80G H 0.4039 0.6814 0.7537
H80J H 0.2463 0.9039 0.8186
C93G C 0.43323 0.72377 0.81591
C93J C 0.18409 0.93323 0.77623
C94G C 0.45767 0.73333 0.82977
C94J C 0.17023 0.95767 0.76667
H81G H 0.4763 0.728 0.8237
H81J H 0.1763 0.9763 0.772
C95G C 0.45346 0.75008 0.85181
C95J C 0.14819 0.95346 0.74992
H82G H 0.4699 0.7546 0.8627
H82J H 0.1373 0.9699 0.7454
C96G C 0.42946 0.76145 0.86068
C96J C 0.13932 0.92946 0.73855
C97G C 0.40742 0.75212 0.84762
C97J C 0.15238 0.90742 0.74788
H83G H 0.3894 0.759 0.8539
H83J H 0.1461 0.8894 0.741
C98G C 0.40744 0.73254 0.82478
C98J C 0.17522 0.90744 0.76746
H84G H 0.3903 0.726 0.8162
H84J H 0.1838 0.8903 0.774
C99G C 0.45851 0.70285 0.77546
C99J C 0.22454 0.95851 0.79715
C100G C 0.46949 0.67984 0.76187
C100J C 0.23813 0.96949 0.82016
H85G H 0.4613 0.6616 0.7654
H85J H 0.2346 0.9613 0.8384
C101G C 0.49155 0.68176 0.74357
C101J C 0.25643 0.99155 0.81824
H86G H 0.5001 0.6651 0.7358
H86J H 0.2642 1.0001 0.8349
C102G C 0.50131 0.70813 0.73657
C102J C 0.26343 1.00131 0.79187
C103G C 0.49266 0.73145 0.74701
C103J C 0.25299 0.99266 0.76855
H87G H 0.5013 0.7491 0.7423
H87J H 0.2577 1.0013 0.7509
C104G C 0.46829 0.72972 0.767
C104J C 0.233 0.96829 0.77028
H88G H 0.4594 0.7466 0.774
H88J H 0.226 0.9594 0.7534
C105G C 0.44691 0.74183 0.59144
C105J C 0.40856 0.94691 0.75817
C106G C 0.45462 0.76825 0.59693
C106J C 0.40307 0.95462 0.73175
H89G H 0.4436 0.7836 0.5895
H89J H 0.4105 0.9436 0.7164
C107G C 0.47774 0.774 0.61292
C107J C 0.38708 0.97774 0.726
H90G H 0.4828 0.7932 0.6167
H90J H 0.3833 0.9828 0.7068
C108G C 0.49486 0.75108 0.62431
C108J C 0.37569 0.99486 0.74892
C109G C 0.48543 0.72507 0.61873
C109J C 0.38127 0.98543 0.77493
H91G H 0.4963 0.7095 0.6258
H91J H 0.3742 0.9963 0.7905
C110G C 0.46153 0.71902 0.60378
C110J C 0.39622 0.96153 0.78098
H92G H 0.4549 0.7 0.6017
H92J H 0.3983 0.9549 0.8
C111G C 0.40304 0.71047 0.58368
C111J C 0.41632 0.90304 0.78953
C112G C 0.39677 0.70875 0.61183
C112J C 0.38817 0.89677 0.79125
H93G H 0.4021 0.723 0.6253
H93J H 0.3747 0.9021 0.777
C113G C 0.38201 0.68461 0.6191
C113J C 0.3809 0.88201 0.81539
H94G H 0.377 0.6815 0.6385
H94J H 0.3615 0.877 0.8185
C114G C 0.37393 0.66403 0.59803
C114J C 0.40197 0.87393 0.83597
C115G C 0.37995 0.66913 0.57216
C115J C 0.42784 0.87995 0.83087
H95G H 0.3735 0.6563 0.5578
H95J H 0.4422 0.8735 0.8437
C116G C 0.3945 0.69113 0.56479
C116J C 0.43521 0.8945 0.80887
H96G H 0.3993 0.6937 0.5453
H96J H 0.4547 0.8993 0.8063
C117G C 0.41503 0.74971 0.55011
C117J C 0.44989 0.91503 0.75029
C118G C 0.38747 0.7568 0.54393
C118J C 0.45607 0.88747 0.7432
H97G H 0.3722 0.7522 0.5564
H97J H 0.4436 0.8722 0.7478
C119G C 0.38305 0.77129 0.51802
C119J C 0.48198 0.88305 0.72871
H98G H 0.3639 0.7757 0.513
H98J H 0.487 0.8639 0.7243
C120G C 0.40411 0.77967 0.49931
C120J C 0.50069 0.90411 0.72033
C121G C 0.43153 0.77456 0.50788
C121J C 0.49212 0.93153 0.72544
H99G H 0.447 0.7818 0.497
H99J H 0.503 0.947 0.7182
C122G C 0.43704 0.75845 0.5331
C122J C 0.4669 0.93704 0.74155
H100G H 0.4561 0.7538 0.5381
H100J H 0.4619 0.9561 0.7462
C123G C 0.45149 0.93291 0.527
C123J C 0.473 0.95149 0.56709
C124G C 0.4253 0.92265 0.51733
C124J C 0.48267 0.9253 0.57735
H101G H 0.4083 0.9301 0.5254
H101J H 0.4746 0.9083 0.5699
C125G C 0.42317 0.9012 0.49558
C125J C 0.50442 0.92317 0.5988
H102G H 0.4053 0.893 0.4907
H102J H 0.5093 0.9053 0.607
C126G C 0.44815 0.89293 0.48193
C126J C 0.51807 0.94815 0.60707
C127G C 0.47422 0.90247 0.49244
C127J C 0.50756 0.97422 0.59753
H103G H 0.4912 0.8944 0.4849
H103J H 0.5151 0.9912 0.6056
C128G C 0.47646 0.92324 0.51339
C128J C 0.48661 0.97646 0.57676
H104G H 0.4946 0.9308 0.5185
H104J H 0.4815 0.9946 0.5692
C129G C 0.28268 0.61998 0.75724
C129J C 0.24276 0.78268 0.88002
H105G H 0.2891 0.6184 0.7381
H105J H 0.2619 0.7891 0.8816
C130G C 0.3599 0.60771 0.79208
C130J C 0.20792 0.8599 0.89229
H106G H 0.3544 0.5984 0.8092
H106J H 0.1908 0.8544 0.9016
C131G C 0.42764 0.78449 0.88485
C131J C 0.11515 0.92764 0.71551
H107G H 0.445 0.7924 0.8917
H107J H 0.1083 0.945 0.7076
C132G C 0.53022 0.71135 0.7164
C132J C 0.2836 1.03022 0.78865
H108G H 0.5392 0.695 0.7084
H108J H 0.2916 1.0392 0.805
C133G C 0.51877 0.75941 0.64256
C133J C 0.35744 1.01877 0.74059
H109G H 0.5212 0.7786 0.6486
H109J H 0.3514 1.0212 0.7214
C134G C 0.35703 0.63564 0.60937
C134J C 0.39063 0.85703 0.86436
H110G H 0.3507 0.635 0.6286
H110J H 0.3714 0.8507 0.865
C135G C 0.39674 0.796 0.47298
C135J C 0.52702 0.89674 0.704
H111G H 0.3777 0.8023 0.4698
H111J H 0.5302 0.8777 0.6977
C136G C 0.4454 0.87196 0.4564
C136J C 0.5436 0.9454 0.62804
H112G H 0.4622 0.8658 0.4469
H112J H 0.5531 0.9622 0.6342
C137G C 0.30474 0.57542 0.75868
C137J C 0.24132 0.80474 0.92458
H113G H 0.309 0.579 0.7381
H113J H 0.2619 0.809 0.921
C138G C 0.33142 0.5711 0.77542
C138J C 0.22458 0.83142 0.9289
H114G H 0.3275 0.5675 0.7961
H114J H 0.2039 0.8275 0.9325
C139G C 0.34907 0.54656 0.7616
C139J C 0.2384 0.84907 0.95344
H115G H 0.3569 0.5532 0.7432
H115J H 0.2568 0.8569 0.9468
H116G H 0.3653 0.5418 0.7742
H116J H 0.2258 0.8653 0.9582
C140G C 0.33257 0.52171 0.75686
C140J C 0.24314 0.83257 0.97829
H117G H 0.3416 0.5038 0.754
H117J H 0.246 0.8416 0.9962
C141G C 0.30386 0.52369 0.75652
C141J C 0.24348 0.80386 0.97631
H118G H 0.2935 0.5069 0.7519
H118J H 0.2481 0.7935 0.9931
C142G C 0.28738 0.54902 0.76245
C142J C 0.23755 0.78738 0.95098
H119G H 0.2802 0.5482 0.7823
H119J H 0.2177 0.7802 0.9518
H120G H 0.2707 0.5497 0.7495
H120J H 0.2505 0.7707 0.9503
C143G C 0.56491 0.73262 0.69268
C143J C 0.30732 1.06491 0.76738
H121G H 0.5684 0.7122 0.6874
H121J H 0.3126 1.0684 0.7878
C144G C 0.56 0.75236 0.66587
C144J C 0.33413 1.06 0.74764
H122G H 0.5556 0.7723 0.672
H122J H 0.328 1.0556 0.7277
C145G C 0.58768 0.75172 0.64741
C145J C 0.35259 1.08768 0.74828
H123G H 0.5895 0.7331 0.6377
H123J H 0.3623 1.0895 0.7669
H124G H 0.5869 0.7669 0.6327
H124J H 0.3673 1.0869 0.7331
C146G C 0.6108 0.75607 0.66537
C146J C 0.33463 1.1108 0.74393
H125G H 0.6265 0.7653 0.6564
H125J H 0.3436 1.1265 0.7347
C147G C 0.61514 0.75022 0.69128
C147J C 0.30872 1.11514 0.74978
H126G H 0.6341 0.7478 0.698
H126J H 0.302 1.1341 0.7522
C148G C 0.59205 0.74722 0.71048
C148J C 0.28952 1.09205 0.75278
H127G H 0.5864 0.7661 0.7181
H127J H 0.2819 1.0864 0.7339
H128G H 0.5976 0.7348 0.7267
H128J H 0.2733 1.0976 0.7652
C149G C 0.33994 0.59289 0.61145
C149J C 0.38855 0.83994 0.90711
H129G H 0.3358 0.5984 0.6316
H129J H 0.3684 0.8358 0.9016
C150G C 0.31295 0.58294 0.5949
C150J C 0.4051 0.81295 0.91706
H130G H 0.3181 0.5786 0.5747
H130J H 0.4253 0.8181 0.9214
C151G C 0.29806 0.55569 0.60893
C151J C 0.39107 0.79806 0.94431
H131G H 0.2884 0.5609 0.627
H131J H 0.373 0.7884 0.9391
H132G H 0.2838 0.5473 0.5958
H132J H 0.4042 0.7838 0.9527
C152G C 0.32177 0.53552 0.61423
C152J C 0.38577 0.82177 0.96448
H133G H 0.3156 0.5165 0.6174
H133J H 0.3826 0.8156 0.9835
C153G C 0.35071 0.53865 0.61553
C153J C 0.38447 0.85071 0.96135
H134G H 0.363 0.5232 0.6202
H134J H 0.3798 0.863 0.9768
C154G C 0.36192 0.56776 0.60911
C154J C 0.39089 0.86192 0.93224
H135G H 0.3698 0.5677 0.5895
H135J H 0.4105 0.8698 0.9323
H136G H 0.3779 0.5717 0.6223
H136J H 0.3777 0.8779 0.9283
C155G C 0.40512 0.81743 0.42801
C155J C 0.57199 0.90512 0.68257
H137G H 0.3845 0.8223 0.4309
H137J H 0.5691 0.8845 0.6777
C156G C 0.42196 0.84362 0.4225
C156J C 0.5775 0.92196 0.65638
H138G H 0.4423 0.8384 0.4189
H138J H 0.5811 0.9423 0.6616
C157G C 0.41115 0.85841 0.39913
C157J C 0.60087 0.91115 0.64159
H139G H 0.4248 0.8736 0.3937
H139J H 0.6063 0.9248 0.6264
H140G H 0.393 0.8677 0.4046
H140J H 0.5954 0.893 0.6323
C158G C 0.40572 0.83835 0.37255
C158J C 0.62745 0.90572 0.66165
H141G H 0.4042 0.8458 0.3538
H141J H 0.6462 0.9042 0.6542
C159G C 0.40353 0.81183 0.37766
C159J C 0.62234 0.90353 0.68817
H142G H 0.3981 0.8004 0.3618
H142J H 0.6382 0.8981 0.6996
C160G C 0.40826 0.79571 0.40522
C160J C 0.59478 0.90826 0.70429
H143G H 0.3939 0.7804 0.4075
H143J H 0.5925 0.8939 0.7196
H144G H 0.4276 0.7871 0.4057
H144J H 0.5943 0.9276 0.7129
N1 N 0.28644(7) 0.21356(7) 0.78644(7)
N2 N 0.27553(8) 0.22053(8) 0.57342(9)
N3 N 0.30958(9) 0.44029(9) 0.55412(8)
N4 N 0.09872(9) 0.40128(9) 0.59872(9)
N5 N 0.39575(8) 0.24032(8) 0.70685(8)
N6 N 0.39157(10) 0.24076(8) 0.64694(7)
N7 N 0.26835(9) 0.29379(7) 0.45637(9)
N8 N 0.27622(7) 0.35352(7) 0.45186(8)
N9 N 0.40845(7) 0.42157(8) 0.64744(8)
N10 N 0.40144(9) 0.42052(9) 0.71066(8)
N11 N 0.21896(9) 0.53650(8) 0.59070(9)
N12 N 0.16113(7) 0.52264(10) 0.60151(9)
C1 C 0.30971(9) 0.21468(14) 0.76907(9)
C2 C 0.32290(11) 0.18953(10) 0.75960(10)
H1 H 0.3153 0.1713 0.7640
C3 C 0.34780(10) 0.19251(10) 0.74339(10)
H2 H 0.3581 0.1756 0.7389
C4 C 0.35836(10) 0.21735(12) 0.73365(9)
C5 C 0.34548(10) 0.24199(9) 0.74208(9)
H3 H 0.3528 0.2601 0.7366
C6 C 0.32170(10) 0.23959(9) 0.75864(9)
H4 H 0.3123 0.2569 0.7636
C7 C 0.29959(11) 0.22820(11) 0.59080(9)
C8 C 0.30372(10) 0.25713(10) 0.59729(9)
H5 H 0.2913 0.2713 0.5900
C9 C 0.32709(13) 0.26455(10) 0.61516(11)
H6 H 0.3284 0.2838 0.6213
C10 C 0.34708(14) 0.24674(13) 0.62390(10)
C11 C 0.34166(10) 0.21761(11) 0.61744(9)
H7 H 0.3542 0.2030 0.6238
C12 C 0.31808(12) 0.21141(9) 0.60192(10)
H8 H 0.3148 0.1917 0.5988
C13 C 0.25960(8) 0.19268(11) 0.57705(14)
C14 C 0.25396(8) 0.18629(10) 0.60685(10)
H9 H 0.2594 0.1983 0.6222
C15 C 0.23929(9) 0.15980(12) 0.61028(10)
H10 H 0.2349 0.1537 0.6291
C16 C 0.23177(9) 0.14395(11) 0.58976(13)
C17 C 0.23695(8) 0.15255(10) 0.56290(10)
H11 H 0.2298 0.1409 0.5479
C18 C 0.25119(9) 0.17605(11) 0.55537(9)
H12 H 0.2551 0.1806 0.5360
C19 C 0.26972(12) 0.23754(9) 0.54901(11)
C20 C 0.24335(10) 0.24315(9) 0.54209(8)
H13 H 0.2283 0.2359 0.5535
C21 C 0.23674(9) 0.26024(9) 0.51734(11)
H14 H 0.2175 0.2642 0.5124
C22 C 0.25857(13) 0.27076(9) 0.50098(9)
C23 C 0.28456(10) 0.26327(9) 0.50922(11)
H15 H 0.2998 0.2692 0.4972
C24 C 0.29183(12) 0.24837(10) 0.53243(11)
H16 H 0.3112 0.2453 0.5374
C25 C 0.30780(12) 0.41741(10) 0.53328(9)
C26 C 0.33263(10) 0.40937(9) 0.51753(11)
H17 H 0.3507 0.4173 0.5221
C27 C 0.33001(10) 0.39005(10) 0.49578(9)
H18 H 0.3464 0.3833 0.4860
C28 C 0.30254(13) 0.38045(10) 0.48822(11)
C29 C 0.27970(10) 0.38705(9) 0.50196(10)
H19 H 0.2619 0.3793 0.4963
C30 C 0.28128(10) 0.40697(11) 0.52693(9)
H20 H 0.2649 0.4120 0.5377
C31 C 0.33460(10) 0.43787(14) 0.57390(9)
C32 C 0.34698(10) 0.46453(10) 0.58017(10)
H21 H 0.3401 0.4816 0.5716
C33 C 0.36871(11) 0.46503(11) 0.59851(10)
H22 H 0.3776 0.4827 0.6030
C34 C 0.37840(11) 0.44088(14) 0.61085(10)
C35 C 0.36623(11) 0.41469(10) 0.60376(9)
H23 H 0.3732 0.3975 0.6119
C36 C 0.34421(11) 0.41423(11) 0.58497(12)
H24 H 0.3357 0.3965 0.5798
C37 C 0.28825(13) 0.46139(11) 0.55676(13)
C38 C 0.27467(11) 0.47056(12) 0.53536(11)
H25 H 0.2790 0.4631 0.5170
C39 C 0.25325(10) 0.49149(12) 0.53777(11)
H26 H 0.2441 0.4981 0.5209
C40 C 0.24528(10) 0.50247(11) 0.56293(12)
C41 C 0.25981(10) 0.49007(9) 0.58629(9)
H27 H 0.2554 0.4959 0.6052
C42 C 0.27993(9) 0.46993(10) 0.58174(11)
H28 H 0.2886 0.4614 0.5980
C43 C 0.11639(8) 0.42489(11) 0.60450(13)
C44 C 0.12361(9) 0.44317(11) 0.58195(10)
H29 H 0.1184 0.4385 0.5629
C45 C 0.13854(10) 0.46832(10) 0.58757(10)
H30 H 0.1455 0.4796 0.5723
C46 C 0.14325(10) 0.47673(10) 0.61559(13)
C47 C 0.13531(10) 0.45901(12) 0.63702(10)
H31 H 0.1401 0.4639 0.6561
C48 C 0.12082(10) 0.43461(11) 0.63223(11)
H32 H 0.1136 0.4240 0.6479
C49 C 0.38478(10) 0.21922(10) 0.71495(10)
H33 H 0.3932 0.2017 0.7092
C50 C 0.36989(12) 0.25646(10) 0.63910(11)
H34 H 0.3700 0.2760 0.6444
C51 C 0.21696(9) 0.11698(12) 0.59647(9)
H35 H 0.2119 0.1138 0.6158
C52 C 0.25069(9) 0.28724(9) 0.47402(11)
H36 H 0.2314 0.2925 0.4710
C53 C 0.30010(10) 0.36072(9) 0.46168(9)
H37 H 0.3170 0.3540 0.4527
C54 C 0.40069(9) 0.44321(10) 0.63272(11)
H38 H 0.4095 0.4611 0.6360
C55 C 0.22469(10) 0.52746(10) 0.56671(11)
H39 H 0.2162 0.5361 0.5504
C56 C 0.15675(10) 0.50397(13) 0.61981(10)
H40 H 0.1630 0.5081 0.6386
C57 C 0.42121(10) 0.23723(9) 0.68878(10)
H41 H 0.4269 0.2169 0.6856
C58 C 0.41584(11) 0.25390(9) 0.66067(10)
H42 H 0.4123 0.2746 0.6645
C59 C 0.44174(10) 0.24979(12) 0.64137(11)
H43 H 0.4440 0.2293 0.6368
H44 H 0.4388 0.2602 0.6233
C60 C 0.46616(12) 0.25968(10) 0.65457(14)
H45 H 0.4814 0.2665 0.6430
C61 C 0.46937(10) 0.26015(11) 0.68300(14)
H46 H 0.4880 0.2634 0.6902
C62 C 0.44571(8) 0.25590(11) 0.70450(11)
H47 H 0.4379 0.2745 0.7107
H48 H 0.4530 0.2457 0.7215
C63 C 0.25921(9) 0.31070(10) 0.43026(9)
H49 H 0.2392 0.3172 0.4339
C64 C 0.27651(9) 0.33633(11) 0.42720(10)
H50 H 0.2966 0.3306 0.4231
C65 C 0.26564(9) 0.35496(8) 0.40260(9)
H51 H 0.2489 0.3661 0.4091
H52 H 0.2807 0.3686 0.3969
C66 C 0.25724(10) 0.33682(11) 0.37688(8)
H53 H 0.2537 0.3463 0.3593
C67 C 0.25439(12) 0.30660(11) 0.37744(9)
H54 H 0.2506 0.2963 0.3604
C68 C 0.25770(8) 0.29058(8) 0.40681(9)
H55 H 0.2412 0.2777 0.4097
H56 H 0.2752 0.2788 0.4065
C69 C 0.43243(10) 0.42447(10) 0.66779(10)
H57 H 0.4359 0.4451 0.6719
C70 C 0.42741(10) 0.40820(10) 0.69591(10)
H58 H 0.4253 0.3872 0.6926
C71 C 0.45120(9) 0.41447(8) 0.71563(8)
H59 H 0.4500 0.4015 0.7322
H60 H 0.4492 0.4342 0.7228
C72 C 0.48072(10) 0.41119(10) 0.70170(11)
H61 H 0.4972 0.4107 0.7136
C73 C 0.48406(10) 0.40894(9) 0.67293(12)
H62 H 0.5026 0.4062 0.6652
C74 C 0.46055(10) 0.41060(10) 0.65457(9)
H63 H 0.4559 0.3911 0.6480
H64 H 0.4662 0.4218 0.6376
C75 C 0.19713(11) 0.55736(10) 0.58998(10)
H65 H 0.1889 0.5583 0.5703
C76 C 0.17457(11) 0.55058(10) 0.61042(11)
H66 H 0.1827 0.5489 0.6301
C77 C 0.14876(10) 0.57363(10) 0.61008(10)
H67 H 0.1374 0.5717 0.5924
H68 H 0.1360 0.5707 0.6266
C78 C 0.16273(15) 0.60295(14) 0.61158(15)
H69 H 0.1515 0.6188 0.6172
C79 C 0.18785(16) 0.60686(13) 0.60586(18)
H70 H 0.1936 0.6263 0.6066
C80 C 0.20954(10) 0.58810(10) 0.59848(11)
H71 H 0.2228 0.5860 0.6148
H72 H 0.2204 0.5960 0.5822
N2E N 0.07342 0.22447 0.77947
N2K N 0.27947 0.42658 0.77553
N3E N 0.05412 0.19042 0.55971
N3K N 0.05971 0.44588 0.80958
N5E N 0.20685 0.10425 0.75968
N5K N 0.25968 0.29315 0.89575
N6E N 0.14694 0.10843 0.75924
N6K N 0.25924 0.35306 0.89157
N7E N -0.04363 0.23165 0.70621
N7K N 0.20621 0.54363 0.76835
N8E N -0.04814 0.22378 0.64648
N8K N 0.14648 0.54814 0.77622
N9E N 0.14744 0.09155 0.57843
N9K N 0.07843 0.35256 0.90845
N10E N 0.21066 0.09856 0.57948
N10K N 0.07948 0.28934 0.90144
N11E N 0.0907 0.28104 0.4635
N11K N -0.0365 0.4093 0.71896
N12E N 0.10151 0.33887 0.47736
N12K N -0.02264 0.39849 0.66113
C1E C 0.26907 0.19029 0.78532
C1K C 0.28532 0.23093 0.80971
C2E C 0.2596 0.1771 0.81047
C2K C 0.31047 0.2404 0.8229
H1E H 0.264 0.1847 0.8287
H1K H 0.3287 0.236 0.8153
C3E C 0.24339 0.1522 0.80749
C3K C 0.30749 0.25661 0.8478
H2E H 0.2389 0.1419 0.8244
H2K H 0.3244 0.2611 0.8581
C4E C 0.23365 0.14164 0.78265
C4K C 0.28265 0.26635 0.85836
C5E C 0.24208 0.15452 0.75801
C5K C 0.25801 0.25792 0.84548
H3E H 0.2366 0.1472 0.7399
H3K H 0.2399 0.2634 0.8528
C6E C 0.25864 0.1783 0.76041
C6K C 0.26041 0.24136 0.8217
H4E H 0.2636 0.1877 0.7431
H4K H 0.2431 0.2364 0.8123
C7E C 0.0908 0.20041 0.7718
C7K C 0.2718 0.4092 0.79959
C8E C 0.09729 0.19628 0.74287
C8K C 0.24287 0.40271 0.80372
H5E H 0.09 0.2087 0.7287
H5K H 0.2287 0.41 0.7913
C9E C 0.11516 0.17291 0.73545
C9K C 0.23545 0.38484 0.82709
H6E H 0.1213 0.1716 0.7162
H6K H 0.2162 0.3787 0.8284
C10E C 0.1239 0.15292 0.75326
C10K C 0.25326 0.3761 0.84708
C11E C 0.11744 0.15834 0.78239
C11K C 0.28239 0.38256 0.84166
H7E H 0.1238 0.1458 0.797
H7K H 0.297 0.3762 0.8542
C12E C 0.10192 0.18192 0.78859
C12K C 0.28859 0.39808 0.81808
H8E H 0.0988 0.1852 0.8083
H8K H 0.3083 0.4012 0.8148
C13E C 0.07705 0.2404 0.80732
C13K C 0.30732 0.42295 0.7596
C14E C 0.10685 0.24604 0.81371
C14K C 0.31371 0.39315 0.75396
H9E H 0.1222 0.2406 0.8017
H9K H 0.3017 0.3778 0.7594
C15E C 0.11028 0.26071 0.8402
C15K C 0.3402 0.38972 0.73929
H10E H 0.1291 0.2651 0.8463
H10K H 0.3463 0.3709 0.7349
C16E C 0.08976 0.26823 0.85605
C16K C 0.35605 0.41024 0.73177
C17E C 0.0629 0.26305 0.84745
C17K C 0.34745 0.4371 0.73695
H11E H 0.0479 0.2702 0.8591
H11K H 0.3591 0.4521 0.7298
C18E C 0.05537 0.24881 0.82395
C18K C 0.32395 0.44463 0.75119
H12E H 0.036 0.2449 0.8194
H12K H 0.3194 0.464 0.7551
C19E C 0.04901 0.23028 0.76246
C19K C 0.26246 0.45099 0.76972
C20E C 0.04209 0.25665 0.75685
C20K C 0.25685 0.45791 0.74335
H13E H 0.0535 0.2717 0.7641
H13K H 0.2641 0.4465 0.7283
C21E C 0.01734 0.26326 0.73976
C21K C 0.23976 0.48266 0.73674
H14E H 0.0124 0.2825 0.7358
H14K H 0.2358 0.4876 0.7175
C22E C 0.00098 0.24143 0.72924
C22K C 0.22924 0.49902 0.75857
C23E C 0.00922 0.21544 0.73673
C23K C 0.23673 0.49078 0.78456
H15E H -0.0028 0.2002 0.7308
H15K H 0.2308 0.5028 0.7998
C24E C 0.03243 0.20817 0.75163
C24K C 0.25163 0.46757 0.79183
H16E H 0.0374 0.1888 0.7547
H16K H 0.2547 0.4626 0.8112
C25E C 0.03328 0.1922 0.58259
C25K C 0.08259 0.46672 0.8078
C26E C 0.01753 0.16737 0.59063
C26K C 0.09063 0.48247 0.83263
H17E H 0.0221 0.1493 0.5827
H17K H 0.0827 0.4779 0.8507
C27E C -0.00422 0.16999 0.60995
C27K C 0.10995 0.50422 0.83001
H18E H -0.014 0.1536 0.6167
H18K H 0.1167 0.514 0.8464
C28E C -0.01178 0.19746 0.61955
C28K C 0.11955 0.51178 0.80254
C29E C 0.00196 0.2203 0.61295
C29K C 0.11295 0.49804 0.7797
H19E H -0.0037 0.2381 0.6207
H19K H 0.1207 0.5037 0.7619
C30E C 0.02693 0.21872 0.59303
C30K C 0.09303 0.47307 0.78128
H20E H 0.0377 0.2351 0.588
H20K H 0.088 0.4623 0.7649
C31E C 0.0739 0.1654 0.56213
C31K C 0.06213 0.4261 0.8346
C32E C 0.08017 0.15302 0.53547
C32K C 0.03547 0.41983 0.84698
H21E H 0.0716 0.1599 0.5184
H21K H 0.0184 0.4284 0.8401
C33E C 0.09851 0.13129 0.53497
C33K C 0.03497 0.40149 0.86871
H22E H 0.103 0.1224 0.5173
H22K H 0.0173 0.397 0.8776
C34E C 0.11085 0.1216 0.55912
C34K C 0.05912 0.38915 0.8784
C35E C 0.10376 0.13377 0.58531
C35K C 0.08531 0.39624 0.86623
H23E H 0.1119 0.1268 0.6025
H23K H 0.1025 0.3881 0.8732
C36E C 0.08497 0.15579 0.58577
C36K C 0.08577 0.41503 0.84421
H24E H 0.0798 0.1643 0.6035
H24K H 0.1035 0.4202 0.8357
C37E C 0.05676 0.21175 0.53861
C37K C 0.03861 0.44324 0.78825
C38E C 0.03536 0.22533 0.52944
C38K C 0.02944 0.46464 0.77467
H25E H 0.017 0.221 0.5369
H25K H 0.0369 0.483 0.779
C39E C 0.03777 0.24675 0.50851
C39K C 0.00851 0.46223 0.75325
H26E H 0.0209 0.2559 0.5019
H26K H 0.0019 0.4791 0.7441
C40E C 0.06293 0.25472 0.49753
C40K C -0.00247 0.43707 0.74528
C41E C 0.08629 0.24019 0.50993
C41K C 0.00993 0.41371 0.75981
H27E H 0.1052 0.2446 0.5041
H27K H 0.0041 0.3948 0.7554
C42E C 0.08174 0.22007 0.53007
C42K C 0.03007 0.41826 0.77993
H28E H 0.098 0.2114 0.5386
H28K H 0.0386 0.402 0.7886
C43E C 0.1045 0.38361 0.57511
C43K C 0.07511 0.3955 0.61639
C44E C 0.08195 0.37639 0.55683
C44K C 0.05683 0.41805 0.62361
H29E H 0.0629 0.3816 0.5615
H29K H 0.0615 0.4371 0.6184
C45E C 0.08757 0.36146 0.53168
C45K C 0.03168 0.41243 0.63854
H30E H 0.0723 0.3545 0.5204
H30K H 0.0204 0.4277 0.6455
C46E C 0.11559 0.35675 0.52327
C46K C 0.02327 0.38441 0.64325
C47E C 0.13702 0.36469 0.54099
C47K C 0.04099 0.36298 0.63531
H31E H 0.1561 0.3599 0.5361
H31K H 0.0361 0.3439 0.6401
C48E C 0.13223 0.37918 0.56539
C48K C 0.06539 0.36777 0.62082
H32E H 0.1479 0.3864 0.576
H32K H 0.076 0.3521 0.6136
C49E C 0.21495 0.11522 0.78078
C49K C 0.28078 0.28505 0.88478
H33E H 0.2092 0.1068 0.7983
H33K H 0.2983 0.2908 0.8932
C50E C 0.1391 0.13011 0.74354
C50K C 0.24354 0.3609 0.86989
H34E H 0.1444 0.13 0.724
H34K H 0.224 0.3556 0.87
C51E C 0.09647 0.28304 0.88302
C51K C 0.38302 0.40353 0.71696
H35E H 0.1158 0.2881 0.8862
H35K H 0.3862 0.3842 0.7119
C52E C -0.02598 0.24931 0.71276
C52K C 0.21276 0.52598 0.75069
H36E H -0.029 0.2686 0.7075
H36K H 0.2075 0.529 0.7314
C53E C -0.03832 0.1999 0.63928
C53K C 0.13928 0.53832 0.8001
H37E H -0.0473 0.183 0.646
H37K H 0.146 0.5473 0.817
C54E C 0.13272 0.09931 0.55679
C54K C 0.05679 0.36728 0.90069
H38E H 0.136 0.0905 0.5389
H38K H 0.0389 0.364 0.9095
C55E C 0.06671 0.27531 0.47254
C55K C -0.02746 0.43329 0.72469
H39E H 0.0504 0.2838 0.4639
H39K H -0.0361 0.4496 0.7162
C56E C 0.11981 0.34325 0.49603
C56K C -0.00397 0.38019 0.65675
H40E H 0.1386 0.337 0.4919
H40K H -0.0081 0.3614 0.663
C57E C 0.18878 0.07879 0.76277
C57K C 0.26277 0.31122 0.92121
H41E H 0.1856 0.0731 0.7831
H41K H 0.2831 0.3144 0.9269
C58E C 0.16067 0.08416 0.7461
C58K C 0.2461 0.33933 0.91584
H42E H 0.1645 0.0877 0.7254
H42K H 0.2254 0.3355 0.9123
C59E C 0.14137 0.05826 0.75021
C59K C 0.25021 0.35863 0.94174
H43E H 0.1368 0.056 0.7707
H43K H 0.2707 0.3632 0.944
H44E H 0.1233 0.0612 0.7398
H44K H 0.2398 0.3767 0.9388
C60E C 0.15457 0.03384 0.74032
C60K C 0.24032 0.34543 0.96616
H45E H 0.143 0.0186 0.7335
H45K H 0.2335 0.357 0.9814
C61E C 0.183 0.03063 0.73985
C61K C 0.23985 0.317 0.96937
H46E H 0.1902 0.012 0.7366
H46K H 0.2366 0.3098 0.988
C62E C 0.2045 0.05429 0.7441
C62K C 0.2441 0.2955 0.94571
H47E H 0.2107 0.0621 0.7255
H47K H 0.2255 0.2893 0.9379
H48E H 0.2215 0.047 0.7543
H48K H 0.2543 0.2785 0.953
C63E C -0.06974 0.24079 0.6893
C63K C 0.1893 0.56974 0.75921
H49E H -0.0661 0.2608 0.6828
H49K H 0.1828 0.5661 0.7392
C64E C -0.0728 0.22349 0.66367
C64K C 0.16367 0.5728 0.77651
H50E H -0.0769 0.2034 0.6694
H50K H 0.1694 0.5769 0.7966
C65E C -0.0974 0.23436 0.64504
C65K C 0.14504 0.5974 0.76564
H51E H -0.0909 0.2511 0.6339
H51K H 0.1339 0.5909 0.7489
H52E H -0.1031 0.2193 0.6314
H52K H 0.1314 0.6031 0.7807
C66E C -0.12312 0.24276 0.66318
C66K C 0.16318 0.62312 0.75724
H53E H -0.1407 0.2463 0.6537
H53K H 0.1537 0.6407 0.7537
C67E C -0.12256 0.24561 0.6934
C67K C 0.1934 0.62256 0.75439
H54E H -0.1396 0.2494 0.7037
H54K H 0.2037 0.6396 0.7506
C68E C -0.09319 0.2423 0.70942
C68K C 0.20942 0.59319 0.7577
H55E H -0.0903 0.2588 0.7223
H55K H 0.2223 0.5903 0.7412
H56E H -0.0935 0.2248 0.7212
H56K H 0.2212 0.5935 0.7752
C69E C 0.16779 0.06757 0.57553
C69K C 0.07553 0.33221 0.93243
H57E H 0.1719 0.0641 0.5549
H57K H 0.0549 0.3281 0.9359
C70E C 0.19591 0.07259 0.5918
C70K C 0.0918 0.30409 0.92741
H58E H 0.1926 0.0747 0.6128
H58K H 0.1128 0.3074 0.9253
C71E C 0.21563 0.0488 0.58553
C71K C 0.08553 0.28437 0.9512
H59E H 0.2322 0.05 0.5985
H59K H 0.0985 0.2678 0.95
H60E H 0.2228 0.0508 0.5658
H60K H 0.0658 0.2772 0.9492
C72E C 0.2017 0.01928 0.58881
C72K C 0.08881 0.2983 0.98072
H61E H 0.2136 0.0028 0.5893
H61K H 0.0893 0.2864 0.9972
C73E C 0.17293 0.01594 0.59106
C73K C 0.09106 0.32707 0.98406
H62E H 0.1652 -0.0026 0.5938
H62K H 0.0938 0.3348 1.0026
C74E C 0.15457 0.03945 0.5894
C74K C 0.0894 0.34543 0.96055
H63E H 0.148 0.0441 0.6089
H63K H 0.1089 0.352 0.9559
H64E H 0.1376 0.0338 0.5782
H64K H 0.0782 0.3624 0.9662
C75E C 0.08998 0.30287 0.44264
C75K C -0.05736 0.41002 0.69713
H65E H 0.0703 0.3111 0.4417
H65K H -0.0583 0.4297 0.6889
C76E C 0.11042 0.32543 0.44942
C76K C -0.05058 0.38958 0.67457
H66E H 0.1301 0.3173 0.4511
H66K H -0.0489 0.3699 0.6827
C77E C 0.11008 0.35124 0.42637
C77K C -0.07363 0.38992 0.64876
H67E H 0.0924 0.3626 0.4283
H67K H -0.0717 0.4076 0.6374
H68E H 0.1266 0.364 0.4293
H68K H -0.0707 0.3734 0.636
C78E C 0.11158 0.33727 0.39705
C78K C -0.10295 0.38842 0.66273
H69E H 0.1172 0.3485 0.3812
H69K H -0.1188 0.3828 0.6515
C79E C 0.10586 0.31215 0.39314
C79K C -0.10686 0.39414 0.68785
H70E H 0.1066 0.3064 0.3737
H70K H -0.1263 0.3934 0.6936
C80E C 0.09848 0.29046 0.4119
C80K C -0.0881 0.40152 0.70954
H71E H 0.1148 0.2772 0.414
H71K H -0.086 0.3852 0.7228
H72E H 0.0822 0.2796 0.404
H72K H -0.096 0.4178 0.7204

#END

