
#######################################################################
#
#                 Cambridge Crystallographic Data Centre
#                                CCDC 
#
#######################################################################
#
# If this CIF has been generated directly or indirectly from an entry in the 
# Cambridge Structural Database, then it will include bibliographic, chemical, 
# crystal, experimental, refinement or atomic coordinate data resulting from 
# the CCDC's data processing and validation procedures. Files generated from 
# CSD entries are Copyright 2016 Cambridge Crystallographic Data Centre. They 
# may be used in bona fide research applications only, and may not be copied or 
# further disseminated in any form, whether machine-readable or not, except for 
# the purposes of generating routine backup copies on your local computer 
# system.
# 
# Files arising from any other source may also contain material that is the 
# copyright of third parties, including the originator, and you should check 
# with the originator concerning the permitted uses of the information 
# contained in this CIF.
#
# For further information on the CCDC and the free tools enCIFer and Mercury
# for validating and visualising CIF files, please visit www.ccdc.cam.ac.uk
#
#######################################################################

data_EQEXUV
_audit_creation_date             2016-06-27
_database_code_depnum_ccdc_archive 'CCDC 1476345'
_chemical_formula_moiety         'C110 H60 N2 O2,C6 H6'
_chemical_name_systematic        
'1,28-bis(4-methoxyphenyl)-83,84-diazatetradecacyclo[26.26.26.2^2,5^.2^24,27^.2^29,32^.2^51,54^.2^55,58^.2^77,80^.1^8,12^.1^17,21^.1^35,39^.1^44,48^.1^61,65^.1^70,74^]octanonaconta-2,4,8(96),9,11,17(95),18,20,24,26,29,31,35(90),36,38,44(89),45,47,51,53,55,57,61(84),62,64,70(83),71,73,77,79,81,85,87,91,93,97-hexatriacontaene-6,13,15,22,33,40,42,49,59,66,68,75-dodecayne benzene solvate'
_journal_coden_Cambridge         182
_journal_volume                  52
_journal_year                    2016
_journal_page_first              8850
_journal_name_full               Chem.Commun.
loop_
_publ_author_name
A.Burgun
P.Valente
J.D.Evans
D.M.Huang
C.J.Sumby
C.J.Doonan
_chemical_absolute_configuration unk
_diffrn_ambient_temperature      100
_exptl_crystal_density_meas      0.658
_exptl_crystal_density_diffrn    0.658
#These two values have been output from a single CSD field.
_refine_ls_R_factor_gt           0.091
_refine_ls_wR_factor_gt          0.091
_diffrn_radiation_probe          x-ray
_diffrn_source                   synchrotron
_symmetry_cell_setting           tetragonal
_symmetry_space_group_name_H-M   'I 41/a c d'
_symmetry_Int_Tables_number      142
loop_
_symmetry_equiv_pos_site_id
_symmetry_equiv_pos_as_xyz
1 x,y,z
2 1/4-y,3/4+x,1/4+z
3 -x,1/2-y,z
4 1/4+y,1/4-x,3/4+z
5 x,-y,1/2-z
6 1/2-x,y,-z
7 3/4+y,1/4+x,1/4-z
8 1/4-y,1/4-x,1/4-z
9 1/2+x,1/2+y,1/2+z
10 3/4-y,1/4+x,3/4+z
11 1/2-x,-y,1/2+z
12 3/4+y,3/4-x,1/4+z
13 1/2+x,1/2-y,-z
14 -x,1/2+y,1/2-z
15 1/4+y,3/4+x,3/4-z
16 3/4-y,3/4-x,3/4-z
17 -x,-y,-z
18 3/4+y,1/4-x,3/4-z
19 x,1/2+y,-z
20 3/4-y,3/4+x,1/4-z
21 -x,y,1/2+z
22 1/2+x,-y,z
23 1/4-y,3/4-x,3/4+z
24 3/4+y,3/4+x,3/4+z
25 1/2-x,1/2-y,1/2-z
26 1/4+y,3/4-x,1/4-z
27 1/2+x,y,1/2-z
28 1/4-y,1/4+x,3/4-z
29 1/2-x,1/2+y,z
30 x,1/2-y,1/2+z
31 3/4-y,1/4-x,1/4+z
32 1/4+y,1/4+x,1/4+z
_cell_length_a                   39.280(6)
_cell_length_b                   39.280(6)
_cell_length_c                   39.780(8)
_cell_angle_alpha                90
_cell_angle_beta                 90
_cell_angle_gamma                90
_cell_volume                     61377.3
_exptl_crystal_colour            colorless
_exptl_crystal_description       rod
_cell_formula_units_Z            16
loop_
_atom_site_label
_atom_site_type_symbol
_atom_site_fract_x
_atom_site_fract_y
_atom_site_fract_z
C1 C 0.49516(15) 0.41751(16) 0.22870(9)
H1 H 0.5059 0.4197 0.2508
H2 H 0.4800 0.4370 0.2249
H3 H 0.4819 0.3964 0.2279
O1 O 0.52020(7) 0.41683(6) 0.20383(5)
C2 C 0.50917(8) 0.41384(6) 0.17099(5)
C3 C 0.53431(7) 0.41175(7) 0.14764(6)
H4 H 0.5574 0.4131 0.1545
C4 C 0.52655(6) 0.40761(6) 0.11379(5)
H5 H 0.5445 0.4060 0.0978
C5 C 0.49300(5) 0.40573(4) 0.10300(4)
C6 C 0.46793(5) 0.40794(4) 0.12738(4)
H6 H 0.4447 0.4064 0.1208
C7 C 0.47576(7) 0.41235(5) 0.16115(5)
H7 H 0.4581 0.4143 0.1773
C8 C 0.48313(4) 0.39693(4) 0.06648(4)
C9 C 0.51344(4) 0.40114(4) 0.04201(4)
C10 C 0.52949(5) 0.43287(5) 0.04040(5)
H8 H 0.5237 0.4499 0.0564
C11 C 0.55333(5) 0.44000(5) 0.01623(5)
H9 H 0.5644 0.4615 0.0161
C12 C 0.56152(4) 0.41584(5) -0.00823(4)
C13 C 0.54639(5) 0.38387(5) -0.00627(4)
H10 H 0.5524 0.3668 -0.0221
C14 C 0.52258(5) 0.37668(4) 0.01861(4)
H11 H 0.5125 0.3547 0.0196
C15 C 0.58361(4) 0.42471(5) -0.03533(4)
C16 C 0.60087(5) 0.43347(5) -0.05846(4)
C17 C 0.62092(4) 0.44470(4) -0.08661(4)
C18 C 0.64484(5) 0.47034(5) -0.08315(5)
H12 H 0.6482 0.4809 -0.0619
C19 C 0.66391(5) 0.48055(5) -0.11061(5)
H13 H 0.6805 0.4980 -0.1083
C20 C 0.65866(5) 0.46515(5) -0.14120(5)
H14 H 0.6718 0.4718 -0.1601
C21 C 0.63410(4) 0.43997(4) -0.14443(4)
C22 C 0.61510(4) 0.42954(4) -0.11724(4)
H15 H 0.5983 0.4123 -0.1196
C23 C 0.62711(5) 0.42417(5) -0.17597(4)
C24 C 0.62026(5) 0.41036(5) -0.20195(4)
C25 C 0.45653(4) 0.42152(4) 0.05132(4)
C26 C 0.44785(4) 0.45205(4) 0.06604(4)
H16 H 0.4573 0.4579 0.0873
C27 C 0.42556(5) 0.47439(4) 0.05033(5)
H17 H 0.4203 0.4956 0.0607
C28 C 0.41087(4) 0.46597(4) 0.01950(4)
C29 C 0.42023(5) 0.43581(5) 0.00405(4)
H18 H 0.4109 0.4300 -0.0172
C30 C 0.44317(5) 0.41418(5) 0.01950(4)
H19 H 0.4500 0.3939 0.0083
C31 C 0.38613(5) 0.48779(5) 0.00423(5)
C32 C 0.36486(5) 0.50534(5) -0.00820(5)
C33 C 0.33793(6) 0.52584(5) -0.02132(6)
C34 C 0.32987(9) 0.55724(7) -0.00680(9)
H20 H 0.3427 0.5655 0.0117
C35 C 0.30343(11) 0.57600(9) -0.01940(12)
H21 H 0.2983 0.5976 -0.0099
C36 C 0.28420(11) 0.56369(8) -0.04586(12)
H22 H 0.2657 0.5766 -0.0544
C37 C 0.29208(8) 0.53241(6) -0.05981(8)
C38 C 0.27324(7) 0.51870(6) -0.08775(7)
C39 C 0.25949(6) 0.50584(6) -0.11131(6)
C40 C 0.47007(4) 0.35995(4) 0.06784(4)
C41 C 0.43677(5) 0.35056(4) 0.06123(4)
H23 H 0.4207 0.3676 0.0554
C42 C 0.42637(5) 0.31680(5) 0.06299(4)
H24 H 0.4035 0.3109 0.0579
C43 C 0.44935(5) 0.29161(4) 0.07222(4)
C44 C 0.48247(5) 0.30115(5) 0.08041(5)
H25 H 0.4983 0.2843 0.0876
C45 C 0.49255(5) 0.33444(4) 0.07830(4)
H26 H 0.5153 0.3403 0.0840
C46 C 0.43866(5) 0.25661(5) 0.07305(4)
C47 C 0.42860(5) 0.22794(5) 0.07254(4)
C48 C 0.41488(4) 0.19418(4) 0.07042(4)
C49 C 0.41447(5) 0.17272(5) 0.09840(4)
H27 H 0.4246 0.1797 0.1189
C50 C 0.39917(5) 0.14117(5) 0.09591(4)
H28 H 0.3987 0.1264 0.1148
C51 C 0.38468(5) 0.13111(5) 0.06625(4)
H29 H 0.3742 0.1094 0.0644
C52 C 0.38555(5) 0.15321(4) 0.03857(4)
C53 C 0.40078(4) 0.18432(4) 0.04065(4)
H30 H 0.4016 0.1989 0.0216
C54 C 0.36963(5) 0.14428(5) 0.00753(4)
C55 C 0.35578(5) 0.13768(5) -0.01843(4)
N1 N 0.31904(5) 0.51350(5) -0.04804(5)
C1O C 0.33249 0.25484 -0.4787
H1O H 0.3303 0.2441 -0.5008
H2O H 0.313 0.27 -0.4749
H3O H 0.3536 0.2681 -0.4779
O1O O 0.33317 0.2298 -0.45383
C2O C 0.33616 0.24083 -0.42099
C3O C 0.33825 0.21569 -0.39764
H4O H 0.3369 0.1926 -0.4045
C4O C 0.34239 0.22345 -0.36379
H5O H 0.344 0.2055 -0.3478
C5O C 0.34427 0.257 -0.353
C6O C 0.34206 0.28207 -0.37738
H6O H 0.3436 0.3053 -0.3708
C7O C 0.33765 0.27424 -0.41115
H7O H 0.3357 0.2919 -0.4273
C8O C 0.35307 0.26687 -0.31648
C9O C 0.34886 0.23656 -0.29201
C10O C 0.31713 0.22051 -0.2904
H8O H 0.3001 0.2263 -0.3064
C11O C 0.31 0.19667 -0.26623
H9O H 0.2885 0.1856 -0.2661
C12O C 0.33416 0.18848 -0.24177
C13O C 0.36613 0.20361 -0.24373
H10O H 0.3832 0.1976 -0.2279
C14O C 0.37332 0.22742 -0.26861
H11O H 0.3953 0.2375 -0.2696
C15O C 0.32529 0.16639 -0.21467
C16O C 0.31653 0.14913 -0.19154
C17O C 0.3053 0.12908 -0.16339
C18O C 0.27966 0.10516 -0.16685
H12O H 0.2691 0.1018 -0.1881
C19O C 0.26945 0.08609 -0.13939
H13O H 0.252 0.0695 -0.1417
C20O C 0.28485 0.09134 -0.1088
H14O H 0.2782 0.0782 -0.0899
C21O C 0.31003 0.1159 -0.10557
C22O C 0.32046 0.1349 -0.13276
H15O H 0.3377 0.1517 -0.1304
C23O C 0.32583 0.12289 -0.07403
C24O C 0.33964 0.12974 -0.04805
C25O C 0.32848 0.29347 -0.30132
C26O C 0.29795 0.30215 -0.31604
H16O H 0.2921 0.2927 -0.3373
C27O C 0.27561 0.32444 -0.30033
H17O H 0.2544 0.3297 -0.3107
C28O C 0.28403 0.33913 -0.2695
C29O C 0.31419 0.32977 -0.25405
H18O H 0.32 0.3391 -0.2328
C30O C 0.33582 0.30683 -0.2695
H19O H 0.3561 0.3 -0.2583
C31O C 0.26221 0.36387 -0.25423
C32O C 0.24466 0.38514 -0.2418
C33O C 0.22416 0.41207 -0.22868
C34O C 0.19276 0.42013 -0.2432
H20O H 0.1845 0.4073 -0.2617
C35O C 0.174 0.44657 -0.2306
H21O H 0.1524 0.4517 -0.2401
C36O C 0.18631 0.4658 -0.20414
H22O H 0.1734 0.4843 -0.1956
C37O C 0.21759 0.45792 -0.19019
C38O C 0.2313 0.47676 -0.16225
C39O C 0.24416 0.49051 -0.13869
C40O C 0.39005 0.27993 -0.31784
C41O C 0.39944 0.31323 -0.31123
H23O H 0.3824 0.3293 -0.3054
C42O C 0.4332 0.32363 -0.31299
H24O H 0.4391 0.3465 -0.3079
C43O C 0.45839 0.30065 -0.32222
C44O C 0.44885 0.26753 -0.33041
H25O H 0.4657 0.2517 -0.3376
C45O C 0.41556 0.25745 -0.3283
H26O H 0.4097 0.2347 -0.334
C46O C 0.49339 0.31134 -0.32305
C47O C 0.52206 0.3214 -0.32254
C48O C 0.55582 0.33512 -0.32042
C49O C 0.57728 0.33553 -0.3484
H27O H 0.5703 0.3254 -0.3689
C50O C 0.60883 0.35083 -0.34591
H28O H 0.6236 0.3513 -0.3648
C51O C 0.61889 0.36532 -0.31625
H29O H 0.6406 0.3758 -0.3144
C52O C 0.59679 0.36445 -0.28857
C53O C 0.56568 0.34922 -0.29065
H30O H 0.5511 0.3484 -0.2716
C54O C 0.60572 0.38037 -0.25753
C55O C 0.61232 0.39422 -0.23157
N1O N 0.2365 0.43096 -0.20196

#END

