
#######################################################################
#
#                 Cambridge Crystallographic Data Centre
#                                CCDC 
#
#######################################################################
#
# If this CIF has been generated directly or indirectly from an entry in the 
# Cambridge Structural Database, then it will include bibliographic, chemical, 
# crystal, experimental, refinement or atomic coordinate data resulting from 
# the CCDC's data processing and validation procedures. Files generated from 
# CSD entries are Copyright 2015 Cambridge Crystallographic Data Centre. They 
# may be used in bona fide research applications only, and may not be copied or 
# further disseminated in any form, whether machine-readable or not, except for 
# the purposes of generating routine backup copies on your local computer 
# system.
# 
# Files arising from any other source may also contain material that is the 
# copyright of third parties, including the originator, and you should check 
# with the originator concerning the permitted uses of the information 
# contained in this CIF.
#
# For further information on the CCDC and the free tools enCIFer and Mercury
# for validating and visualising CIF files, please visit www.ccdc.cam.ac.uk
#
#######################################################################

data_TOVWUY
_audit_creation_date             2014-12-22
_database_code_depnum_ccdc_archive 'CCDC 1022375'
_chemical_formula_moiety         'C132 H120 N24'
_chemical_name_systematic        
"2,2':4',2'':4'',2''':4''',4:6,6'':6',6'''-hexakis(4,4'-(cyclohexane-1,2-diylbis(nitrilomethylylidene))diphenyl)tetrakis(1,3,5-triazine) unknown solvate"
_journal_coden_Cambridge         182
_journal_volume                  51
_journal_year                    2015
_journal_page_first              1976
_journal_name_full               Chem.Commun.
loop_
_publ_author_name
'Huimin Ding'
'Yihui Yang'
'Bijian Li'
'Feng Pan'
'Guozhu Zhu'
M.Zeller
'Daqiang Yuan'
'Cheng Wang'
_chemical_absolute_configuration unk
_diffrn_ambient_temperature      293
_exptl_crystal_density_meas      0.788
_exptl_crystal_density_diffrn    0.788
#These two values have been output from a single CSD field.
_refine_ls_R_factor_gt           0.0603
_refine_ls_wR_factor_gt          0.0603
_diffrn_radiation_probe          x-ray
_diffrn_source                   'synchrotron radiation'
_symmetry_cell_setting           orthorhombic
_symmetry_space_group_name_H-M   'P 21 21 21'
_symmetry_Int_Tables_number      19
loop_
_symmetry_equiv_pos_site_id
_symmetry_equiv_pos_as_xyz
1 x,y,z
2 1/2-x,-y,1/2+z
3 1/2+x,1/2-y,-z
4 -x,1/2+y,1/2-z
_cell_length_a                   23.855(5)
_cell_length_b                   26.655(5)
_cell_length_c                   27.082(5)
_cell_angle_alpha                90
_cell_angle_beta                 90
_cell_angle_gamma                90
_cell_volume                     17220.2
_exptl_crystal_colour            colorless
_exptl_crystal_description       rod
_cell_formula_units_Z            4
loop_
_atom_site_label
_atom_site_type_symbol
_atom_site_fract_x
_atom_site_fract_y
_atom_site_fract_z
N1 N 0.12315(18) 0.45793(16) 0.95633(13)
N2 N 0.15104(18) 0.54452(16) 0.96229(14)
N3 N 0.11643(18) 0.51106(17) 0.88652(14)
N4 N 0.04487(19) 0.25065(18) 0.81430(14)
N5 N 0.17291(18) 0.52530(15) 1.21431(14)
N6 N 0.1003(2) 0.76531(17) 0.80617(15)
N7 N 0.49213(18) 0.34257(14) 0.74986(15)
N8 N 0.39592(18) 0.33362(14) 0.72875(14)
N9 N 0.4291(2) 0.30323(14) 0.80533(15)
N10 N 0.5291(2) 0.43190(15) 0.50198(14)
N11 N 0.14418(18) 0.20288(16) 0.77909(14)
N12 N 0.65572(18) 0.22548(15) 0.94613(14)
N13 N 0.5315(2) 0.67156(17) 0.71637(16)
N14 N 0.4417(2) 0.66827(16) 0.68013(15)
N15 N 0.4539(2) 0.70734(15) 0.75856(15)
N16 N 0.5497(2) 0.53461(15) 0.48027(15)
N17 N 0.1828(2) 0.80264(18) 0.74020(16)
N18 N 0.7014(2) 0.77855(14) 0.90373(14)
N19 N 0.5881(2) 0.50492(19) 1.0730(2)
N20 N 0.50424(19) 0.47963(17) 1.11346(16)
N21 N 0.5243(2) 0.56690(17) 1.10257(17)
N22 N 0.6714(2) 0.25580(17) 1.04561(14)
N23 N 0.27376(19) 0.54381(18) 1.26382(16)
N24 N 0.72083(19) 0.74151(19) 1.00243(15)
C1 C 0.1122(2) 0.4673(2) 0.90793(16)
C2 C 0.1359(2) 0.5493(2) 0.91495(18)
C3 C 0.1433(2) 0.4985(2) 0.98064(17)
C4 C 0.0958(2) 0.4232(2) 0.87913(16)
C5 C 0.0771(2) 0.3796(2) 0.90198(17)
H1 H 0.0722 0.3792 0.9360
C6 C 0.0657(2) 0.3372(2) 0.87523(17)
H2 H 0.0530 0.3086 0.8914
C7 C 0.0727(2) 0.3362(2) 0.82497(17)
C8 C 0.0911(3) 0.3804(2) 0.80243(19)
H3 H 0.0962 0.3807 0.7684
C9 C 0.1018(3) 0.4223(2) 0.82816(17)
H4 H 0.1133 0.4511 0.8116
C10 C 0.0642(2) 0.2914(2) 0.79599(19)
H5 H 0.0731 0.2923 0.7626
C11 C 0.1356(2) 0.60123(19) 0.89414(17)
C12 C 0.1132(3) 0.6108(2) 0.84781(18)
H6 H 0.0989 0.5848 0.8287
C13 C 0.1123(3) 0.6594(2) 0.83062(19)
H7 H 0.0963 0.6660 0.8000
C14 C 0.1347(2) 0.6986(2) 0.85784(18)
C15 C 0.1580(3) 0.6884(2) 0.9038(2)
H8 H 0.1734 0.7140 0.9227
C16 C 0.1579(3) 0.6397(2) 0.92061(19)
H9 H 0.1737 0.6328 0.9513
C17 C 0.1333(3) 0.7519(2) 0.84113(19)
H10 H 0.1565 0.7755 0.8561
C18 C 0.1549(2) 0.4907(2) 1.03426(16)
C19 C 0.1886(2) 0.5258(2) 1.05895(18)
H11 H 0.2072 0.5508 1.0415
C20 C 0.1939(2) 0.5225(2) 1.11041(17)
H12 H 0.2157 0.5459 1.1272
C21 C 0.1676(2) 0.48541(18) 1.13606(16)
C22 C 0.1370(2) 0.44904(19) 1.11084(17)
H13 H 0.1210 0.4224 1.1280
C23 C 0.1306(3) 0.4526(2) 1.06027(18)
H14 H 0.1093 0.4287 1.0437
C24 C 0.1691(2) 0.48447(19) 1.19060(17)
H15 H 0.1673 0.4541 1.2074
C25 C 0.4485(3) 0.34834(18) 0.71954(18)
C26 C 0.3894(2) 0.31006(17) 0.77182(18)
C27 C 0.4809(2) 0.31952(18) 0.79284(19)
C28 C 0.4593(2) 0.37136(17) 0.67043(17)
C29 C 0.5138(2) 0.37636(19) 0.65213(18)
H16 H 0.5440 0.3677 0.6721
C30 C 0.5238(2) 0.39395(19) 0.60492(19)
H17 H 0.5601 0.3963 0.5928
C31 C 0.4775(2) 0.40821(19) 0.57558(18)
C32 C 0.4241(3) 0.4027(2) 0.5932(2)
H18 H 0.3939 0.4113 0.5731
C33 C 0.4139(2) 0.3845(2) 0.6403(2)
H19 H 0.3773 0.3811 0.6518
C34 C 0.4829(3) 0.42703(19) 0.52467(18)
H20 H 0.4502 0.4359 0.5080
C35 C 0.3332(2) 0.28861(16) 0.78310(18)
C36 C 0.2888(2) 0.29198(18) 0.74966(19)
H21 H 0.2936 0.3099 0.7205
C37 C 0.2391(2) 0.26963(17) 0.75885(18)
H22 H 0.2099 0.2725 0.7362
C38 C 0.2311(2) 0.24185(19) 0.80278(17)
C39 C 0.2746(3) 0.2410(3) 0.83641(19)
H23 H 0.2688 0.2256 0.8668
C40 C 0.3258(3) 0.2617(2) 0.82672(18)
H24 H 0.3552 0.2580 0.8489
C41 C 0.1797(3) 0.2148(2) 0.81224(19)
H25 H 0.1721 0.2054 0.8446
C42 C 0.5267(2) 0.30957(18) 0.82745(18)
C43 C 0.5164(2) 0.2795(2) 0.86861(18)
H26 H 0.4803 0.2684 0.8754
C44 C 0.5604(2) 0.26639(19) 0.89930(18)
H27 H 0.5535 0.2460 0.9265
C45 C 0.6152(2) 0.28323(18) 0.89028(17)
C46 C 0.6239(2) 0.3144(2) 0.8503(2)
H28 H 0.6595 0.3270 0.8441
C47 C 0.5794(3) 0.3272(2) 0.8190(2)
H29 H 0.5859 0.3481 0.7920
C48 C 0.6615(2) 0.26466(19) 0.91903(18)
H30 H 0.6959 0.2811 0.9180
C49 C 0.4970(3) 0.6593(2) 0.6807(2)
C50 C 0.4216(3) 0.69406(19) 0.71988(18)
C51 C 0.5080(3) 0.69565(18) 0.75536(18)
C52 C 0.5203(3) 0.6325(2) 0.63722(19)
C53 C 0.4879(3) 0.6302(2) 0.59319(18)
H31 H 0.4539 0.6471 0.5902
C54 C 0.5096(3) 0.6014(2) 0.55484(19)
H32 H 0.4891 0.5988 0.5258
C55 C 0.5596(3) 0.5771(2) 0.5580(2)
C56 C 0.5922(3) 0.5831(3) 0.6009(2)
H33 H 0.6274 0.5681 0.6029
C57 C 0.5727(3) 0.6107(3) 0.6394(2)
H34 H 0.5948 0.6150 0.6673
C58 C 0.5801(3) 0.5419(2) 0.5185(2)
H35 H 0.6145 0.5257 0.5218
C59 C 0.3628(2) 0.7079(2) 0.72078(19)
C60 C 0.3440(3) 0.7410(2) 0.7574(2)
H36 H 0.3683 0.7522 0.7819
C61 C 0.2904(3) 0.7565(2) 0.7566(2)
H37 H 0.2778 0.7772 0.7819
C62 C 0.2527(3) 0.7430(2) 0.71965(19)
C63 C 0.2724(3) 0.7089(2) 0.68396(19)
H38 H 0.2480 0.6978 0.6595
C64 C 0.3259(3) 0.6916(2) 0.68407(18)
H39 H 0.3378 0.6691 0.6600
C65 C 0.1963(3) 0.7628(2) 0.71795(18)
H40 H 0.1691 0.7458 0.6999
C66 C 0.5439(3) 0.7115(2) 0.79687(19)
C67 C 0.6027(2) 0.70327(19) 0.79520(19)
H41 H 0.6184 0.6850 0.7694
C68 C 0.6367(2) 0.72253(18) 0.83206(18)
H42 H 0.6752 0.7170 0.8311
C69 C 0.6130(3) 0.75062(19) 0.87125(17)
C70 C 0.5552(3) 0.7568(2) 0.87354(18)
H43 H 0.5394 0.7735 0.9002
C71 C 0.5205(2) 0.73804(19) 0.83591(18)
H44 H 0.4820 0.7434 0.8371
C72 C 0.6480(3) 0.77673(19) 0.90667(18)
H45 H 0.6306 0.7930 0.9329
C73 C 0.5715(3) 0.5527(2) 1.0807(2)
C74 C 0.4922(2) 0.5282(2) 1.1197(2)
C75 C 0.5527(3) 0.4698(2) 1.0897(2)
C76 C 0.6076(3) 0.5908(2) 1.0573(3)
C77 C 0.5970(3) 0.6423(2) 1.0620(2)
H46 H 0.5654 0.6531 1.0791
C78 C 0.6334(3) 0.6775(2) 1.0411(2)
H47 H 0.6252 0.7116 1.0428
C79 C 0.6811(3) 0.6611(3) 1.0182(3)
C80 C 0.6897(4) 0.6088(3) 1.0093(5)
H48 H 0.7174 0.5979 0.9876
C81 C 0.6568(4) 0.5758(3) 1.0332(4)
H49 H 0.6670 0.5421 1.0337
C82 C 0.7229(3) 0.6967(3) 0.9943(3)
H50 H 0.7503 0.6840 0.9732
C83 C 0.5684(3) 0.4179(2) 1.0812(2)
C84 C 0.6272(3) 0.4071(2) 1.0755(2)
H51 H 0.6539 0.4324 1.0778
C85 C 0.6429(3) 0.3570(2) 1.0663(2)
H52 H 0.6808 0.3490 1.0644
C86 C 0.6037(3) 0.3200(2) 1.06005(17)
C87 C 0.5453(3) 0.3315(2) 1.06542(18)
H53 H 0.5185 0.3065 1.0615
C88 C 0.5288(3) 0.3804(2) 1.07659(18)
H54 H 0.4910 0.3877 1.0810
C89 C 0.6202(3) 0.2696(2) 1.04776(17)
H55 H 0.5924 0.2461 1.0411
C90 C 0.4407(2) 0.5405(2) 1.14805(18)
C91 C 0.4178(3) 0.5042(2) 1.1790(2)
H56 H 0.4350 0.4730 1.1815
C92 C 0.3703(2) 0.5139(2) 1.2060(2)
H57 H 0.3552 0.4894 1.2265
C93 C 0.3449(2) 0.5609(2) 1.20241(18)
C94 C 0.3683(2) 0.5973(2) 1.17132(19)
H58 H 0.3515 0.6286 1.1683
C95 C 0.4165(2) 0.5864(2) 1.14517(18)
H59 H 0.4326 0.6110 1.1253
C96 C 0.2927(2) 0.5736(2) 1.2309(2)
H60 H 0.2740 0.6036 1.2245
C97 C 0.0426(2) 0.2063(2) 0.78263(17)
H61 H 0.0436 0.2170 0.7480
C98 C -0.0112(2) 0.1773(2) 0.79183(19)
H62 H -0.0430 0.1972 0.7811
H63 H -0.0153 0.1711 0.8269
C99 C -0.0114(3) 0.1269(2) 0.7640(2)
H64 H -0.0448 0.1082 0.7728
H65 H -0.0125 0.1332 0.7288
C100 C 0.0385(3) 0.0963(2) 0.7756(2)
H66 H 0.0380 0.0661 0.7556
H67 H 0.0371 0.0862 0.8100
C101 C 0.0939(3) 0.1251(2) 0.76599(18)
H68 H 0.1254 0.1048 0.7766
H69 H 0.0978 0.1313 0.7309
C102 C 0.0948(2) 0.1746(2) 0.79345(18)
H70 H 0.0965 0.1679 0.8290
C103 C 0.1747(2) 0.5233(2) 1.26772(17)
H71 H 0.1838 0.4891 1.2783
C104 C 0.1176(2) 0.5386(2) 1.28909(19)
H72 H 0.1075 0.5717 1.2772
H73 H 0.0892 0.5151 1.2783
C105 C 0.1203(3) 0.5390(3) 1.3448(2)
H74 H 0.0846 0.5501 1.3579
H75 H 0.1271 0.5052 1.3567
C106 C 0.1651(3) 0.5725(3) 1.3629(2)
H76 H 0.1668 0.5706 1.3987
H77 H 0.1564 0.6068 1.3539
C107 C 0.2219(3) 0.5579(4) 1.3412(2)
H78 H 0.2504 0.5811 1.3529
H79 H 0.2320 0.5245 1.3524
C108 C 0.2200(2) 0.5589(2) 1.28548(18)
H80 H 0.2110 0.5930 1.2745
C109 C 0.1001(3) 0.8184(2) 0.79115(18)
H81 H 0.1247 0.8375 0.8132
C110 C 0.0423(3) 0.8400(2) 0.7931(2)
H82 H 0.0300 0.8417 0.8272
H83 H 0.0167 0.8183 0.7754
C111 C 0.0404(3) 0.8919(2) 0.7709(2)
H84 H 0.0019 0.9035 0.7710
H85 H 0.0621 0.9144 0.7915
C112 C 0.0621(3) 0.8947(2) 0.7200(2)
H86 H 0.0625 0.9294 0.7091
H87 H 0.0378 0.8759 0.6980
C113 C 0.1220(3) 0.8730(2) 0.7182(2)
H88 H 0.1351 0.8730 0.6843
H89 H 0.1468 0.8942 0.7373
C114 C 0.1244(3) 0.8193(2) 0.7386(2)
H90 H 0.1027 0.7968 0.7173
C115 C 0.5257(3) 0.45281(18) 0.45143(16)
H91 H 0.4880 0.4665 0.4461
C116 C 0.5365(3) 0.4109(2) 0.41361(18)
H92 H 0.5724 0.3953 0.4203
H93 H 0.5077 0.3854 0.4166
C117 C 0.5363(4) 0.4314(3) 0.36264(19)
H94 H 0.4994 0.4447 0.3550
H95 H 0.5445 0.4048 0.3393
C118 C 0.5806(3) 0.4736(2) 0.35746(19)
H96 H 0.6176 0.4601 0.3638
H97 H 0.5801 0.4866 0.3240
C119 C 0.5683(3) 0.5155(2) 0.39357(18)
H98 H 0.5320 0.5302 0.3862
H99 H 0.5965 0.5416 0.3905
C120 C 0.5682(3) 0.49468(19) 0.44694(16)
H100 H 0.6057 0.4828 0.4562
C121 C 0.7028(2) 0.20761(18) 0.97509(17)
H101 H 0.7344 0.2309 0.9722
C122 C 0.7195(3) 0.1562(2) 0.9573(2)
H102 H 0.6866 0.1349 0.9561
H103 H 0.7344 0.1588 0.9241
C123 C 0.7625(3) 0.1325(3) 0.9900(3)
H104 H 0.7965 0.1525 0.9897
H105 H 0.7717 0.0993 0.9776
C124 C 0.7405(4) 0.1285(3) 1.0421(2)
H106 H 0.7684 0.1130 1.0631
H107 H 0.7071 0.1077 1.0425
C125 C 0.7266(3) 0.1805(3) 1.0614(2)
H108 H 0.7127 0.1780 1.0950
H109 H 0.7602 0.2009 1.0617
C126 C 0.6828(2) 0.2049(2) 1.02920(16)
H110 H 0.6481 0.1852 1.0308
C127 C 0.7313(2) 0.80761(17) 0.94091(18)
H111 H 0.7041 0.8271 0.9601
C128 C 0.7714(3) 0.8432(2) 0.9160(2)
H112 H 0.7504 0.8661 0.8952
H113 H 0.7966 0.8242 0.8949
C129 C 0.8056(3) 0.8732(2) 0.9529(2)
H114 H 0.7810 0.8943 0.9725
H115 H 0.8320 0.8947 0.9357
C130 C 0.8381(2) 0.8356(2) 0.9875(2)
H116 H 0.8648 0.8164 0.9681
H117 H 0.8588 0.8542 1.0123
C131 C 0.7988(3) 0.8012(2) 1.0119(2)
H118 H 0.7747 0.8203 1.0338
H119 H 0.8199 0.7776 1.0318
C132 C 0.7628(2) 0.77239(19) 0.97558(19)
H120 H 0.7868 0.7502 0.9560

#END

