
#######################################################################
#
#                 Cambridge Crystallographic Data Centre
#                                CCDC 
#
#######################################################################
#
# If this CIF has been generated directly or indirectly from an entry in the 
# Cambridge Structural Database, then it will include bibliographic, chemical, 
# crystal, experimental, refinement or atomic coordinate data resulting from 
# the CCDC's data processing and validation procedures. Files generated from 
# CSD entries are Copyright 2015 Cambridge Crystallographic Data Centre. They 
# may be used in bona fide research applications only, and may not be copied or 
# further disseminated in any form, whether machine-readable or not, except for 
# the purposes of generating routine backup copies on your local computer 
# system.
# 
# Files arising from any other source may also contain material that is the 
# copyright of third parties, including the originator, and you should check 
# with the originator concerning the permitted uses of the information 
# contained in this CIF.
#
# For further information on the CCDC and the free tools enCIFer and Mercury
# for validating and visualising CIF files, please visit www.ccdc.cam.ac.uk
#
#######################################################################

data_FEQXAC
_audit_creation_date             2013-05-19
_database_code_depnum_ccdc_archive 'CCDC 904717'
_chemical_formula_moiety         'C158 H140 N12 O6'
_chemical_name_systematic        
tetrakis(triptycenetriamine)hexakis(2-methoxy-5-t-butylbenzene-1,3-dimethylene)
_journal_coden_Cambridge         179
_journal_volume                  52
_journal_year                    2013
_journal_page_first              3611
_journal_name_full               Angew.Chem.,Int.Ed.
loop_
_publ_author_name
M.W.Schneider
I.M.Oppel
A.Griffin
M.Mastalerz
_chemical_absolute_configuration unk
_diffrn_ambient_temperature      100
_exptl_crystal_density_meas      0.555
_exptl_crystal_density_diffrn    0.555
#These two values have been output from a single CSD field.
_refine_ls_R_factor_gt           0.0553
_refine_ls_wR_factor_gt          0.0553
_diffrn_radiation_probe          x-ray
_symmetry_cell_setting           rhombohedral
_symmetry_space_group_name_H-M   'R 3'
_symmetry_Int_Tables_number      146
loop_
_symmetry_equiv_pos_site_id
_symmetry_equiv_pos_as_xyz
1 x,y,z
2 -y,x-y,z
3 -x+y,-x,z
4 2/3+x,1/3+y,1/3+z
5 2/3-y,1/3+x-y,1/3+z
6 2/3-x+y,1/3-x,1/3+z
7 1/3+x,2/3+y,2/3+z
8 1/3-y,2/3+x-y,2/3+z
9 1/3-x+y,2/3-x,2/3+z
_cell_length_a                   30.374(4)
_cell_length_b                   30.374(4)
_cell_length_c                   25.851(5)
_cell_angle_alpha                90
_cell_angle_beta                 90
_cell_angle_gamma                120
_cell_volume                     20654.4
_exptl_crystal_colour            orange
_exptl_crystal_description       prism
_cell_formula_units_Z            3
loop_
_atom_site_label
_atom_site_type_symbol
_atom_site_fract_x
_atom_site_fract_y
_atom_site_fract_z
O1 O 0.21755(7) 0.08792(8) 0.27084(8)
O2 O 0.05396(8) -0.13937(8) 0.58699(13)
N1 N 0.20471(7) -0.08931(8) 0.61481(8)
N2 N 0.34319(7) 0.09399(8) 0.33697(8)
N3 N -0.05578(7) -0.28783(8) 0.61427(9)
N4 N 0.18745(7) 0.05650(7) 0.11537(8)
C1 C 0.37014(8) 0.10537(9) 0.55831(9)
H1 H 0.4048 0.1151 0.5715
C2 C 0.27967(7) 0.07994(8) 0.52262(8)
H2 H 0.2452 0.0704 0.5091
C3 C 0.28058(8) 0.03922(8) 0.55586(9)
C4 C 0.32913(8) 0.05353(8) 0.57538(9)
C5 C 0.33458(8) 0.01934(9) 0.60803(9)
H3 H 0.3670 0.0283 0.6217
C6 C 0.29327(9) -0.02674(9) 0.62011(9)
H4 H 0.2976 -0.0496 0.6417
C7 C 0.24420(8) -0.04092(8) 0.60097(9)
C8 C 0.23905(8) -0.00760(9) 0.56867(10)
H5 H 0.2065 -0.0168 0.5550
C9 C 0.31935(7) 0.09030(7) 0.47984(9)
C10 C 0.36605(8) 0.10372(8) 0.49897(8)
C11 C 0.40565(8) 0.11344(8) 0.46400(10)
H6 H 0.4385 0.1227 0.4767
C12 C 0.39659(9) 0.10946(8) 0.41173(9)
H7 H 0.4233 0.1156 0.3885
C13 C 0.34941(8) 0.09676(8) 0.39234(9)
C14 C 0.30933(8) 0.08506(8) 0.42817(9)
H8 H 0.2758 0.0737 0.4160
C15 C 0.30402(8) 0.12863(8) 0.55623(10)
C16 C 0.35157(9) 0.14120(8) 0.57465(8)
C17 C 0.37739(8) 0.18410(9) 0.60659(10)
H9 H 0.4099 0.1931 0.6202
C18 C 0.35503(10) 0.21361(10) 0.61833(11)
H10 H 0.3726 0.2429 0.6395
C19 C 0.30629(9) 0.19979(9) 0.59863(10)
C20 C 0.28026(10) 0.15769(9) 0.56702(9)
H11 H 0.2479 0.1486 0.5531
C21 C 0.0000 0.0000 0.01630(12)
H12 H 0.0000 0.0000 -0.0224
C22 C 0.0000 0.0000 0.11701(15)
H13 H 0.0000 0.0000 0.1557
C23 C 0.05200(8) 0.01665(8) 0.09277(9)
C24 C 0.05296(8) 0.01735(9) 0.03903(9)
C25 C 0.09591(8) 0.03120(9) 0.01069(9)
H14 H 0.0955 0.0313 -0.0261
C26 C 0.14125(9) 0.04548(9) 0.03881(9)
H15 H 0.1720 0.0555 0.0205
C27 C 0.14160(8) 0.04502(8) 0.09281(9)
C28 C 0.09619(8) 0.03011(8) 0.12043(9)
H16 H 0.0958 0.0293 0.1572
C29 C 0.30897(9) 0.10069(9) 0.31608(9)
H17 H 0.2887 0.1090 0.3374
C30 C 0.30024(9) 0.09608(8) 0.26112(10)
C31 C 0.25625(9) 0.09022(8) 0.23841(10)
C32 C 0.18423(16) 0.04004(15) 0.29108(18)
H18 H 0.1662 0.0164 0.2627
H19 H 0.1596 0.0423 0.3138
H20 H 0.2035 0.0278 0.3109
C33 C 0.24621(9) 0.08365(9) 0.18585(10)
C34 C 0.20007(10) 0.07480(10) 0.16297(10)
H21 H 0.1778 0.0821 0.1821
C35 C 0.28658(8) 0.08790(8) 0.15287(11)
H22 H 0.2826 0.0867 0.1164
C36 C 0.33155(9) 0.09377(8) 0.17436(10)
C37 C 0.33733(8) 0.09757(8) 0.22671(10)
H23 H 0.3679 0.1014 0.2410
C38 C 0.37346(9) 0.09564(10) 0.13913(10)
C39 C 0.36049(14) 0.09606(18) 0.08161(10)
H24 H 0.3896 0.1019 0.0603
H25 H 0.3527 0.1233 0.0755
H26 H 0.3309 0.0632 0.0724
C40 C 0.37546(11) 0.04621(11) 0.14859(12)
H27 H 0.3810 0.0432 0.1855
H28 H 0.4034 0.0474 0.1285
H29 H 0.3433 0.0168 0.1377
C41 C 0.42338(11) 0.14257(14) 0.15266(13)
H30 H 0.4182 0.1602 0.1818
H31 H 0.4359 0.1653 0.1227
H32 H 0.4484 0.1326 0.1623
C42 C 0.15877(9) -0.10295(10) 0.60736(11)
H33 H 0.1496 -0.0804 0.5917
C43 C 0.11881(9) -0.15476(9) 0.62334(9)
C44 C 0.06806(10) -0.17196(10) 0.61300(12)
C45 C 0.0457(4) -0.1450(3) 0.5322(3)
H34 H 0.0257 -0.1812 0.5235
H35 H 0.0786 -0.1298 0.5144
H36 H 0.0273 -0.1277 0.5213
C46 C 0.03102(8) -0.22118(10) 0.62393(10)
C47 C -0.02259(9) -0.24148(11) 0.60966(12)
H37 H -0.0327 -0.2187 0.5964
C48 C 0.04534(9) -0.25256(10) 0.64973(10)
H38 H 0.0202 -0.2865 0.6577
C49 C 0.09589(9) -0.23517(10) 0.66417(11)
C50 C 0.13155(9) -0.18709(10) 0.64806(10)
H39 H 0.1665 -0.1757 0.6543
C51 C 0.11297(10) -0.26902(11) 0.68994(13)
C52 C 0.15168(17) -0.2399(2) 0.7311(2)
H40 H 0.1778 -0.2072 0.7170
H41 H 0.1675 -0.2595 0.7425
H42 H 0.1350 -0.2340 0.7605
C53 C 0.06752(13) -0.32075(17) 0.7089(2)
H43 H 0.0470 -0.3142 0.7337
H44 H 0.0807 -0.3408 0.7257
H45 H 0.0464 -0.3396 0.6793
C54 C 0.14186(16) -0.28515(16) 0.6488(2)
H46 H 0.1173 -0.3088 0.6236
H47 H 0.1581 -0.3017 0.6668
H48 H 0.1678 -0.2548 0.6308
O1A O -0.08792 0.12963 0.27084
O2A O 0.13937 0.19333 0.58699
N1A N 0.08931 0.29402 0.61481
N2A N -0.09399 0.2492 0.33697
N3A N 0.28783 0.23205 0.61427
N4A N -0.0565 0.13095 0.11537
C1A C -0.10537 0.26477 0.55831
H1A H -0.1151 0.2897 0.5715
C2A C -0.07994 0.19973 0.52262
H2A H -0.0704 0.1748 0.5091
C3A C -0.03922 0.24136 0.55586
C4A C -0.05353 0.2756 0.57538
C5A C -0.01934 0.31524 0.60803
H3A H -0.0283 0.3387 0.6217
C6A C 0.02674 0.32001 0.62011
H4A H 0.0496 0.3472 0.6417
C7A C 0.04092 0.28512 0.60097
C8A C 0.0076 0.24665 0.56867
H5A H 0.0168 0.2233 0.555
C9A C -0.0903 0.22905 0.47984
C10A C -0.10372 0.26233 0.49897
C11A C -0.11344 0.29221 0.464
H6A H -0.1227 0.3158 0.4767
C12A C -0.10946 0.28713 0.41173
H7A H -0.1156 0.3077 0.3885
C13A C -0.09676 0.25265 0.39234
C14A C -0.08506 0.22427 0.42817
H8A H -0.0737 0.2021 0.416
C15A C -0.12863 0.17539 0.55623
C16A C -0.1412 0.21037 0.57465
C17A C -0.1841 0.19329 0.60659
H9A H -0.1931 0.2168 0.6202
C18A C -0.21361 0.14142 0.61833
H10A H -0.2429 0.1297 0.6395
C19A C -0.19979 0.1065 0.59863
C20A C -0.15769 0.12257 0.56702
H11A H -0.1486 0.0993 0.5531
C23A C -0.01665 0.03535 0.09277
C24A C -0.01735 0.03561 0.03903
C25A C -0.0312 0.06471 0.01069
H14A H -0.0313 0.0642 -0.0261
C26A C -0.04548 0.09577 0.03881
H15A H -0.0555 0.1165 0.0205
C27A C -0.04502 0.09658 0.09281
C28A C -0.03011 0.06608 0.12043
H16A H -0.0293 0.0665 0.1572
C29A C -0.10069 0.20828 0.31608
H17A H -0.109 0.1797 0.3374
C30A C -0.09608 0.20416 0.26112
C31A C -0.09022 0.16603 0.23841
C32A C -0.04004 0.14419 0.29108
H18A H -0.0164 0.1498 0.2627
H19A H -0.0423 0.1173 0.3138
H20A H -0.0278 0.1757 0.3109
C33A C -0.08365 0.16256 0.18585
C34A C -0.0748 0.12527 0.16297
H21A H -0.0821 0.0957 0.1821
C35A C -0.0879 0.19868 0.15287
H22A H -0.0867 0.1959 0.1164
C36A C -0.09377 0.23778 0.17436
C37A C -0.09757 0.23976 0.22671
H23A H -0.1014 0.2665 0.241
C38A C -0.09564 0.27782 0.13913
C39A C -0.09606 0.26443 0.08161
H24A H -0.1019 0.2877 0.0603
H25A H -0.1233 0.2294 0.0755
H26A H -0.0632 0.2677 0.0724
C40A C -0.04621 0.32925 0.14859
H27A H -0.0432 0.3378 0.1855
H28A H -0.0474 0.356 0.1285
H29A H -0.0168 0.3265 0.1377
C41A C -0.14257 0.28081 0.15266
H30A H -0.1602 0.258 0.1818
H31A H -0.1653 0.2706 0.1227
H32A H -0.1326 0.3158 0.1623
C42A C 0.10295 0.26172 0.60736
H33A H 0.0804 0.23 0.5917
C43A C 0.15476 0.27357 0.62334
C44A C 0.17196 0.24002 0.613
C45A C 0.145 0.1907 0.5322
H34A H 0.1812 0.2069 0.5235
H35A H 0.1298 0.2084 0.5144
H36A H 0.1277 0.155 0.5213
C46A C 0.22118 0.2522 0.62393
C47A C 0.24148 0.21889 0.60966
H37A H 0.2187 0.186 0.5964
C48A C 0.25256 0.2979 0.64973
H38A H 0.2865 0.3067 0.6577
C49A C 0.23517 0.33106 0.66417
C50A C 0.18709 0.31864 0.64806
H39A H 0.1757 0.3422 0.6543
C51A C 0.26902 0.38199 0.68994
C52A C 0.2399 0.39158 0.7311
H40A H 0.2072 0.385 0.717
H41A H 0.2595 0.427 0.7425
H42A H 0.234 0.369 0.7605
C53A C 0.32075 0.38827 0.7089
H43A H 0.3142 0.3612 0.7337
H44A H 0.3408 0.4215 0.7257
H45A H 0.3396 0.386 0.6793
C54A C 0.28515 0.42701 0.6488
H46A H 0.3088 0.4261 0.6236
H47A H 0.3017 0.4598 0.6668
H48A H 0.2548 0.4226 0.6308
O1B O -0.12963 -0.21755 0.27084
O2B O -0.19333 -0.05396 0.58699
N1B N -0.29402 -0.20471 0.61481
N2B N -0.2492 -0.34319 0.33697
N3B N -0.23205 0.05578 0.61427
N4B N -0.13095 -0.18745 0.11537
C1B C -0.26477 -0.37014 0.55831
H1B H -0.2897 -0.4048 0.5715
C2B C -0.19973 -0.27967 0.52262
H2B H -0.1748 -0.2452 0.5091
C3B C -0.24136 -0.28058 0.55586
C4B C -0.2756 -0.32913 0.57538
C5B C -0.31524 -0.33458 0.60803
H3B H -0.3387 -0.367 0.6217
C6B C -0.32001 -0.29327 0.62011
H4B H -0.3472 -0.2976 0.6417
C7B C -0.28512 -0.2442 0.60097
C8B C -0.24665 -0.23905 0.56867
H5B H -0.2233 -0.2065 0.555
C9B C -0.22905 -0.31935 0.47984
C10B C -0.26233 -0.36605 0.49897
C11B C -0.29221 -0.40565 0.464
H6B H -0.3158 -0.4385 0.4767
C12B C -0.28713 -0.39659 0.41173
H7B H -0.3077 -0.4233 0.3885
C13B C -0.25265 -0.34941 0.39234
C14B C -0.22427 -0.30933 0.42817
H8B H -0.2021 -0.2758 0.416
C15B C -0.17539 -0.30402 0.55623
C16B C -0.21037 -0.35157 0.57465
C17B C -0.19329 -0.37739 0.60659
H9B H -0.2168 -0.4099 0.6202
C18B C -0.14142 -0.35503 0.61833
H10B H -0.1297 -0.3726 0.6395
C19B C -0.1065 -0.30629 0.59863
C20B C -0.12257 -0.28026 0.56702
H11B H -0.0993 -0.2479 0.5531
C23B C -0.03535 -0.052 0.09277
C24B C -0.03561 -0.05296 0.03903
C25B C -0.06471 -0.09591 0.01069
H14B H -0.0642 -0.0955 -0.0261
C26B C -0.09577 -0.14125 0.03881
H15B H -0.1165 -0.172 0.0205
C27B C -0.09658 -0.1416 0.09281
C28B C -0.06608 -0.09619 0.12043
H16B H -0.0665 -0.0958 0.1572
C29B C -0.20828 -0.30897 0.31608
H17B H -0.1797 -0.2887 0.3374
C30B C -0.20416 -0.30024 0.26112
C31B C -0.16603 -0.25625 0.23841
C32B C -0.14419 -0.18423 0.29108
H18B H -0.1498 -0.1662 0.2627
H19B H -0.1173 -0.1596 0.3138
H20B H -0.1757 -0.2035 0.3109
C33B C -0.16256 -0.24621 0.18585
C34B C -0.12527 -0.20007 0.16297
H21B H -0.0957 -0.1778 0.1821
C35B C -0.19868 -0.28658 0.15287
H22B H -0.1959 -0.2826 0.1164
C36B C -0.23778 -0.33155 0.17436
C37B C -0.23976 -0.33733 0.22671
H23B H -0.2665 -0.3679 0.241
C38B C -0.27782 -0.37346 0.13913
C39B C -0.26443 -0.36049 0.08161
H24B H -0.2877 -0.3896 0.0603
H25B H -0.2294 -0.3527 0.0755
H26B H -0.2677 -0.3309 0.0724
C40B C -0.32925 -0.37546 0.14859
H27B H -0.3378 -0.381 0.1855
H28B H -0.356 -0.4034 0.1285
H29B H -0.3265 -0.3433 0.1377
C41B C -0.28081 -0.42338 0.15266
H30B H -0.258 -0.4182 0.1818
H31B H -0.2706 -0.4359 0.1227
H32B H -0.3158 -0.4484 0.1623
C42B C -0.26172 -0.15877 0.60736
H33B H -0.23 -0.1496 0.5917
C43B C -0.27357 -0.11881 0.62334
C44B C -0.24002 -0.06806 0.613
C45B C -0.1907 -0.0457 0.5322
H34B H -0.2069 -0.0257 0.5235
H35B H -0.2084 -0.0786 0.5144
H36B H -0.155 -0.0273 0.5213
C46B C -0.2522 -0.03102 0.62393
C47B C -0.21889 0.02259 0.60966
H37B H -0.186 0.0327 0.5964
C48B C -0.2979 -0.04534 0.64973
H38B H -0.3067 -0.0202 0.6577
C49B C -0.33106 -0.09589 0.66417
C50B C -0.31864 -0.13155 0.64806
H39B H -0.3422 -0.1665 0.6543
C51B C -0.38199 -0.11297 0.68994
C52B C -0.39158 -0.15168 0.7311
H40B H -0.385 -0.1778 0.717
H41B H -0.427 -0.1675 0.7425
H42B H -0.369 -0.135 0.7605
C53B C -0.38827 -0.06752 0.7089
H43B H -0.3612 -0.047 0.7337
H44B H -0.4215 -0.0807 0.7257
H45B H -0.386 -0.0464 0.6793
C54B C -0.42701 -0.14186 0.6488
H46B H -0.4261 -0.1173 0.6236
H47B H -0.4598 -0.1581 0.6668
H48B H -0.4226 -0.1678 0.6308

#END

