
#######################################################################
#
#                 Cambridge Crystallographic Data Centre
#                                CCDC 
#
#######################################################################
#
# If this CIF has been generated directly or indirectly from an entry in the 
# Cambridge Structural Database, then it will include bibliographic, chemical, 
# crystal, experimental, refinement or atomic coordinate data resulting from 
# the CCDC's data processing and validation procedures. Files generated from 
# CSD entries are Copyright 2015 Cambridge Crystallographic Data Centre. They 
# may be used in bona fide research applications only, and may not be copied or 
# further disseminated in any form, whether machine-readable or not, except for 
# the purposes of generating routine backup copies on your local computer 
# system.
# 
# Files arising from any other source may also contain material that is the 
# copyright of third parties, including the originator, and you should check 
# with the originator concerning the permitted uses of the information 
# contained in this CIF.
#
# For further information on the CCDC and the free tools enCIFer and Mercury
# for validating and visualising CIF files, please visit www.ccdc.cam.ac.uk
#
#######################################################################

data_VILCEZ
_audit_creation_date             2008-01-22
_database_code_depnum_ccdc_archive 'CCDC 295968'
_chemical_formula_moiety         'C87 H72 B6 N6 O12,8(C6 H6),4(C1 H4 O1),H2 O1'
_chemical_name_systematic        
"Cyclo-(tris(1,3-bis(2-methoxy-2H-1,3,2-benzoxazaborinin-2,3,2',3',6,6-hexayl)methane)benzene) bis(benzene) clathrate benzene methanol solvate monohydrate"
_journal_coden_Cambridge         36
_journal_volume                  692
_journal_year                    2007
_journal_page_first              4903
_journal_name_full               J.Organomet.Chem.
loop_
_publ_author_name
V.Barba
I.Betanzos
_chemical_absolute_configuration unk
_diffrn_ambient_temperature      273
_exptl_crystal_density_meas      1.236
_exptl_crystal_density_diffrn    1.237
#These two values have been output from a single CSD field.
_refine_ls_R_factor_gt           0.1078
_refine_ls_wR_factor_gt          0.1078
_diffrn_radiation_probe          x-ray
_symmetry_cell_setting           triclinic
_symmetry_space_group_name_H-M   'P -1'
_symmetry_Int_Tables_number      2
loop_
_symmetry_equiv_pos_site_id
_symmetry_equiv_pos_as_xyz
1 x,y,z
2 -x,-y,-z
_cell_length_a                   17.745(4)
_cell_length_b                   18.325(4)
_cell_length_c                   21.303(5)
_cell_angle_alpha                95.454(4)
_cell_angle_beta                 100.584(4)
_cell_angle_gamma                116.258(3)
_cell_volume                     5983.36
_exptl_crystal_colour            yellow
_exptl_crystal_description       prism
_chemical_melting_point          'above 350deg.C'
_cell_formula_units_Z            2
loop_
_atom_site_label
_atom_site_type_symbol
_atom_site_fract_x
_atom_site_fract_y
_atom_site_fract_z
B1 B -0.1112(4) 1.0751(4) 0.2344(3)
B2 B 0.2419(4) 1.3122(4) 0.4439(3)
B3 B 0.2297(5) 1.2720(4) 0.1433(3)
B4 B 0.1624(4) 0.6796(4) 0.4396(3)
B5 B 0.0485(5) 0.5696(4) 0.1300(3)
B6 B 0.4451(4) 0.7919(4) 0.2821(3)
N1 N -0.0649(3) 1.0766(3) 0.1751(2)
N2 N 0.1473(3) 1.2328(3) 0.4293(2)
N3 N 0.2867(3) 1.2851(3) 0.2172(2)
N4 N 0.2588(3) 0.7499(3) 0.4427(2)
N5 N 0.0223(3) 0.5888(3) 0.1969(2)
N6 N 0.3691(3) 0.7744(3) 0.2177(2)
O1 O -0.1222(2) 0.9990(2) 0.25956(18)
O2 O -0.1935(2) 1.0682(2) 0.20023(18)
O3 O 0.3061(2) 1.2824(2) 0.46438(19)
O4 O 0.2420(2) 1.3675(2) 0.4974(2)
O5 O 0.2300(3) 1.2003(3) 0.1039(2)
O6 O 0.2686(3) 1.3468(3) 0.1195(2)
O7 O 0.1087(2) 0.7224(2) 0.44256(19)
O8 O 0.1763(2) 0.6481(2) 0.49905(19)
O9 O 0.0343(2) 0.6262(2) 0.0891(2)
O10 O -0.0059(3) 0.4846(3) 0.1028(2)
O11 O 0.4887(2) 0.8837(2) 0.30757(18)
O12 O 0.5040(2) 0.7654(2) 0.26372(19)
C1 C -0.0816(4) 1.0073(4) 0.1405(3)
H5 H -0.0583 1.0080 0.1047
C2 C -0.1352(4) 0.9285(3) 0.1556(3)
C3 C -0.1666(4) 0.8532(4) 0.1120(3)
H6 H -0.1526 0.8544 0.0720
C4 C -0.2164(4) 0.7788(4) 0.1256(3)
C5 C -0.2333(4) 0.7791(4) 0.1880(3)
H7 H -0.2665 0.7289 0.1993
C6 C -0.2014(4) 0.8524(4) 0.2326(3)
H8 H -0.2124 0.8507 0.2737
C7 C -0.1536(4) 0.9277(4) 0.2167(3)
C8 C -0.0515(4) 1.1541(4) 0.2912(3)
C9 C 0.0211(4) 1.1598(3) 0.3346(3)
H9 H 0.0348 1.1164 0.3303
C10 C 0.0731(4) 1.2288(3) 0.3840(3)
C11 C 0.0564(4) 1.2962(4) 0.3912(3)
H10 H 0.0924 1.3432 0.4236
C12 C -0.0157(4) 1.2905(4) 0.3484(3)
H11 H -0.0292 1.3340 0.3527
C13 C -0.0673(4) 1.2222(4) 0.2999(3)
H12 H -0.1147 1.2209 0.2716
C14 C 0.1355(4) 1.1711(4) 0.4592(3)
H13 H 0.0798 1.1273 0.4522
C15 C 0.2060(4) 1.1696(4) 0.5021(3)
C16 C 0.1918(4) 1.1070(3) 0.5387(3)
H14 H 0.1353 1.0681 0.5371
C17 C 0.2612(4) 1.1025(3) 0.5772(3)
C18 C 0.3444(4) 1.1615(4) 0.5782(3)
H15 H 0.3914 1.1598 0.6046
C19 C 0.3606(4) 1.2225(4) 0.5417(3)
H16 H 0.4173 1.2604 0.5430
C20 C 0.2910(4) 1.2265(3) 0.5031(3)
C21 C 0.2579(4) 1.3479(3) 0.3795(3)
C22 C 0.2644(4) 1.3021(4) 0.3266(3)
H17 H 0.2595 1.2499 0.3292
C23 C 0.2781(4) 1.3326(4) 0.2699(3)
C24 C 0.2836(4) 1.4090(4) 0.2646(3)
H18 H 0.2919 1.4290 0.2266
C25 C 0.2767(4) 1.4552(4) 0.3151(3)
H19 H 0.2807 1.5070 0.3118
C26 C 0.2637(4) 1.4246(4) 0.3716(3)
H20 H 0.2587 1.4567 0.4056
C27 C 0.3430(4) 1.2577(4) 0.2281(3)
H21 H 0.3774 1.2702 0.2701
C28 C 0.3537(4) 1.2091(4) 0.1777(3)
C29 C 0.4223(4) 1.1890(4) 0.1886(3)
H22 H 0.4607 1.2076 0.2297
C30 C 0.4343(4) 1.1429(4) 0.1408(3)
C31 C 0.3732(4) 1.1138(4) 0.0806(3)
H23 H 0.3786 1.0806 0.0478
C32 C 0.3044(4) 1.1325(4) 0.0676(3)
H24 H 0.2648 1.1118 0.0270
C33 C 0.2959(4) 1.1818(4) 0.1156(3)
C34 C 0.1313(4) 1.2482(4) 0.1448(3)
C35 C 0.0758(4) 1.1733(4) 0.1587(3)
H25 H 0.0960 1.1355 0.1676
C36 C -0.0080(4) 1.1539(3) 0.1597(3)
C37 C -0.0404(4) 1.2094(4) 0.1471(3)
H26 H -0.0972 1.1961 0.1479
C38 C 0.0131(4) 1.2837(4) 0.1336(3)
H27 H -0.0074 1.3214 0.1249
C39 C 0.0979(4) 1.3033(4) 0.1330(3)
H28 H 0.1336 1.3546 0.1244
C40 C 0.2854(4) 0.8247(4) 0.4723(3)
H29 H 0.3423 0.8643 0.4759
C41 C 0.2297(4) 0.8493(4) 0.5003(3)
C42 C 0.2636(4) 0.9265(4) 0.5421(3)
H30 H 0.3228 0.9630 0.5516
C43 C 0.2104(4) 0.9485(3) 0.5689(3)
C44 C 0.1217(4) 0.8939(4) 0.5510(3)
H31 H 0.0846 0.9086 0.5680
C45 C 0.0871(4) 0.8187(4) 0.5087(3)
H32 H 0.0274 0.7840 0.4970
C46 C 0.1413(4) 0.7950(4) 0.4839(3)
C47 C 0.1238(3) 0.6134(4) 0.3736(3)
C48 C 0.0876(3) 0.6275(4) 0.3156(3)
H33 H 0.0824 0.6758 0.3161
C49 C 0.0594(4) 0.5729(4) 0.2578(3)
C50 C 0.0669(4) 0.5000(4) 0.2539(3)
H34 H 0.0492 0.4637 0.2143
C51 C 0.1017(4) 0.4843(4) 0.3112(3)
H35 H 0.1066 0.4357 0.3103
C52 C 0.1291(4) 0.5383(3) 0.3692(3)
H36 H 0.1519 0.5254 0.4069
C53 C -0.0358(4) 0.6132(4) 0.1967(3)
H37 H -0.0546 0.6174 0.2343
C54 C -0.0720(4) 0.6341(4) 0.1394(3)
C55 C -0.1420(4) 0.6513(4) 0.1362(3)
H38 H -0.1673 0.6470 0.1711
C56 C -0.1747(4) 0.6749(4) 0.0811(3)
C57 C -0.1358(4) 0.6797(4) 0.0302(3)
H39 H -0.1568 0.6951 -0.0067
C58 C -0.0669(4) 0.6628(4) 0.0313(3)
H40 H -0.0428 0.6665 -0.0042
C59 C -0.0340(4) 0.6402(4) 0.0867(3)
C60 C 0.1500(4) 0.5934(4) 0.1459(3)
C61 C 0.2148(4) 0.6724(4) 0.1755(3)
H41 H 0.2005 0.7143 0.1858
C62 C 0.3018(4) 0.6900(3) 0.1901(3)
C63 C 0.3254(4) 0.6291(4) 0.1772(3)
H42 H 0.3833 0.6407 0.1891
C64 C 0.2610(4) 0.5503(4) 0.1463(3)
H43 H 0.2754 0.5084 0.1361
C65 C 0.1751(4) 0.5337(4) 0.1305(3)
H44 H 0.1327 0.4807 0.1088
C66 C 0.3701(4) 0.8323(3) 0.1874(3)
H45 H 0.3274 0.8182 0.1491
C67 C 0.4343(4) 0.9175(4) 0.2105(3)
C68 C 0.4394(4) 0.9767(4) 0.1723(3)
H46 H 0.4016 0.9602 0.1311
C69 C 0.5001(4) 1.0594(4) 0.1948(3)
C70 C 0.5549(4) 1.0810(4) 0.2566(3)
H47 H 0.5950 1.1365 0.2731
C71 C 0.5523(4) 1.0231(4) 0.2948(3)
H48 H 0.5905 1.0398 0.3358
C72 C 0.4928(4) 0.9406(4) 0.2717(3)
C73 C 0.4034(3) 0.7457(3) 0.3373(3)
C74 C 0.3484(3) 0.7648(4) 0.3648(3)
H49 H 0.3326 0.8032 0.3494
C75 C 0.3159(3) 0.7291(4) 0.4144(3)
C76 C 0.3392(4) 0.6720(3) 0.4388(3)
H50 H 0.3183 0.6478 0.4726
C77 C 0.3943(4) 0.6522(4) 0.4115(3)
H51 H 0.4106 0.6143 0.4272
C78 C 0.4256(4) 0.6874(4) 0.3614(3)
H52 H 0.4618 0.6724 0.3434
C79 C -0.2461(4) 0.6979(4) 0.0805(3)
H53 H -0.2932 0.6543 0.0931
H54 H -0.2684 0.7017 0.0365
C80 C 0.5092(4) 1.1231(4) 0.1521(3)
H55 H 0.5624 1.1740 0.1723
H56 H 0.5143 1.1026 0.1103
C81 C 0.2459(4) 1.0314(4) 0.6145(3)
H57 H 0.3003 1.0432 0.6441
H58 H 0.2053 1.0282 0.6404
C82 C -0.2572(4) 1.0522(4) 0.2365(3)
H59 H -0.2832 0.9948 0.2397
H60 H -0.3011 1.0648 0.2148
H61 H -0.2301 1.0863 0.2794
C83 C 0.3243(4) 1.4338(4) 0.5330(3)
H62 H 0.3544 1.4126 0.5618
H63 H 0.3159 1.4748 0.5579
H64 H 0.3580 1.4585 0.5032
C84 C 0.3557(4) 1.3792(4) 0.1163(4)
H65 H 0.3929 1.3973 0.1596
H66 H 0.3702 1.4253 0.0946
H67 H 0.3634 1.3369 0.0925
C85 C 0.1009(4) 0.5919(5) 0.5153(4)
H68 H 0.0702 0.6205 0.5278
H69 H 0.1170 0.5689 0.5509
H70 H 0.0642 0.5480 0.4783
C86 C -0.0830(11) 0.4497(6) 0.0706(9)
H71 H -0.1204 0.4289 0.0991
H72 H -0.0926 0.4044 0.0380
H73 H -0.0954 0.4888 0.0499
C87 C 0.5495(4) 0.8025(4) 0.2176(3)
H74 H 0.5089 0.7891 0.1764
H75 H 0.5898 0.7819 0.2129
H76 H 0.5806 0.8617 0.2324

#END

