####################################################################### 
# 
# This file contains crystal structure data downloaded from the 
# Cambridge Structural Database (CSD) hosted by the Cambridge 
# Crystallographic Data Centre (CCDC).
# 
# Full information about CCDC data access policies and citation 
# guidelines are available at http://www.ccdc.cam.ac.uk/access/V1 
# 
# Audit and citation data items may have been added by the CCDC. 
# Please retain this information to preserve the provenance of 
# this file and to allow appropriate attribution of the data. 
# 
#######################################################################

data_CC7
_audit_block_doi                 10.5517/ccxyjgt
_database_code_depnum_ccdc_archive 'CCDC 862527'
loop_
_citation_id
_citation_doi
_citation_year
1 10.1002/anie.201105104 2011
_audit_update_record             
;
2012-01-12 deposited with the CCDC.
2015-01-28 downloaded from the CCDC.
;
#TrackingRef '9031_web_deposit_cif_file_0_MarcSchmidtmann_1326392378.CC7.cif'


_audit_creation_method           SHELXL-97
_chemical_name_systematic        
;
?
;
_chemical_name_common            ?
_chemical_melting_point          ?
_chemical_formula_moiety         ?
_chemical_formula_sum            'C320 H400 Cl160 N32'
_chemical_formula_weight         10366.72

loop_
_atom_type_symbol
_atom_type_description
_atom_type_scat_dispersion_real
_atom_type_scat_dispersion_imag
_atom_type_scat_source
C C 0.0029 0.0015 'International Tables Vol C Tables 4.2.6.8 and 6.1.1.4'
H H 0.0000 0.0000 'International Tables Vol C Tables 4.2.6.8 and 6.1.1.4'
N N 0.0057 0.0031 'International Tables Vol C Tables 4.2.6.8 and 6.1.1.4'
Cl Cl 0.1424 0.1495 'International Tables Vol C Tables 4.2.6.8 and 6.1.1.4'

_symmetry_cell_setting           cubic
_symmetry_space_group_name_H-M   'P 21 3'

loop_
_symmetry_equiv_pos_as_xyz
'x, y, z'
'-x+1/2, -y, z+1/2'
'-x, y+1/2, -z+1/2'
'x+1/2, -y+1/2, -z'
'z, x, y'
'z+1/2, -x+1/2, -y'
'-z+1/2, -x, y+1/2'
'-z, x+1/2, -y+1/2'
'y, z, x'
'-y, z+1/2, -x+1/2'
'y+1/2, -z+1/2, -x'
'-y+1/2, -z, x+1/2'

_cell_length_a                   47.2656(14)
_cell_length_b                   47.2656(14)
_cell_length_c                   47.2656(14)
_cell_angle_alpha                90.00
_cell_angle_beta                 90.00
_cell_angle_gamma                90.00
_cell_volume                     105593(5)
_cell_formula_units_Z            8
_cell_measurement_temperature    100(2)
_cell_measurement_reflns_used    9769
_cell_measurement_theta_min      2.17
_cell_measurement_theta_max      17.84

_exptl_crystal_description       block
_exptl_crystal_colour            'pale yellow'
_exptl_crystal_size_max          0.20
_exptl_crystal_size_mid          0.15
_exptl_crystal_size_min          0.15
_exptl_crystal_density_meas      ?
_exptl_crystal_density_diffrn    1.304
_exptl_crystal_density_method    'not measured'
_exptl_crystal_F_000             42112
_exptl_absorpt_coefficient_mu    0.856
_exptl_absorpt_correction_type   multi-scan
_exptl_absorpt_correction_T_min  0.5994
_exptl_absorpt_correction_T_max  0.7442
_exptl_absorpt_process_details   'SADABS 2008/1 (Sheldrick, 2008)'

_exptl_special_details           
;
?
;

_diffrn_ambient_temperature      100(2)
_diffrn_radiation_wavelength     0.68890
_diffrn_radiation_type           ?
_diffrn_radiation_source         Synchrotron
_diffrn_radiation_monochromator  ?
_diffrn_measurement_device       
;
CrystalLogic Kappa (3 circle)
;
_diffrn_measurement_device_type  
;
Rigaku Saturn724+ (2x2 bin mode)
;
_diffrn_detector_area_resol_mean 28.5714
_diffrn_measurement_method       'profile data from \w-scans'
_diffrn_reflns_number            335863
_diffrn_reflns_av_R_equivalents  0.0703
_diffrn_reflns_av_sigmaI/netI    0.0315
_diffrn_reflns_limit_h_min       -42
_diffrn_reflns_limit_h_max       42
_diffrn_reflns_limit_k_min       -42
_diffrn_reflns_limit_k_max       32
_diffrn_reflns_limit_l_min       -42
_diffrn_reflns_limit_l_max       35
_diffrn_reflns_theta_min         1.32
_diffrn_reflns_theta_max         18.23
_reflns_number_total             27623
_reflns_number_gt                18193
_reflns_threshold_expression     >2sigma(I)

_computing_data_collection       
;
CrystalClear-SM Expert 2.0 r6 (Rigaku, 2010)
;
_computing_cell_refinement       'Bruker AXS SAINT V7.68A'
_computing_data_reduction        'Bruker AXS SAINT V7.68A'
_computing_structure_solution    'SHELXD (Sheldrick, 2008)'
_computing_structure_refinement  'SHELXL (Sheldrick, 2008)'
_computing_molecular_graphics    ?
_computing_publication_material  ?

_refine_special_details          
;
Refinement of F^2^ against ALL reflections. The weighted R-factor wR and
goodness of fit S are based on F^2^, conventional R-factors R are based
on F, with F set to zero for negative F^2^. The threshold expression of
F^2^ > 2sigma(F^2^) is used only for calculating R-factors(gt) etc. and is
not relevant to the choice of reflections for refinement. R-factors based
on F^2^ are statistically about twice as large as those based on F, and R-
factors based on ALL data will be even larger.
;

_refine_ls_structure_factor_coef Fsqd
_refine_ls_matrix_type           full
_refine_ls_weighting_scheme      calc
_refine_ls_weighting_details     
'calc w=1/[\s^2^(Fo^2^)+(0.1000P)^2^+0.0000P] where P=(Fo^2^+2Fc^2^)/3'
_atom_sites_solution_primary     direct
_atom_sites_solution_secondary   difmap
_atom_sites_solution_hydrogens   geom
_refine_ls_hydrogen_treatment    constr
_refine_ls_extinction_method     none
_refine_ls_extinction_coef       ?
_refine_ls_abs_structure_details 'Flack H D (1983), Acta Cryst. A39, 876-881'
_refine_ls_abs_structure_Flack   3.2(13)
_chemical_absolute_configuration syn
_refine_ls_number_reflns         27623
_refine_ls_number_parameters     1633
_refine_ls_number_restraints     486
_refine_ls_R_factor_all          0.0580
_refine_ls_R_factor_gt           0.0323
_refine_ls_wR_factor_ref         0.1057
_refine_ls_wR_factor_gt          0.0931
_refine_ls_goodness_of_fit_ref   0.599
_refine_ls_restrained_S_all      0.616
_refine_ls_shift/su_max          0.003
_refine_ls_shift/su_mean         0.000

loop_
_atom_site_label
_atom_site_type_symbol
_atom_site_fract_x
_atom_site_fract_y
_atom_site_fract_z
_atom_site_U_iso_or_equiv
_atom_site_adp_type
_atom_site_occupancy
_atom_site_symmetry_multiplicity
_atom_site_calc_flag
_atom_site_refinement_flags
_atom_site_disorder_assembly
_atom_site_disorder_group
N1 N 0.28478(4) 0.21522(4) 0.78478(4) 0.1171(10) Uani 1 3 d SU . .
N2 N 0.28038(7) 0.21872(6) 0.57034(6) 0.1573(9) Uani 1 1 d U . .
N3 N 0.30587(7) 0.43568(6) 0.55769(6) 0.1757(10) Uani 1 1 d U . .
N4 N 0.09038(5) 0.40962(5) 0.59038(5) 0.1499(14) Uani 1 3 d SU . .
N5 N 0.39389(6) 0.24314(6) 0.70783(5) 0.1367(8) Uani 1 1 d U . .
N6 N 0.39287(7) 0.24063(8) 0.64629(6) 0.1902(12) Uani 1 1 d U . .
N7 N 0.26747(5) 0.29306(5) 0.45750(6) 0.1255(7) Uani 1 1 d U . .
N8 N 0.27303(5) 0.35222(5) 0.45493(5) 0.1241(7) Uani 1 1 d U . .
N9 N 0.40636(8) 0.41776(9) 0.64845(9) 0.1997(17) Uani 1 1 d U . .
N10 N 0.39985(7) 0.41858(8) 0.71096(6) 0.1743(12) Uani 1 1 d U . .
N11 N 0.21648(6) 0.53635(6) 0.58736(6) 0.1433(8) Uani 1 1 d U . .
N12 N 0.15614(7) 0.52965(7) 0.59502(7) 0.1785(13) Uani 1 1 d U . .
N13 N 0.21472(4) 0.71472(4) 0.78528(4) 0.0998(9) Uani 1 3 d SU . .
N14 N 0.20317(6) 0.71111(6) 0.56704(6) 0.1720(10) Uani 1 1 d U . .
N15 N 0.23065(6) 0.92711(6) 0.57641(6) 0.1573(9) Uani 1 1 d U . .
N16 N 0.44952(4) 0.94952(4) 0.55048(4) 0.1233(11) Uani 1 3 d SU . .
N17 N 0.10070(6) 0.73691(6) 0.71188(5) 0.1459(9) Uani 1 1 d U . .
N18 N 0.09763(6) 0.73744(7) 0.64989(7) 0.1515(11) Uani 1 1 d U . .
N19 N 0.23304(7) 0.79047(5) 0.46045(5) 0.1547(10) Uani 1 1 d U . .
N20 N 0.23753(7) 0.85042(5) 0.46265(6) 0.1623(10) Uani 1 1 d U . .
N21 N 0.11499(7) 0.90772(9) 0.64707(6) 0.1864(14) Uani 1 1 d U . .
N22 N 0.10836(7) 0.90462(8) 0.70933(6) 0.1813(12) Uani 1 1 d U . .
N23 N 0.30153(5) 1.04523(6) 0.58454(6) 0.1381(8) Uani 1 1 d U . .
N24 N 0.36102(5) 1.04992(4) 0.57984(6) 0.1281(7) Uani 1 1 d U . .
C1 C 0.30893(5) 0.21598(8) 0.76692(5) 0.1118(7) Uani 1 1 d U . .
C2 C 0.32278(7) 0.19245(6) 0.75839(6) 0.1227(8) Uani 1 1 d U . .
H2 H 0.3156 0.1744 0.7635 0.147 Uiso 1 1 calc R . .
C3 C 0.34744(7) 0.19411(7) 0.74226(8) 0.1465(10) Uani 1 1 d U . .
H3 H 0.3578 0.1774 0.7378 0.176 Uiso 1 1 calc R . .
C4 C 0.35714(7) 0.22120(10) 0.73241(7) 0.1432(10) Uani 1 1 d U . .
C5 C 0.34284(7) 0.24321(6) 0.74043(6) 0.1129(8) Uani 1 1 d U . .
H5 H 0.3489 0.2614 0.7345 0.136 Uiso 1 1 calc R . .
C6 C 0.32051(7) 0.24115(6) 0.75641(6) 0.1174(8) Uani 1 1 d U . .
H6 H 0.3112 0.2583 0.7614 0.141 Uiso 1 1 calc R . .
C7 C 0.30373(7) 0.22653(8) 0.58786(6) 0.1254(9) Uani 1 1 d U . .
C8 C 0.30971(8) 0.25405(7) 0.59127(8) 0.1898(16) Uani 1 1 d U . .
H8 H 0.3002 0.2678 0.5801 0.228 Uiso 1 1 calc R . .
C9 C 0.32924(11) 0.26249(8) 0.61067(8) 0.227(2) Uani 1 1 d U . .
H9 H 0.3283 0.2811 0.6181 0.272 Uiso 1 1 calc R . .
C10 C 0.35068(9) 0.24416(10) 0.61989(7) 0.1588(12) Uani 1 1 d U . .
C11 C 0.34532(8) 0.21541(9) 0.61493(7) 0.1493(11) Uani 1 1 d U . .
H11 H 0.3576 0.2015 0.6227 0.179 Uiso 1 1 calc R . .
C12 C 0.32313(10) 0.20736(7) 0.59939(7) 0.1674(12) Uani 1 1 d U . .
H12 H 0.3204 0.1877 0.5960 0.201 Uiso 1 1 calc R . .
C13 C 0.26416(6) 0.19267(7) 0.57704(8) 0.1326(9) Uani 1 1 d U . .
C14 C 0.25882(8) 0.18545(8) 0.60464(8) 0.1535(11) Uani 1 1 d U . .
H14 H 0.2661 0.1966 0.6197 0.184 Uiso 1 1 calc R . .
C15 C 0.24275(9) 0.16173(11) 0.61022(8) 0.1736(14) Uani 1 1 d U . .
H15 H 0.2381 0.1579 0.6294 0.208 Uiso 1 1 calc R . .
C16 C 0.23357(8) 0.14422(10) 0.59098(10) 0.1679(13) Uani 1 1 d U . .
C17 C 0.23968(6) 0.15140(7) 0.56393(8) 0.1421(9) Uani 1 1 d U . .
H17 H 0.2326 0.1392 0.5496 0.171 Uiso 1 1 calc R . .
C18 C 0.25480(7) 0.17415(7) 0.55516(6) 0.1389(9) Uani 1 1 d U . .
H18 H 0.2589 0.1775 0.5358 0.167 Uiso 1 1 calc R . .
C19 C 0.27375(9) 0.23472(6) 0.54575(7) 0.1201(9) Uani 1 1 d U . .
C20 C 0.24685(8) 0.24173(6) 0.54208(7) 0.1256(9) Uani 1 1 d U . .
H20 H 0.2329 0.2354 0.5551 0.151 Uiso 1 1 calc R . .
C21 C 0.23922(7) 0.25836(6) 0.51919(8) 0.1257(9) Uani 1 1 d U . .
H21 H 0.2199 0.2633 0.5163 0.151 Uiso 1 1 calc R . .
C22 C 0.25944(8) 0.26768(6) 0.50076(7) 0.1148(8) Uani 1 1 d U . .
C23 C 0.28621(7) 0.26013(5) 0.50426(6) 0.1230(8) Uani 1 1 d U . .
H23 H 0.2998 0.2656 0.4905 0.148 Uiso 1 1 calc R . .
C24 C 0.29525(7) 0.24391(6) 0.52822(7) 0.1427(10) Uani 1 1 d U . .
H24 H 0.3146 0.2398 0.5318 0.171 Uiso 1 1 calc R . .
C25 C 0.30355(8) 0.41548(6) 0.53543(6) 0.1235(9) Uani 1 1 d U . .
C26 C 0.32686(7) 0.40597(7) 0.52335(8) 0.1557(12) Uani 1 1 d U . .
H26 H 0.3448 0.4111 0.5308 0.187 Uiso 1 1 calc R . .
C27 C 0.32520(6) 0.38947(7) 0.50105(7) 0.1386(10) Uani 1 1 d U . .
H27 H 0.3421 0.3843 0.4915 0.166 Uiso 1 1 calc R . .
C28 C 0.29951(8) 0.37932(6) 0.49103(6) 0.1361(9) Uani 1 1 d U . .
C29 C 0.27554(6) 0.38806(5) 0.50465(8) 0.1232(8) Uani 1 1 d U . .
H29 H 0.2574 0.3819 0.4985 0.148 Uiso 1 1 calc R . .
C30 C 0.27794(7) 0.40508(8) 0.52629(6) 0.1410(10) Uani 1 1 d U . .
H30 H 0.2613 0.4105 0.5361 0.169 Uiso 1 1 calc R . .
C31 C 0.32956(8) 0.43628(10) 0.57626(10) 0.1741(14) Uani 1 1 d U . .
C32 C 0.33951(8) 0.46306(8) 0.58558(9) 0.2080(17) Uani 1 1 d U . .
H32 H 0.3311 0.4804 0.5800 0.250 Uiso 1 1 calc R . .
C33 C 0.36327(11) 0.46164(11) 0.60403(11) 0.251(3) Uani 1 1 d U . .
H33 H 0.3735 0.4785 0.6077 0.301 Uiso 1 1 calc R . .
C34 C 0.37201(10) 0.43759(14) 0.61661(10) 0.213(2) Uani 1 1 d U . .
C35 C 0.36075(8) 0.41126(11) 0.60671(9) 0.2105(17) Uani 1 1 d U . .
H35 H 0.3679 0.3937 0.6133 0.253 Uiso 1 1 calc R . .
C36 C 0.33898(9) 0.41260(10) 0.58721(10) 0.1949(15) Uani 1 1 d U . .
H36 H 0.3304 0.3954 0.5814 0.234 Uiso 1 1 calc R . .
C37 C 0.28381(7) 0.45967(8) 0.55821(11) 0.1498(11) Uani 1 1 d U . .
C38 C 0.27414(11) 0.47041(9) 0.53645(8) 0.1719(14) Uani 1 1 d U . .
H38 H 0.2801 0.4635 0.5185 0.206 Uiso 1 1 calc R . .
C39 C 0.25419(8) 0.49296(8) 0.53770(7) 0.1503(11) Uani 1 1 d U . .
H39 H 0.2477 0.5023 0.5211 0.180 Uiso 1 1 calc R . .
C40 C 0.24503(7) 0.50036(8) 0.56381(9) 0.1359(10) Uani 1 1 d U . .
C41 C 0.25366(7) 0.48866(7) 0.58704(7) 0.1355(10) Uani 1 1 d U . .
H41 H 0.2461 0.4938 0.6049 0.163 Uiso 1 1 calc R . .
C42 C 0.27442(8) 0.46832(7) 0.58432(7) 0.1425(10) Uani 1 1 d U . .
H42 H 0.2824 0.4601 0.6009 0.171 Uiso 1 1 calc R . .
C43 C 0.10692(6) 0.43449(7) 0.59589(9) 0.1491(11) Uani 1 1 d U . .
C44 C 0.11676(7) 0.45040(8) 0.57497(6) 0.1521(11) Uani 1 1 d U . .
H44 H 0.1138 0.4442 0.5561 0.183 Uiso 1 1 calc R . .
C45 C 0.13119(6) 0.47575(7) 0.57932(6) 0.1290(9) Uani 1 1 d U . .
H45 H 0.1368 0.4870 0.5636 0.155 Uiso 1 1 calc R . .
C46 C 0.13739(8) 0.48461(7) 0.60707(9) 0.1529(11) Uani 1 1 d U . .
C47 C 0.12634(7) 0.46593(11) 0.62758(7) 0.1800(15) Uani 1 1 d U . .
H47 H 0.1290 0.4716 0.6467 0.216 Uiso 1 1 calc R . .
C48 C 0.11305(7) 0.44217(7) 0.62429(7) 0.1418(10) Uani 1 1 d U . .
H48 H 0.1077 0.4306 0.6399 0.170 Uiso 1 1 calc R . .
C49 C 0.38389(6) 0.21972(8) 0.71507(6) 0.1238(9) Uani 1 1 d U . .
H49 H 0.3925 0.2023 0.7100 0.149 Uiso 1 1 calc R . .
C50 C 0.37398(11) 0.25397(8) 0.63596(7) 0.1857(15) Uani 1 1 d U . .
H50 H 0.3747 0.2738 0.6389 0.223 Uiso 1 1 calc R . .
C51 C 0.21772(8) 0.11768(10) 0.60037(8) 0.1657(14) Uani 1 1 d U . .
H51 H 0.2131 0.1145 0.6197 0.199 Uiso 1 1 calc R . .
C52 C 0.25048(6) 0.28493(6) 0.47537(7) 0.1134(8) Uani 1 1 d U . .
H52 H 0.2311 0.2896 0.4732 0.136 Uiso 1 1 calc R . .
C53 C 0.29652(7) 0.36030(6) 0.46427(7) 0.1411(10) Uani 1 1 d U . .
H53 H 0.3132 0.3546 0.4546 0.169 Uiso 1 1 calc R . .
C54 C 0.39651(10) 0.43621(11) 0.63773(11) 0.1898(19) Uani 1 1 d U . .
H54 H 0.4046 0.4540 0.6424 0.228 Uiso 1 1 calc R . .
C55 C 0.22509(7) 0.52491(9) 0.56541(7) 0.1480(11) Uani 1 1 d U . .
H55 H 0.2184 0.5324 0.5480 0.178 Uiso 1 1 calc R . .
C56 C 0.15193(6) 0.51125(9) 0.61105(7) 0.1383(11) Uani 1 1 d U . .
H56 H 0.1592 0.5143 0.6296 0.166 Uiso 1 1 calc R . .
C57 C 0.42041(7) 0.24071(7) 0.69115(8) 0.1585(10) Uani 1 1 d U . .
H57 H 0.4248 0.2202 0.6882 0.190 Uiso 1 1 calc R . .
C58 C 0.41714(7) 0.25527(9) 0.66212(8) 0.1914(14) Uani 1 1 d U . .
H58 H 0.4120 0.2756 0.6652 0.230 Uiso 1 1 calc R . .
C59 C 0.44498(9) 0.25398(14) 0.64500(9) 0.311(3) Uani 1 1 d U . .
H59A H 0.4496 0.2341 0.6402 0.373 Uiso 1 1 calc R . .
H59B H 0.4430 0.2648 0.6272 0.373 Uiso 1 1 calc R . .
C60 C 0.46664(9) 0.26591(15) 0.66207(12) 0.329(3) Uani 1 1 d U . .
H60A H 0.4613 0.2857 0.6665 0.395 Uiso 1 1 calc R . .
H60B H 0.4842 0.2666 0.6507 0.395 Uiso 1 1 calc R . .
C61 C 0.47323(7) 0.25097(13) 0.68978(9) 0.279(3) Uani 1 1 d U . .
H61A H 0.4890 0.2602 0.6999 0.335 Uiso 1 1 calc R . .
H61B H 0.4779 0.2308 0.6867 0.335 Uiso 1 1 calc R . .
C62 C 0.44482(7) 0.25452(7) 0.70588(7) 0.1798(12) Uani 1 1 d U . .
H62A H 0.4468 0.2463 0.7250 0.216 Uiso 1 1 calc R . .
H62B H 0.4408 0.2750 0.7081 0.216 Uiso 1 1 calc R . .
C63 C 0.25753(6) 0.30952(6) 0.43237(6) 0.1205(8) Uani 1 1 d U . .
H63 H 0.2377 0.3153 0.4372 0.145 Uiso 1 1 calc R . .
C64 C 0.27296(6) 0.33639(6) 0.42893(6) 0.1115(7) Uani 1 1 d U . .
H64 H 0.2931 0.3314 0.4248 0.134 Uiso 1 1 calc R . .
C65 C 0.26260(6) 0.35296(5) 0.40454(6) 0.1308(8) Uani 1 1 d U . .
H65A H 0.2750 0.3696 0.4018 0.157 Uiso 1 1 calc R . .
H65B H 0.2433 0.3600 0.4088 0.157 Uiso 1 1 calc R . .
C66 C 0.26180(7) 0.33610(6) 0.37769(5) 0.1574(11) Uani 1 1 d U . .
H66A H 0.2811 0.3299 0.3726 0.189 Uiso 1 1 calc R . .
H66B H 0.2544 0.3480 0.3621 0.189 Uiso 1 1 calc R . .
C67 C 0.24251(8) 0.31011(7) 0.38186(6) 0.1857(13) Uani 1 1 d U . .
H67A H 0.2420 0.2986 0.3643 0.223 Uiso 1 1 calc R . .
H67B H 0.2230 0.3162 0.3864 0.223 Uiso 1 1 calc R . .
C68 C 0.25478(6) 0.29251(5) 0.40648(5) 0.1431(10) Uani 1 1 d U . .
H68A H 0.2422 0.2762 0.4102 0.172 Uiso 1 1 calc R . .
H68B H 0.2736 0.2851 0.4010 0.172 Uiso 1 1 calc R . .
C69 C 0.42995(9) 0.41748(13) 0.66886(9) 0.291(3) Uani 1 1 d U . .
H69 H 0.4333 0.4379 0.6733 0.349 Uiso 1 1 calc R . .
C70 C 0.42516(9) 0.40320(11) 0.69828(10) 0.242(2) Uani 1 1 d U . .
H70 H 0.4217 0.3824 0.6965 0.290 Uiso 1 1 calc R . .
C71 C 0.44950(8) 0.40940(10) 0.71632(8) 0.2339(18) Uani 1 1 d U . .
H71A H 0.4479 0.3991 0.7345 0.281 Uiso 1 1 calc R . .
H71B H 0.4505 0.4299 0.7204 0.281 Uiso 1 1 calc R . .
C72 C 0.47761(10) 0.39915(16) 0.69923(13) 0.325(3) Uani 1 1 d U . .
H72A H 0.4939 0.4002 0.7124 0.391 Uiso 1 1 calc R . .
H72B H 0.4751 0.3790 0.6942 0.391 Uiso 1 1 calc R . .
C73 C 0.48488(11) 0.41407(15) 0.67428(12) 0.293(3) Uani 1 1 d U . .
H73A H 0.5024 0.4065 0.6657 0.351 Uiso 1 1 calc R . .
H73B H 0.4874 0.4345 0.6781 0.351 Uiso 1 1 calc R . .
C74 C 0.45627(8) 0.40826(12) 0.65285(9) 0.286(3) Uani 1 1 d U . .
H74A H 0.4582 0.4193 0.6351 0.344 Uiso 1 1 calc R . .
H74B H 0.4550 0.3879 0.6479 0.344 Uiso 1 1 calc R . .
C75 C 0.19696(8) 0.55853(7) 0.58733(8) 0.1645(11) Uani 1 1 d U . .
H75 H 0.1897 0.5600 0.5675 0.197 Uiso 1 1 calc R . .
C76 C 0.17178(9) 0.55395(8) 0.60577(8) 0.1780(12) Uani 1 1 d U . .
H76 H 0.1776 0.5509 0.6259 0.214 Uiso 1 1 calc R . .
C77 C 0.15058(6) 0.57968(7) 0.60321(8) 0.1938(15) Uani 1 1 d U . .
H77A H 0.1445 0.5818 0.5833 0.233 Uiso 1 1 calc R . .
H77B H 0.1336 0.5759 0.6148 0.233 Uiso 1 1 calc R . .
C78 C 0.16425(7) 0.60646(7) 0.61290(12) 0.266(2) Uani 1 1 d U . .
H78A H 0.1700 0.6048 0.6330 0.319 Uiso 1 1 calc R . .
H78B H 0.1509 0.6225 0.6111 0.319 Uiso 1 1 calc R . .
C79 C 0.19277(9) 0.61186(6) 0.59225(9) 0.2048(16) Uani 1 1 d U . .
H79A H 0.1867 0.6145 0.5724 0.246 Uiso 1 1 calc R . .
H79B H 0.2028 0.6292 0.5984 0.246 Uiso 1 1 calc R . .
C80 C 0.21162(7) 0.58782(7) 0.59417(8) 0.1956(15) Uani 1 1 d U . .
H80A H 0.2196 0.5870 0.6135 0.235 Uiso 1 1 calc R . .
H80B H 0.2275 0.5907 0.5809 0.235 Uiso 1 1 calc R . .
C81 C 0.19298(5) 0.72461(7) 0.76853(5) 0.0992(7) Uani 1 1 d U . .
C82 C 0.17264(6) 0.70515(5) 0.75739(5) 0.1010(7) Uani 1 1 d U . .
H82 H 0.1745 0.6854 0.7609 0.121 Uiso 1 1 calc R . .
C83 C 0.15087(6) 0.71500(8) 0.74189(6) 0.1188(8) Uani 1 1 d U . .
H83 H 0.1377 0.7014 0.7351 0.143 Uiso 1 1 calc R . .
C84 C 0.14610(7) 0.74166(9) 0.73522(6) 0.1164(8) Uani 1 1 d U . .
C85 C 0.16580(8) 0.75957(6) 0.74499(6) 0.1234(9) Uani 1 1 d U . .
H85 H 0.1648 0.7789 0.7395 0.148 Uiso 1 1 calc R . .
C86 C 0.18749(6) 0.75137(6) 0.76269(6) 0.1131(8) Uani 1 1 d U . .
H86 H 0.1990 0.7656 0.7710 0.136 Uiso 1 1 calc R . .
C87 C 0.18107(7) 0.71325(9) 0.58673(7) 0.1479(10) Uani 1 1 d U . .
C88 C 0.16958(9) 0.68517(7) 0.59540(8) 0.2046(16) Uani 1 1 d U . .
H88 H 0.1773 0.6677 0.5892 0.246 Uiso 1 1 calc R . .
C89 C 0.14465(8) 0.68717(9) 0.61483(7) 0.1747(13) Uani 1 1 d U . .
H89 H 0.1356 0.6707 0.6219 0.210 Uiso 1 1 calc R . .
C90 C 0.13542(7) 0.71375(11) 0.62208(7) 0.1467(11) Uani 1 1 d U . .
C91 C 0.14597(9) 0.73834(8) 0.61434(7) 0.1783(15) Uani 1 1 d U . .
H91 H 0.1379 0.7560 0.6198 0.214 Uiso 1 1 calc R . .
C92 C 0.17064(7) 0.73604(8) 0.59701(8) 0.1589(12) Uani 1 1 d U . .
H92 H 0.1803 0.7531 0.5927 0.191 Uiso 1 1 calc R . .
C93 C 0.22440(8) 0.68728(7) 0.56911(11) 0.1422(11) Uani 1 1 d U . .
C94 C 0.23134(8) 0.67490(8) 0.54589(8) 0.1678(13) Uani 1 1 d U . .
H94 H 0.2235 0.6817 0.5287 0.201 Uiso 1 1 calc R . .
C95 C 0.24985(10) 0.65196(9) 0.54472(9) 0.1969(15) Uani 1 1 d U . .
H95 H 0.2543 0.6421 0.5278 0.236 Uiso 1 1 calc R . .
C96 C 0.26140(8) 0.64495(9) 0.57169(15) 0.1775(16) Uani 1 1 d U . .
C97 C 0.25253(11) 0.65960(10) 0.59512(9) 0.1699(14) Uani 1 1 d U . .
H97 H 0.2597 0.6549 0.6133 0.204 Uiso 1 1 calc R . .
C98 C 0.23449(10) 0.67976(9) 0.59229(9) 0.1648(15) Uani 1 1 d U . .
H98 H 0.2285 0.6895 0.6088 0.198 Uiso 1 1 calc R . .
C99 C 0.20499(9) 0.72855(6) 0.54313(7) 0.1307(9) Uani 1 1 d U . .
C100 C 0.18024(7) 0.73981(7) 0.53235(7) 0.1464(10) Uani 1 1 d U . .
H10 H 0.1623 0.7363 0.5408 0.176 Uiso 1 1 calc R . .
C101 C 0.18353(8) 0.75764(6) 0.50690(7) 0.1453(10) Uani 1 1 d U . .
H10A H 0.1672 0.7638 0.4969 0.174 Uiso 1 1 calc R . .
C102 C 0.20991(10) 0.76545(7) 0.49763(7) 0.1228(9) Uani 1 1 d U . .
C103 C 0.23188(7) 0.75576(6) 0.51075(8) 0.1294(9) Uani 1 1 d U . .
H10B H 0.2499 0.7618 0.5043 0.155 Uiso 1 1 calc R . .
C104 C 0.23111(7) 0.73776(8) 0.53296(7) 0.1520(11) Uani 1 1 d U . .
H10C H 0.2482 0.7315 0.5415 0.182 Uiso 1 1 calc R . .
C105 C 0.23716(10) 0.91063(6) 0.55163(8) 0.1495(12) Uani 1 1 d U . .
C106 C 0.26324(9) 0.90587(7) 0.54430(7) 0.1705(14) Uani 1 1 d U . .
H10D H 0.2779 0.9150 0.5546 0.205 Uiso 1 1 calc R . .
C107 C 0.27095(7) 0.88765(7) 0.52166(9) 0.1929(16) Uani 1 1 d U . .
H10E H 0.2901 0.8827 0.5183 0.231 Uiso 1 1 calc R . .
C108 C 0.24923(11) 0.87734(7) 0.50447(7) 0.1662(13) Uani 1 1 d U . .
C109 C 0.22287(9) 0.88175(7) 0.51299(8) 0.1686(12) Uani 1 1 d U . .
H10F H 0.2078 0.8735 0.5026 0.202 Uiso 1 1 calc R . .
C110 C 0.21651(8) 0.89823(7) 0.53692(8) 0.1589(11) Uani 1 1 d U . .
H11A H 0.1974 0.9006 0.5426 0.191 Uiso 1 1 calc R . .
C111 C 0.20597(9) 0.91976(9) 0.59394(6) 0.1505(11) Uani 1 1 d U . .
C112 C 0.20269(7) 0.89184(8) 0.60079(8) 0.1716(13) Uani 1 1 d U . .
H11B H 0.2160 0.8783 0.5941 0.206 Uiso 1 1 calc R . .
C113 C 0.17939(9) 0.88294(7) 0.61792(7) 0.1651(12) Uani 1 1 d U . .
H11C H 0.1773 0.8638 0.6236 0.198 Uiso 1 1 calc R . .
C114 C 0.16089(9) 0.90249(11) 0.62560(9) 0.1833(16) Uani 1 1 d U . .
C115 C 0.16405(8) 0.92861(10) 0.61903(7) 0.1543(12) Uani 1 1 d U . .
H11D H 0.1504 0.9418 0.6257 0.185 Uiso 1 1 calc R . .
C116 C 0.18688(9) 0.93905(8) 0.60228(7) 0.1554(11) Uani 1 1 d U . .
H11E H 0.1885 0.9585 0.5973 0.186 Uiso 1 1 calc R . .
C117 C 0.24519(8) 0.95160(7) 0.58176(8) 0.1495(11) Uani 1 1 d U . .
C118 C 0.25254(6) 0.95800(6) 0.61091(8) 0.1461(10) Uani 1 1 d U . .
H11F H 0.2475 0.9453 0.6256 0.175 Uiso 1 1 calc R . .
C119 C 0.26661(6) 0.98204(8) 0.61704(6) 0.1336(9) Uani 1 1 d U . .
H11G H 0.2696 0.9871 0.6363 0.160 Uiso 1 1 calc R . .
C120 C 0.27699(7) 0.99972(7) 0.59548(9) 0.1489(10) Uani 1 1 d U . .
C121 C 0.27046(7) 0.99276(7) 0.56804(7) 0.1458(10) Uani 1 1 d U . .
H12A H 0.2773 1.0044 0.5531 0.175 Uiso 1 1 calc R . .
C122 C 0.25433(7) 0.96947(9) 0.56163(8) 0.1682(13) Uani 1 1 d U . .
H12B H 0.2495 0.9659 0.5425 0.202 Uiso 1 1 calc R . .
C123 C 0.42885(6) 0.97127(6) 0.55186(8) 0.1225(8) Uani 1 1 d U . .
C124 C 0.41944(6) 0.98030(6) 0.57791(7) 0.1318(9) Uani 1 1 d U . .
H12C H 0.4266 0.9721 0.5948 0.158 Uiso 1 1 calc R . .
C125 C 0.40008(7) 1.00076(7) 0.57901(7) 0.1417(9) Uani 1 1 d U . .
H12D H 0.3933 1.0060 0.5972 0.170 Uiso 1 1 calc R . .
C126 C 0.38824(7) 1.01586(6) 0.55464(7) 0.1241(8) Uani 1 1 d U . .
C127 C 0.39924(7) 1.00551(7) 0.52962(7) 0.1402(10) Uani 1 1 d U . .
H12E H 0.3924 1.0138 0.5126 0.168 Uiso 1 1 calc R . .
C128 C 0.41861(6) 0.98503(7) 0.52690(6) 0.1295(9) Uani 1 1 d U . .
H12F H 0.4254 0.9797 0.5088 0.155 Uiso 1 1 calc R . .
C129 C 0.12134(8) 0.75203(6) 0.71935(6) 0.1286(9) Uani 1 1 d U . .
H12G H 0.1209 0.7715 0.7144 0.154 Uiso 1 1 calc R . .
C130 C 0.10783(7) 0.71758(9) 0.64166(8) 0.1450(12) Uani 1 1 d U . .
H13 H 0.0988 0.7005 0.6471 0.174 Uiso 1 1 calc R . .
C131 C 0.28265(9) 0.61845(8) 0.57213(10) 0.1874(16) Uani 1 1 d U . .
H13A H 0.2891 0.6104 0.5549 0.225 Uiso 1 1 calc R . .
C132 C 0.21017(9) 0.78374(7) 0.47214(8) 0.1560(11) Uani 1 1 d U . .
H13B H 0.1928 0.7905 0.4646 0.187 Uiso 1 1 calc R . .
C133 C 0.25609(10) 0.85857(8) 0.48007(8) 0.2053(18) Uani 1 1 d U . .
H13C H 0.2751 0.8525 0.4775 0.246 Uiso 1 1 calc R . .
C134 C 0.13518(10) 0.89298(8) 0.64077(7) 0.1639(12) Uani 1 1 d U . .
H13D H 0.1344 0.8736 0.6461 0.197 Uiso 1 1 calc R . .
C135 C 0.29388(7) 1.02738(7) 0.60203(7) 0.1401(10) Uani 1 1 d U . .
H13E H 0.2987 1.0308 0.6212 0.168 Uiso 1 1 calc R . .
C136 C 0.36993(6) 1.04045(7) 0.55588(7) 0.1359(9) Uani 1 1 d U . .
H13F H 0.3645 1.0497 0.5389 0.163 Uiso 1 1 calc R . .
C137 C 0.07735(6) 0.74926(6) 0.69339(8) 0.1492(10) Uani 1 1 d U . .
H13G H 0.0836 0.7689 0.6885 0.179 Uiso 1 1 calc R . .
C138 C 0.07321(7) 0.73546(8) 0.66738(6) 0.1505(11) Uani 1 1 d U . .
H13H H 0.0696 0.7150 0.6713 0.181 Uiso 1 1 calc R . .
C139 C 0.04947(6) 0.74631(8) 0.65221(7) 0.1839(13) Uani 1 1 d U . .
H13I H 0.0463 0.7341 0.6355 0.221 Uiso 1 1 calc R . .
H13J H 0.0545 0.7654 0.6451 0.221 Uiso 1 1 calc R . .
C140 C 0.02043(7) 0.74875(10) 0.66882(7) 0.2181(18) Uani 1 1 d U . .
H14A H 0.0059 0.7579 0.6568 0.262 Uiso 1 1 calc R . .
H14B H 0.0136 0.7297 0.6743 0.262 Uiso 1 1 calc R . .
C141 C 0.02608(6) 0.76665(9) 0.69525(8) 0.2042(16) Uani 1 1 d U . .
H14C H 0.0087 0.7677 0.7069 0.245 Uiso 1 1 calc R . .
H14D H 0.0313 0.7861 0.6896 0.245 Uiso 1 1 calc R . .
C142 C 0.05114(6) 0.75292(9) 0.71332(6) 0.2070(17) Uani 1 1 d U . .
H14E H 0.0560 0.7654 0.7294 0.248 Uiso 1 1 calc R . .
H14F H 0.0452 0.7343 0.7209 0.248 Uiso 1 1 calc R . .
C143 C 0.23270(9) 0.80909(7) 0.43539(6) 0.1859(14) Uani 1 1 d U . .
H14G H 0.2127 0.8147 0.4312 0.223 Uiso 1 1 calc R . .
C144 C 0.24928(10) 0.83374(7) 0.43885(6) 0.226(2) Uani 1 1 d U . .
H14H H 0.2694 0.8285 0.4429 0.271 Uiso 1 1 calc R . .
C145 C 0.24771(10) 0.85365(7) 0.41073(8) 0.244(2) Uani 1 1 d U . .
H14I H 0.2283 0.8612 0.4083 0.293 Uiso 1 1 calc R . .
H14J H 0.2610 0.8698 0.4125 0.293 Uiso 1 1 calc R . .
C146 C 0.25578(14) 0.83527(9) 0.38545(7) 0.319(3) Uani 1 1 d U . .
H14K H 0.2520 0.8463 0.3681 0.383 Uiso 1 1 calc R . .
H14L H 0.2764 0.8319 0.3863 0.383 Uiso 1 1 calc R . .
C147 C 0.24225(14) 0.80843(9) 0.38237(6) 0.321(3) Uani 1 1 d U . .
H14M H 0.2510 0.7981 0.3664 0.385 Uiso 1 1 calc R . .
H14N H 0.2220 0.8114 0.3778 0.385 Uiso 1 1 calc R . .
C148 C 0.24464(10) 0.79031(6) 0.40936(6) 0.250(2) Uani 1 1 d U . .
H14O H 0.2646 0.7850 0.4128 0.300 Uiso 1 1 calc R . .
H14P H 0.2334 0.7728 0.4073 0.300 Uiso 1 1 calc R . .
C149 C 0.09166(8) 0.89264(8) 0.66300(8) 0.1735(11) Uani 1 1 d U . .
H14Q H 0.0981 0.8728 0.6663 0.208 Uiso 1 1 calc R . .
C150 C 0.08418(10) 0.90521(9) 0.69168(9) 0.1874(13) Uani 1 1 d U . .
H15A H 0.0799 0.9256 0.6882 0.225 Uiso 1 1 calc R . .
C151 C 0.05884(7) 0.89338(11) 0.70651(8) 0.248(2) Uani 1 1 d U . .
H15B H 0.0635 0.8749 0.7153 0.298 Uiso 1 1 calc R . .
H15C H 0.0524 0.9065 0.7215 0.298 Uiso 1 1 calc R . .
C152 C 0.03750(8) 0.88999(10) 0.68595(10) 0.2320(18) Uani 1 1 d U . .
H15D H 0.0225 0.8789 0.6955 0.278 Uiso 1 1 calc R . .
H15E H 0.0296 0.9092 0.6832 0.278 Uiso 1 1 calc R . .
C153 C 0.03946(9) 0.87839(12) 0.65861(11) 0.306(3) Uani 1 1 d U . .
H15F H 0.0222 0.8829 0.6476 0.367 Uiso 1 1 calc R . .
H15G H 0.0413 0.8576 0.6597 0.367 Uiso 1 1 calc R . .
C154 C 0.06579(8) 0.89129(13) 0.64422(9) 0.306(3) Uani 1 1 d U . .
H15H H 0.0704 0.8799 0.6272 0.367 Uiso 1 1 calc R . .
H15I H 0.0611 0.9107 0.6378 0.367 Uiso 1 1 calc R . .
C155 C 0.31533(7) 1.06958(7) 0.59437(7) 0.1371(9) Uani 1 1 d U . .
H15J H 0.3207 1.0648 0.6143 0.165 Uiso 1 1 calc R . .
C156 C 0.34228(7) 1.07320(6) 0.58009(6) 0.1216(8) Uani 1 1 d U . .
H15K H 0.3371 1.0759 0.5598 0.146 Uiso 1 1 calc R . .
C157 C 0.35725(6) 1.10096(6) 0.58818(6) 0.1511(10) Uani 1 1 d U . .
H15L H 0.3658 1.0985 0.6071 0.181 Uiso 1 1 calc R . .
H15M H 0.3729 1.1042 0.5746 0.181 Uiso 1 1 calc R . .
C158 C 0.33877(8) 1.12742(6) 0.58879(9) 0.2083(16) Uani 1 1 d U . .
H15N H 0.3497 1.1434 0.5967 0.250 Uiso 1 1 calc R . .
H15O H 0.3331 1.1325 0.5693 0.250 Uiso 1 1 calc R . .
C159 C 0.31265(7) 1.12226(6) 0.60664(10) 0.2168(19) Uani 1 1 d U . .
H15P H 0.2992 1.1381 0.6042 0.260 Uiso 1 1 calc R . .
H15Q H 0.3180 1.1213 0.6269 0.260 Uiso 1 1 calc R . .
C160 C 0.29789(6) 1.09301(7) 0.59721(8) 0.1843(14) Uani 1 1 d U . .
H16A H 0.2831 1.0884 0.6113 0.221 Uiso 1 1 calc R . .
H16B H 0.2883 1.0962 0.5789 0.221 Uiso 1 1 calc R . .

loop_
_atom_site_aniso_label
_atom_site_aniso_U_11
_atom_site_aniso_U_22
_atom_site_aniso_U_33
_atom_site_aniso_U_23
_atom_site_aniso_U_13
_atom_site_aniso_U_12
N1 0.1171(10) 0.1171(10) 0.1171(10) -0.0157(14) 0.0157(14) -0.0157(14)
N2 0.235(3) 0.123(2) 0.1138(19) 0.0167(17) -0.0492(19) -0.0342(19)
N3 0.160(3) 0.154(2) 0.213(3) -0.079(2) -0.045(2) -0.0011(19)
N4 0.1499(14) 0.1499(14) 0.1499(14) -0.0372(17) 0.0372(17) -0.0372(17)
N5 0.116(2) 0.173(2) 0.1213(18) 0.0184(17) -0.0118(15) 0.0115(18)
N6 0.129(2) 0.311(4) 0.131(2) 0.052(2) 0.0058(18) 0.020(2)
N7 0.158(2) 0.1223(17) 0.0966(18) -0.0006(14) -0.0261(16) -0.0012(15)
N8 0.1159(18) 0.1433(18) 0.1131(17) -0.0105(14) -0.0045(14) -0.0048(15)
N9 0.121(3) 0.266(5) 0.212(3) -0.078(3) -0.044(2) 0.043(3)
N10 0.134(2) 0.254(4) 0.135(2) -0.033(2) -0.0188(18) 0.051(2)
N11 0.172(2) 0.1095(19) 0.149(2) -0.0117(17) -0.0019(19) 0.0063(16)
N12 0.167(2) 0.130(2) 0.239(4) -0.007(2) 0.037(2) -0.049(2)
N13 0.0998(9) 0.0998(9) 0.0998(9) -0.0066(11) -0.0066(11) 0.0066(11)
N14 0.200(3) 0.136(2) 0.180(2) 0.0424(19) 0.090(2) 0.0410(19)
N15 0.183(2) 0.138(2) 0.151(2) -0.0615(19) 0.0450(19) -0.0441(18)
N16 0.1233(11) 0.1233(11) 0.1233(11) -0.0292(15) -0.0292(15) 0.0292(15)
N17 0.0910(18) 0.250(3) 0.0969(16) 0.0195(17) 0.0138(14) 0.0413(19)
N18 0.0884(19) 0.207(3) 0.159(2) 0.030(2) 0.0314(16) 0.0177(19)
N19 0.262(3) 0.1120(18) 0.0902(18) -0.0101(14) 0.0196(19) -0.047(2)
N20 0.279(3) 0.0962(17) 0.111(2) -0.0088(15) 0.036(2) -0.0434(18)
N21 0.095(2) 0.340(5) 0.124(2) -0.028(2) -0.0055(17) -0.011(2)
N22 0.118(2) 0.272(4) 0.155(2) -0.015(2) 0.0270(18) -0.046(2)
N23 0.151(2) 0.0877(19) 0.175(2) -0.0059(17) -0.0211(17) 0.0002(15)
N24 0.1400(19) 0.0801(15) 0.164(2) -0.0077(15) -0.0024(16) 0.0318(13)
C1 0.0866(18) 0.128(2) 0.121(2) 0.0079(19) 0.0034(15) 0.0002(19)
C2 0.111(2) 0.091(2) 0.165(2) 0.0245(17) 0.0176(18) 0.0100(17)
C3 0.094(2) 0.122(3) 0.223(3) -0.034(2) 0.012(2) 0.0256(19)
C4 0.113(3) 0.173(4) 0.143(3) -0.027(2) 0.004(2) 0.001(3)
C5 0.114(2) 0.105(2) 0.120(2) 0.0142(18) 0.0088(18) -0.0115(18)
C6 0.138(3) 0.086(2) 0.128(2) -0.0210(17) 0.0052(19) 0.0138(18)
C7 0.172(3) 0.123(3) 0.0815(18) 0.0250(18) -0.0454(18) -0.014(2)
C8 0.235(4) 0.104(2) 0.231(4) -0.002(2) -0.135(3) -0.005(2)
C9 0.321(5) 0.158(3) 0.201(4) 0.018(3) -0.168(4) 0.021(3)
C10 0.188(3) 0.200(4) 0.089(2) -0.008(3) -0.030(2) 0.027(3)
C11 0.158(3) 0.177(3) 0.112(3) 0.011(2) -0.007(2) 0.045(3)
C12 0.226(4) 0.146(3) 0.130(3) 0.042(2) -0.018(3) -0.005(3)
C13 0.148(2) 0.118(3) 0.132(3) 0.010(2) -0.015(2) 0.0209(19)
C14 0.210(3) 0.152(3) 0.098(2) 0.014(2) -0.033(2) 0.019(2)
C15 0.204(4) 0.206(4) 0.112(3) 0.057(3) 0.008(3) -0.016(3)
C16 0.174(3) 0.206(4) 0.124(3) 0.037(3) -0.021(3) -0.008(3)
C17 0.158(3) 0.138(3) 0.131(3) -0.004(2) -0.005(2) -0.015(2)
C18 0.188(3) 0.115(2) 0.113(2) 0.002(2) -0.009(2) -0.009(2)
C19 0.158(3) 0.107(2) 0.095(2) 0.0044(17) -0.040(2) 0.004(2)
C20 0.147(3) 0.106(2) 0.124(2) -0.0061(18) -0.011(2) 0.007(2)
C21 0.142(3) 0.107(2) 0.128(3) -0.0092(18) -0.022(2) 0.0154(19)
C22 0.135(3) 0.097(2) 0.112(2) -0.0048(17) -0.033(2) 0.009(2)
C23 0.152(3) 0.1089(19) 0.108(2) 0.0274(16) -0.0185(19) 0.0058(18)
C24 0.159(3) 0.144(2) 0.126(3) 0.022(2) -0.049(2) -0.010(2)
C25 0.132(3) 0.124(2) 0.115(2) -0.0404(18) -0.015(2) 0.017(2)
C26 0.124(3) 0.170(3) 0.173(3) -0.063(2) -0.055(2) 0.045(2)
C27 0.089(2) 0.187(3) 0.139(2) -0.046(2) 0.0144(19) 0.0011(19)
C28 0.124(3) 0.147(2) 0.137(2) -0.0367(19) -0.016(2) 0.018(2)
C29 0.108(2) 0.0989(19) 0.163(3) -0.0329(18) -0.023(2) -0.0037(16)
C30 0.135(3) 0.196(3) 0.092(2) -0.035(2) -0.0086(18) 0.002(2)
C31 0.115(3) 0.156(3) 0.251(4) -0.076(3) -0.042(2) 0.021(3)
C32 0.150(3) 0.168(3) 0.306(5) -0.114(3) -0.067(3) 0.043(2)
C33 0.191(4) 0.242(5) 0.320(6) -0.180(4) -0.102(4) 0.082(4)
C34 0.133(4) 0.279(6) 0.228(4) -0.107(4) -0.036(3) 0.061(4)
C35 0.151(3) 0.267(5) 0.213(4) -0.083(3) -0.069(3) 0.052(3)
C36 0.157(3) 0.180(4) 0.248(4) -0.079(3) -0.036(3) 0.010(3)
C37 0.146(3) 0.150(3) 0.153(3) -0.058(3) -0.017(3) 0.014(2)
C38 0.256(5) 0.162(3) 0.098(3) -0.006(2) 0.008(3) -0.001(3)
C39 0.202(3) 0.147(3) 0.102(2) 0.019(2) -0.003(2) 0.010(2)
C40 0.123(3) 0.162(3) 0.122(3) -0.012(3) -0.020(2) -0.006(2)
C41 0.157(3) 0.139(3) 0.111(3) -0.036(2) -0.009(2) 0.021(2)
C42 0.190(3) 0.133(3) 0.104(2) -0.022(2) -0.055(2) -0.012(2)
C43 0.153(2) 0.149(3) 0.145(3) -0.051(2) 0.065(2) -0.0476(19)
C44 0.173(3) 0.182(3) 0.101(2) -0.037(2) 0.021(2) -0.050(2)
C45 0.141(2) 0.130(2) 0.116(2) -0.0238(19) 0.0287(18) -0.0321(18)
C46 0.203(3) 0.104(2) 0.152(3) -0.046(2) 0.040(3) -0.009(2)
C47 0.175(3) 0.263(5) 0.101(2) -0.060(3) 0.026(2) -0.083(3)
C48 0.158(3) 0.150(3) 0.118(3) -0.028(2) 0.0206(19) -0.030(2)
C49 0.092(2) 0.162(3) 0.117(2) 0.011(2) -0.0107(17) 0.030(2)
C50 0.234(4) 0.188(3) 0.135(3) 0.044(2) -0.063(3) -0.002(3)
C51 0.167(3) 0.198(4) 0.132(3) 0.057(3) 0.003(2) 0.006(3)
C52 0.110(2) 0.126(2) 0.104(2) -0.0130(18) -0.0247(18) -0.0053(17)
C53 0.129(3) 0.130(2) 0.164(3) -0.037(2) 0.008(2) 0.0070(19)
C54 0.105(3) 0.229(5) 0.236(5) -0.101(4) -0.010(3) 0.018(3)
C55 0.142(3) 0.189(3) 0.114(3) 0.016(2) -0.023(2) 0.001(2)
C56 0.132(2) 0.165(3) 0.118(3) -0.081(2) 0.0043(19) -0.033(2)
C57 0.105(2) 0.209(3) 0.162(3) 0.012(2) -0.031(2) -0.009(2)
C58 0.099(2) 0.322(5) 0.153(3) 0.046(3) 0.018(2) 0.037(3)
C59 0.127(3) 0.637(10) 0.170(4) 0.056(5) 0.033(3) 0.020(5)
C60 0.106(3) 0.615(11) 0.266(6) 0.104(6) 0.012(3) -0.042(5)
C61 0.085(2) 0.568(9) 0.184(4) 0.057(4) -0.012(2) -0.062(3)
C62 0.136(3) 0.210(3) 0.194(3) 0.017(2) -0.030(2) -0.034(2)
C63 0.139(2) 0.127(2) 0.095(2) -0.0111(19) -0.0144(16) 0.0165(18)
C64 0.146(2) 0.0923(19) 0.097(2) -0.0176(17) 0.0112(17) 0.0071(17)
C65 0.166(2) 0.124(2) 0.102(2) 0.0038(19) 0.0276(18) -0.0029(17)
C66 0.257(3) 0.136(2) 0.0785(19) 0.0030(18) 0.014(2) -0.007(2)
C67 0.304(4) 0.144(3) 0.108(2) 0.004(2) -0.051(2) -0.008(3)
C68 0.240(3) 0.0938(18) 0.0951(19) -0.0245(17) -0.0125(19) -0.0160(18)
C69 0.164(4) 0.565(9) 0.143(3) -0.095(4) -0.012(3) 0.099(4)
C70 0.165(3) 0.388(6) 0.173(3) -0.087(4) -0.029(3) 0.090(4)
C71 0.123(3) 0.398(6) 0.181(3) 0.010(3) -0.038(3) 0.030(3)
C72 0.123(4) 0.555(11) 0.298(6) 0.012(7) -0.027(4) 0.042(5)
C73 0.148(4) 0.453(9) 0.278(6) -0.074(6) 0.034(4) 0.026(5)
C74 0.138(3) 0.493(8) 0.228(4) -0.056(4) 0.010(3) 0.112(4)
C75 0.165(3) 0.134(3) 0.195(3) -0.028(2) 0.016(2) -0.018(2)
C76 0.177(3) 0.152(3) 0.206(3) -0.045(3) 0.049(3) -0.038(3)
C77 0.117(2) 0.165(3) 0.299(4) -0.104(3) 0.043(2) -0.025(2)
C78 0.115(3) 0.145(3) 0.539(8) -0.109(4) 0.009(3) -0.009(2)
C79 0.205(4) 0.086(2) 0.323(5) -0.067(3) 0.018(3) -0.041(2)
C80 0.150(3) 0.125(3) 0.312(4) -0.071(3) 0.027(3) -0.033(2)
C81 0.108(2) 0.098(2) 0.0912(17) -0.0047(16) 0.0022(14) 0.0093(17)
C82 0.121(2) 0.0943(18) 0.0877(17) 0.0035(14) -0.0057(16) 0.0147(18)
C83 0.106(2) 0.149(3) 0.101(2) -0.0050(19) -0.0012(17) -0.015(2)
C84 0.117(2) 0.142(3) 0.0910(19) 0.010(2) 0.0021(17) 0.021(2)
C85 0.165(3) 0.0764(19) 0.129(2) 0.0161(16) -0.004(2) 0.010(2)
C86 0.113(2) 0.081(2) 0.145(2) 0.0111(16) -0.0337(17) -0.0031(16)
C87 0.121(2) 0.154(3) 0.169(3) 0.034(3) 0.042(2) 0.023(2)
C88 0.261(4) 0.122(3) 0.231(4) 0.010(2) 0.104(3) 0.032(3)
C89 0.192(3) 0.155(3) 0.178(3) 0.036(3) 0.049(2) -0.034(3)
C90 0.129(3) 0.173(4) 0.138(3) 0.028(3) 0.008(2) 0.021(3)
C91 0.218(4) 0.129(3) 0.188(3) 0.039(2) 0.099(3) 0.052(3)
C92 0.133(3) 0.125(3) 0.219(4) 0.033(2) 0.044(2) 0.017(2)
C93 0.181(3) 0.090(2) 0.156(3) 0.035(2) 0.065(3) 0.022(2)
C94 0.221(4) 0.152(3) 0.130(3) 0.033(2) 0.061(2) 0.053(3)
C95 0.249(5) 0.161(4) 0.181(4) -0.001(3) 0.057(3) 0.038(3)
C96 0.153(3) 0.110(3) 0.269(6) 0.070(3) 0.045(3) 0.000(2)
C97 0.210(4) 0.141(4) 0.158(3) 0.047(3) -0.008(3) -0.043(3)
C98 0.248(4) 0.116(3) 0.130(3) 0.031(3) 0.051(3) 0.009(3)
C99 0.169(3) 0.101(2) 0.123(2) 0.0048(17) 0.026(2) 0.021(2)
C100 0.107(2) 0.200(3) 0.132(3) 0.039(2) 0.0136(19) -0.027(2)
C101 0.141(3) 0.161(3) 0.134(3) 0.002(2) -0.036(2) 0.010(2)
C102 0.152(3) 0.127(2) 0.089(2) 0.0031(18) 0.035(2) 0.010(2)
C103 0.118(3) 0.114(2) 0.156(3) 0.0066(19) 0.044(2) -0.0024(19)
C104 0.109(2) 0.201(3) 0.146(3) 0.058(2) 0.032(2) 0.039(2)
C105 0.189(4) 0.089(2) 0.171(3) -0.056(2) 0.065(3) -0.051(2)
C106 0.168(3) 0.181(3) 0.162(3) -0.083(2) 0.064(2) -0.068(2)
C107 0.153(3) 0.160(3) 0.265(4) -0.116(3) 0.072(3) -0.052(2)
C108 0.207(4) 0.169(3) 0.123(3) -0.037(2) 0.078(3) -0.062(3)
C109 0.185(3) 0.148(3) 0.173(3) -0.068(2) 0.026(3) -0.070(2)
C110 0.171(3) 0.137(3) 0.169(3) -0.059(2) 0.069(2) -0.037(2)
C111 0.220(4) 0.119(3) 0.112(2) -0.058(2) 0.040(2) -0.051(3)
C112 0.176(3) 0.137(3) 0.202(3) -0.066(2) 0.057(2) -0.045(2)
C113 0.214(4) 0.103(2) 0.178(3) -0.036(2) 0.045(3) -0.039(2)
C114 0.155(3) 0.150(3) 0.245(4) -0.101(3) 0.069(3) -0.032(3)
C115 0.155(3) 0.156(3) 0.152(3) -0.069(3) 0.019(2) -0.003(3)
C116 0.198(4) 0.149(3) 0.119(2) -0.044(2) 0.010(2) -0.012(3)
C117 0.215(3) 0.100(2) 0.134(3) -0.046(2) 0.046(2) -0.037(2)
C118 0.159(3) 0.100(2) 0.180(3) -0.044(2) 0.047(2) -0.0055(19)
C119 0.154(3) 0.144(3) 0.103(2) -0.029(2) -0.0159(19) 0.007(2)
C120 0.183(3) 0.114(3) 0.150(3) -0.038(2) 0.011(2) -0.013(2)
C121 0.203(3) 0.122(2) 0.113(2) -0.0036(19) -0.005(2) -0.033(2)
C122 0.174(3) 0.170(3) 0.160(3) -0.068(3) 0.036(2) -0.071(2)
C123 0.120(2) 0.125(2) 0.123(2) 0.003(2) -0.0006(19) 0.0062(16)
C124 0.148(2) 0.129(2) 0.118(2) 0.0016(18) -0.0054(19) 0.0498(19)
C125 0.154(3) 0.139(3) 0.132(3) -0.016(2) 0.026(2) 0.011(2)
C126 0.144(2) 0.112(2) 0.117(3) -0.008(2) -0.026(2) 0.0143(18)
C127 0.153(3) 0.151(3) 0.117(2) 0.026(2) -0.014(2) 0.058(2)
C128 0.120(2) 0.156(3) 0.112(2) 0.0104(19) 0.0110(17) 0.0338(19)
C129 0.106(2) 0.141(3) 0.138(2) 0.0301(19) 0.020(2) 0.038(2)
C130 0.092(3) 0.189(4) 0.154(3) 0.059(3) -0.012(2) -0.002(2)
C131 0.198(4) 0.110(3) 0.254(5) 0.060(3) 0.067(3) -0.030(2)
C132 0.206(4) 0.142(3) 0.120(3) -0.009(2) -0.026(2) -0.019(2)
C133 0.273(5) 0.205(4) 0.138(3) -0.054(3) 0.091(3) -0.091(3)
C134 0.176(4) 0.153(3) 0.162(3) -0.012(2) 0.007(3) -0.037(3)
C135 0.193(3) 0.104(2) 0.123(3) -0.036(2) -0.046(2) 0.018(2)
C136 0.147(2) 0.135(3) 0.125(3) 0.019(2) -0.014(2) 0.032(2)
C137 0.092(2) 0.178(3) 0.178(3) 0.027(2) 0.008(2) 0.0287(18)
C138 0.126(3) 0.253(4) 0.0719(19) 0.024(2) -0.0061(19) 0.014(2)
C139 0.085(2) 0.301(4) 0.165(3) 0.048(3) 0.002(2) 0.006(2)
C140 0.124(3) 0.407(6) 0.122(3) 0.083(3) -0.018(2) 0.000(3)
C141 0.078(2) 0.374(5) 0.161(3) 0.067(3) 0.017(2) 0.013(2)
C142 0.094(2) 0.420(5) 0.107(2) -0.024(3) -0.0090(18) 0.039(3)
C143 0.353(5) 0.121(2) 0.084(2) -0.017(2) -0.039(2) -0.009(3)
C144 0.459(6) 0.118(2) 0.100(2) -0.042(2) 0.105(3) -0.065(3)
C145 0.394(6) 0.178(3) 0.160(3) -0.015(3) 0.139(3) -0.063(3)
C146 0.732(11) 0.150(3) 0.076(2) 0.017(2) 0.116(4) -0.038(5)
C147 0.734(11) 0.170(3) 0.060(2) 0.006(2) 0.043(4) -0.013(5)
C148 0.538(7) 0.112(2) 0.101(2) -0.019(2) 0.018(3) -0.043(3)
C149 0.144(3) 0.207(3) 0.169(3) -0.007(3) -0.015(3) 0.003(2)
C150 0.150(3) 0.244(4) 0.168(3) -0.025(3) 0.009(3) 0.006(3)
C151 0.080(2) 0.511(7) 0.154(3) -0.028(4) 0.002(2) -0.003(3)
C152 0.148(3) 0.315(5) 0.233(4) -0.080(4) 0.016(3) -0.008(3)
C153 0.149(3) 0.500(8) 0.269(5) -0.208(5) 0.029(3) -0.072(4)
C154 0.112(3) 0.582(9) 0.224(4) -0.169(5) -0.001(3) -0.051(4)
C155 0.113(2) 0.098(2) 0.201(3) -0.031(2) -0.022(2) 0.013(2)
C156 0.110(2) 0.122(2) 0.133(2) -0.0062(17) -0.0233(17) 0.008(2)
C157 0.159(2) 0.102(2) 0.193(3) -0.0152(19) 0.019(2) 0.001(2)
C158 0.178(3) 0.098(2) 0.349(5) -0.001(3) -0.031(3) 0.009(2)
C159 0.134(3) 0.093(2) 0.423(6) -0.053(3) -0.033(3) 0.009(2)
C160 0.116(2) 0.138(3) 0.299(4) -0.065(3) -0.026(2) 0.030(2)

_geom_special_details            
;
All esds (except the esd in the dihedral angle between two l.s. planes)
are estimated using the full covariance matrix. The cell esds are taken
into account individually in the estimation of esds in distances, angles
and torsion angles; correlations between esds in cell parameters are only
used when they are defined by crystal symmetry. An approximate (isotropic)
treatment of cell esds is used for estimating esds involving l.s. planes.
;

loop_
_geom_bond_atom_site_label_1
_geom_bond_atom_site_label_2
_geom_bond_distance
_geom_bond_site_symmetry_2
_geom_bond_publ_flag
N1 C1 1.420(3) 6_456 ?
N1 C1 1.420(3) 12_565 ?
N1 C1 1.420(3) . ?
N2 C19 1.422(3) . ?
N2 C7 1.428(3) . ?
N2 C13 1.485(3) . ?
N3 C31 1.423(4) . ?
N3 C25 1.425(3) . ?
N3 C37 1.540(4) . ?
N4 C43 1.435(3) . ?
N4 C43 1.436(3) 6_456 ?
N4 C43 1.436(3) 12_565 ?
N5 C49 1.251(3) . ?
N5 C57 1.485(3) . ?
N6 C50 1.197(4) . ?
N6 C58 1.534(4) . ?
N7 C52 1.227(3) . ?
N7 C63 1.495(3) . ?
N8 C53 1.254(3) . ?
N8 C64 1.439(3) . ?
N9 C54 1.111(5) . ?
N9 C69 1.475(5) . ?
N10 C51 1.262(4) 12_565 ?
N10 C70 1.523(4) . ?
N11 C55 1.239(3) . ?
N11 C75 1.396(4) . ?
N12 C56 1.170(4) . ?
N12 C76 1.458(4) . ?
N13 C81 1.379(3) . ?
N13 C81 1.379(3) 8_656 ?
N13 C81 1.379(3) 11_466 ?
N14 C99 1.401(3) . ?
N14 C87 1.403(3) . ?
N14 C93 1.512(4) . ?
N15 C117 1.370(3) . ?
N15 C105 1.440(4) . ?
N15 C111 1.473(4) . ?
N16 C123 1.420(3) 8_656 ?
N16 C123 1.420(3) 11_466 ?
N16 C123 1.420(3) . ?
N17 C129 1.260(3) . ?
N17 C137 1.524(3) . ?
N18 C130 1.125(4) . ?
N18 C138 1.423(4) . ?
N19 C132 1.255(4) . ?
N19 C143 1.476(3) . ?
N20 C133 1.263(4) . ?
N20 C144 1.482(4) . ?
N21 C134 1.218(4) . ?
N21 C149 1.514(4) . ?
N22 C131 1.257(4) 11_466 ?
N22 C150 1.415(4) . ?
N23 C135 1.235(3) . ?
N23 C155 1.402(3) . ?
N24 C136 1.288(3) . ?
N24 C156 1.413(3) . ?
C1 C2 1.352(3) . ?
C1 C6 1.401(3) . ?
C2 C3 1.395(3) . ?
C3 C4 1.437(4) . ?
C4 C5 1.297(3) . ?
C4 C49 1.508(4) . ?
C5 C6 1.302(3) . ?
C7 C8 1.341(3) . ?
C7 C12 1.399(4) . ?
C8 C9 1.361(4) . ?
C9 C10 1.402(4) . ?
C10 C11 1.402(4) . ?
C10 C50 1.416(5) . ?
C11 C12 1.336(4) . ?
C13 C14 1.372(4) . ?
C13 C18 1.425(3) . ?
C14 C15 1.380(4) . ?
C15 C16 1.304(4) . ?
C16 C17 1.354(4) . ?
C16 C51 1.527(5) . ?
C17 C18 1.356(3) . ?
C19 C20 1.325(3) . ?
C19 C24 1.382(3) . ?
C20 C21 1.385(3) . ?
C21 C22 1.366(3) . ?
C22 C23 1.325(3) . ?
C22 C52 1.511(4) . ?
C23 C24 1.432(3) . ?
C25 C26 1.320(3) . ?
C25 C30 1.376(3) . ?
C26 C27 1.313(3) . ?
C27 C28 1.389(3) . ?
C28 C29 1.367(3) . ?
C28 C53 1.558(4) . ?
C29 C30 1.306(3) . ?
C31 C36 1.311(4) . ?
C31 C32 1.420(4) . ?
C32 C33 1.423(5) . ?
C33 C34 1.348(6) . ?
C34 C35 1.432(5) . ?
C34 C54 1.530(6) . ?
C35 C36 1.383(4) . ?
C37 C38 1.235(4) . ?
C37 C42 1.374(4) . ?
C38 C39 1.425(4) . ?
C39 C40 1.354(4) . ?
C40 C41 1.295(4) . ?
C40 C55 1.497(4) . ?
C41 C42 1.379(4) . ?
C43 C44 1.327(3) . ?
C43 C48 1.420(4) . ?
C44 C45 1.394(3) . ?
C45 C46 1.408(4) . ?
C46 C47 1.411(4) . ?
C46 C56 1.447(4) . ?
C47 C48 1.296(4) . ?
C51 N10 1.261(4) 6_456 ?
C57 C62 1.498(3) . ?
C57 C58 1.543(4) . ?
C58 C59 1.546(4) . ?
C59 C60 1.420(6) . ?
C60 C61 1.520(5) . ?
C61 C62 1.552(4) . ?
C63 C68 1.470(3) . ?
C63 C64 1.474(3) . ?
C64 C65 1.477(3) . ?
C65 C66 1.499(3) . ?
C66 C67 1.542(4) . ?
C67 C68 1.544(3) . ?
C69 C74 1.520(4) . ?
C69 C70 1.562(6) . ?
C70 C71 1.462(4) . ?
C71 C72 1.629(6) . ?
C72 C73 1.416(6) . ?
C73 C74 1.712(6) . ?
C75 C76 1.491(4) . ?
C75 C80 1.582(4) . ?
C76 C77 1.581(4) . ?
C77 C78 1.493(4) . ?
C78 C79 1.684(5) . ?
C79 C80 1.447(4) . ?
C81 C86 1.321(3) . ?
C81 C82 1.431(3) . ?
C82 C83 1.346(3) . ?
C83 C84 1.318(3) . ?
C84 C85 1.341(3) . ?
C84 C129 1.474(4) . ?
C85 C86 1.379(3) . ?
C87 C92 1.280(4) . ?
C87 C88 1.491(4) . ?
C88 C89 1.497(4) . ?
C89 C90 1.373(4) . ?
C90 C91 1.317(4) . ?
C90 C130 1.609(5) . ?
C91 C92 1.429(4) . ?
C93 C98 1.247(4) . ?
C93 C94 1.287(4) . ?
C94 C95 1.394(4) . ?
C95 C96 1.426(5) . ?
C96 C97 1.372(5) . ?
C96 C131 1.606(5) . ?
C97 C98 1.286(5) . ?
C99 C100 1.383(3) . ?
C99 C104 1.395(4) . ?
C100 C101 1.477(4) . ?
C101 C102 1.372(4) . ?
C102 C103 1.293(3) . ?
C102 C132 1.483(4) . ?
C103 C104 1.351(4) . ?
C105 C106 1.300(4) . ?
C105 C110 1.334(4) . ?
C106 C107 1.421(4) . ?
C107 C108 1.397(4) . ?
C108 C109 1.326(4) . ?
C108 C133 1.490(5) . ?
C109 C110 1.406(4) . ?
C111 C116 1.342(4) . ?
C111 C112 1.368(4) . ?
C112 C113 1.431(4) . ?
C113 C114 1.323(4) . ?
C114 C115 1.282(4) . ?
C114 C134 1.481(5) . ?
C115 C116 1.426(4) . ?
C117 C122 1.343(4) . ?
C117 C118 1.453(4) . ?
C118 C119 1.348(3) . ?
C119 C120 1.406(4) . ?
C120 C121 1.373(4) . ?
C120 C135 1.563(4) . ?
C121 C122 1.373(3) . ?
C123 C124 1.377(3) . ?
C123 C128 1.432(3) . ?
C124 C125 1.332(3) . ?
C125 C126 1.466(4) . ?
C126 C127 1.382(3) . ?
C126 C136 1.450(4) . ?
C127 C128 1.339(3) . ?
C131 N22 1.257(4) 8_656 ?
C137 C138 1.406(3) . ?
C137 C142 1.566(3) . ?
C138 C139 1.427(3) . ?
C139 C140 1.585(4) . ?
C140 C141 1.532(5) . ?
C141 C142 1.598(4) . ?
C143 C144 1.414(4) . ?
C143 C148 1.619(4) . ?
C144 C145 1.630(4) . ?
C145 C146 1.526(4) . ?
C146 C147 1.428(5) . ?
C147 C148 1.540(4) . ?
C149 C154 1.512(4) . ?
C149 C150 1.522(4) . ?
C150 C151 1.496(4) . ?
C151 C152 1.410(4) . ?
C152 C153 1.407(4) . ?
C153 C154 1.544(5) . ?
C155 C160 1.387(3) . ?
C155 C156 1.452(3) . ?
C156 C157 1.539(3) . ?
C157 C158 1.526(3) . ?
C158 C159 1.515(4) . ?
C159 C160 1.612(4) . ?

loop_
_geom_angle_atom_site_label_1
_geom_angle_atom_site_label_2
_geom_angle_atom_site_label_3
_geom_angle
_geom_angle_site_symmetry_1
_geom_angle_site_symmetry_3
_geom_angle_publ_flag
C1 N1 C1 118.88(7) 6_456 12_565 ?
C1 N1 C1 118.88(7) 6_456 . ?
C1 N1 C1 118.88(7) 12_565 . ?
C19 N2 C7 120.5(3) . . ?
C19 N2 C13 120.1(3) . . ?
C7 N2 C13 119.3(3) . . ?
C31 N3 C25 122.0(3) . . ?
C31 N3 C37 120.5(3) . . ?
C25 N3 C37 116.9(3) . . ?
C43 N4 C43 119.73(4) . 6_456 ?
C43 N4 C43 119.71(4) . 12_565 ?
C43 N4 C43 119.72(4) 6_456 12_565 ?
C49 N5 C57 113.3(3) . . ?
C50 N6 C58 121.3(4) . . ?
C52 N7 C63 120.3(3) . . ?
C53 N8 C64 117.5(2) . . ?
C54 N9 C69 128.5(6) . . ?
C51 N10 C70 106.1(4) 12_565 . ?
C55 N11 C75 122.9(3) . . ?
C56 N12 C76 116.5(4) . . ?
C81 N13 C81 119.07(5) . 8_656 ?
C81 N13 C81 119.08(5) . 11_466 ?
C81 N13 C81 119.08(5) 8_656 11_466 ?
C99 N14 C87 122.6(3) . . ?
C99 N14 C93 116.7(3) . . ?
C87 N14 C93 120.3(3) . . ?
C117 N15 C105 120.0(3) . . ?
C117 N15 C111 119.5(3) . . ?
C105 N15 C111 120.0(3) . . ?
C123 N16 C123 119.996(3) 8_656 11_466 ?
C123 N16 C123 120.004(3) 8_656 . ?
C123 N16 C123 119.989(4) 11_466 . ?
C129 N17 C137 120.3(3) . . ?
C130 N18 C138 119.6(4) . . ?
C132 N19 C143 119.7(4) . . ?
C133 N20 C144 113.4(4) . . ?
C134 N21 C149 115.0(4) . . ?
C131 N22 C150 117.8(4) 11_466 . ?
C135 N23 C155 118.4(3) . . ?
C136 N24 C156 118.9(3) . . ?
C2 C1 C6 113.8(2) . . ?
C2 C1 N1 123.1(3) . . ?
C6 C1 N1 123.1(3) . . ?
C1 C2 C3 121.4(3) . . ?
C2 C3 C4 119.6(3) . . ?
C5 C4 C3 117.0(3) . . ?
C5 C4 C49 129.2(4) . . ?
C3 C4 C49 113.7(4) . . ?
C4 C5 C6 122.1(3) . . ?
C5 C6 C1 125.9(3) . . ?
C8 C7 C12 116.3(3) . . ?
C8 C7 N2 118.9(3) . . ?
C12 C7 N2 124.4(3) . . ?
C7 C8 C9 120.5(3) . . ?
C8 C9 C10 121.2(4) . . ?
C11 C10 C9 114.6(4) . . ?
C11 C10 C50 123.2(4) . . ?
C9 C10 C50 121.8(4) . . ?
C12 C11 C10 120.6(4) . . ?
C11 C12 C7 123.0(4) . . ?
C14 C13 C18 118.7(3) . . ?
C14 C13 N2 120.3(3) . . ?
C18 C13 N2 121.0(3) . . ?
C13 C14 C15 119.0(3) . . ?
C16 C15 C14 124.4(4) . . ?
C15 C16 C17 115.4(4) . . ?
C15 C16 C51 118.8(5) . . ?
C17 C16 C51 125.8(4) . . ?
C16 C17 C18 126.8(3) . . ?
C17 C18 C13 115.4(3) . . ?
C20 C19 C24 123.2(3) . . ?
C20 C19 N2 116.9(4) . . ?
C24 C19 N2 119.7(3) . . ?
C19 C20 C21 119.6(3) . . ?
C22 C21 C20 119.9(3) . . ?
C23 C22 C21 120.1(3) . . ?
C23 C22 C52 120.8(3) . . ?
C21 C22 C52 119.0(3) . . ?
C22 C23 C24 121.9(3) . . ?
C19 C24 C23 115.0(3) . . ?
C26 C25 C30 118.5(3) . . ?
C26 C25 N3 118.9(4) . . ?
C30 C25 N3 122.6(3) . . ?
C27 C26 C25 120.0(3) . . ?
C26 C27 C28 122.1(3) . . ?
C29 C28 C27 117.4(3) . . ?
C29 C28 C53 118.8(3) . . ?
C27 C28 C53 123.7(3) . . ?
C30 C29 C28 118.9(3) . . ?
C29 C30 C25 122.9(3) . . ?
C36 C31 C32 121.7(4) . . ?
C36 C31 N3 119.6(4) . . ?
C32 C31 N3 118.0(4) . . ?
C31 C32 C33 114.2(4) . . ?
C34 C33 C32 123.5(5) . . ?
C33 C34 C35 118.3(5) . . ?
C33 C34 C54 123.8(6) . . ?
C35 C34 C54 117.2(5) . . ?
C36 C35 C34 117.0(5) . . ?
C31 C36 C35 123.7(4) . . ?
C38 C37 C42 120.4(4) . . ?
C38 C37 N3 122.7(4) . . ?
C42 C37 N3 116.9(4) . . ?
C37 C38 C39 121.2(4) . . ?
C40 C39 C38 116.3(3) . . ?
C41 C40 C39 124.2(4) . . ?
C41 C40 C55 119.1(4) . . ?
C39 C40 C55 116.6(4) . . ?
C40 C41 C42 116.3(3) . . ?
C37 C42 C41 121.4(3) . . ?
C44 C43 C48 119.2(3) . . ?
C44 C43 N4 121.3(4) . . ?
C48 C43 N4 119.5(3) . . ?
C43 C44 C45 123.3(3) . . ?
C44 C45 C46 119.7(3) . . ?
C45 C46 C47 112.1(3) . . ?
C45 C46 C56 118.6(3) . . ?
C47 C46 C56 129.1(4) . . ?
C48 C47 C46 129.7(3) . . ?
C47 C48 C43 115.7(3) . . ?
N5 C49 C4 115.1(3) . . ?
N6 C50 C10 128.8(4) . . ?
N10 C51 C16 117.2(4) 6_456 . ?
N7 C52 C22 122.2(3) . . ?
N8 C53 C28 122.8(3) . . ?
N9 C54 C34 130.4(6) . . ?
N11 C55 C40 126.0(3) . . ?
N12 C56 C46 130.0(4) . . ?
N5 C57 C62 111.7(3) . . ?
N5 C57 C58 110.7(3) . . ?
C62 C57 C58 107.2(3) . . ?
N6 C58 C57 107.9(3) . . ?
N6 C58 C59 111.3(3) . . ?
C57 C58 C59 111.3(3) . . ?
C60 C59 C58 107.5(4) . . ?
C59 C60 C61 116.9(5) . . ?
C60 C61 C62 101.2(3) . . ?
C57 C62 C61 113.1(3) . . ?
C68 C63 C64 115.0(2) . . ?
C68 C63 N7 113.9(2) . . ?
C64 C63 N7 112.4(2) . . ?
N8 C64 C63 110.8(2) . . ?
N8 C64 C65 113.1(2) . . ?
C63 C64 C65 112.3(2) . . ?
C64 C65 C66 112.8(2) . . ?
C65 C66 C67 109.3(2) . . ?
C66 C67 C68 107.7(2) . . ?
C63 C68 C67 111.5(2) . . ?
N9 C69 C74 107.2(3) . . ?
N9 C69 C70 118.5(4) . . ?
C74 C69 C70 116.0(4) . . ?
C71 C70 N10 107.0(3) . . ?
C71 C70 C69 108.6(4) . . ?
N10 C70 C69 104.9(4) . . ?
C70 C71 C72 107.0(4) . . ?
C73 C72 C71 117.6(6) . . ?
C72 C73 C74 102.8(5) . . ?
C69 C74 C73 107.8(3) . . ?
N11 C75 C76 114.7(3) . . ?
N11 C75 C80 111.6(3) . . ?
C76 C75 C80 110.9(3) . . ?
N12 C76 C75 108.4(3) . . ?
N12 C76 C77 104.9(3) . . ?
C75 C76 C77 110.5(3) . . ?
C78 C77 C76 110.7(3) . . ?
C77 C78 C79 107.3(3) . . ?
C80 C79 C78 109.7(3) . . ?
C79 C80 C75 113.9(3) . . ?
C86 C81 N13 126.2(3) . . ?
C86 C81 C82 114.0(2) . . ?
N13 C81 C82 119.6(3) . . ?
C83 C82 C81 119.4(2) . . ?
C84 C83 C82 126.3(3) . . ?
C83 C84 C85 113.7(3) . . ?
C83 C84 C129 125.2(4) . . ?
C85 C84 C129 121.1(4) . . ?
C84 C85 C86 123.2(3) . . ?
C81 C86 C85 122.8(2) . . ?
C92 C87 N14 126.8(4) . . ?
C92 C87 C88 120.3(3) . . ?
N14 C87 C88 112.9(4) . . ?
C87 C88 C89 113.5(3) . . ?
C90 C89 C88 117.4(3) . . ?
C91 C90 C89 128.2(4) . . ?
C91 C90 C130 111.5(4) . . ?
C89 C90 C130 120.3(4) . . ?
C90 C91 C92 113.6(3) . . ?
C87 C92 C91 126.6(3) . . ?
C98 C93 C94 121.5(4) . . ?
C98 C93 N14 121.6(5) . . ?
C94 C93 N14 116.9(4) . . ?
C93 C94 C95 123.2(4) . . ?
C94 C95 C96 112.7(4) . . ?
C97 C96 C95 119.2(4) . . ?
C97 C96 C131 125.1(6) . . ?
C95 C96 C131 115.6(6) . . ?
C98 C97 C96 119.5(5) . . ?
C93 C98 C97 123.8(5) . . ?
C100 C99 C104 120.1(3) . . ?
C100 C99 N14 118.1(4) . . ?
C104 C99 N14 121.1(4) . . ?
C99 C100 C101 115.5(3) . . ?
C102 C101 C100 120.6(3) . . ?
C103 C102 C101 118.8(3) . . ?
C103 C102 C132 126.1(4) . . ?
C101 C102 C132 115.1(4) . . ?
C102 C103 C104 125.0(3) . . ?
C103 C104 C99 119.2(3) . . ?
C106 C105 C110 118.6(3) . . ?
C106 C105 N15 120.9(4) . . ?
C110 C105 N15 120.3(4) . . ?
C105 C106 C107 123.3(3) . . ?
C108 C107 C106 117.5(3) . . ?
C109 C108 C107 117.3(3) . . ?
C109 C108 C133 122.2(4) . . ?
C107 C108 C133 119.9(4) . . ?
C108 C109 C110 122.2(3) . . ?
C105 C110 C109 120.4(3) . . ?
C116 C111 C112 120.7(4) . . ?
C116 C111 N15 122.5(4) . . ?
C112 C111 N15 116.8(4) . . ?
C111 C112 C113 120.3(3) . . ?
C114 C113 C112 117.3(4) . . ?
C115 C114 C113 122.0(4) . . ?
C115 C114 C134 120.3(4) . . ?
C113 C114 C134 117.6(5) . . ?
C114 C115 C116 123.8(4) . . ?
C111 C116 C115 115.9(4) . . ?
C122 C117 N15 124.2(3) . . ?
C122 C117 C118 117.6(3) . . ?
N15 C117 C118 118.1(3) . . ?
C119 C118 C117 119.8(3) . . ?
C118 C119 C120 121.2(3) . . ?
C121 C120 C119 117.6(3) . . ?
C121 C120 C135 120.2(4) . . ?
C119 C120 C135 122.1(4) . . ?
C122 C121 C120 121.7(3) . . ?
C117 C122 C121 121.8(3) . . ?
C124 C123 N16 119.2(3) . . ?
C124 C123 C128 119.1(3) . . ?
N16 C123 C128 121.6(3) . . ?
C125 C124 C123 118.8(3) . . ?
C124 C125 C126 125.8(3) . . ?
C127 C126 C136 122.9(3) . . ?
C127 C126 C125 110.9(3) . . ?
C136 C126 C125 125.9(3) . . ?
C128 C127 C126 126.6(3) . . ?
C127 C128 C123 118.7(3) . . ?
N17 C129 C84 124.7(3) . . ?
N18 C130 C90 129.8(4) . . ?
N22 C131 C96 119.7(5) 8_656 . ?
N19 C132 C102 120.8(4) . . ?
N20 C133 C108 122.3(4) . . ?
N21 C134 C114 126.0(4) . . ?
N23 C135 C120 126.0(3) . . ?
N24 C136 C126 120.6(3) . . ?
C138 C137 N17 115.1(3) . . ?
C138 C137 C142 117.9(3) . . ?
N17 C137 C142 105.7(3) . . ?
C137 C138 N18 111.4(3) . . ?
C137 C138 C139 112.5(3) . . ?
N18 C138 C139 108.8(2) . . ?
C138 C139 C140 117.3(3) . . ?
C141 C140 C139 107.1(3) . . ?
C140 C141 C142 109.9(3) . . ?
C137 C142 C141 108.1(2) . . ?
C144 C143 N19 113.1(3) . . ?
C144 C143 C148 110.3(3) . . ?
N19 C143 C148 106.2(3) . . ?
C143 C144 N20 108.6(3) . . ?
C143 C144 C145 110.9(3) . . ?
N20 C144 C145 107.2(3) . . ?
C146 C145 C144 107.4(3) . . ?
C147 C146 C145 118.3(4) . . ?
C146 C147 C148 112.1(4) . . ?
C147 C148 C143 107.4(3) . . ?
C154 C149 N21 108.5(3) . . ?
C154 C149 C150 110.6(3) . . ?
N21 C149 C150 115.4(3) . . ?
N22 C150 C151 111.3(3) . . ?
N22 C150 C149 109.2(3) . . ?
C151 C150 C149 117.2(4) . . ?
C152 C151 C150 107.0(4) . . ?
C153 C152 C151 129.0(4) . . ?
C152 C153 C154 107.7(4) . . ?
C149 C154 C153 114.2(4) . . ?
C160 C155 N23 114.3(3) . . ?
C160 C155 C156 118.2(3) . . ?
N23 C155 C156 110.5(3) . . ?
N24 C156 C155 117.5(3) . . ?
N24 C156 C157 112.2(2) . . ?
C155 C156 C157 112.9(3) . . ?
C158 C157 C156 116.1(3) . . ?
C159 C158 C157 110.2(3) . . ?
C158 C159 C160 109.7(3) . . ?
C155 C160 C159 117.0(3) . . ?

_diffrn_measured_fraction_theta_max 0.999
_diffrn_reflns_theta_full        18.23
_diffrn_measured_fraction_theta_full 0.999
_refine_diff_density_max         0.054
_refine_diff_density_min         -0.054
_refine_diff_density_rms         0.008

loop_
_smtbx_masks_void_nr
_smtbx_masks_void_average_x
_smtbx_masks_void_average_y
_smtbx_masks_void_average_z
_smtbx_masks_void_volume
_smtbx_masks_void_count_electrons
_smtbx_masks_void_content
1 -0.228 -0.110 -0.491 75943.2 21483.1 ?

_smtbx_masks_special_details     
;
O. V. Dolomanov, L. J. Bourhis, R. J. Gildea, J. A. K. Howard and H. Puschmann,
OLEX2: a complete structure solution, refinement and analysis program.
J. Appl. Cryst. (2009). 42, 339-341. Reflection statistics for the modified hkl
intensities used in the structure refinement:
_diffrn_reflns_number 27623
_diffrn_reflns_av_R_equivalents 0.0000
_diffrn_reflns_av_sigmaI/netI 0.0293
_diffrn_reflns_limit_h_min -24
_diffrn_reflns_limit_h_max 24
_diffrn_reflns_limit_k_min -42
_diffrn_reflns_limit_k_max 42
_diffrn_reflns_limit_l_min -42
_diffrn_reflns_limit_l_max 42
_diffrn_reflns_theta_min 1.32
_diffrn_reflns_theta_max 18.23
_reflns_number_total 27623
_reflns_number_gt 17200
_reflns_threshold_expression >2sigma(I)
;
