####################################################################### 
# 
# This file contains crystal structure data downloaded from the 
# Cambridge Structural Database (CSD) hosted by the Cambridge 
# Crystallographic Data Centre (CCDC).
# 
# Full information about CCDC data access policies and citation 
# guidelines are available at http://www.ccdc.cam.ac.uk/access/V1 
# 
# Audit and citation data items may have been added by the CCDC. 
# Please retain this information to preserve the provenance of 
# this file and to allow appropriate attribution of the data. 
# 
#######################################################################

data_exp_1097
_audit_block_doi                 10.5517/cc11xmxh
_database_code_depnum_ccdc_archive 'CCDC 980837'
loop_
_citation_id
_citation_doi
_citation_year
1 10.1002/anie.201400285 2014
_audit_update_record             
;
2014-01-09 deposited with the CCDC.	2019-02-20 downloaded from the CCDC.
;

_audit_creation_method           SHELXL-97
_chemical_name_systematic        
; 
 ? 
;
_chemical_name_common            ?
_chemical_melting_point          ?
_chemical_formula_moiety         ?
_chemical_formula_sum            'C216 H216 B12 O24'
_chemical_formula_weight         3325.61

loop_
_atom_type_symbol
_atom_type_description
_atom_type_scat_dispersion_real
_atom_type_scat_dispersion_imag
_atom_type_scat_source
C C 0.0181 0.0091 'International Tables Vol C Tables 4.2.6.8 and 6.1.1.4'
H H 0.0000 0.0000 'International Tables Vol C Tables 4.2.6.8 and 6.1.1.4'
B B 0.0090 0.0039 'International Tables Vol C Tables 4.2.6.8 and 6.1.1.4'
O O 0.0492 0.0322 'International Tables Vol C Tables 4.2.6.8 and 6.1.1.4'

_symmetry_cell_setting           tetragonal
_symmetry_space_group_name_H-M   'P 4/n'

loop_
_symmetry_equiv_pos_as_xyz
'x, y, z'
'-y+1/2, x, z'
'-x+1/2, -y+1/2, z'
'y, -x+1/2, z'
'-x, -y, -z'
'y-1/2, -x, -z'
'x-1/2, y-1/2, -z'
'-y, x-1/2, -z'

_cell_length_a                   37.7346(7)
_cell_length_b                   37.7346(7)
_cell_length_c                   47.0521(17)
_cell_angle_alpha                90.00
_cell_angle_beta                 90.00
_cell_angle_gamma                90.00
_cell_volume                     66997(3)
_cell_formula_units_Z            8
_cell_measurement_temperature    100(2)
_cell_measurement_reflns_used    11324
_cell_measurement_theta_min      3.6200
_cell_measurement_theta_max      40.3420

_exptl_crystal_description       ?
_exptl_crystal_colour            ?
_exptl_crystal_size_max          ?
_exptl_crystal_size_mid          ?
_exptl_crystal_size_min          ?
_exptl_crystal_density_meas      ?
_exptl_crystal_density_diffrn    0.659
_exptl_crystal_density_method    'not measured'
_exptl_crystal_F_000             14112
_exptl_absorpt_coefficient_mu    0.327
_exptl_absorpt_correction_T_min  0.70661
_exptl_absorpt_correction_T_max  1.00000
_exptl_absorpt_correction_type   multi-scan
_exptl_absorpt_process_details   
;
CrysAlisPro, Agilent Technologies,
Version 1.171.36.28 (release 01-02-2013 CrysAlis171 .NET)
(compiled Feb  1 2013,16:14:44)
Empirical absorption correction using spherical harmonics,
 implemented in SCALE3 ABSPACK scaling algorithm.
;

_exptl_special_details           
; 
 ? 
;

_diffrn_ambient_temperature      100(2)
_diffrn_radiation_wavelength     1.54184
_diffrn_radiation_type           CuK\a
_diffrn_radiation_source         'SuperNova (Cu) X-ray Source'
_diffrn_radiation_monochromator  mirror
_diffrn_measurement_device_type  'SuperNova, Dual, Cu at zero, Atlas'
_diffrn_measurement_method       ?
_diffrn_detector_area_resol_mean 5.1734
_diffrn_standards_number         ?
_diffrn_standards_interval_count ?
_diffrn_standards_interval_time  ?
_diffrn_standards_decay_%        ?
_diffrn_reflns_number            33601
_diffrn_reflns_av_R_equivalents  0.0489
_diffrn_reflns_av_sigmaI/netI    0.0684
_diffrn_reflns_limit_h_min       -32
_diffrn_reflns_limit_h_max       20
_diffrn_reflns_limit_k_min       -30
_diffrn_reflns_limit_k_max       27
_diffrn_reflns_limit_l_min       -32
_diffrn_reflns_limit_l_max       28
_diffrn_reflns_theta_min         3.44
_diffrn_reflns_theta_max         40.95
_reflns_number_total             19063
_reflns_number_gt                9562
_reflns_threshold_expression     >2sigma(I)
_diffrn_measurement_details      
;
#__ type_ start__ end____ width___ exp.time_
  1 omega -106.00  -12.00   0.5000  240.0000
omega____ theta____ kappa____ phi______ frames
    -      -37.0543  -57.0000   90.0000 188

#__ type_ start__ end____ width___ exp.time_
  2 omega  -63.00  -34.50   0.5000  240.0000
omega____ theta____ kappa____ phi______ frames
    -      -37.0543   77.0000 -150.0000 57

;

_computing_data_collection       
;
CrysAlisPro, Agilent Technologies,
Version 1.171.36.28 (release 01-02-2013 CrysAlis171 .NET)
(compiled Feb  1 2013,16:14:44)
;
_computing_cell_refinement       
;
CrysAlisPro, Agilent Technologies,
Version 1.171.36.28 (release 01-02-2013 CrysAlis171 .NET)
(compiled Feb  1 2013,16:14:44)
;
_computing_data_reduction        
;
CrysAlisPro, Agilent Technologies,
Version 1.171.36.28 (release 01-02-2013 CrysAlis171 .NET)
(compiled Feb  1 2013,16:14:44)
;
_computing_structure_solution    'SHELXS-97 (Sheldrick, 1990)'
_computing_structure_refinement  'SHELXL-97 (Sheldrick, 1997)'
_computing_molecular_graphics    ?
_computing_publication_material  ?

_refine_special_details          
; 
 Refinement of F^2^ against ALL reflections.  The weighted R-factor wR and 
 goodness of fit S are based on F^2^, conventional R-factors R are based 
 on F, with F set to zero for negative F^2^. The threshold expression of 
 F^2^ > 2sigma(F^2^) is used only for calculating R-factors(gt) etc. and is 
 not relevant to the choice of reflections for refinement.  R-factors based 
 on F^2^ are statistically about twice as large as those based on F, and R- 
 factors based on ALL data will be even larger. 
;

_refine_ls_structure_factor_coef Fsqd
_refine_ls_matrix_type           full
_refine_ls_weighting_scheme      calc
_refine_ls_weighting_details     
'calc w=1/[\s^2^(Fo^2^)+(0.2000P)^2^+0.0000P] where P=(Fo^2^+2Fc^2^)/3'
_atom_sites_solution_primary     direct
_atom_sites_solution_secondary   difmap
_atom_sites_solution_hydrogens   geom
_refine_ls_hydrogen_treatment    constr
_refine_ls_extinction_method     none
_refine_ls_extinction_coef       ?
_refine_ls_number_reflns         19063
_refine_ls_number_parameters     736
_refine_ls_number_restraints     701
_refine_ls_R_factor_all          0.2099
_refine_ls_R_factor_gt           0.1732
_refine_ls_wR_factor_ref         0.4856
_refine_ls_wR_factor_gt          0.4347
_refine_ls_goodness_of_fit_ref   1.492
_refine_ls_restrained_S_all      1.480
_refine_ls_shift/su_max          0.001
_refine_ls_shift/su_mean         0.000

loop_
_atom_site_label
_atom_site_type_symbol
_atom_site_fract_x
_atom_site_fract_y
_atom_site_fract_z
_atom_site_U_iso_or_equiv
_atom_site_adp_type
_atom_site_occupancy
_atom_site_symmetry_multiplicity
_atom_site_calc_flag
_atom_site_refinement_flags
_atom_site_disorder_assembly
_atom_site_disorder_group
C1A C 0.62226(15) 0.50007(16) -0.63168(14) 0.120(3) Uiso 1 1 d GD . .
C2A C 0.61393(12) 0.48067(17) -0.65589(14) 0.122(3) Uiso 1 1 d GD . .
H2A H 0.5909 0.4808 -0.6629 0.146 Uiso 1 1 calc R . .
C3A C 0.64002(17) 0.46102(15) -0.66955(11) 0.108(3) Uiso 1 1 d GD . .
C4A C 0.67443(15) 0.46077(16) -0.65901(14) 0.122(3) Uiso 1 1 d GD . .
H4A H 0.6919 0.4476 -0.6681 0.147 Uiso 1 1 calc R . .
C5A C 0.68275(13) 0.48017(17) -0.63480(14) 0.121(3) Uiso 1 1 d GD . .
C6A C 0.65667(17) 0.49982(16) -0.62114(11) 0.116(3) Uiso 1 1 d GD . .
H6A H 0.6622 0.5128 -0.6049 0.139 Uiso 1 1 calc R . .
B11A B 0.5928(2) 0.5240(3) -0.6189(2) 0.115(4) Uiso 1 1 d D . .
O12A O 0.59681(15) 0.54589(16) -0.59543(14) 0.120(2) Uiso 1 1 d D . .
C13A C 0.56535(13) 0.56623(16) -0.59508(14) 0.112(3) Uiso 1 1 d GD . .
C14A C 0.55439(15) 0.59370(16) -0.57746(11) 0.118(3) Uiso 1 1 d GD . .
H14A H 0.5685 0.6006 -0.5622 0.141 Uiso 1 1 calc R . .
C15A C 0.52242(16) 0.61081(14) -0.58264(13) 0.105(3) Uiso 1 1 d GD . .
C16A C 0.50140(12) 0.60046(15) -0.60543(14) 0.099(3) Uiso 1 1 d GD . .
C17A C 0.51235(15) 0.57300(16) -0.62305(11) 0.106(3) Uiso 1 1 d GD . .
H17A H 0.4983 0.5661 -0.6383 0.127 Uiso 1 1 calc R . .
C18A C 0.54433(16) 0.55588(14) -0.61788(13) 0.106(3) Uiso 1 1 d GD . .
O19A O 0.56102(15) 0.52928(14) -0.63285(12) 0.1104(19) Uiso 1 1 d D . .
B31A B 0.6307(3) 0.4424(3) -0.6965(2) 0.107(4) Uiso 1 1 d D . .
O32A O 0.65070(15) 0.42139(15) -0.71499(12) 0.112(2) Uiso 1 1 d D . .
C33A C 0.62967(16) 0.41285(18) -0.73746(13) 0.115(3) Uiso 1 1 d GD . .
C34A C 0.63640(15) 0.39244(17) -0.76145(16) 0.119(3) Uiso 1 1 d GD . .
H34A H 0.6583 0.3816 -0.7637 0.142 Uiso 1 1 calc R . .
C35A C 0.6103(2) 0.38826(17) -0.78206(13) 0.149(4) Uiso 1 1 d GD . .
C36A C 0.57755(18) 0.40450(19) -0.77868(14) 0.127(3) Uiso 1 1 d GD . .
C37A C 0.57081(14) 0.42491(18) -0.75469(16) 0.130(4) Uiso 1 1 d GD . .
H37A H 0.5489 0.4358 -0.7524 0.156 Uiso 1 1 calc R . .
C38A C 0.59687(18) 0.42909(16) -0.73408(12) 0.118(3) Uiso 1 1 d GD . .
O39A O 0.59565(16) 0.44776(16) -0.70905(13) 0.122(2) Uiso 1 1 d D . .
B51A B 0.7219(3) 0.4824(3) -0.6247(3) 0.123(4) Uiso 1 1 d D . .
O52A O 0.73354(16) 0.50151(17) -0.60050(14) 0.131(2) Uiso 1 1 d D . .
C53A C 0.76934(12) 0.49593(17) -0.59987(14) 0.112(3) Uiso 1 1 d GD . .
C54A C 0.79502(17) 0.50828(15) -0.58115(12) 0.121(3) Uiso 1 1 d GD . .
H54A H 0.7886 0.5228 -0.5660 0.145 Uiso 1 1 calc R . .
C55A C 0.83032(15) 0.49890(16) -0.58500(13) 0.098(3) Uiso 1 1 d GD . .
C56A C 0.83994(12) 0.47717(16) -0.60757(14) 0.108(3) Uiso 1 1 d GD . .
C57A C 0.81426(17) 0.46482(15) -0.62630(12) 0.110(3) Uiso 1 1 d GD . .
H57A H 0.8207 0.4503 -0.6414 0.132 Uiso 1 1 calc R . .
C58A C 0.77896(15) 0.47420(16) -0.62245(13) 0.110(3) Uiso 1 1 d GD . .
O59A O 0.75016(15) 0.46473(16) -0.63791(13) 0.119(2) Uiso 1 1 d D . .
C1B C 0.6228(3) 0.4931(2) -0.93304(15) 0.186(5) Uiso 1 1 d GD . .
C2B C 0.6546(2) 0.4865(2) -0.9469(2) 0.182(5) Uiso 1 1 d GD . .
H2B H 0.6702 0.4697 -0.9398 0.219 Uiso 1 1 calc R . .
C3B C 0.66304(18) 0.5051(2) -0.97155(19) 0.177(5) Uiso 1 1 d GD . .
C4B C 0.6397(2) 0.5302(2) -0.98224(15) 0.166(5) Uiso 1 1 d GD . .
H4B H 0.6453 0.5426 -0.9987 0.199 Uiso 1 1 calc R . .
C5B C 0.6078(2) 0.5368(2) -0.96834(19) 0.176(5) Uiso 1 1 d GD . .
C6B C 0.59939(19) 0.5182(2) -0.94374(19) 0.182(5) Uiso 1 1 d GD . .
H6B H 0.5781 0.5226 -0.9344 0.219 Uiso 1 1 calc R . .
B11B B 0.6157(3) 0.4731(3) -0.9047(3) 0.146(5) Uiso 1 1 d D . .
O12B O 0.5852(2) 0.4776(2) -0.88910(18) 0.183(3) Uiso 1 1 d D . .
C13B C 0.5884(2) 0.45188(18) -0.86785(16) 0.155(4) Uiso 1 1 d GD . .
C14B C 0.56555(17) 0.4420(2) -0.84609(18) 0.157(4) Uiso 1 1 d GD . .
H14B H 0.5441 0.4538 -0.8438 0.188 Uiso 1 1 calc R . .
C15B C 0.5747(2) 0.4146(2) -0.82782(15) 0.154(4) Uiso 1 1 d GD . .
C16B C 0.6068(2) 0.39700(18) -0.83130(16) 0.151(4) Uiso 1 1 d GD . .
C17B C 0.62970(17) 0.4069(2) -0.85306(18) 0.146(4) Uiso 1 1 d GD . .
H17B H 0.6512 0.3951 -0.8554 0.176 Uiso 1 1 calc R . .
C18B C 0.6205(2) 0.4343(2) -0.87133(15) 0.154(4) Uiso 1 1 d GD . .
O19B O 0.6383(2) 0.4475(2) -0.89505(16) 0.163(3) Uiso 1 1 d D . .
B31B B 0.6962(4) 0.4966(5) -0.9874(3) 0.202(7) Uiso 1 1 d D . .
O32B O 0.7232(2) 0.4742(3) -0.9783(2) 0.204(4) Uiso 1 1 d D . .
C33B C 0.7514(2) 0.4774(3) -0.99583(18) 0.194(5) Uiso 1 1 d GD . .
C34B C 0.7844(3) 0.4611(2) -0.99611(19) 0.200(6) Uiso 1 1 d GD . .
H34B H 0.7898 0.4440 -0.9826 0.240 Uiso 1 1 calc R . .
C35B C 0.8093(2) 0.4704(3) -1.0166(2) 0.196(5) Uiso 1 1 d GD . .
C36B C 0.8011(2) 0.4960(3) -1.03677(19) 0.177(5) Uiso 1 1 d GD . .
C37B C 0.7681(3) 0.5123(2) -1.03650(18) 0.180(5) Uiso 1 1 d GD . .
H37B H 0.7627 0.5295 -1.0500 0.216 Uiso 1 1 calc R . .
C38B C 0.7432(2) 0.5031(2) -1.0160(2) 0.190(5) Uiso 1 1 d GD . .
O39B O 0.7098(2) 0.5171(2) -1.0114(2) 0.202(4) Uiso 1 1 d D . .
B51B B 0.5803(4) 0.5607(4) -0.9840(3) 0.174(6) Uiso 1 1 d D . .
O52B O 0.5880(2) 0.5820(2) -1.00856(19) 0.185(3) Uiso 1 1 d D . .
C53B C 0.55828(19) 0.6003(2) -1.0131(2) 0.190(5) Uiso 1 1 d GD . .
C54B C 0.5508(3) 0.6245(3) -1.03463(18) 0.190(5) Uiso 1 1 d GD . .
H54B H 0.5678 0.6297 -1.0483 0.227 Uiso 1 1 calc R . .
C55B C 0.5178(3) 0.6409(2) -1.03568(19) 0.189(5) Uiso 1 1 d GD . .
C56B C 0.4923(2) 0.6331(2) -1.0152(2) 0.192(5) Uiso 1 1 d GD . .
C57B C 0.4999(2) 0.6089(3) -0.99377(19) 0.186(5) Uiso 1 1 d GD . .
H57B H 0.4828 0.6037 -0.9801 0.223 Uiso 1 1 calc R . .
C58B C 0.5328(3) 0.5926(2) -0.99272(17) 0.170(5) Uiso 1 1 d GD . .
O59B O 0.5472(2) 0.5694(2) -0.97315(18) 0.182(3) Uiso 1 1 d D . .
C1C C 0.5428(2) 0.97282(19) -0.76460(13) 0.148(4) Uiso 1 1 d GD . .
C2C C 0.52612(16) 0.9440(2) -0.77720(16) 0.147(4) Uiso 1 1 d GD . .
H2C H 0.5051 0.9353 -0.7697 0.177 Uiso 1 1 calc R . .
C3C C 0.5410(2) 0.92808(16) -0.80105(16) 0.143(4) Uiso 1 1 d GD . .
C4C C 0.5725(2) 0.9411(2) -0.81230(14) 0.161(4) Uiso 1 1 d GD . .
H4C H 0.5824 0.9305 -0.8283 0.193 Uiso 1 1 calc R . .
C5C C 0.58909(16) 0.9699(2) -0.79970(17) 0.148(4) Uiso 1 1 d GD . .
C6C C 0.5742(2) 0.98581(17) -0.77585(17) 0.157(4) Uiso 1 1 d GD . .
H6C H 0.5854 1.0051 -0.7674 0.188 Uiso 1 1 calc R . .
B11C B 0.5258(3) 0.9888(3) -0.7371(2) 0.122(4) Uiso 1 1 d D . .
O12C O 0.53875(16) 1.01710(17) -0.72155(13) 0.126(2) Uiso 1 1 d D . .
C13C C 0.51451(14) 1.02044(17) -0.69909(13) 0.120(3) Uiso 1 1 d GD . .
C14C C 0.51273(15) 1.04451(15) -0.67678(14) 0.117(3) Uiso 1 1 d GD . .
H14C H 0.5299 1.0620 -0.6750 0.140 Uiso 1 1 calc R . .
C15C C 0.48525(17) 1.04243(15) -0.65718(12) 0.109(3) Uiso 1 1 d GD . .
C16C C 0.45954(14) 1.01627(17) -0.65990(12) 0.110(3) Uiso 1 1 d GD . .
C17C C 0.46131(15) 0.99220(15) -0.68221(14) 0.118(3) Uiso 1 1 d GD . .
H17C H 0.4441 0.9747 -0.6840 0.141 Uiso 1 1 calc R . .
C18C C 0.48879(17) 0.99428(15) -0.70181(12) 0.112(3) Uiso 1 1 d GD . .
O19C O 0.49511(18) 0.97412(18) -0.72588(14) 0.141(2) Uiso 1 1 d D . .
B31C B 0.5243(3) 0.8948(3) -0.8132(3) 0.154(5) Uiso 1 1 d D . .
O32C O 0.53435(18) 0.87551(18) -0.83758(16) 0.145(2) Uiso 1 1 d D . .
C33C C 0.51265(17) 0.84651(16) -0.83901(16) 0.127(3) Uiso 1 1 d GD . .
C34C C 0.51238(17) 0.8180(2) -0.85775(13) 0.140(4) Uiso 1 1 d GD . .
H34C H 0.5284 0.8173 -0.8728 0.168 Uiso 1 1 calc R . .
C35C C 0.4882(2) 0.79066(16) -0.85407(15) 0.138(4) Uiso 1 1 d GD . .
C36C C 0.46422(18) 0.79175(17) -0.83164(18) 0.134(4) Uiso 1 1 d GD . .
C37C C 0.46448(17) 0.8202(2) -0.81290(14) 0.146(4) Uiso 1 1 d GD . .
H37C H 0.4485 0.8210 -0.7979 0.176 Uiso 1 1 calc R . .
C38C C 0.4887(2) 0.84761(17) -0.81658(14) 0.137(4) Uiso 1 1 d GD . .
O39C O 0.49491(19) 0.87728(18) -0.80028(15) 0.147(2) Uiso 1 1 d D . .
B51C B 0.6253(3) 0.9840(4) -0.8104(3) 0.163(6) Uiso 1 1 d D . .
O52C O 0.64359(19) 0.96981(19) -0.83403(17) 0.158(3) Uiso 1 1 d D . .
C53C C 0.67285(17) 0.99085(19) -0.83618(18) 0.149(4) Uiso 1 1 d GD . .
C54C C 0.7006(2) 0.98933(18) -0.85557(14) 0.145(4) Uiso 1 1 d GD . .
H54C H 0.7004 0.9725 -0.8700 0.174 Uiso 1 1 calc R . .
C55C C 0.72873(17) 1.0130(2) -0.85337(16) 0.142(4) Uiso 1 1 d GD . .
C56C C 0.72910(18) 1.03811(19) -0.83179(18) 0.149(4) Uiso 1 1 d GD . .
C57C C 0.7013(2) 1.03963(18) -0.81240(15) 0.147(4) Uiso 1 1 d GD . .
H57C H 0.7016 1.0565 -0.7980 0.177 Uiso 1 1 calc R . .
C58C C 0.67322(18) 1.0160(2) -0.81460(15) 0.169(5) Uiso 1 1 d GD . .
O59C O 0.6432(2) 1.0125(2) -0.79850(16) 0.162(3) Uiso 1 1 d D . .
C1D C 0.52853(15) 0.90832(13) -0.46911(13) 0.113(3) Uiso 1 1 d GD . .
C2D C 0.55770(15) 0.92422(15) -0.45635(11) 0.103(3) Uiso 1 1 d GD . .
H2D H 0.5680 0.9140 -0.4404 0.124 Uiso 1 1 calc R . .
C3D C 0.57154(13) 0.95540(15) -0.46749(13) 0.106(3) Uiso 1 1 d GD . .
C4D C 0.55621(16) 0.97068(13) -0.49140(13) 0.114(3) Uiso 1 1 d GD . .
H4D H 0.5655 0.9915 -0.4989 0.136 Uiso 1 1 calc R . .
C5D C 0.52704(15) 0.95477(16) -0.50416(11) 0.116(3) Uiso 1 1 d GD . .
C6D C 0.51320(13) 0.92359(16) -0.49301(13) 0.113(3) Uiso 1 1 d GD . .
H6D H 0.4937 0.9129 -0.5015 0.135 Uiso 1 1 calc R . .
B11D B 0.5135(2) 0.8736(3) -0.4562(2) 0.111(4) Uiso 1 1 d D . .
O12D O 0.48502(16) 0.85465(16) -0.46675(13) 0.120(2) Uiso 1 1 d D . .
C13D C 0.4827(2) 0.82469(17) -0.44895(14) 0.131(4) Uiso 1 1 d GD . .
C14D C 0.45959(17) 0.7960(2) -0.44909(15) 0.147(4) Uiso 1 1 d GD . .
H14D H 0.4410 0.7952 -0.4620 0.177 Uiso 1 1 calc R . .
C15D C 0.4644(2) 0.76838(17) -0.42989(19) 0.153(4) Uiso 1 1 d GD . .
C16D C 0.4922(2) 0.76952(18) -0.41056(16) 0.162(4) Uiso 1 1 d GD . .
C17D C 0.51524(18) 0.7982(2) -0.41042(14) 0.157(4) Uiso 1 1 d GD . .
H17D H 0.5339 0.7990 -0.3975 0.189 Uiso 1 1 calc R . .
C18D C 0.51048(18) 0.82583(17) -0.42962(17) 0.131(4) Uiso 1 1 d GD . .
O19D O 0.53076(18) 0.85569(17) -0.43432(15) 0.140(2) Uiso 1 1 d D . .
B31D B 0.6039(3) 0.9711(3) -0.4543(3) 0.122(4) Uiso 1 1 d D . .
O32D O 0.62457(17) 0.95633(17) -0.43230(14) 0.136(2) Uiso 1 1 d D . .
C33D C 0.65273(18) 0.97917(17) -0.42778(17) 0.136(4) Uiso 1 1 d GD . .
C34D C 0.6818(2) 0.97695(19) -0.40968(15) 0.164(4) Uiso 1 1 d GD . .
H34D H 0.6840 0.9578 -0.3974 0.197 Uiso 1 1 calc R . .
C35D C 0.70745(18) 1.0033(2) -0.40999(16) 0.166(5) Uiso 1 1 d GD . .
C36D C 0.70411(18) 1.0320(2) -0.42841(19) 0.169(5) Uiso 1 1 d GD . .
C37D C 0.6751(2) 1.03417(16) -0.44651(15) 0.137(4) Uiso 1 1 d GD . .
H37D H 0.6729 1.0533 -0.4588 0.165 Uiso 1 1 calc R . .
C38D C 0.64939(16) 1.0078(2) -0.44619(15) 0.132(4) Uiso 1 1 d GD . .
O39D O 0.61982(16) 1.00387(17) -0.46362(14) 0.131(2) Uiso 1 1 d D . .
B51D B 0.5112(3) 0.9727(3) -0.5310(2) 0.107(4) Uiso 1 1 d D . .
O52D O 0.52492(14) 1.00331(14) -0.54297(12) 0.1055(19) Uiso 1 1 d D . .
C53D C 0.50422(14) 1.01031(16) -0.56607(11) 0.100(3) Uiso 1 1 d GD . .
C54D C 0.50594(14) 1.03767(14) -0.58580(13) 0.103(3) Uiso 1 1 d GD . .
H54D H 0.5231 1.0552 -0.5840 0.124 Uiso 1 1 calc R . .
C55D C 0.48196(17) 1.03885(14) -0.60821(12) 0.105(3) Uiso 1 1 d GD . .
C56D C 0.45627(15) 1.01266(17) -0.61089(11) 0.113(3) Uiso 1 1 d GD . .
C57D C 0.45456(14) 0.98530(15) -0.59116(14) 0.120(3) Uiso 1 1 d GD . .
H57D H 0.4374 0.9678 -0.5929 0.144 Uiso 1 1 calc R . .
C58D C 0.47853(16) 0.98413(14) -0.56875(12) 0.109(3) Uiso 1 1 d GD . .
O59D O 0.48261(16) 0.96004(16) -0.54675(13) 0.124(2) Uiso 1 1 d D . .
C1E C 0.6148(6) 0.3678(7) -0.8092(5) 0.335(5) Uiso 1 1 d DU . .
C2E C 0.6497(6) 0.3485(6) -0.8139(5) 0.335(5) Uiso 1 1 d DU . .
H2EA H 0.6686 0.3659 -0.8140 0.402 Uiso 1 1 calc R . .
H2EB H 0.6491 0.3377 -0.8326 0.402 Uiso 1 1 calc R . .
C3E C 0.6590(5) 0.3198(6) -0.7922(4) 0.335(5) Uiso 1 1 d DU . .
H3EA H 0.6397 0.3029 -0.7908 0.402 Uiso 1 1 calc R . .
H3EB H 0.6625 0.3305 -0.7737 0.402 Uiso 1 1 calc R . .
C4E C 0.6933(6) 0.3005(6) -0.8017(4) 0.335(5) Uiso 1 1 d DU . .
H4EA H 0.6874 0.2814 -0.8146 0.402 Uiso 1 1 calc R . .
H4EB H 0.7087 0.3170 -0.8116 0.402 Uiso 1 1 calc R . .
C5E C 0.7127(5) 0.2854(6) -0.7755(4) 0.335(5) Uiso 1 1 d DU . .
H5EA H 0.7238 0.2631 -0.7806 0.402 Uiso 1 1 calc R . .
H5EB H 0.7314 0.3017 -0.7699 0.402 Uiso 1 1 calc R . .
C6E C 0.6879(6) 0.2794(6) -0.7500(4) 0.335(5) Uiso 1 1 d DU . .
H6EA H 0.6913 0.2557 -0.7424 0.402 Uiso 1 1 calc R . .
H6EB H 0.6634 0.2817 -0.7560 0.402 Uiso 1 1 calc R . .
C7E C 0.6966(7) 0.3075(7) -0.7270(4) 0.335(5) Uiso 1 1 d DU . .
H7EA H 0.6787 0.3070 -0.7125 0.503 Uiso 1 1 calc R . .
H7EB H 0.6973 0.3306 -0.7355 0.503 Uiso 1 1 calc R . .
H7EC H 0.7193 0.3022 -0.7187 0.503 Uiso 1 1 calc R . .
C1F C 0.5514(3) 0.4010(3) -0.8036(2) 0.146(4) Uiso 1 1 d DU . .
C2F C 0.5170(3) 0.4217(3) -0.7995(3) 0.165(5) Uiso 1 1 d DU . .
H2FA H 0.5037 0.4214 -0.8171 0.198 Uiso 1 1 calc R . .
H2FB H 0.5227 0.4462 -0.7953 0.198 Uiso 1 1 calc R . .
C3F C 0.4936(4) 0.4068(4) -0.7756(3) 0.225(7) Uiso 1 1 d DU . .
H3FA H 0.5085 0.3990 -0.7599 0.270 Uiso 1 1 calc R . .
H3FB H 0.4806 0.3865 -0.7825 0.270 Uiso 1 1 calc R . .
C4F C 0.4674(4) 0.4352(4) -0.7648(4) 0.266(8) Uiso 1 1 d DU . .
H4FA H 0.4805 0.4553 -0.7574 0.319 Uiso 1 1 calc R . .
H4FB H 0.4529 0.4434 -0.7805 0.319 Uiso 1 1 calc R . .
C5F C 0.4436(5) 0.4198(5) -0.7413(4) 0.318(11) Uiso 1 1 d DU . .
H5FA H 0.4327 0.3981 -0.7481 0.382 Uiso 1 1 calc R . .
H5FB H 0.4580 0.4140 -0.7249 0.382 Uiso 1 1 calc R . .
C6F C 0.4145(5) 0.4459(5) -0.7324(5) 0.329(12) Uiso 1 1 d DU . .
H6FA H 0.4006 0.4530 -0.7488 0.395 Uiso 1 1 calc R . .
H6FB H 0.4249 0.4669 -0.7240 0.395 Uiso 1 1 calc R . .
C7F C 0.3908(6) 0.4265(7) -0.7105(5) 0.383(15) Uiso 1 1 d DU . .
H7FA H 0.3730 0.4425 -0.7036 0.575 Uiso 1 1 calc R . .
H7FB H 0.4051 0.4184 -0.6950 0.575 Uiso 1 1 calc R . .
H7FC H 0.3796 0.4066 -0.7195 0.575 Uiso 1 1 calc R . .
C1G C 0.5069(2) 0.6393(2) -0.56407(19) 0.108(3) Uiso 1 1 d DU . .
C2G C 0.5305(2) 0.6501(2) -0.5392(2) 0.125(3) Uiso 1 1 d DU . .
H2GA H 0.5342 0.6294 -0.5274 0.150 Uiso 1 1 calc R . .
H2GB H 0.5534 0.6568 -0.5468 0.150 Uiso 1 1 calc R . .
C3G C 0.5179(4) 0.6801(4) -0.5200(3) 0.247(7) Uiso 1 1 d DU . .
H3GA H 0.5029 0.6703 -0.5052 0.296 Uiso 1 1 calc R . .
H3GB H 0.5038 0.6965 -0.5311 0.296 Uiso 1 1 calc R . .
C4G C 0.5489(5) 0.7006(5) -0.5060(5) 0.324(11) Uiso 1 1 d DU . .
H4GA H 0.5627 0.6846 -0.4942 0.389 Uiso 1 1 calc R . .
H4GB H 0.5643 0.7102 -0.5206 0.389 Uiso 1 1 calc R . .
C5G C 0.5337(6) 0.7308(6) -0.4877(5) 0.348(12) Uiso 1 1 d DU . .
H5GA H 0.5169 0.7444 -0.4989 0.418 Uiso 1 1 calc R . .
H5GB H 0.5211 0.7208 -0.4716 0.418 Uiso 1 1 calc R . .
C6G C 0.5631(8) 0.7554(6) -0.4769(6) 0.438(18) Uiso 1 1 d DU . .
H6GA H 0.5532 0.7730 -0.4641 0.526 Uiso 1 1 calc R . .
H6GB H 0.5740 0.7677 -0.4928 0.526 Uiso 1 1 calc R . .
C7G C 0.5912(8) 0.7333(11) -0.4612(8) 0.50(2) Uiso 1 1 d DU . .
H7GA H 0.6093 0.7487 -0.4539 0.743 Uiso 1 1 calc R . .
H7GB H 0.6016 0.7166 -0.4741 0.743 Uiso 1 1 calc R . .
H7GC H 0.5802 0.7208 -0.4457 0.743 Uiso 1 1 calc R . .
C1H C 0.4678(2) 0.6208(2) -0.60903(16) 0.093(3) Uiso 1 1 d DU . .
C2H C 0.4440(2) 0.6109(2) -0.63410(16) 0.108(3) Uiso 1 1 d DU . .
H2HA H 0.4372 0.5863 -0.6322 0.130 Uiso 1 1 calc R . .
H2HB H 0.4226 0.6251 -0.6331 0.130 Uiso 1 1 calc R . .
C3H C 0.4608(2) 0.6162(3) -0.66331(16) 0.119(3) Uiso 1 1 d DU . .
H3HA H 0.4742 0.5952 -0.6684 0.142 Uiso 1 1 calc R . .
H3HB H 0.4770 0.6360 -0.6626 0.142 Uiso 1 1 calc R . .
C4H C 0.4323(3) 0.6232(3) -0.6862(2) 0.156(4) Uiso 1 1 d DU . .
H4HA H 0.4168 0.6027 -0.6879 0.187 Uiso 1 1 calc R . .
H4HB H 0.4180 0.6435 -0.6808 0.187 Uiso 1 1 calc R . .
C5H C 0.4506(4) 0.6302(4) -0.7144(2) 0.207(6) Uiso 1 1 d DU . .
H5HA H 0.4594 0.6080 -0.7220 0.248 Uiso 1 1 calc R . .
H5HB H 0.4708 0.6457 -0.7112 0.248 Uiso 1 1 calc R . .
C6H C 0.4255(9) 0.6474(8) -0.7361(5) 0.65(4) Uiso 1 1 d DU . .
H6HA H 0.4087 0.6628 -0.7264 0.785 Uiso 1 1 calc R . .
H6HB H 0.4389 0.6616 -0.7495 0.785 Uiso 1 1 calc R . .
C7H C 0.4059(8) 0.6174(10) -0.7515(6) 0.452(19) Uiso 1 1 d DU . .
H7HA H 0.3899 0.6274 -0.7652 0.677 Uiso 1 1 calc R . .
H7HB H 0.3929 0.6036 -0.7379 0.677 Uiso 1 1 calc R . .
H7HC H 0.4228 0.6026 -0.7610 0.677 Uiso 1 1 calc R . .
C1J C 0.47082(14) 0.62345(16) -0.55608(17) 0.111(3) Uiso 1 1 d G . .
C2J C 0.45873(18) 0.61700(18) -0.52866(14) 0.140(4) Uiso 1 1 d G . .
H2J H 0.4727 0.6231 -0.5131 0.168 Uiso 1 1 calc R . .
C3J C 0.4257(2) 0.60149(18) -0.52446(12) 0.144(4) Uiso 1 1 d G . .
H3J H 0.4176 0.5972 -0.5061 0.173 Uiso 1 1 calc R . .
C4J C 0.40482(14) 0.59243(17) -0.54767(17) 0.134(4) Uiso 1 1 d G . .
H4J H 0.3827 0.5821 -0.5449 0.161 Uiso 1 1 calc R . .
C5J C 0.41692(17) 0.59888(17) -0.57509(14) 0.123(3) Uiso 1 1 d G . .
H5J H 0.4029 0.5928 -0.5906 0.148 Uiso 1 1 calc R . .
C6J C 0.44992(18) 0.61439(17) -0.57930(12) 0.111(3) Uiso 1 1 d G . .
C1K C 0.5068(3) 0.6687(3) -1.0574(3) 0.176(5) Uiso 1 1 d DU . .
C2K C 0.5363(4) 0.6774(4) -1.0786(3) 0.209(6) Uiso 1 1 d DU . .
H2KA H 0.5575 0.6839 -1.0682 0.251 Uiso 1 1 calc R . .
H2KB H 0.5291 0.6976 -1.0900 0.251 Uiso 1 1 calc R . .
C3K C 0.5446(8) 0.6457(6) -1.0984(5) 0.419(17) Uiso 1 1 d DU . .
H3KA H 0.5596 0.6288 -1.0886 0.503 Uiso 1 1 calc R . .
H3KB H 0.5227 0.6338 -1.1037 0.503 Uiso 1 1 calc R . .
C4K C 0.5635(10) 0.6591(7) -1.1252(5) 0.46(2) Uiso 1 1 d DU . .
H4KA H 0.5834 0.6738 -1.1197 0.546 Uiso 1 1 calc R . .
H4KB H 0.5473 0.6736 -1.1361 0.546 Uiso 1 1 calc R . .
C5K C 0.5770(10) 0.6281(7) -1.1441(6) 0.48(2) Uiso 1 1 d DU . .
H5KA H 0.5947 0.6143 -1.1341 0.571 Uiso 1 1 calc R . .
H5KB H 0.5576 0.6127 -1.1494 0.571 Uiso 1 1 calc R . .
C6K C 0.5934(12) 0.6457(9) -1.1709(6) 0.55(3) Uiso 1 1 d DU . .
H6KA H 0.5747 0.6525 -1.1839 0.658 Uiso 1 1 calc R . .
H6KB H 0.6063 0.6669 -1.1654 0.658 Uiso 1 1 calc R . .
C7K C 0.6189(13) 0.6196(13) -1.1857(9) 0.65(4) Uiso 1 1 d DU . .
H7KA H 0.6280 0.6303 -1.2027 0.975 Uiso 1 1 calc R . .
H7KB H 0.6063 0.5983 -1.1904 0.975 Uiso 1 1 calc R . .
H7KC H 0.6382 0.6141 -1.1732 0.975 Uiso 1 1 calc R . .
C1L C 0.4598(4) 0.6536(4) -1.0166(3) 0.184(5) Uiso 1 1 d DU . .
C2L C 0.4304(4) 0.6421(4) -0.9958(3) 0.201(6) Uiso 1 1 d DU . .
H2LA H 0.4093 0.6562 -0.9992 0.241 Uiso 1 1 calc R . .
H2LB H 0.4381 0.6466 -0.9765 0.241 Uiso 1 1 calc R . .
C3L C 0.4211(9) 0.6023(5) -0.9990(6) 0.450(19) Uiso 1 1 d DU . .
H3LA H 0.4045 0.5992 -1.0146 0.540 Uiso 1 1 calc R . .
H3LB H 0.4424 0.5890 -1.0035 0.540 Uiso 1 1 calc R . .
C4L C 0.4046(13) 0.5880(6) -0.9713(7) 0.57(3) Uiso 1 1 d DU . .
H4LA H 0.3820 0.5996 -0.9681 0.689 Uiso 1 1 calc R . .
H4LB H 0.4201 0.5940 -0.9555 0.689 Uiso 1 1 calc R . .
C5L C 0.3989(9) 0.5473(6) -0.9717(6) 0.411(16) Uiso 1 1 d DU . .
H5LA H 0.3822 0.5410 -0.9865 0.493 Uiso 1 1 calc R . .
H5LB H 0.4212 0.5354 -0.9755 0.493 Uiso 1 1 calc R . .
C6L C 0.3844(11) 0.5358(7) -0.9424(6) 0.49(2) Uiso 1 1 d DU . .
H6LA H 0.4006 0.5433 -0.9276 0.584 Uiso 1 1 calc R . .
H6LB H 0.3618 0.5473 -0.9390 0.584 Uiso 1 1 calc R . .
C7L C 0.3794(14) 0.4954(8) -0.9407(9) 0.59(3) Uiso 1 1 d DU . .
H7LA H 0.3692 0.4892 -0.9226 0.887 Uiso 1 1 calc R . .
H7LB H 0.4019 0.4839 -0.9427 0.887 Uiso 1 1 calc R . .
H7LC H 0.3638 0.4878 -0.9557 0.887 Uiso 1 1 calc R . .
C1M C 0.4317(2) 1.0158(2) -0.6368(2) 0.112(3) Uiso 1 1 d DU . .
C2M C 0.4049(3) 0.9858(3) -0.6403(2) 0.141(4) Uiso 1 1 d DU . .
H2MA H 0.3906 0.9842 -0.6232 0.169 Uiso 1 1 calc R . .
H2MB H 0.4174 0.9636 -0.6426 0.169 Uiso 1 1 calc R . .
C3M C 0.3804(4) 0.9919(3) -0.6662(3) 0.209(6) Uiso 1 1 d DU . .
H3MA H 0.3608 1.0071 -0.6608 0.251 Uiso 1 1 calc R . .
H3MB H 0.3936 1.0036 -0.6813 0.251 Uiso 1 1 calc R . .
C4M C 0.3663(4) 0.9560(4) -0.6769(3) 0.247(8) Uiso 1 1 d DU . .
H4MA H 0.3527 0.9446 -0.6620 0.296 Uiso 1 1 calc R . .
H4MB H 0.3860 0.9407 -0.6818 0.296 Uiso 1 1 calc R . .
C5M C 0.3425(4) 0.9614(4) -0.7034(3) 0.249(8) Uiso 1 1 d DU . .
H5MA H 0.3222 0.9759 -0.6984 0.299 Uiso 1 1 calc R . .
H5MB H 0.3557 0.9736 -0.7181 0.299 Uiso 1 1 calc R . .
C6M C 0.3297(5) 0.9250(4) -0.7145(4) 0.253(8) Uiso 1 1 d DU . .
H6MA H 0.3498 0.9115 -0.7215 0.303 Uiso 1 1 calc R . .
H6MB H 0.3188 0.9117 -0.6992 0.303 Uiso 1 1 calc R . .
C7M C 0.3026(6) 0.9305(6) -0.7387(4) 0.324(11) Uiso 1 1 d DU . .
H7MA H 0.2943 0.9079 -0.7453 0.485 Uiso 1 1 calc R . .
H7MB H 0.3138 0.9429 -0.7541 0.485 Uiso 1 1 calc R . .
H7MC H 0.2830 0.9442 -0.7318 0.485 Uiso 1 1 calc R . .
C1N C 0.4823(2) 1.0662(2) -0.63224(19) 0.110(3) Uiso 1 1 d DU . .
C2N C 0.5097(2) 1.0953(2) -0.62804(18) 0.107(3) Uiso 1 1 d DU . .
H2NA H 0.5330 1.0846 -0.6271 0.128 Uiso 1 1 calc R . .
H2NB H 0.5053 1.1069 -0.6100 0.128 Uiso 1 1 calc R . .
C3N C 0.5095(3) 1.1232(3) -0.6517(2) 0.143(4) Uiso 1 1 d DU . .
H3NA H 0.5038 1.1116 -0.6694 0.171 Uiso 1 1 calc R . .
H3NB H 0.4907 1.1401 -0.6477 0.171 Uiso 1 1 calc R . .
C4N C 0.5432(4) 1.1434(4) -0.6556(3) 0.253(8) Uiso 1 1 d DU . .
H4NA H 0.5375 1.1650 -0.6657 0.303 Uiso 1 1 calc R . .
H4NB H 0.5583 1.1295 -0.6680 0.303 Uiso 1 1 calc R . .
C5N C 0.5650(4) 1.1534(5) -0.6300(4) 0.277(9) Uiso 1 1 d DU . .
H5NA H 0.5642 1.1347 -0.6159 0.332 Uiso 1 1 calc R . .
H5NB H 0.5557 1.1749 -0.6215 0.332 Uiso 1 1 calc R . .
C6N C 0.6037(5) 1.1594(9) -0.6403(5) 0.427(18) Uiso 1 1 d DU . .
H6NA H 0.6134 1.1373 -0.6474 0.513 Uiso 1 1 calc R . .
H6NB H 0.6039 1.1765 -0.6556 0.513 Uiso 1 1 calc R . .
C7N C 0.6263(6) 1.1730(10) -0.6153(7) 0.452(19) Uiso 1 1 d DU . .
H7NA H 0.6505 1.1753 -0.6213 0.678 Uiso 1 1 calc R . .
H7NB H 0.6249 1.1565 -0.5998 0.678 Uiso 1 1 calc R . .
H7NC H 0.6176 1.1957 -0.6093 0.678 Uiso 1 1 calc R . .
C1P C 0.44370(15) 1.0796(2) -0.63166(14) 0.126(3) Uiso 1 1 d G . .
C2P C 0.43382(19) 1.11467(18) -0.62754(15) 0.145(4) Uiso 1 1 d G . .
H2P H 0.4511 1.1320 -0.6249 0.173 Uiso 1 1 calc R . .
C3P C 0.3982(2) 1.12393(16) -0.62741(16) 0.174(5) Uiso 1 1 d G . .
H3P H 0.3916 1.1474 -0.6247 0.209 Uiso 1 1 calc R . .
C4P C 0.37239(15) 1.0981(2) -0.63139(15) 0.145(4) Uiso 1 1 d G . .
H4P H 0.3485 1.1043 -0.6313 0.175 Uiso 1 1 calc R . .
C5P C 0.38227(18) 1.06297(19) -0.63551(15) 0.157(4) Uiso 1 1 d G . .
H5P H 0.3650 1.0457 -0.6382 0.188 Uiso 1 1 calc R . .
C6P C 0.4179(2) 1.05371(15) -0.63564(15) 0.124(3) Uiso 1 1 d G . .
C1Q C 0.7599(3) 1.0155(3) -0.8754(2) 0.135(4) Uiso 1 1 d DU . .
C2Q C 0.7603(3) 0.9883(3) -0.8990(2) 0.154(4) Uiso 1 1 d DU . .
H2QA H 0.7605 0.9648 -0.8906 0.185 Uiso 1 1 calc R . .
H2QB H 0.7820 0.9910 -0.9098 0.185 Uiso 1 1 calc R . .
C3Q C 0.7285(4) 0.9912(4) -0.9195(3) 0.267(8) Uiso 1 1 d DU . .
H3QA H 0.7326 1.0099 -0.9332 0.321 Uiso 1 1 calc R . .
H3QB H 0.7071 0.9968 -0.9089 0.321 Uiso 1 1 calc R . .
C4Q C 0.7239(5) 0.9552(5) -0.9349(4) 0.299(10) Uiso 1 1 d DU . .
H4QA H 0.7462 0.9487 -0.9437 0.358 Uiso 1 1 calc R . .
H4QB H 0.7181 0.9371 -0.9211 0.358 Uiso 1 1 calc R . .
C5Q C 0.6949(6) 0.9562(6) -0.9578(4) 0.350(13) Uiso 1 1 d DU . .
H5QA H 0.6731 0.9648 -0.9494 0.420 Uiso 1 1 calc R . .
H5QB H 0.7018 0.9728 -0.9726 0.420 Uiso 1 1 calc R . .
C6Q C 0.6881(7) 0.9199(6) -0.9713(5) 0.387(15) Uiso 1 1 d DU . .
H6QA H 0.6855 0.9023 -0.9564 0.465 Uiso 1 1 calc R . .
H6QB H 0.6661 0.9207 -0.9819 0.465 Uiso 1 1 calc R . .
C7Q C 0.7182(10) 0.9089(8) -0.9912(7) 0.48(2) Uiso 1 1 d DU . .
H7QA H 0.7130 0.8861 -0.9991 0.716 Uiso 1 1 calc R . .
H7QB H 0.7399 0.9078 -0.9807 0.716 Uiso 1 1 calc R . .
H7QC H 0.7204 0.9260 -1.0062 0.716 Uiso 1 1 calc R . .
C1R C 0.7615(3) 1.0617(3) -0.8303(3) 0.154(4) Uiso 1 1 d U . .
C2R C 0.7636(3) 1.0871(3) -0.8052(3) 0.167(5) Uiso 1 1 d U . .
H2RA H 0.7854 1.1006 -0.8070 0.201 Uiso 1 1 calc R . .
H2RB H 0.7441 1.1037 -0.8068 0.201 Uiso 1 1 calc R . .
C3R C 0.7627(5) 1.0723(5) -0.7782(4) 0.235(7) Uiso 1 1 d U . .
H3RA H 0.7865 1.0665 -0.7718 0.281 Uiso 1 1 calc R . .
H3RB H 0.7486 1.0509 -0.7781 0.281 Uiso 1 1 calc R . .
C4R C 0.7438(6) 1.1045(6) -0.7559(5) 0.303(10) Uiso 1 1 d U . .
H4RA H 0.7569 1.1266 -0.7568 0.364 Uiso 1 1 calc R . .
H4RB H 0.7193 1.1089 -0.7610 0.364 Uiso 1 1 calc R . .
C5R C 0.7465(6) 1.0866(7) -0.7234(5) 0.287(9) Uiso 1 1 d U . .
H5RA H 0.7314 1.0659 -0.7215 0.345 Uiso 1 1 calc R . .
H5RB H 0.7707 1.0801 -0.7187 0.345 Uiso 1 1 calc R . .
C6R C 0.7333(9) 1.1173(10) -0.7049(8) 0.406(16) Uiso 1 1 d U . .
H6RA H 0.7478 1.1380 -0.7089 0.487 Uiso 1 1 calc R . .
H6RB H 0.7092 1.1229 -0.7105 0.487 Uiso 1 1 calc R . .
C7R C 0.7339(9) 1.1107(9) -0.6741(8) 0.417(17) Uiso 1 1 d U . .
H7RA H 0.7243 1.1309 -0.6643 0.625 Uiso 1 1 calc R . .
H7RB H 0.7578 1.1068 -0.6680 0.625 Uiso 1 1 calc R . .
H7RC H 0.7198 1.0902 -0.6699 0.625 Uiso 1 1 calc R . .
C1S C 0.7625(2) 1.0554(2) -0.8825(3) 0.157(4) Uiso 1 1 d G . .
C2S C 0.7661(2) 1.0680(3) -0.9101(2) 0.196(6) Uiso 1 1 d G . .
H2S H 0.7661 1.0523 -0.9253 0.235 Uiso 1 1 calc R . .
C3S C 0.7698(3) 1.1041(3) -0.91497(19) 0.221(7) Uiso 1 1 d G . .
H3S H 0.7723 1.1126 -0.9334 0.265 Uiso 1 1 calc R . .
C4S C 0.7699(3) 1.1277(2) -0.8923(3) 0.251(8) Uiso 1 1 d G . .
H4S H 0.7724 1.1519 -0.8955 0.301 Uiso 1 1 calc R . .
C5S C 0.7663(3) 1.1151(3) -0.8646(2) 0.222(7) Uiso 1 1 d G . .
H5S H 0.7663 1.1309 -0.8494 0.266 Uiso 1 1 calc R . .
C6S C 0.7625(2) 1.0790(3) -0.85975(17) 0.166(5) Uiso 1 1 d G . .
C1T C 0.4411(4) 0.7361(4) -0.4304(3) 0.183(5) Uiso 1 1 d DU . .
C2T C 0.4131(3) 0.7336(3) -0.4531(2) 0.169(5) Uiso 1 1 d DU . .
H2TA H 0.3977 0.7541 -0.4515 0.202 Uiso 1 1 calc R . .
H2TB H 0.3988 0.7127 -0.4495 0.202 Uiso 1 1 calc R . .
C3T C 0.4270(4) 0.7316(4) -0.4834(2) 0.210(6) Uiso 1 1 d DU . .
H3TA H 0.4508 0.7220 -0.4830 0.252 Uiso 1 1 calc R . .
H3TB H 0.4283 0.7554 -0.4911 0.252 Uiso 1 1 calc R . .
C4T C 0.4041(5) 0.7089(5) -0.5030(3) 0.284(9) Uiso 1 1 d DU . .
H4TA H 0.3793 0.7117 -0.4981 0.341 Uiso 1 1 calc R . .
H4TB H 0.4104 0.6841 -0.5008 0.341 Uiso 1 1 calc R . .
C5T C 0.4103(6) 0.7204(6) -0.5343(3) 0.325(11) Uiso 1 1 d DU . .
H5TA H 0.4052 0.7455 -0.5364 0.390 Uiso 1 1 calc R . .
H5TB H 0.4348 0.7164 -0.5396 0.390 Uiso 1 1 calc R . .
C6T C 0.3857(11) 0.6986(10) -0.5535(5) 0.52(2) Uiso 1 1 d DU . .
H6TA H 0.3935 0.6741 -0.5537 0.628 Uiso 1 1 calc R . .
H6TB H 0.3618 0.6993 -0.5460 0.628 Uiso 1 1 calc R . .
C7T C 0.3857(11) 0.7132(10) -0.5839(5) 0.50(2) Uiso 1 1 d DU . .
H7TA H 0.3690 0.7002 -0.5953 0.751 Uiso 1 1 calc R . .
H7TB H 0.4090 0.7108 -0.5919 0.751 Uiso 1 1 calc R . .
H7TC H 0.3792 0.7378 -0.5836 0.751 Uiso 1 1 calc R . .
C1U C 0.4926(3) 0.7381(3) -0.3882(3) 0.158(4) Uiso 1 1 d DU . .
C2U C 0.5262(4) 0.7404(4) -0.3697(3) 0.211(6) Uiso 1 1 d DU . .
H2UA H 0.5468 0.7345 -0.3811 0.253 Uiso 1 1 calc R . .
H2UB H 0.5291 0.7644 -0.3627 0.253 Uiso 1 1 calc R . .
C3U C 0.5236(7) 0.7146(7) -0.3445(5) 0.394(15) Uiso 1 1 d DU . .
H3UA H 0.5266 0.6906 -0.3513 0.473 Uiso 1 1 calc R . .
H3UB H 0.5002 0.7165 -0.3361 0.473 Uiso 1 1 calc R . .
C4U C 0.552(2) 0.7223(16) -0.3216(11) 0.89(3) Uiso 1 1 d DU . .
H4UA H 0.5444 0.7424 -0.3102 1.063 Uiso 1 1 calc R . .
H4UB H 0.5742 0.7280 -0.3306 1.063 Uiso 1 1 calc R . .
C5U C 0.556(2) 0.6893(12) -0.3025(10) 0.89(3) Uiso 1 1 d DU . .
H5UA H 0.5331 0.6790 -0.2986 1.063 Uiso 1 1 calc R . .
H5UB H 0.5703 0.6717 -0.3123 1.063 Uiso 1 1 calc R . .
C6U C 0.5742(15) 0.699(2) -0.2742(8) 0.89(3) Uiso 1 1 d DU . .
H6UA H 0.5894 0.7197 -0.2771 1.063 Uiso 1 1 calc R . .
H6UB H 0.5888 0.6797 -0.2678 1.063 Uiso 1 1 calc R . .
C7U C 0.546(2) 0.708(3) -0.2515(14) 0.89(3) Uiso 1 1 d DU . .
H7UA H 0.5576 0.7161 -0.2345 1.329 Uiso 1 1 calc R . .
H7UB H 0.5326 0.6869 -0.2473 1.329 Uiso 1 1 calc R . .
H7UC H 0.5305 0.7260 -0.2585 1.329 Uiso 1 1 calc R . .
C1V C 0.4304(4) 0.7347(2) -0.39863(18) 0.170(5) Uiso 1 1 d G . .
C2V C 0.3951(3) 0.7335(3) -0.3901(3) 0.234(7) Uiso 1 1 d G . .
H2V H 0.3772 0.7319 -0.4037 0.281 Uiso 1 1 calc R . .
C3V C 0.3866(3) 0.7345(3) -0.3614(3) 0.253(8) Uiso 1 1 d G . .
H3V H 0.3630 0.7336 -0.3557 0.304 Uiso 1 1 calc R . .
C4V C 0.4134(4) 0.7367(3) -0.34117(19) 0.236(7) Uiso 1 1 d G . .
H4V H 0.4077 0.7374 -0.3219 0.283 Uiso 1 1 calc R . .
C5V C 0.4486(3) 0.7380(3) -0.3497(3) 0.262(8) Uiso 1 1 d G . .
H5V H 0.4665 0.7395 -0.3361 0.314 Uiso 1 1 calc R . .
C6V C 0.4571(2) 0.7370(3) -0.3784(3) 0.186(5) Uiso 1 1 d G . .
C1W C 0.5494(3) 0.3627(2) -0.8109(2) 0.177(5) Uiso 1 1 d G . .
C2W C 0.5176(2) 0.3451(3) -0.8156(2) 0.224(7) Uiso 1 1 d G . .
H2W H 0.4963 0.3573 -0.8144 0.269 Uiso 1 1 calc R . .
C3W C 0.5177(3) 0.3091(3) -0.8221(2) 0.263(8) Uiso 1 1 d G . .
H3W H 0.4964 0.2973 -0.8253 0.315 Uiso 1 1 calc R . .
C4W C 0.5496(4) 0.2909(2) -0.8239(2) 0.247(7) Uiso 1 1 d G . .
H4W H 0.5497 0.2668 -0.8282 0.297 Uiso 1 1 calc R . .
C5W C 0.5814(3) 0.3085(3) -0.8192(2) 0.224(7) Uiso 1 1 d G . .
H5W H 0.6028 0.2963 -0.8204 0.269 Uiso 1 1 calc R . .
C6W C 0.5813(2) 0.3444(3) -0.8127(2) 0.177(5) Uiso 1 1 d G . .
C1X C 0.4461(3) 0.6472(3) -1.04765(18) 0.186(5) Uiso 1 1 d G . .
C2X C 0.4126(3) 0.6356(3) -1.0558(2) 0.210(6) Uiso 1 1 d G . .
H2X H 0.3958 0.6301 -1.0421 0.252 Uiso 1 1 calc R . .
C3X C 0.4044(2) 0.6323(3) -1.0845(3) 0.213(6) Uiso 1 1 d G . .
H3X H 0.3820 0.6246 -1.0900 0.256 Uiso 1 1 calc R . .
C4X C 0.4296(3) 0.6406(3) -1.10500(17) 0.202(6) Uiso 1 1 d G . .
H4X H 0.4241 0.6384 -1.1242 0.243 Uiso 1 1 calc R . .
C5X C 0.4631(3) 0.6522(3) -1.0968(2) 0.213(6) Uiso 1 1 d G . .
H5X H 0.4800 0.6577 -1.1105 0.256 Uiso 1 1 calc R . .
C6X C 0.4713(2) 0.6554(2) -1.0681(3) 0.185(5) Uiso 1 1 d G . .

_geom_special_details            
; 
 All esds (except the esd in the dihedral angle between two l.s. planes) 
 are estimated using the full covariance matrix.  The cell esds are taken 
 into account individually in the estimation of esds in distances, angles 
 and torsion angles; correlations between esds in cell parameters are only 
 used when they are defined by crystal symmetry.  An approximate (isotropic) 
 treatment of cell esds is used for estimating esds involving l.s. planes. 
;

loop_
_geom_bond_atom_site_label_1
_geom_bond_atom_site_label_2
_geom_bond_distance
_geom_bond_site_symmetry_2
_geom_bond_publ_flag
C1A C2A 1.3900 . ?
C1A C6A 1.3900 . ?
C1A B11A 1.553(10) . ?
C2A C3A 1.3900 . ?
C3A C4A 1.3900 . ?
C3A B31A 1.491(10) . ?
C4A C5A 1.3900 . ?
C5A C6A 1.3900 . ?
C5A B51A 1.554(10) . ?
B11A O19A 1.383(7) . ?
B11A O12A 1.386(7) . ?
O12A C13A 1.414(6) . ?
C13A C14A 1.3900 . ?
C13A C18A 1.3900 . ?
C14A C15A 1.3900 . ?
C15A C16A 1.3900 . ?
C15A C1G 1.505(9) . ?
C16A C17A 1.3900 . ?
C16A C1H 1.491(9) . ?
C17A C18A 1.3900 . ?
C18A O19A 1.379(6) . ?
B31A O32A 1.399(9) . ?
B31A O39A 1.461(10) . ?
O32A C33A 1.361(6) . ?
C33A C34A 1.3900 . ?
C33A C38A 1.3900 . ?
C34A C35A 1.3900 . ?
C35A C36A 1.3900 . ?
C35A C1E 1.50(3) . ?
C36A C37A 1.3900 . ?
C36A C1F 1.538(12) . ?
C37A C38A 1.3900 . ?
C38A O39A 1.373(7) . ?
B51A O59A 1.405(10) . ?
B51A O52A 1.416(10) . ?
O52A C53A 1.368(6) . ?
C53A C54A 1.3900 . ?
C53A C58A 1.3900 . ?
C54A C55A 1.3900 . ?
C55A C56A 1.3900 . ?
C55A C1G 1.540(10) 2_655 ?
C56A C57A 1.3900 . ?
C56A C1H 1.526(9) 2_655 ?
C57A C58A 1.3900 . ?
C58A O59A 1.356(6) . ?
C1B C2B 1.3900 . ?
C1B C6B 1.3900 . ?
C1B B11B 1.556(11) . ?
C2B C3B 1.3900 . ?
C3B C4B 1.3900 . ?
C3B B31B 1.491(12) . ?
C4B C5B 1.3900 . ?
C5B C6B 1.3900 . ?
C5B B51B 1.561(11) . ?
B11B O19B 1.366(8) . ?
B11B O12B 1.376(8) . ?
O12B C13B 1.399(8) . ?
C13B C14B 1.3900 . ?
C13B C18B 1.3900 . ?
C14B C15B 1.3900 . ?
C15B C16B 1.3900 . ?
C15B C1F 1.529(11) . ?
C16B C17B 1.3900 . ?
C16B C1E 1.55(2) . ?
C17B C18B 1.3900 . ?
C18B O19B 1.395(8) . ?
B31B O32B 1.393(12) . ?
B31B O39B 1.461(12) . ?
O32B C33B 1.349(9) . ?
C33B C34B 1.3900 . ?
C33B C38B 1.3900 . ?
C34B C35B 1.3900 . ?
C35B C36B 1.3900 . ?
C35B C1L 1.456(14) 2_655 ?
C36B C37B 1.3900 . ?
C36B C1K 1.549(14) 2_655 ?
C37B C38B 1.3900 . ?
C38B O39B 1.385(9) . ?
B51B O59B 1.386(12) . ?
B51B O52B 1.440(12) . ?
O52B C53B 1.335(8) . ?
C53B C54B 1.3900 . ?
C53B C58B 1.3900 . ?
C54B C55B 1.3900 . ?
C55B C56B 1.3900 . ?
C55B C1K 1.522(14) . ?
C56B C57B 1.3900 . ?
C56B C1L 1.455(15) . ?
C57B C58B 1.3900 . ?
C58B O59B 1.382(8) . ?
C1C C2C 1.3900 . ?
C1C C6C 1.3900 . ?
C1C B11C 1.563(10) . ?
C2C C3C 1.3900 . ?
C3C C4C 1.3900 . ?
C3C B31C 1.517(11) . ?
C4C C5C 1.3900 . ?
C5C C6C 1.3900 . ?
C5C B51C 1.550(11) . ?
B11C O12C 1.386(7) . ?
B11C O19C 1.387(7) . ?
O12C C13C 1.403(7) . ?
C13C C14C 1.3900 . ?
C13C C18C 1.3900 . ?
C14C C15C 1.3900 . ?
C15C C16C 1.3900 . ?
C15C C1N 1.482(9) . ?
C16C C17C 1.3900 . ?
C16C C1M 1.509(10) . ?
C17C C18C 1.3900 . ?
C18C O19C 1.385(7) . ?
B31C O32C 1.411(11) . ?
B31C O39C 1.426(11) . ?
O32C C33C 1.369(7) . ?
C33C C34C 1.3900 . ?
C33C C38C 1.3900 . ?
C34C C35C 1.3900 . ?
C35C C36C 1.3900 . ?
C35C C1Q 1.539(11) 2_655 ?
C36C C37C 1.3900 . ?
C36C C1R 1.506(13) 2_655 ?
C37C C38C 1.3900 . ?
C38C O39C 1.377(7) . ?
B51C O59C 1.388(11) . ?
B51C O52C 1.413(11) . ?
O52C C53C 1.364(8) . ?
C53C C54C 1.3900 . ?
C53C C58C 1.3900 . ?
C54C C55C 1.3900 . ?
C55C C56C 1.3900 . ?
C55C C1Q 1.571(12) . ?
C56C C57C 1.3900 . ?
C56C C1R 1.514(13) . ?
C57C C58C 1.3900 . ?
C58C O59C 1.370(8) . ?
C1D C2D 1.3900 . ?
C1D C6D 1.3900 . ?
C1D B11D 1.551(9) . ?
C2D C3D 1.3900 . ?
C3D C4D 1.3900 . ?
C3D B31D 1.492(10) . ?
C4D C5D 1.3900 . ?
C5D C6D 1.3900 . ?
C5D B51D 1.554(10) . ?
B11D O12D 1.384(7) . ?
B11D O19D 1.392(7) . ?
O12D C13D 1.410(7) . ?
C13D C14D 1.3900 . ?
C13D C18D 1.3900 . ?
C14D C15D 1.3900 . ?
C15D C16D 1.3900 . ?
C15D C1T 1.501(14) . ?
C16D C17D 1.3900 . ?
C16D C1U 1.584(12) . ?
C17D C18D 1.3900 . ?
C18D O19D 1.380(7) . ?
B31D O32D 1.412(10) . ?
B31D O39D 1.443(10) . ?
O32D C33D 1.384(7) . ?
C33D C34D 1.3900 . ?
C33D C38D 1.3900 . ?
C34D C35D 1.3900 . ?
C35D C36D 1.3900 . ?
C35D C1U 1.554(13) 4_565 ?
C36D C37D 1.3900 . ?
C36D C1T 1.581(14) 4_565 ?
C37D C38D 1.3900 . ?
C38D O39D 1.393(7) . ?
B51D O52D 1.385(9) . ?
B51D O59D 1.392(9) . ?
O52D C53D 1.364(6) . ?
C53D C54D 1.3900 . ?
C53D C58D 1.3900 . ?
C54D C55D 1.3900 . ?
C55D C56D 1.3900 . ?
C55D C1N 1.532(9) . ?
C56D C57D 1.3900 . ?
C56D C1M 1.537(9) . ?
C57D C58D 1.3900 . ?
C58D O59D 1.386(6) . ?
C1E C2E 1.519(9) . ?
C1E C6W 1.55(3) . ?
C2E C3E 1.530(9) . ?
C3E C4E 1.551(9) . ?
C4E C5E 1.542(9) . ?
C5E C6E 1.538(9) . ?
C6E C7E 1.552(9) . ?
C1F C1W 1.486(13) . ?
C1F C2F 1.527(8) . ?
C2F C3F 1.538(8) . ?
C3F C4F 1.543(9) . ?
C4F C5F 1.541(9) . ?
C5F C6F 1.533(9) . ?
C6F C7F 1.548(9) . ?
C1G C2G 1.529(7) . ?
C1G C1J 1.533(10) . ?
C1G C55A 1.54(4) 4_565 ?
C2G C3G 1.523(8) . ?
C3G C4G 1.548(9) . ?
C4G C5G 1.540(9) . ?
C5G C6G 1.535(9) . ?
C6G C7G 1.537(10) . ?
C1H C56A 1.526(16) 4_565 ?
C1H C2H 1.528(7) . ?
C1H C6J 1.572(9) . ?
C2H C3H 1.526(7) . ?
C3H C4H 1.543(8) . ?
C4H C5H 1.521(8) . ?
C5H C6H 1.537(10) . ?
C6H C7H 1.534(10) . ?
C1J C2J 1.3900 . ?
C1J C6J 1.3900 . ?
C2J C3J 1.3900 . ?
C3J C4J 1.3900 . ?
C4J C5J 1.3900 . ?
C5J C6J 1.3900 . ?
C1K C6X 1.518(15) . ?
C1K C2K 1.528(9) . ?
C1K C36B 1.55(8) 4_565 ?
C2K C3K 1.552(9) . ?
C3K C4K 1.534(10) . ?
C4K C5K 1.555(10) . ?
C5K C6K 1.551(10) . ?
C6K C7K 1.541(10) . ?
C1L C35B 1.46(3) 4_565 ?
C1L C2L 1.542(9) . ?
C1L C1X 1.570(15) . ?
C2L C3L 1.551(9) . ?
C3L C4L 1.545(10) . ?
C4L C5L 1.550(10) . ?
C5L C6L 1.546(10) . ?
C6L C7L 1.538(10) . ?
C1M C6P 1.524(10) . ?
C1M C2M 1.525(8) . ?
C2M C3M 1.549(8) . ?
C3M C4M 1.541(9) . ?
C4M C5M 1.550(9) . ?
C5M C6M 1.547(9) . ?
C6M C7M 1.544(9) . ?
C1N C2N 1.518(7) . ?
C1N C1P 1.542(10) . ?
C2N C3N 1.532(8) . ?
C3N C4N 1.494(8) . ?
C4N C5N 1.507(9) . ?
C5N C6N 1.554(10) . ?
C6N C7N 1.541(10) . ?
C1P C2P 1.3900 . ?
C1P C6P 1.3900 . ?
C2P C3P 1.3900 . ?
C3P C4P 1.3900 . ?
C4P C5P 1.3900 . ?
C5P C6P 1.3900 . ?
C1Q C2Q 1.511(8) . ?
C1Q C35C 1.54(5) 4_565 ?
C1Q C1S 1.546(12) . ?
C2Q C3Q 1.545(9) . ?
C3Q C4Q 1.550(9) . ?
C4Q C5Q 1.537(9) . ?
C5Q C6Q 1.531(9) . ?
C6Q C7Q 1.528(10) . ?
C1R C36C 1.506(19) 4_565 ?
C1R C2R 1.521(15) . ?
C1R C6S 1.530(14) . ?
C2R C3R 1.391(17) . ?
C3R C4R 1.76(2) . ?
C4R C5R 1.68(3) . ?
C5R C6R 1.53(3) . ?
C6R C7R 1.47(4) . ?
C1S C2S 1.3900 . ?
C1S C6S 1.3900 . ?
C2S C3S 1.3900 . ?
C3S C4S 1.3900 . ?
C4S C5S 1.3900 . ?
C5S C6S 1.3900 . ?
C1T C2T 1.505(8) . ?
C1T C1V 1.551(14) . ?
C1T C36D 1.58(2) 2_655 ?
C2T C3T 1.521(8) . ?
C3T C4T 1.529(9) . ?
C4T C5T 1.551(9) . ?
C5T C6T 1.536(10) . ?
C6T C7T 1.532(10) . ?
C1U C6V 1.415(13) . ?
C1U C2U 1.542(9) . ?
C1U C35D 1.55(6) 2_655 ?
C2U C3U 1.536(9) . ?
C3U C4U 1.539(10) . ?
C4U C5U 1.545(10) . ?
C5U C6U 1.540(10) . ?
C6U C7U 1.541(10) . ?
C1V C2V 1.3900 . ?
C1V C6V 1.3900 . ?
C2V C3V 1.3900 . ?
C3V C4V 1.3900 . ?
C4V C5V 1.3900 . ?
C5V C6V 1.3900 . ?
C1W C2W 1.3900 . ?
C1W C6W 1.3900 . ?
C2W C3W 1.3900 . ?
C3W C4W 1.3900 . ?
C4W C5W 1.3900 . ?
C5W C6W 1.3900 . ?
C1X C2X 1.3900 . ?
C1X C6X 1.3900 . ?
C2X C3X 1.3900 . ?
C3X C4X 1.3900 . ?
C4X C5X 1.3900 . ?
C5X C6X 1.3900 . ?

loop_
_geom_angle_atom_site_label_1
_geom_angle_atom_site_label_2
_geom_angle_atom_site_label_3
_geom_angle
_geom_angle_site_symmetry_1
_geom_angle_site_symmetry_3
_geom_angle_publ_flag
C2A C1A C6A 120.0 . . ?
C2A C1A B11A 117.6(5) . . ?
C6A C1A B11A 122.2(5) . . ?
C3A C2A C1A 120.0 . . ?
C2A C3A C4A 120.0 . . ?
C2A C3A B31A 118.5(6) . . ?
C4A C3A B31A 121.4(6) . . ?
C5A C4A C3A 120.0 . . ?
C4A C5A C6A 120.0 . . ?
C4A C5A B51A 119.7(6) . . ?
C6A C5A B51A 120.1(6) . . ?
C5A C6A C1A 120.0 . . ?
O19A B11A O12A 112.7(7) . . ?
O19A B11A C1A 121.3(6) . . ?
O12A B11A C1A 125.3(6) . . ?
B11A O12A C13A 104.0(6) . . ?
C14A C13A C18A 120.0 . . ?
C14A C13A O12A 131.4(5) . . ?
C18A C13A O12A 108.5(5) . . ?
C15A C14A C13A 120.0 . . ?
C14A C15A C16A 120.0 . . ?
C14A C15A C1G 124.7(5) . . ?
C16A C15A C1G 115.2(5) . . ?
C17A C16A C15A 120.0 . . ?
C17A C16A C1H 124.6(5) . . ?
C15A C16A C1H 115.4(5) . . ?
C16A C17A C18A 120.0 . . ?
O19A C18A C17A 130.2(5) . . ?
O19A C18A C13A 109.8(5) . . ?
C17A C18A C13A 120.0 . . ?
C18A O19A B11A 105.0(6) . . ?
O32A B31A O39A 108.4(7) . . ?
O32A B31A C3A 131.9(8) . . ?
O39A B31A C3A 119.5(7) . . ?
C33A O32A B31A 107.6(6) . . ?
O32A C33A C34A 131.0(6) . . ?
O32A C33A C38A 109.0(6) . . ?
C34A C33A C38A 120.0 . . ?
C33A C34A C35A 120.0 . . ?
C36A C35A C34A 120.0 . . ?
C36A C35A C1E 115.1(10) . . ?
C34A C35A C1E 124.8(10) . . ?
C35A C36A C37A 120.0 . . ?
C35A C36A C1F 116.5(6) . . ?
C37A C36A C1F 123.3(6) . . ?
C36A C37A C38A 120.0 . . ?
O39A C38A C37A 129.3(6) . . ?
O39A C38A C33A 110.7(6) . . ?
C37A C38A C33A 120.0 . . ?
C38A O39A B31A 104.2(6) . . ?
O59A B51A O52A 111.2(8) . . ?
O59A B51A C5A 124.0(8) . . ?
O52A B51A C5A 124.8(8) . . ?
C53A O52A B51A 104.3(6) . . ?
O52A C53A C54A 130.6(5) . . ?
O52A C53A C58A 109.4(5) . . ?
C54A C53A C58A 120.0 . . ?
C53A C54A C55A 120.0 . . ?
C56A C55A C54A 120.0 . . ?
C56A C55A C1G 114.2(5) . 2_655 ?
C54A C55A C1G 125.4(5) . 2_655 ?
C55A C56A C57A 120.0 . . ?
C55A C56A C1H 115.1(5) . 2_655 ?
C57A C56A C1H 124.8(5) . 2_655 ?
C58A C57A C56A 120.0 . . ?
O59A C58A C57A 129.1(5) . . ?
O59A C58A C53A 110.9(5) . . ?
C57A C58A C53A 120.0 . . ?
C58A O59A B51A 104.2(7) . . ?
C2B C1B C6B 120.0 . . ?
C2B C1B B11B 117.7(7) . . ?
C6B C1B B11B 122.2(7) . . ?
C1B C2B C3B 120.0 . . ?
C2B C3B C4B 120.0 . . ?
C2B C3B B31B 120.1(8) . . ?
C4B C3B B31B 119.8(8) . . ?
C5B C4B C3B 120.0 . . ?
C4B C5B C6B 120.0 . . ?
C4B C5B B51B 117.2(8) . . ?
C6B C5B B51B 122.1(8) . . ?
C5B C6B C1B 120.0 . . ?
O19B B11B O12B 115.8(9) . . ?
O19B B11B C1B 121.3(8) . . ?
O12B B11B C1B 122.7(8) . . ?
B11B O12B C13B 102.7(7) . . ?
C14B C13B C18B 120.0 . . ?
C14B C13B O12B 131.1(7) . . ?
C18B C13B O12B 108.9(7) . . ?
C13B C14B C15B 120.0 . . ?
C16B C15B C14B 120.0 . . ?
C16B C15B C1F 115.4(7) . . ?
C14B C15B C1F 124.6(7) . . ?
C17B C16B C15B 120.0 . . ?
C17B C16B C1E 124.4(11) . . ?
C15B C16B C1E 115.6(11) . . ?
C16B C17B C18B 120.0 . . ?
C17B C18B C13B 120.0 . . ?
C17B C18B O19B 129.9(7) . . ?
C13B C18B O19B 110.1(7) . . ?
B11B O19B C18B 102.5(7) . . ?
O32B B31B O39B 107.5(10) . . ?
O32B B31B C3B 126.2(11) . . ?
O39B B31B C3B 124.7(11) . . ?
C33B O32B B31B 109.5(9) . . ?
O32B C33B C34B 132.1(8) . . ?
O32B C33B C38B 107.8(8) . . ?
C34B C33B C38B 120.0 . . ?
C35B C34B C33B 120.0 . . ?
C36B C35B C34B 120.0 . . ?
C36B C35B C1L 113.8(9) . 2_655 ?
C34B C35B C1L 125.4(10) . 2_655 ?
C35B C36B C37B 120.0 . . ?
C35B C36B C1K 116.6(9) . 2_655 ?
C37B C36B C1K 123.2(9) . 2_655 ?
C38B C37B C36B 120.0 . . ?
O39B C38B C37B 128.8(8) . . ?
O39B C38B C33B 111.1(8) . . ?
C37B C38B C33B 120.0 . . ?
C38B O39B B31B 103.8(9) . . ?
O59B B51B O52B 110.2(9) . . ?
O59B B51B C5B 124.2(10) . . ?
O52B B51B C5B 124.5(10) . . ?
C53B O52B B51B 104.4(8) . . ?
O52B C53B C54B 128.9(8) . . ?
O52B C53B C58B 111.1(8) . . ?
C54B C53B C58B 120.0 . . ?
C55B C54B C53B 120.0 . . ?
C56B C55B C54B 120.0 . . ?
C56B C55B C1K 114.9(9) . . ?
C54B C55B C1K 125.0(9) . . ?
C55B C56B C57B 120.0 . . ?
C55B C56B C1L 116.2(9) . . ?
C57B C56B C1L 123.6(9) . . ?
C56B C57B C58B 120.0 . . ?
O59B C58B C57B 131.1(8) . . ?
O59B C58B C53B 108.8(8) . . ?
C57B C58B C53B 120.0 . . ?
C58B O59B B51B 105.0(8) . . ?
C2C C1C C6C 120.0 . . ?
C2C C1C B11C 118.0(6) . . ?
C6C C1C B11C 122.0(6) . . ?
C3C C2C C1C 120.0 . . ?
C2C C3C C4C 120.0 . . ?
C2C C3C B31C 119.6(7) . . ?
C4C C3C B31C 120.2(7) . . ?
C3C C4C C5C 120.0 . . ?
C6C C5C C4C 120.0 . . ?
C6C C5C B51C 118.1(7) . . ?
C4C C5C B51C 121.8(7) . . ?
C5C C6C C1C 120.0 . . ?
O12C B11C O19C 113.6(8) . . ?
O12C B11C C1C 126.1(7) . . ?
O19C B11C C1C 120.3(7) . . ?
B11C O12C C13C 103.7(6) . . ?
C14C C13C C18C 120.0 . . ?
C14C C13C O12C 131.2(5) . . ?
C18C C13C O12C 108.8(5) . . ?
C13C C14C C15C 120.0 . . ?
C16C C15C C14C 120.0 . . ?
C16C C15C C1N 116.8(5) . . ?
C14C C15C C1N 123.1(5) . . ?
C17C C16C C15C 120.0 . . ?
C17C C16C C1M 124.6(5) . . ?
C15C C16C C1M 115.3(5) . . ?
C16C C17C C18C 120.0 . . ?
O19C C18C C17C 129.8(5) . . ?
O19C C18C C13C 110.2(5) . . ?
C17C C18C C13C 120.0 . . ?
C18C O19C B11C 103.7(6) . . ?
O32C B31C O39C 108.5(8) . . ?
O32C B31C C3C 128.4(9) . . ?
O39C B31C C3C 123.1(9) . . ?
C33C O32C B31C 106.9(7) . . ?
O32C C33C C34C 130.8(6) . . ?
O32C C33C C38C 109.1(6) . . ?
C34C C33C C38C 120.0 . . ?
C33C C34C C35C 120.0 . . ?
C36C C35C C34C 120.0 . . ?
C36C C35C C1Q 117.3(7) . 2_655 ?
C34C C35C C1Q 122.5(7) . 2_655 ?
C37C C36C C35C 120.0 . . ?
C37C C36C C1R 124.4(7) . 2_655 ?
C35C C36C C1R 115.6(8) . 2_655 ?
C38C C37C C36C 120.0 . . ?
O39C C38C C37C 130.3(6) . . ?
O39C C38C C33C 109.6(6) . . ?
C37C C38C C33C 120.0 . . ?
C38C O39C B31C 105.8(7) . . ?
O59C B51C O52C 112.0(9) . . ?
O59C B51C C5C 124.2(10) . . ?
O52C B51C C5C 123.8(10) . . ?
C53C O52C B51C 103.5(8) . . ?
O52C C53C C54C 129.4(7) . . ?
O52C C53C C58C 110.6(7) . . ?
C54C C53C C58C 120.0 . . ?
C55C C54C C53C 120.0 . . ?
C54C C55C C56C 120.0 . . ?
C54C C55C C1Q 124.2(7) . . ?
C56C C55C C1Q 115.6(7) . . ?
C57C C56C C55C 120.0 . . ?
C57C C56C C1R 123.6(8) . . ?
C55C C56C C1R 116.3(8) . . ?
C58C C57C C56C 120.0 . . ?
O59C C58C C57C 130.7(7) . . ?
O59C C58C C53C 109.3(7) . . ?
C57C C58C C53C 120.0 . . ?
C58C O59C B51C 104.7(8) . . ?
C2D C1D C6D 120.0 . . ?
C2D C1D B11D 119.0(5) . . ?
C6D C1D B11D 121.0(5) . . ?
C3D C2D C1D 120.0 . . ?
C2D C3D C4D 120.0 . . ?
C2D C3D B31D 119.1(6) . . ?
C4D C3D B31D 120.8(6) . . ?
C3D C4D C5D 120.0 . . ?
C4D C5D C6D 120.0 . . ?
C4D C5D B51D 117.9(5) . . ?
C6D C5D B51D 122.1(5) . . ?
C5D C6D C1D 120.0 . . ?
O12D B11D O19D 112.2(7) . . ?
O12D B11D C1D 125.4(7) . . ?
O19D B11D C1D 121.9(6) . . ?
B11D O12D C13D 104.5(6) . . ?
C14D C13D C18D 120.0 . . ?
C14D C13D O12D 131.5(6) . . ?
C18D C13D O12D 108.4(6) . . ?
C15D C14D C13D 120.0 . . ?
C14D C15D C16D 120.0 . . ?
C14D C15D C1T 121.4(8) . . ?
C16D C15D C1T 118.5(8) . . ?
C17D C16D C15D 120.0 . . ?
C17D C16D C1U 125.1(7) . . ?
C15D C16D C1U 114.7(7) . . ?
C16D C17D C18D 120.0 . . ?
O19D C18D C17D 130.1(6) . . ?
O19D C18D C13D 109.8(6) . . ?
C17D C18D C13D 120.0 . . ?
C18D O19D B11D 104.8(6) . . ?
O32D B31D O39D 109.3(7) . . ?
O32D B31D C3D 126.9(8) . . ?
O39D B31D C3D 123.7(8) . . ?
C33D O32D B31D 106.9(7) . . ?
O32D C33D C34D 131.4(6) . . ?
O32D C33D C38D 108.5(6) . . ?
C34D C33D C38D 120.0 . . ?
C33D C34D C35D 120.0 . . ?
C36D C35D C34D 120.0 . . ?
C36D C35D C1U 113.7(7) . 4_565 ?
C34D C35D C1U 125.7(7) . 4_565 ?
C37D C36D C35D 120.0 . . ?
C37D C36D C1T 121.7(7) . 4_565 ?
C35D C36D C1T 117.9(7) . 4_565 ?
C36D C37D C38D 120.0 . . ?
C37D C38D C33D 120.0 . . ?
C37D C38D O39D 128.9(6) . . ?
C33D C38D O39D 110.9(6) . . ?
C38D O39D B31D 104.2(6) . . ?
O52D B51D O59D 111.1(7) . . ?
O52D B51D C5D 123.3(8) . . ?
O59D B51D C5D 125.5(8) . . ?
C53D O52D B51D 105.7(6) . . ?
O52D C53D C54D 130.5(5) . . ?
O52D C53D C58D 109.5(5) . . ?
C54D C53D C58D 120.0 . . ?
C55D C54D C53D 120.0 . . ?
C54D C55D C56D 120.0 . . ?
C54D C55D C1N 125.1(5) . . ?
C56D C55D C1N 114.8(5) . . ?
C57D C56D C55D 120.0 . . ?
C57D C56D C1M 124.0(5) . . ?
C55D C56D C1M 116.0(5) . . ?
C56D C57D C58D 120.0 . . ?
O59D C58D C57D 131.3(5) . . ?
O59D C58D C53D 108.7(5) . . ?
C57D C58D C53D 120.0 . . ?
C58D O59D B51D 104.9(6) . . ?
C35A C1E C2E 118(2) . . ?
C35A C1E C16B 100.5(14) . . ?
C2E C1E C16B 114.3(17) . . ?
C35A C1E C6W 106.9(16) . . ?
C2E C1E C6W 115(2) . . ?
C16B C1E C6W 100.0(14) . . ?
C1E C2E C3E 116.1(13) . . ?
C2E C3E C4E 109.4(12) . . ?
C5E C4E C3E 109.9(11) . . ?
C6E C5E C4E 112.8(12) . . ?
C5E C6E C7E 108.3(12) . . ?
C1W C1F C2F 118.9(10) . . ?
C1W C1F C15B 100.5(8) . . ?
C2F C1F C15B 114.3(9) . . ?
C1W C1F C36A 107.0(8) . . ?
C2F C1F C36A 113.9(9) . . ?
C15B C1F C36A 99.8(7) . . ?
C1F C2F C3F 113.1(9) . . ?
C2F C3F C4F 110.7(10) . . ?
C5F C4F C3F 110.3(10) . . ?
C6F C5F C4F 111.8(12) . . ?
C5F C6F C7F 106.9(12) . . ?
C15A C1G C2G 114.1(7) . . ?
C15A C1G C1J 102.1(6) . . ?
C2G C1G C1J 115.7(7) . . ?
C15A C1G C55A 103.7(18) . 4_565 ?
C2G C1G C55A 113.9(12) . 4_565 ?
C1J C1G C55A 105.9(15) . 4_565 ?
C3G C2G C1G 118.1(8) . . ?
C2G C3G C4G 112.7(10) . . ?
C5G C4G C3G 109.1(12) . . ?
C6G C5G C4G 111.4(12) . . ?
C5G C6G C7G 109.1(13) . . ?
C16A C1H C56A 107.3(19) . 4_565 ?
C16A C1H C2H 117.6(7) . . ?
C56A C1H C2H 114.0(19) 4_565 . ?
C16A C1H C6J 100.7(6) . . ?
C56A C1H C6J 102(2) 4_565 . ?
C2H C1H C6J 113.4(6) . . ?
C3H C2H C1H 114.9(7) . . ?
C2H C3H C4H 111.2(7) . . ?
C5H C4H C3H 108.7(8) . . ?
C4H C5H C6H 111.9(14) . . ?
C7H C6H C5H 107.4(14) . . ?
C2J C1J C6J 120.0 . . ?
C2J C1J C1G 126.0(6) . . ?
C6J C1J C1G 114.0(6) . . ?
C3J C2J C1J 120.0 . . ?
C2J C3J C4J 120.0 . . ?
C3J C4J C5J 120.0 . . ?
C6J C5J C4J 120.0 . . ?
C5J C6J C1J 120.0 . . ?
C5J C6J C1H 125.1(5) . . ?
C1J C6J C1H 114.7(5) . . ?
C6X C1K C55B 103.6(10) . . ?
C6X C1K C2K 119.7(12) . . ?
C55B C1K C2K 112.8(11) . . ?
C6X C1K C36B 103(2) . 4_565 ?
C55B C1K C36B 99(3) . 4_565 ?
C2K C1K C36B 116.2(15) . 4_565 ?
C1K C2K C3K 112.0(11) . . ?
C4K C3K C2K 109.5(13) . . ?
C3K C4K C5K 112.0(13) . . ?
C6K C5K C4K 105.9(13) . . ?
C7K C6K C5K 110.1(14) . . ?
C56B C1L C35B 106(3) . 4_565 ?
C56B C1L C2L 115.5(11) . . ?
C35B C1L C2L 118(3) 4_565 . ?
C56B C1L C1X 103.6(10) . . ?
C35B C1L C1X 104(3) 4_565 . ?
C2L C1L C1X 108.1(11) . . ?
C1L C2L C3L 111.9(11) . . ?
C4L C3L C2L 110.2(13) . . ?
C3L C4L C5L 113.0(14) . . ?
C6L C5L C4L 108.5(13) . . ?
C7L C6L C5L 111.6(14) . . ?
C16C C1M C6P 104.6(6) . . ?
C16C C1M C2M 113.2(8) . . ?
C6P C1M C2M 118.2(8) . . ?
C16C C1M C56D 98.8(6) . . ?
C6P C1M C56D 104.4(6) . . ?
C2M C1M C56D 115.3(7) . . ?
C1M C2M C3M 111.7(8) . . ?
C4M C3M C2M 109.5(9) . . ?
C3M C4M C5M 110.4(10) . . ?
C6M C5M C4M 109.6(10) . . ?
C7M C6M C5M 109.6(11) . . ?
C15C C1N C2N 119.3(7) . . ?
C15C C1N C55D 100.2(6) . . ?
C2N C1N C55D 113.4(7) . . ?
C15C C1N C1P 106.4(6) . . ?
C2N C1N C1P 113.9(7) . . ?
C55D C1N C1P 101.5(6) . . ?
C1N C2N C3N 113.6(7) . . ?
C4N C3N C2N 115.9(9) . . ?
C3N C4N C5N 119.5(11) . . ?
C4N C5N C6N 107.4(11) . . ?
C7N C6N C5N 109.4(13) . . ?
C2P C1P C6P 120.0 . . ?
C2P C1P C1N 124.5(6) . . ?
C6P C1P C1N 115.5(6) . . ?
C3P C2P C1P 120.0 . . ?
C2P C3P C4P 120.0 . . ?
C3P C4P C5P 120.0 . . ?
C6P C5P C4P 120.0 . . ?
C5P C6P C1P 120.0 . . ?
C5P C6P C1M 124.6(6) . . ?
C1P C6P C1M 115.1(6) . . ?
C2Q C1Q C35C 114.2(13) . 4_565 ?
C2Q C1Q C1S 120.1(9) . . ?
C35C C1Q C1S 100.5(17) 4_565 . ?
C2Q C1Q C55C 116.8(9) . . ?
C35C C1Q C55C 97(2) 4_565 . ?
C1S C1Q C55C 104.4(8) . . ?
C1Q C2Q C3Q 113.8(9) . . ?
C2Q C3Q C4Q 108.5(10) . . ?
C5Q C4Q C3Q 112.7(12) . . ?
C6Q C5Q C4Q 112.8(13) . . ?
C7Q C6Q C5Q 111.8(14) . . ?
C36C C1R C56C 103(2) 4_565 . ?
C36C C1R C2R 114(2) 4_565 . ?
C56C C1R C2R 116.6(10) . . ?
C36C C1R C6S 103(2) 4_565 . ?
C56C C1R C6S 103.3(9) . . ?
C2R C1R C6S 115.7(11) . . ?
C3R C2R C1R 117.3(13) . . ?
C2R C3R C4R 106.3(15) . . ?
C5R C4R C3R 104.0(17) . . ?
C6R C5R C4R 101(2) . . ?
C7R C6R C5R 115(3) . . ?
C2S C1S C6S 120.0 . . ?
C2S C1S C1Q 122.7(9) . . ?
C6S C1S C1Q 117.2(9) . . ?
C1S C2S C3S 120.0 . . ?
C2S C3S C4S 120.0 . . ?
C5S C4S C3S 120.0 . . ?
C4S C5S C6S 120.0 . . ?
C5S C6S C1S 120.0 . . ?
C5S C6S C1R 124.7(10) . . ?
C1S C6S C1R 115.1(10) . . ?
C15D C1T C2T 118.3(11) . . ?
C15D C1T C1V 99.4(9) . . ?
C2T C1T C1V 119.9(11) . . ?
C15D C1T C36D 104(2) . 2_655 ?
C2T C1T C36D 117(2) . 2_655 ?
C1V C1T C36D 95(2) . 2_655 ?
C1T C2T C3T 115.1(10) . . ?
C2T C3T C4T 113.6(10) . . ?
C3T C4T C5T 109.4(11) . . ?
C6T C5T C4T 108.6(12) . . ?
C7T C6T C5T 110.9(14) . . ?
C6V C1U C2U 126.6(12) . . ?
C6V C1U C35D 106.7(19) . 2_655 ?
C2U C1U C35D 109.3(14) . 2_655 ?
C6V C1U C16D 103.4(9) . . ?
C2U C1U C16D 109.9(10) . . ?
C35D C1U C16D 97(2) 2_655 . ?
C3U C2U C1U 110.4(11) . . ?
C2U C3U C4U 112.2(13) . . ?
C3U C4U C5U 109.4(14) . . ?
C6U C5U C4U 110.8(15) . . ?
C5U C6U C7U 110.3(15) . . ?
C2V C1V C6V 120.0 . . ?
C2V C1V C1T 121.9(11) . . ?
C6V C1V C1T 118.0(11) . . ?
C1V C2V C3V 120.0 . . ?
C4V C3V C2V 120.0 . . ?
C3V C4V C5V 120.0 . . ?
C4V C5V C6V 120.0 . . ?
C5V C6V C1V 120.0 . . ?
C5V C6V C1U 122.3(12) . . ?
C1V C6V C1U 117.7(12) . . ?
C2W C1W C6W 120.0 . . ?
C2W C1W C1F 123.1(10) . . ?
C6W C1W C1F 116.9(10) . . ?
C1W C2W C3W 120.0 . . ?
C4W C3W C2W 120.0 . . ?
C3W C4W C5W 120.0 . . ?
C6W C5W C4W 120.0 . . ?
C5W C6W C1W 120.0 . . ?
C5W C6W C1E 125.1(12) . . ?
C1W C6W C1E 114.8(12) . . ?
C2X C1X C6X 120.0 . . ?
C2X C1X C1L 127.3(10) . . ?
C6X C1X C1L 112.7(10) . . ?
C3X C2X C1X 120.0 . . ?
C4X C3X C2X 120.0 . . ?
C5X C4X C3X 120.0 . . ?
C4X C5X C6X 120.0 . . ?
C5X C6X C1X 120.0 . . ?
C5X C6X C1K 123.4(11) . . ?
C1X C6X C1K 116.6(11) . . ?

loop_
_geom_torsion_atom_site_label_1
_geom_torsion_atom_site_label_2
_geom_torsion_atom_site_label_3
_geom_torsion_atom_site_label_4
_geom_torsion
_geom_torsion_site_symmetry_1
_geom_torsion_site_symmetry_2
_geom_torsion_site_symmetry_3
_geom_torsion_site_symmetry_4
_geom_torsion_publ_flag
C6A C1A C2A C3A 0.0 . . . . ?
B11A C1A C2A C3A 175.0(7) . . . . ?
C1A C2A C3A C4A 0.0 . . . . ?
C1A C2A C3A B31A -176.1(7) . . . . ?
C2A C3A C4A C5A 0.0 . . . . ?
B31A C3A C4A C5A 176.0(7) . . . . ?
C3A C4A C5A C6A 0.0 . . . . ?
C3A C4A C5A B51A -174.7(7) . . . . ?
C4A C5A C6A C1A 0.0 . . . . ?
B51A C5A C6A C1A 174.6(7) . . . . ?
C2A C1A C6A C5A 0.0 . . . . ?
B11A C1A C6A C5A -174.7(7) . . . . ?
C2A C1A B11A O19A -7.9(12) . . . . ?
C6A C1A B11A O19A 166.9(7) . . . . ?
C2A C1A B11A O12A -177.8(8) . . . . ?
C6A C1A B11A O12A -2.9(13) . . . . ?
O19A B11A O12A C13A -0.3(10) . . . . ?
C1A B11A O12A C13A 170.3(9) . . . . ?
B11A O12A C13A C14A -177.0(6) . . . . ?
B11A O12A C13A C18A -0.1(7) . . . . ?
C18A C13A C14A C15A 0.0 . . . . ?
O12A C13A C14A C15A 176.6(7) . . . . ?
C13A C14A C15A C16A 0.0 . . . . ?
C13A C14A C15A C1G 176.2(7) . . . . ?
C14A C15A C16A C17A 0.0 . . . . ?
C1G C15A C16A C17A -176.6(6) . . . . ?
C14A C15A C16A C1H -179.7(6) . . . . ?
C1G C15A C16A C1H 3.7(7) . . . . ?
C15A C16A C17A C18A 0.0 . . . . ?
C1H C16A C17A C18A 179.7(6) . . . . ?
C16A C17A C18A O19A -177.3(7) . . . . ?
C16A C17A C18A C13A 0.0 . . . . ?
C14A C13A C18A O19A 177.8(6) . . . . ?
O12A C13A C18A O19A 0.5(5) . . . . ?
C14A C13A C18A C17A 0.0 . . . . ?
O12A C13A C18A C17A -177.3(5) . . . . ?
C17A C18A O19A B11A 176.8(6) . . . . ?
C13A C18A O19A B11A -0.7(7) . . . . ?
O12A B11A O19A C18A 0.6(11) . . . . ?
C1A B11A O19A C18A -170.4(8) . . . . ?
C2A C3A B31A O32A 179.1(9) . . . . ?
C4A C3A B31A O32A 3.1(14) . . . . ?
C2A C3A B31A O39A 5.3(11) . . . . ?
C4A C3A B31A O39A -170.8(6) . . . . ?
O39A B31A O32A C33A -1.8(10) . . . . ?
C3A B31A O32A C33A -176.1(9) . . . . ?
B31A O32A C33A C34A -179.4(6) . . . . ?
B31A O32A C33A C38A 2.0(7) . . . . ?
O32A C33A C34A C35A -178.5(7) . . . . ?
C38A C33A C34A C35A 0.0 . . . . ?
C33A C34A C35A C36A 0.0 . . . . ?
C33A C34A C35A C1E 178.2(13) . . . . ?
C34A C35A C36A C37A 0.0 . . . . ?
C1E C35A C36A C37A -178.3(12) . . . . ?
C34A C35A C36A C1F 175.2(7) . . . . ?
C1E C35A C36A C1F -3.2(12) . . . . ?
C35A C36A C37A C38A 0.0 . . . . ?
C1F C36A C37A C38A -174.8(8) . . . . ?
C36A C37A C38A O39A -179.7(7) . . . . ?
C36A C37A C38A C33A 0.0 . . . . ?
O32A C33A C38A O39A -1.5(5) . . . . ?
C34A C33A C38A O39A 179.7(6) . . . . ?
O32A C33A C38A C37A 178.8(6) . . . . ?
C34A C33A C38A C37A 0.0 . . . . ?
C37A C38A O39A B31A -180.0(6) . . . . ?
C33A C38A O39A B31A 0.4(7) . . . . ?
O32A B31A O39A C38A 0.9(9) . . . . ?
C3A B31A O39A C38A 176.1(8) . . . . ?
C4A C5A B51A O59A -2.6(13) . . . . ?
C6A C5A B51A O59A -177.2(8) . . . . ?
C4A C5A B51A O52A 179.6(8) . . . . ?
C6A C5A B51A O52A 5.0(13) . . . . ?
O59A B51A O52A C53A 1.8(11) . . . . ?
C5A B51A O52A C53A 179.8(9) . . . . ?
B51A O52A C53A C54A 179.3(7) . . . . ?
B51A O52A C53A C58A -0.5(8) . . . . ?
O52A C53A C54A C55A -179.8(7) . . . . ?
C58A C53A C54A C55A 0.0 . . . . ?
C53A C54A C55A C56A 0.0 . . . . ?
C53A C54A C55A C1G -172.3(6) . . . 2_655 ?
C54A C55A C56A C57A 0.0 . . . . ?
C1G C55A C56A C57A 173.1(6) 2_655 . . . ?
C54A C55A C56A C1H -178.2(6) . . . 2_655 ?
C1G C55A C56A C1H -5.1(6) 2_655 . . 2_655 ?
C55A C56A C57A C58A 0.0 . . . . ?
C1H C56A C57A C58A 178.0(6) 2_655 . . . ?
C56A C57A C58A O59A -179.1(7) . . . . ?
C56A C57A C58A C53A 0.0 . . . . ?
O52A C53A C58A O59A -0.9(5) . . . . ?
C54A C53A C58A O59A 179.2(6) . . . . ?
O52A C53A C58A C57A 179.9(6) . . . . ?
C54A C53A C58A C57A 0.0 . . . . ?
C57A C58A O59A B51A -178.9(7) . . . . ?
C53A C58A O59A B51A 1.9(8) . . . . ?
O52A B51A O59A C58A -2.3(11) . . . . ?
C5A B51A O59A C58A 179.6(9) . . . . ?
C6B C1B C2B C3B 0.0 . . . . ?
B11B C1B C2B C3B -176.6(9) . . . . ?
C1B C2B C3B C4B 0.0 . . . . ?
C1B C2B C3B B31B -176.5(11) . . . . ?
C2B C3B C4B C5B 0.0 . . . . ?
B31B C3B C4B C5B 176.5(11) . . . . ?
C3B C4B C5B C6B 0.0 . . . . ?
C3B C4B C5B B51B -170.4(10) . . . . ?
C4B C5B C6B C1B 0.0 . . . . ?
B51B C5B C6B C1B 169.9(10) . . . . ?
C2B C1B C6B C5B 0.0 . . . . ?
B11B C1B C6B C5B 176.4(9) . . . . ?
C2B C1B B11B O19B -5.9(15) . . . . ?
C6B C1B B11B O19B 177.6(9) . . . . ?
C2B C1B B11B O12B 179.8(10) . . . . ?
C6B C1B B11B O12B 3.3(16) . . . . ?
O19B B11B O12B C13B -1.4(15) . . . . ?
C1B B11B O12B C13B 173.2(10) . . . . ?
B11B O12B C13B C14B -177.0(8) . . . . ?
B11B O12B C13B C18B 1.5(10) . . . . ?
C18B C13B C14B C15B 0.0 . . . . ?
O12B C13B C14B C15B 178.4(9) . . . . ?
C13B C14B C15B C16B 0.0 . . . . ?
C13B C14B C15B C1F -178.7(8) . . . . ?
C14B C15B C16B C17B 0.0 . . . . ?
C1F C15B C16B C17B 178.8(8) . . . . ?
C14B C15B C16B C1E 178.1(13) . . . . ?
C1F C15B C16B C1E -3.1(13) . . . . ?
C15B C16B C17B C18B 0.0 . . . . ?
C1E C16B C17B C18B -177.9(15) . . . . ?
C16B C17B C18B C13B 0.0 . . . . ?
C16B C17B C18B O19B -176.9(8) . . . . ?
C14B C13B C18B C17B 0.0 . . . . ?
O12B C13B C18B C17B -178.7(7) . . . . ?
C14B C13B C18B O19B 177.4(7) . . . . ?
O12B C13B C18B O19B -1.3(7) . . . . ?
O12B B11B O19B C18B 0.6(14) . . . . ?
C1B B11B O19B C18B -174.1(10) . . . . ?
C17B C18B O19B B11B 177.6(8) . . . . ?
C13B C18B O19B B11B 0.5(10) . . . . ?
C2B C3B B31B O32B -9(2) . . . . ?
C4B C3B B31B O32B 174.6(13) . . . . ?
C2B C3B B31B O39B -172.3(11) . . . . ?
C4B C3B B31B O39B 11(2) . . . . ?
O39B B31B O32B C33B -4.3(17) . . . . ?
C3B B31B O32B C33B -170.0(14) . . . . ?
B31B O32B C33B C34B -179.7(11) . . . . ?
B31B O32B C33B C38B 2.1(13) . . . . ?
O32B C33B C34B C35B -178.0(11) . . . . ?
C38B C33B C34B C35B 0.0 . . . . ?
C33B C34B C35B C36B 0.0 . . . . ?
C33B C34B C35B C1L 169.5(11) . . . 2_655 ?
C34B C35B C36B C37B 0.0 . . . . ?
C1L C35B C36B C37B -170.7(10) 2_655 . . . ?
C34B C35B C36B C1K 175.5(9) . . . 2_655 ?
C1L C35B C36B C1K 4.8(10) 2_655 . . 2_655 ?
C35B C36B C37B C38B 0.0 . . . . ?
C1K C36B C37B C38B -175.2(10) 2_655 . . . ?
C36B C37B C38B O39B 177.0(10) . . . . ?
C36B C37B C38B C33B 0.0 . . . . ?
O32B C33B C38B O39B 0.9(8) . . . . ?
C34B C33B C38B O39B -177.5(9) . . . . ?
O32B C33B C38B C37B 178.4(9) . . . . ?
C34B C33B C38B C37B 0.0 . . . . ?
C37B C38B O39B B31B 179.4(10) . . . . ?
C33B C38B O39B B31B -3.4(12) . . . . ?
O32B B31B O39B C38B 4.6(16) . . . . ?
C3B B31B O39B C38B 170.6(14) . . . . ?
C4B C5B B51B O59B 179.1(11) . . . . ?
C6B C5B B51B O59B 8.9(19) . . . . ?
C4B C5B B51B O52B -13.4(17) . . . . ?
C6B C5B B51B O52B 176.4(10) . . . . ?
O59B B51B O52B C53B -5.4(15) . . . . ?
C5B B51B O52B C53B -174.4(12) . . . . ?
B51B O52B C53B C54B -178.5(9) . . . . ?
B51B O52B C53B C58B 1.5(11) . . . . ?
O52B C53B C54B C55B 179.9(11) . . . . ?
C58B C53B C54B C55B 0.0 . . . . ?
C53B C54B C55B C56B 0.0 . . . . ?
C53B C54B C55B C1K 177.6(10) . . . . ?
C54B C55B C56B C57B 0.0 . . . . ?
C1K C55B C56B C57B -177.8(9) . . . . ?
C54B C55B C56B C1L 175.0(10) . . . . ?
C1K C55B C56B C1L -2.8(10) . . . . ?
C55B C56B C57B C58B 0.0 . . . . ?
C1L C56B C57B C58B -174.6(11) . . . . ?
C56B C57B C58B O59B 176.4(10) . . . . ?
C56B C57B C58B C53B 0.0 . . . . ?
O52B C53B C58B O59B 2.9(8) . . . . ?
C54B C53B C58B O59B -177.2(8) . . . . ?
O52B C53B C58B C57B -180.0(9) . . . . ?
C54B C53B C58B C57B 0.0 . . . . ?
C57B C58B O59B B51B 177.2(9) . . . . ?
C53B C58B O59B B51B -6.0(11) . . . . ?
O52B B51B O59B C58B 7.0(15) . . . . ?
C5B B51B O59B C58B 176.1(12) . . . . ?
C6C C1C C2C C3C 0.0 . . . . ?
B11C C1C C2C C3C -177.7(7) . . . . ?
C1C C2C C3C C4C 0.0 . . . . ?
C1C C2C C3C B31C 174.9(9) . . . . ?
C2C C3C C4C C5C 0.0 . . . . ?
B31C C3C C4C C5C -174.8(9) . . . . ?
C3C C4C C5C C6C 0.0 . . . . ?
C3C C4C C5C B51C 176.4(10) . . . . ?
C4C C5C C6C C1C 0.0 . . . . ?
B51C C5C C6C C1C -176.5(9) . . . . ?
C2C C1C C6C C5C 0.0 . . . . ?
B11C C1C C6C C5C 177.6(8) . . . . ?
C2C C1C B11C O12C 179.2(9) . . . . ?
C6C C1C B11C O12C 1.6(14) . . . . ?
C2C C1C B11C O19C 0.4(12) . . . . ?
C6C C1C B11C O19C -177.2(8) . . . . ?
O19C B11C O12C C13C -0.2(11) . . . . ?
C1C B11C O12C C13C -179.1(9) . . . . ?
B11C O12C C13C C14C -178.3(6) . . . . ?
B11C O12C C13C C18C 0.8(8) . . . . ?
C18C C13C C14C C15C 0.0 . . . . ?
O12C C13C C14C C15C 179.0(7) . . . . ?
C13C C14C C15C C16C 0.0 . . . . ?
C13C C14C C15C C1N 177.6(6) . . . . ?
C14C C15C C16C C17C 0.0 . . . . ?
C1N C15C C16C C17C -177.7(6) . . . . ?
C14C C15C C16C C1M 177.9(6) . . . . ?
C1N C15C C16C C1M 0.2(7) . . . . ?
C15C C16C C17C C18C 0.0 . . . . ?
C1M C16C C17C C18C -177.7(7) . . . . ?
C16C C17C C18C O19C -177.7(7) . . . . ?
C16C C17C C18C C13C 0.0 . . . . ?
C14C C13C C18C O19C 178.1(6) . . . . ?
O12C C13C C18C O19C -1.1(6) . . . . ?
C14C C13C C18C C17C 0.0 . . . . ?
O12C C13C C18C C17C -179.2(5) . . . . ?
C17C C18C O19C B11C 178.8(7) . . . . ?
C13C C18C O19C B11C 0.9(8) . . . . ?
O12C B11C O19C C18C -0.4(12) . . . . ?
C1C B11C O19C C18C 178.5(8) . . . . ?
C2C C3C B31C O32C 177.4(10) . . . . ?
C4C C3C B31C O32C -7.8(18) . . . . ?
C2C C3C B31C O39C -3.8(16) . . . . ?
C4C C3C B31C O39C 171.1(9) . . . . ?
O39C B31C O32C C33C -2.1(13) . . . . ?
C3C B31C O32C C33C 176.9(12) . . . . ?
B31C O32C C33C C34C -176.0(8) . . . . ?
B31C O32C C33C C38C 1.6(9) . . . . ?
O32C C33C C34C C35C 177.3(8) . . . . ?
C38C C33C C34C C35C 0.0 . . . . ?
C33C C34C C35C C36C 0.0 . . . . ?
C33C C34C C35C C1Q 175.0(7) . . . 2_655 ?
C34C C35C C36C C37C 0.0 . . . . ?
C1Q C35C C36C C37C -175.2(7) 2_655 . . . ?
C34C C35C C36C C1R 177.7(8) . . . 2_655 ?
C1Q C35C C36C C1R 2.4(8) 2_655 . . 2_655 ?
C35C C36C C37C C38C 0.0 . . . . ?
C1R C36C C37C C38C -177.4(9) 2_655 . . . ?
C36C C37C C38C O39C -176.8(8) . . . . ?
C36C C37C C38C C33C 0.0 . . . . ?
O32C C33C C38C O39C -0.5(6) . . . . ?
C34C C33C C38C O39C 177.4(6) . . . . ?
O32C C33C C38C C37C -177.9(6) . . . . ?
C34C C33C C38C C37C 0.0 . . . . ?
C37C C38C O39C B31C 176.2(8) . . . . ?
C33C C38C O39C B31C -0.8(9) . . . . ?
O32C B31C O39C C38C 1.8(13) . . . . ?
C3C B31C O39C C38C -177.3(10) . . . . ?
C6C C5C B51C O59C -3.2(17) . . . . ?
C4C C5C B51C O59C -179.6(10) . . . . ?
C6C C5C B51C O52C 178.8(10) . . . . ?
C4C C5C B51C O52C 2.4(17) . . . . ?
O59C B51C O52C C53C -0.5(14) . . . . ?
C5C B51C O52C C53C 177.7(12) . . . . ?
B51C O52C C53C C54C 179.7(8) . . . . ?
B51C O52C C53C C58C 1.6(10) . . . . ?
O52C C53C C54C C55C -177.9(9) . . . . ?
C58C C53C C54C C55C 0.0 . . . . ?
C53C C54C C55C C56C 0.0 . . . . ?
C53C C54C C55C C1Q -175.2(8) . . . . ?
C54C C55C C56C C57C 0.0 . . . . ?
C1Q C55C C56C C57C 175.6(7) . . . . ?
C54C C55C C56C C1R 177.6(8) . . . . ?
C1Q C55C C56C C1R -6.8(8) . . . . ?
C55C C56C C57C C58C 0.0 . . . . ?
C1R C56C C57C C58C -177.4(9) . . . . ?
C56C C57C C58C O59C -179.3(9) . . . . ?
C56C C57C C58C C53C 0.0 . . . . ?
O52C C53C C58C O59C -2.3(7) . . . . ?
C54C C53C C58C O59C 179.4(7) . . . . ?
O52C C53C C58C C57C 178.3(7) . . . . ?
C54C C53C C58C C57C 0.0 . . . . ?
C57C C58C O59C B51C -178.8(9) . . . . ?
C53C C58C O59C B51C 1.8(10) . . . . ?
O52C B51C O59C C58C -0.8(14) . . . . ?
C5C B51C O59C C58C -179.1(11) . . . . ?
C6D C1D C2D C3D 0.0 . . . . ?
B11D C1D C2D C3D -179.8(7) . . . . ?
C1D C2D C3D C4D 0.0 . . . . ?
C1D C2D C3D B31D -177.2(8) . . . . ?
C2D C3D C4D C5D 0.0 . . . . ?
B31D C3D C4D C5D 177.1(8) . . . . ?
C3D C4D C5D C6D 0.0 . . . . ?
C3D C4D C5D B51D -179.3(6) . . . . ?
C4D C5D C6D C1D 0.0 . . . . ?
B51D C5D C6D C1D 179.3(7) . . . . ?
C2D C1D C6D C5D 0.0 . . . . ?
B11D C1D C6D C5D 179.7(7) . . . . ?
C2D C1D B11D O12D -179.1(8) . . . . ?
C6D C1D B11D O12D 1.1(13) . . . . ?
C2D C1D B11D O19D -7.8(12) . . . . ?
C6D C1D B11D O19D 172.5(7) . . . . ?
O19D B11D O12D C13D 5.0(11) . . . . ?
C1D B11D O12D C13D 177.1(9) . . . . ?
B11D O12D C13D C14D -179.4(7) . . . . ?
B11D O12D C13D C18D -3.0(8) . . . . ?
C18D C13D C14D C15D 0.0 . . . . ?
O12D C13D C14D C15D 176.0(8) . . . . ?
C13D C14D C15D C16D 0.0 . . . . ?
C13D C14D C15D C1T -176.8(9) . . . . ?
C14D C15D C16D C17D 0.0 . . . . ?
C1T C15D C16D C17D 176.9(9) . . . . ?
C14D C15D C16D C1U 174.9(8) . . . . ?
C1T C15D C16D C1U -8.2(9) . . . . ?
C15D C16D C17D C18D 0.0 . . . . ?
C1U C16D C17D C18D -174.3(8) . . . . ?
C16D C17D C18D O19D -176.3(8) . . . . ?
C16D C17D C18D C13D 0.0 . . . . ?
C14D C13D C18D O19D 177.0(7) . . . . ?
O12D C13D C18D O19D 0.1(6) . . . . ?
C14D C13D C18D C17D 0.0 . . . . ?
O12D C13D C18D C17D -176.9(6) . . . . ?
C17D C18D O19D B11D 179.4(7) . . . . ?
C13D C18D O19D B11D 2.8(8) . . . . ?
O12D B11D O19D C18D -4.9(11) . . . . ?
C1D B11D O19D C18D -177.3(8) . . . . ?
C2D C3D B31D O32D 5.2(14) . . . . ?
C4D C3D B31D O32D -171.9(8) . . . . ?
C2D C3D B31D O39D -178.2(8) . . . . ?
C4D C3D B31D O39D 4.7(14) . . . . ?
O39D B31D O32D C33D 0.2(11) . . . . ?
C3D B31D O32D C33D 177.2(10) . . . . ?
B31D O32D C33D C34D -176.9(7) . . . . ?
B31D O32D C33D C38D 0.9(8) . . . . ?
O32D C33D C34D C35D 177.5(9) . . . . ?
C38D C33D C34D C35D 0.0 . . . . ?
C33D C34D C35D C36D 0.0 . . . . ?
C33D C34D C35D C1U 170.5(9) . . . 4_565 ?
C34D C35D C36D C37D 0.0 . . . . ?
C1U C35D C36D C37D -171.5(8) 4_565 . . . ?
C34D C35D C36D C1T -173.1(9) . . . 4_565 ?
C1U C35D C36D C1T 15.3(9) 4_565 . . 4_565 ?
C35D C36D C37D C38D 0.0 . . . . ?
C1T C36D C37D C38D 172.9(9) 4_565 . . . ?
C36D C37D C38D C33D 0.0 . . . . ?
C36D C37D C38D O39D -175.6(8) . . . . ?
O32D C33D C38D C37D -178.0(7) . . . . ?
C34D C33D C38D C37D 0.0 . . . . ?
O32D C33D C38D O39D -1.7(6) . . . . ?
C34D C33D C38D O39D 176.3(6) . . . . ?
C37D C38D O39D B31D 177.7(7) . . . . ?
C33D C38D O39D B31D 1.8(8) . . . . ?
O32D B31D O39D C38D -1.2(11) . . . . ?
C3D B31D O39D C38D -178.4(9) . . . . ?
C4D C5D B51D O52D 0.9(12) . . . . ?
C6D C5D B51D O52D -178.4(7) . . . . ?
C4D C5D B51D O59D 178.5(8) . . . . ?
C6D C5D B51D O59D -0.8(13) . . . . ?
O59D B51D O52D C53D 1.4(10) . . . . ?
C5D B51D O52D C53D 179.3(8) . . . . ?
B51D O52D C53D C54D -180.0(6) . . . . ?
B51D O52D C53D C58D -1.2(7) . . . . ?
O52D C53D C54D C55D 178.7(6) . . . . ?
C58D C53D C54D C55D 0.0 . . . . ?
C53D C54D C55D C56D 0.0 . . . . ?
C53D C54D C55D C1N -176.3(6) . . . . ?
C54D C55D C56D C57D 0.0 . . . . ?
C1N C55D C56D C57D 176.7(6) . . . . ?
C54D C55D C56D C1M -178.3(6) . . . . ?
C1N C55D C56D C1M -1.7(7) . . . . ?
C55D C56D C57D C58D 0.0 . . . . ?
C1M C56D C57D C58D 178.2(6) . . . . ?
C56D C57D C58D O59D -179.4(7) . . . . ?
C56D C57D C58D C53D 0.0 . . . . ?
O52D C53D C58D O59D 0.6(5) . . . . ?
C54D C53D C58D O59D 179.5(5) . . . . ?
O52D C53D C58D C57D -179.0(5) . . . . ?
C54D C53D C58D C57D 0.0 . . . . ?
C57D C58D O59D B51D 179.7(6) . . . . ?
C53D C58D O59D B51D 0.2(8) . . . . ?
O52D B51D O59D C58D -1.0(10) . . . . ?
C5D B51D O59D C58D -178.9(8) . . . . ?
C36A C35A C1E C2E -178.4(14) . . . . ?
C34A C35A C1E C2E 3(2) . . . . ?
C36A C35A C1E C16B 56.6(16) . . . . ?
C34A C35A C1E C16B -121.6(10) . . . . ?
C36A C35A C1E C6W -47.3(15) . . . . ?
C34A C35A C1E C6W 134.5(10) . . . . ?
C17B C16B C1E C35A 124.1(10) . . . . ?
C15B C16B C1E C35A -53.8(17) . . . . ?
C17B C16B C1E C2E -3(3) . . . . ?
C15B C16B C1E C2E 178.7(18) . . . . ?
C17B C16B C1E C6W -126.4(11) . . . . ?
C15B C16B C1E C6W 55.6(16) . . . . ?
C35A C1E C2E C3E 61(3) . . . . ?
C16B C1E C2E C3E 178.9(19) . . . . ?
C6W C1E C2E C3E -66(3) . . . . ?
C1E C2E C3E C4E 175(2) . . . . ?
C2E C3E C4E C5E 153(2) . . . . ?
C3E C4E C5E C6E 23(3) . . . . ?
C4E C5E C6E C7E -109(2) . . . . ?
C16B C15B C1F C1W -53.8(9) . . . . ?
C14B C15B C1F C1W 125.0(8) . . . . ?
C16B C15B C1F C2F 177.7(8) . . . . ?
C14B C15B C1F C2F -3.6(13) . . . . ?
C16B C15B C1F C36A 55.8(8) . . . . ?
C14B C15B C1F C36A -125.5(6) . . . . ?
C35A C36A C1F C1W 50.9(9) . . . . ?
C37A C36A C1F C1W -134.1(7) . . . . ?
C35A C36A C1F C2F -175.6(7) . . . . ?
C37A C36A C1F C2F -0.6(11) . . . . ?
C35A C36A C1F C15B -53.4(8) . . . . ?
C37A C36A C1F C15B 121.6(6) . . . . ?
C1W C1F C2F C3F 59.9(15) . . . . ?
C15B C1F C2F C3F 178.4(10) . . . . ?
C36A C1F C2F C3F -67.8(14) . . . . ?
C1F C2F C3F C4F 158.9(13) . . . . ?
C2F C3F C4F C5F 178.7(15) . . . . ?
C3F C4F C5F C6F -173.6(18) . . . . ?
C4F C5F C6F C7F 176(2) . . . . ?
C14A C15A C1G C2G 3.5(10) . . . . ?
C16A C15A C1G C2G 179.9(6) . . . . ?
C14A C15A C1G C1J -122.0(6) . . . . ?
C16A C15A C1G C1J 54.3(7) . . . . ?
C14A C15A C1G C55A 128.0(12) . . . 4_565 ?
C16A C15A C1G C55A -55.6(13) . . . 4_565 ?
C15A C1G C2G C3G 177.1(10) . . . . ?
C1J C1G C2G C3G -64.9(13) . . . . ?
C55A C1G C2G C3G 58(2) 4_565 . . . ?
C1G C2G C3G C4G -151.9(14) . . . . ?
C2G C3G C4G C5G 178.5(16) . . . . ?
C3G C4G C5G C6G -171.5(19) . . . . ?
C4G C5G C6G C7G -55(3) . . . . ?
C17A C16A C1H C56A -131(2) . . . 4_565 ?
C15A C16A C1H C56A 49(2) . . . 4_565 ?
C17A C16A C1H C2H -0.8(9) . . . . ?
C15A C16A C1H C2H 178.9(5) . . . . ?
C17A C16A C1H C6J 122.9(5) . . . . ?
C15A C16A C1H C6J -57.4(6) . . . . ?
C16A C1H C2H C3H -62.0(10) . . . . ?
C56A C1H C2H C3H 65(2) 4_565 . . . ?
C6J C1H C2H C3H -179.0(7) . . . . ?
C1H C2H C3H C4H -153.0(8) . . . . ?
C2H C3H C4H C5H 176.8(10) . . . . ?
C3H C4H C5H C6H -164.1(15) . . . . ?
C4H C5H C6H C7H -87(3) . . . . ?
C15A C1G C1J C2J 121.9(6) . . . . ?
C2G C1G C1J C2J -2.6(10) . . . . ?
C55A C1G C1J C2J -129.8(17) 4_565 . . . ?
C15A C1G C1J C6J -56.3(7) . . . . ?
C2G C1G C1J C6J 179.2(6) . . . . ?
C55A C1G C1J C6J 51.9(17) 4_565 . . . ?
C6J C1J C2J C3J 0.0 . . . . ?
C1G C1J C2J C3J -178.2(7) . . . . ?
C1J C2J C3J C4J 0.0 . . . . ?
C2J C3J C4J C5J 0.0 . . . . ?
C3J C4J C5J C6J 0.0 . . . . ?
C4J C5J C6J C1J 0.0 . . . . ?
C4J C5J C6J C1H 175.7(6) . . . . ?
C2J C1J C6J C5J 0.0 . . . . ?
C1G C1J C6J C5J 178.4(6) . . . . ?
C2J C1J C6J C1H -176.1(6) . . . . ?
C1G C1J C6J C1H 2.3(6) . . . . ?
C16A C1H C6J C5J -121.7(5) . . . . ?
C56A C1H C6J C5J 127.8(19) 4_565 . . . ?
C2H C1H C6J C5J 4.8(9) . . . . ?
C16A C1H C6J C1J 54.1(6) . . . . ?
C56A C1H C6J C1J -56.3(19) 4_565 . . . ?
C2H C1H C6J C1J -179.4(6) . . . . ?
C56B C55B C1K C6X -51.5(10) . . . . ?
C54B C55B C1K C6X 130.8(9) . . . . ?
C56B C55B C1K C2K 177.6(8) . . . . ?
C54B C55B C1K C2K -0.1(14) . . . . ?
C56B C55B C1K C36B 54.0(18) . . . 4_565 ?
C54B C55B C1K C36B -123.7(17) . . . 4_565 ?
C6X C1K C2K C3K -55(2) . . . . ?
C55B C1K C2K C3K 67.3(19) . . . . ?
C36B C1K C2K C3K -179(3) 4_565 . . . ?
C1K C2K C3K C4K 160(2) . . . . ?
C2K C3K C4K C5K 172(3) . . . . ?
C3K C4K C5K C6K 177(3) . . . . ?
C4K C5K C6K C7K 160(4) . . . . ?
C55B C56B C1L C35B -53(3) . . . 4_565 ?
C57B C56B C1L C35B 122(3) . . . 4_565 ?
C55B C56B C1L C2L 174.0(9) . . . . ?
C57B C56B C1L C2L -11.3(15) . . . . ?
C55B C56B C1L C1X 56.0(10) . . . . ?
C57B C56B C1L C1X -129.2(8) . . . . ?
C56B C1L C2L C3L -55(2) . . . . ?
C35B C1L C2L C3L 178(4) 4_565 . . . ?
C1X C1L C2L C3L 61(2) . . . . ?
C1L C2L C3L C4L 156(3) . . . . ?
C2L C3L C4L C5L -173(3) . . . . ?
C3L C4L C5L C6L 177(3) . . . . ?
C4L C5L C6L C7L -178(4) . . . . ?
C17C C16C C1M C6P -130.3(5) . . . . ?
C15C C16C C1M C6P 51.9(7) . . . . ?
C17C C16C C1M C2M -0.2(10) . . . . ?
C15C C16C C1M C2M -178.0(6) . . . . ?
C17C C16C C1M C56D 122.3(5) . . . . ?
C15C C16C C1M C56D -55.6(6) . . . . ?
C57D C56D C1M C16C -122.2(5) . . . . ?
C55D C56D C1M C16C 56.1(6) . . . . ?
C57D C56D C1M C6P 130.2(5) . . . . ?
C55D C56D C1M C6P -51.6(7) . . . . ?
C57D C56D C1M C2M -1.2(10) . . . . ?
C55D C56D C1M C2M 177.1(7) . . . . ?
C16C C1M C2M C3M -69.5(11) . . . . ?
C6P C1M C2M C3M 53.4(13) . . . . ?
C56D C1M C2M C3M 177.7(9) . . . . ?
C1M C2M C3M C4M 154.8(12) . . . . ?
C2M C3M C4M C5M -178.5(13) . . . . ?
C3M C4M C5M C6M 177.8(14) . . . . ?
C4M C5M C6M C7M 173.6(16) . . . . ?
C16C C15C C1N C2N 179.8(6) . . . . ?
C14C C15C C1N C2N 2.2(10) . . . . ?
C16C C15C C1N C55D 55.5(6) . . . . ?
C14C C15C C1N C55D -122.1(5) . . . . ?
C16C C15C C1N C1P -49.7(7) . . . . ?
C14C C15C C1N C1P 132.7(5) . . . . ?
C54D C55D C1N C15C 122.4(5) . . . . ?
C56D C55D C1N C15C -54.1(6) . . . . ?
C54D C55D C1N C2N -5.9(10) . . . . ?
C56D C55D C1N C2N 177.6(6) . . . . ?
C54D C55D C1N C1P -128.4(5) . . . . ?
C56D C55D C1N C1P 55.1(7) . . . . ?
C15C C1N C2N C3N 63.8(11) . . . . ?
C55D C1N C2N C3N -178.6(7) . . . . ?
C1P C1N C2N C3N -63.2(10) . . . . ?
C1N C2N C3N C4N -156.4(11) . . . . ?
C2N C3N C4N C5N -37(2) . . . . ?
C3N C4N C5N C6N 157.1(19) . . . . ?
C4N C5N C6N C7N 175(2) . . . . ?
C15C C1N C1P C2P -133.9(5) . . . . ?
C2N C1N C1P C2P -0.4(10) . . . . ?
C55D C1N C1P C2P 121.8(5) . . . . ?
C15C C1N C1P C6P 46.1(7) . . . . ?
C2N C1N C1P C6P 179.6(6) . . . . ?
C55D C1N C1P C6P -58.3(7) . . . . ?
C6P C1P C2P C3P 0.0 . . . . ?
C1N C1P C2P C3P 180.0(7) . . . . ?
C1P C2P C3P C4P 0.0 . . . . ?
C2P C3P C4P C5P 0.0 . . . . ?
C3P C4P C5P C6P 0.0 . . . . ?
C4P C5P C6P C1P 0.0 . . . . ?
C4P C5P C6P C1M 173.3(8) . . . . ?
C2P C1P C6P C5P 0.0 . . . . ?
C1N C1P C6P C5P -180.0(6) . . . . ?
C2P C1P C6P C1M -173.9(7) . . . . ?
C1N C1P C6P C1M 6.1(7) . . . . ?
C16C C1M C6P C5P 131.7(5) . . . . ?
C2M C1M C6P C5P 4.6(11) . . . . ?
C56D C1M C6P C5P -125.0(6) . . . . ?
C16C C1M C6P C1P -54.8(7) . . . . ?
C2M C1M C6P C1P 178.2(7) . . . . ?
C56D C1M C6P C1P 48.6(7) . . . . ?
C54C C55C C1Q C2Q -5.0(11) . . . . ?
C56C C55C C1Q C2Q 179.6(7) . . . . ?
C54C C55C C1Q C35C -127.0(13) . . . 4_565 ?
C56C C55C C1Q C35C 57.7(14) . . . 4_565 ?
C54C C55C C1Q C1S 130.2(7) . . . . ?
C56C C55C C1Q C1S -45.2(8) . . . . ?
C35C C1Q C2Q C3Q 177(3) 4_565 . . . ?
C1S C1Q C2Q C3Q -63.2(15) . . . . ?
C55C C1Q C2Q C3Q 64.7(14) . . . . ?
C1Q C2Q C3Q C4Q -159.0(14) . . . . ?
C2Q C3Q C4Q C5Q -174.9(17) . . . . ?
C3Q C4Q C5Q C6Q -174.9(18) . . . . ?
C4Q C5Q C6Q C7Q -73(3) . . . . ?
C57C C56C C1R C36C 128(2) . . . 4_565 ?
C55C C56C C1R C36C -49(3) . . . 4_565 ?
C57C C56C C1R C2R 2.8(14) . . . . ?
C55C C56C C1R C2R -174.7(8) . . . . ?
C57C C56C C1R C6S -125.3(8) . . . . ?
C55C C56C C1R C6S 57.2(10) . . . . ?
C36C C1R C2R C3R -62(3) 4_565 . . . ?
C56C C1R C2R C3R 58.2(17) . . . . ?
C6S C1R C2R C3R 180.0(12) . . . . ?
C1R C2R C3R C4R -151.2(13) . . . . ?
C2R C3R C4R C5R -175.5(15) . . . . ?
C3R C4R C5R C6R 174.3(19) . . . . ?
C4R C5R C6R C7R -177(3) . . . . ?
C2Q C1Q C1S C2S -1.8(12) . . . . ?
C35C C1Q C1S C2S 124.3(19) 4_565 . . . ?
C55C C1Q C1S C2S -135.1(7) . . . . ?
C2Q C1Q C1S C6S -179.0(8) . . . . ?
C35C C1Q C1S C6S -53(2) 4_565 . . . ?
C55C C1Q C1S C6S 47.7(8) . . . . ?
C6S C1S C2S C3S 0.0 . . . . ?
C1Q C1S C2S C3S -177.1(8) . . . . ?
C1S C2S C3S C4S 0.0 . . . . ?
C2S C3S C4S C5S 0.0 . . . . ?
C3S C4S C5S C6S 0.0 . . . . ?
C4S C5S C6S C1S 0.0 . . . . ?
C4S C5S C6S C1R 174.5(9) . . . . ?
C2S C1S C6S C5S 0.0 . . . . ?
C1Q C1S C6S C5S 177.3(8) . . . . ?
C2S C1S C6S C1R -175.0(9) . . . . ?
C1Q C1S C6S C1R 2.3(9) . . . . ?
C36C C1R C6S C5S -122(2) 4_565 . . . ?
C56C C1R C6S C5S 130.6(8) . . . . ?
C2R C1R C6S C5S 2.0(14) . . . . ?
C36C C1R C6S C1S 52(2) 4_565 . . . ?
C56C C1R C6S C1S -54.6(10) . . . . ?
C2R C1R C6S C1S 176.7(8) . . . . ?
C14D C15D C1T C2T 2.1(14) . . . . ?
C16D C15D C1T C2T -174.7(8) . . . . ?
C14D C15D C1T C1V -129.3(8) . . . . ?
C16D C15D C1T C1V 53.9(10) . . . . ?
C14D C15D C1T C36D 133(2) . . . 2_655 ?
C16D C15D C1T C36D -44(3) . . . 2_655 ?
C15D C1T C2T C3T 64.2(16) . . . . ?
C1V C1T C2T C3T -174.3(11) . . . . ?
C36D C1T C2T C3T -61(3) 2_655 . . . ?
C1T C2T C3T C4T 146.3(14) . . . . ?
C2T C3T C4T C5T 156.6(16) . . . . ?
C3T C4T C5T C6T -177(3) . . . . ?
C4T C5T C6T C7T 170(3) . . . . ?
C17D C16D C1U C6V 127.1(9) . . . . ?
C15D C16D C1U C6V -47.5(10) . . . . ?
C17D C16D C1U C2U -10.4(13) . . . . ?
C15D C16D C1U C2U 175.0(8) . . . . ?
C17D C16D C1U C35D -123.8(14) . . . 2_655 ?
C15D C16D C1U C35D 61.5(15) . . . 2_655 ?
C6V C1U C2U C3U 44(2) . . . . ?
C35D C1U C2U C3U -85(3) 2_655 . . . ?
C16D C1U C2U C3U 169.3(16) . . . . ?
C1U C2U C3U C4U -166(5) . . . . ?
C2U C3U C4U C5U -161(5) . . . . ?
C3U C4U C5U C6U -162(5) . . . . ?
C4U C5U C6U C7U 93(9) . . . . ?
C15D C1T C1V C2V 126.3(8) . . . . ?
C2T C1T C1V C2V -4.1(15) . . . . ?
C36D C1T C1V C2V -129(2) 2_655 . . . ?
C15D C1T C1V C6V -49.8(11) . . . . ?
C2T C1T C1V C6V 179.8(10) . . . . ?
C36D C1T C1V C6V 55(2) 2_655 . . . ?
C6V C1V C2V C3V 0.0 . . . . ?
C1T C1V C2V C3V -176.0(10) . . . . ?
C1V C2V C3V C4V 0.0 . . . . ?
C2V C3V C4V C5V 0.0 . . . . ?
C3V C4V C5V C6V 0.0 . . . . ?
C4V C5V C6V C1V 0.0 . . . . ?
C4V C5V C6V C1U -179.9(10) . . . . ?
C2V C1V C6V C5V 0.0 . . . . ?
C1T C1V C6V C5V 176.2(9) . . . . ?
C2V C1V C6V C1U 179.9(10) . . . . ?
C1T C1V C6V C1U -3.9(11) . . . . ?
C2U C1U C6V C5V 0.3(16) . . . . ?
C35D C1U C6V C5V 131(2) 2_655 . . . ?
C16D C1U C6V C5V -127.4(8) . . . . ?
C2U C1U C6V C1V -179.5(10) . . . . ?
C35D C1U C6V C1V -49(2) 2_655 . . . ?
C16D C1U C6V C1V 52.7(10) . . . . ?
C2F C1F C1W C2W 3.2(14) . . . . ?
C15B C1F C1W C2W -122.2(7) . . . . ?
C36A C1F C1W C2W 134.0(7) . . . . ?
C2F C1F C1W C6W -176.1(8) . . . . ?
C15B C1F C1W C6W 58.4(9) . . . . ?
C36A C1F C1W C6W -45.3(9) . . . . ?
C6W C1W C2W C3W 0.0 . . . . ?
C1F C1W C2W C3W -179.3(10) . . . . ?
C1W C2W C3W C4W 0.0 . . . . ?
C2W C3W C4W C5W 0.0 . . . . ?
C3W C4W C5W C6W 0.0 . . . . ?
C4W C5W C6W C1W 0.0 . . . . ?
C4W C5W C6W C1E -175.2(14) . . . . ?
C2W C1W C6W C5W 0.0 . . . . ?
C1F C1W C6W C5W 179.4(9) . . . . ?
C2W C1W C6W C1E 175.7(13) . . . . ?
C1F C1W C6W C1E -4.9(13) . . . . ?
C35A C1E C6W C5W -131.8(10) . . . . ?
C2E C1E C6W C5W 1(2) . . . . ?
C16B C1E C6W C5W 123.9(10) . . . . ?
C35A C1E C6W C1W 52.7(15) . . . . ?
C2E C1E C6W C1W -174.4(14) . . . . ?
C16B C1E C6W C1W -51.6(16) . . . . ?
C56B C1L C1X C2X 127.4(9) . . . . ?
C35B C1L C1X C2X -122(3) 4_565 . . . ?
C2L C1L C1X C2X 4.4(14) . . . . ?
C56B C1L C1X C6X -54.6(10) . . . . ?
C35B C1L C1X C6X 56(3) 4_565 . . . ?
C2L C1L C1X C6X -177.6(8) . . . . ?
C6X C1X C2X C3X 0.0 . . . . ?
C1L C1X C2X C3X 177.9(10) . . . . ?
C1X C2X C3X C4X 0.0 . . . . ?
C2X C3X C4X C5X 0.0 . . . . ?
C3X C4X C5X C6X 0.0 . . . . ?
C4X C5X C6X C1X 0.0 . . . . ?
C4X C5X C6X C1K -178.4(10) . . . . ?
C2X C1X C6X C5X 0.0 . . . . ?
C1L C1X C6X C5X -178.1(9) . . . . ?
C2X C1X C6X C1K 178.5(9) . . . . ?
C1L C1X C6X C1K 0.4(10) . . . . ?
C55B C1K C6X C5X -129.9(8) . . . . ?
C2K C1K C6X C5X -3.1(15) . . . . ?
C36B C1K C6X C5X 127(2) 4_565 . . . ?
C55B C1K C6X C1X 51.6(10) . . . . ?
C2K C1K C6X C1X 178.4(10) . . . . ?
C36B C1K C6X C1X -51(2) 4_565 . . . ?

_diffrn_measured_fraction_theta_max 0.883
_diffrn_reflns_theta_full        34.7906
_diffrn_measured_fraction_theta_full 0.9434
_refine_diff_density_max         0.844
_refine_diff_density_min         -0.623
_refine_diff_density_rms         0.069

# SQUEEZE RESULTS (APPEND TO CIF)
# Note: Data are Listed for all Voids in the P1 Unit Cell
# i.e. Centre of Gravity, Solvent Accessible Volume,
# Recovered number of Electrons in the Void and
# Details about the Squeezed Material
loop_
_platon_squeeze_void_nr
_platon_squeeze_void_average_x
_platon_squeeze_void_average_y
_platon_squeeze_void_average_z
_platon_squeeze_void_volume
_platon_squeeze_void_count_electrons
_platon_squeeze_void_content
1 -0.001 -0.003 -0.001 38777 5258 ' '
2 0.667 0.109 0.362 7 1 ' '
3 0.891 0.167 0.637 7 1 ' '
4 0.609 0.333 0.637 7 1 ' '
5 0.833 0.391 0.362 7 1 ' '
6 0.167 0.609 0.637 7 1 ' '
7 0.391 0.667 0.362 7 1 ' '
8 0.109 0.833 0.362 7 1 ' '
9 0.333 0.891 0.637 7 1 ' '
_platon_squeeze_details          ?

