
#######################################################################
#
#                 Cambridge Crystallographic Data Centre
#                                CCDC 
#
#######################################################################
#
# If this CIF has been generated directly or indirectly from an entry in the 
# Cambridge Structural Database, then it will include bibliographic, chemical, 
# crystal, experimental, refinement or atomic coordinate data resulting from 
# the CCDC's data processing and validation procedures. Files generated from 
# CSD entries are Copyright 2015 Cambridge Crystallographic Data Centre. They 
# may be used in bona fide research applications only, and may not be copied or 
# further disseminated in any form, whether machine-readable or not, except for 
# the purposes of generating routine backup copies on your local computer 
# system.
# 
# Files arising from any other source may also contain material that is the 
# copyright of third parties, including the originator, and you should check 
# with the originator concerning the permitted uses of the information 
# contained in this CIF.
#
# For further information on the CCDC and the free tools enCIFer and Mercury
# for validating and visualising CIF files, please visit www.ccdc.cam.ac.uk
#
#######################################################################

data_LODFEQ
_audit_creation_date             2008-12-19
_database_code_depnum_ccdc_archive 'CCDC 650286'
_chemical_name_common            
'rac-2,6,9,12,14,15-Hexaethyl-2,6,9,12,14,15-hexaaza-1,4,7,10(1,3,5)-tetrabenzenatricyclo(5.5.2.2$4,10!)hexadecaphane-3,5,8,11,13,16-hexone sesquihydrate'
_chemical_formula_moiety         'C42 H42 N6 O6,1.5(H2 O1)'
_chemical_name_systematic        
'rac-4,11,18,26,30,34-Hexaethyl-4,11,18,26,30,34-hexaaza-heptacyclo(13.13.2.2^8,22^.1^3,27^.1^6,10^.1^13,17^.1^20,24^)hexatriaconta-1,3(31),6(36),7,9,13(35),14,16,20(32),21,23,27-dodecaene-5,12,19,25,29,33-hexone sesquihydrate'
_journal_coden_Cambridge         35
_journal_volume                  73
_journal_year                    2008
_journal_page_first              5143
_journal_name_full               J.Org.Chem.
loop_
_publ_author_name
H.Masu
K.Katagiri
T.Kato
H.Kagechika
M.Tominaga
I.Azumaya
_chemical_absolute_configuration unk
_diffrn_ambient_temperature      150
_exptl_crystal_density_meas      1.27
_exptl_crystal_density_diffrn    1.27
#These two values have been output from a single CSD field.
_refine_ls_R_factor_gt           0.0604
_refine_ls_wR_factor_gt          0.0604
_diffrn_radiation_probe          x-ray
_symmetry_cell_setting           monoclinic
_symmetry_space_group_name_H-M   'C c'
_symmetry_Int_Tables_number      9
loop_
_symmetry_equiv_pos_site_id
_symmetry_equiv_pos_as_xyz
1 x,y,z
2 x,-y,1/2+z
3 1/2+x,1/2+y,z
4 1/2+x,1/2-y,1/2+z
_cell_length_a                   15.5799(15)
_cell_length_b                   27.514(3)
_cell_length_c                   9.2074(9)
_cell_angle_alpha                90
_cell_angle_beta                 92.224(2)
_cell_angle_gamma                90
_cell_volume                     3943.92
_exptl_crystal_colour            colorless
_exptl_crystal_description       prismatic
_cell_formula_units_Z            4
_exptl_crystal_recrystallization_method chloroform/methanol
loop_
_atom_site_label
_atom_site_type_symbol
_atom_site_fract_x
_atom_site_fract_y
_atom_site_fract_z
C1 C 0.9311(3) 0.70892(17) 0.3787(5)
C2 C 0.8758(3) 0.67159(17) 0.4172(5)
H1 H 0.8177 0.6786 0.4368
C3 C 0.9056(3) 0.62432(16) 0.4267(5)
C4 C 0.9929(3) 0.61433(17) 0.4096(5)
H2 H 1.0145 0.5823 0.4225
C5 C 1.0478(3) 0.65218(17) 0.3732(5)
C6 C 1.0164(3) 0.69892(17) 0.3548(5)
H3 H 1.0535 0.7242 0.3257
C7 C 0.9056(4) 0.76812(18) 0.1207(6)
C8 C 0.8350(4) 0.74173(18) 0.0700(6)
H4 H 0.7908 0.7334 0.1336
C9 C 0.8293(3) 0.72735(18) -0.0757(6)
C10 C 0.8945(3) 0.73847(16) -0.1708(5)
H5 H 0.8899 0.7295 -0.2704
C11 C 0.9658(3) 0.76295(16) -0.1144(5)
C12 C 0.9722(4) 0.77800(17) 0.0285(5)
H6 H 1.0218 0.7950 0.0639
C13 C 0.8233(3) 0.57768(16) 0.1967(5)
C14 C 0.8907(3) 0.55774(15) 0.1234(5)
H7 H 0.9248 0.5327 0.1673
C15 C 0.9082(3) 0.57428(15) -0.0136(5)
C16 C 0.8564(3) 0.60983(16) -0.0820(5)
H8 H 0.8688 0.6212 -0.1763
C17 C 0.7865(3) 0.62832(16) -0.0097(5)
C18 C 0.7702(3) 0.61236(16) 0.1300(5)
H9 H 0.7229 0.6251 0.1797
C19 C 1.1416(3) 0.65825(16) 0.1089(5)
C20 C 1.1482(3) 0.70152(16) 0.0317(5)
H10 H 1.1782 0.7286 0.0730
C21 C 1.1102(3) 0.70436(16) -0.1065(5)
C22 C 1.0706(3) 0.66417(16) -0.1719(5)
H11 H 1.0459 0.6664 -0.2676
C23 C 1.0677(3) 0.62059(15) -0.0954(5)
C24 C 1.1020(3) 0.61738(16) 0.0463(5)
H12 H 1.0985 0.5879 0.0994
C25 C 0.9000(3) 0.76054(18) 0.3858(5)
C26 C 0.8995(5) 0.8419(2) 0.2818(8)
H13 H 0.9211 0.8527 0.3792
H14 H 0.9321 0.8591 0.2072
C27 C 0.8109(5) 0.8517(3) 0.2632(9)
H15 H 0.7803 0.8372 0.3436
H16 H 0.7892 0.8376 0.1710
H17 H 0.8015 0.8869 0.2619
C28 C 0.8470(3) 0.58221(17) 0.4595(5)
C29 C 0.7611(3) 0.51560(17) 0.3578(5)
H18 H 0.7760 0.5016 0.4546
H19 H 0.7805 0.4925 0.2835
C30 C 0.6657(4) 0.5210(2) 0.3418(9)
H20 H 0.6505 0.5356 0.2471
H21 H 0.6455 0.5421 0.4193
H22 H 0.6386 0.4890 0.3485
C31 C 1.1423(3) 0.64167(18) 0.3713(5)
C32 C 1.2793(3) 0.65107(18) 0.2510(6)
H23 H 1.3030 0.6562 0.3511
H24 H 1.3016 0.6772 0.1887
C33 C 1.3082(4) 0.6019(3) 0.1953(12)
H25 H 1.2883 0.5979 0.0938
H26 H 1.2839 0.5760 0.2543
H27 H 1.3711 0.6000 0.2021
C34 C 0.7477(3) 0.70459(19) -0.1340(6)
C35 C 0.6448(3) 0.63848(18) -0.1374(5)
H28 H 0.5999 0.6640 -0.1407
H29 H 0.6273 0.6132 -0.0678
C36 C 0.6496(4) 0.6157(2) -0.2879(7)
H30 H 0.6957 0.5914 -0.2868
H31 H 0.6616 0.6410 -0.3592
H32 H 0.5948 0.6000 -0.3143
C37 C 0.9753(3) 0.54884(16) -0.0995(5)
C38 C 1.0927(3) 0.55283(18) -0.2665(5)
H33 H 1.1176 0.5778 -0.3297
H34 H 1.0580 0.5305 -0.3294
C39 C 1.1645(4) 0.5246(2) -0.1927(7)
H35 H 1.1406 0.4975 -0.1380
H36 H 1.1973 0.5460 -0.1259
H37 H 1.2025 0.5118 -0.2659
C40 C 1.1125(3) 0.75163(17) -0.1862(5)
C41 C 1.0305(3) 0.81942(17) -0.2905(6)
H38 H 0.9730 0.8216 -0.3397
H39 H 1.0736 0.8185 -0.3667
C42 C 1.0455(4) 0.86438(19) -0.1979(6)
H40 H 1.1032 0.8631 -0.1519
H41 H 1.0027 0.8657 -0.1228
H42 H 1.0402 0.8934 -0.2593
N1 N 0.9089(4) 0.78814(15) 0.2662(5)
N2 N 0.8068(2) 0.56167(13) 0.3425(4)
N3 N 1.1847(2) 0.65364(14) 0.2501(4)
N4 N 0.7262(2) 0.66011(14) -0.0841(4)
N5 N 1.0357(2) 0.57687(12) -0.1638(4)
N6 N 1.0359(3) 0.77404(13) -0.2071(4)
O1 O 0.8748(3) 0.77728(13) 0.4992(4)
O2 O 0.8378(2) 0.56819(13) 0.5848(3)
O3 O 1.1799(2) 0.62475(18) 0.4798(5)
O4 O 0.7002(3) 0.72691(15) -0.2201(5)
O5 O 0.9710(2) 0.50481(11) -0.1176(3)
O6 O 1.1796(2) 0.76997(14) -0.2268(4)

#END

