
#######################################################################
#
#                 Cambridge Crystallographic Data Centre
#                                CCDC 
#
#######################################################################
#
# If this CIF has been generated directly or indirectly from an entry in the 
# Cambridge Structural Database, then it will include bibliographic, chemical, 
# crystal, experimental, refinement or atomic coordinate data resulting from 
# the CCDC's data processing and validation procedures. Files generated from 
# CSD entries are Copyright 2015 Cambridge Crystallographic Data Centre. They 
# may be used in bona fide research applications only, and may not be copied or 
# further disseminated in any form, whether machine-readable or not, except for 
# the purposes of generating routine backup copies on your local computer 
# system.
# 
# Files arising from any other source may also contain material that is the 
# copyright of third parties, including the originator, and you should check 
# with the originator concerning the permitted uses of the information 
# contained in this CIF.
#
# For further information on the CCDC and the free tools enCIFer and Mercury
# for validating and visualising CIF files, please visit www.ccdc.cam.ac.uk
#
#######################################################################

data_UJEPEF
_audit_creation_date             2011-04-19
_database_code_depnum_ccdc_archive 'CCDC 779155'
_chemical_formula_moiety         'C36 H30 N6 O6,3(C2 H3 N1)'
_chemical_name_systematic        
'4,11,18,26,30,34-Hexamethyl-4,11,18,26,30,34-hexaaza-heptacyclo[13.13.2.2^8,22^.1^3,27^.1^6,10^.1^13,17^.1^20,24^]hexatriaconta-1,3(31),6(36),7,9,13(35),14,16,20(32),21,23,27-dodecaene-5,12,19,25,29,33-hexone acetonitrile solvate'
_journal_coden_Cambridge         1350
_journal_volume                  13
_journal_year                    2011
_journal_page_first              406
_journal_name_full               CrystEngComm
loop_
_publ_author_name
H.Masu
Y.Sagara
F.Imabeppu
H.Takayanagi
K.Katagiri
M.Kawahata
M.Tominaga
H.Kagechika
K.Yamaguchi
I.Azumaya
_chemical_absolute_configuration unk
_diffrn_ambient_temperature      100
_exptl_crystal_density_meas      1.315
_exptl_crystal_density_diffrn    1.315
#These two values have been output from a single CSD field.
_refine_ls_R_factor_gt           0.0711
_refine_ls_wR_factor_gt          0.0711
_diffrn_radiation_probe          x-ray
_symmetry_cell_setting           monoclinic
_symmetry_space_group_name_H-M   'P 21/c'
_symmetry_Int_Tables_number      14
loop_
_symmetry_equiv_pos_site_id
_symmetry_equiv_pos_as_xyz
1 x,y,z
2 -x,1/2+y,1/2-z
3 -x,-y,-z
4 x,1/2-y,1/2+z
_cell_length_a                   9.133(3)
_cell_length_b                   19.628(6)
_cell_length_c                   22.662(6)
_cell_angle_alpha                90
_cell_angle_beta                 107.77(1)
_cell_angle_gamma                90
_cell_volume                     3868.63
_exptl_crystal_colour            colorless
_exptl_crystal_description       plate
_cell_formula_units_Z            4
loop_
_atom_site_label
_atom_site_type_symbol
_atom_site_fract_x
_atom_site_fract_y
_atom_site_fract_z
O1 O 1.0009(3) 0.60001(14) 0.67266(13)
O2 O 0.9078(3) 0.65640(15) 0.41888(13)
O3 O 0.9123(4) 0.90023(15) 0.56917(15)
O4 O 0.2707(3) 0.50661(13) 0.46777(12)
O5 O 0.0452(5) 0.8676(2) 0.42775(16)
O6 O 0.3017(4) 0.75073(16) 0.75007(14)
N1 N 0.7799(4) 0.62827(16) 0.69372(14)
N2 N 0.6493(3) 0.66635(16) 0.39339(14)
N3 N 0.6730(4) 0.90102(16) 0.57630(16)
N4 N 0.2771(3) 0.56965(15) 0.55274(13)
N5 N 0.1872(3) 0.78619(15) 0.40118(14)
N6 N 0.2900(4) 0.81933(19) 0.66959(16)
C1 C 0.8367(4) 0.68025(19) 0.60545(17)
C2 C 0.8341(4) 0.6542(2) 0.54772(17)
H1 H 0.8541 0.6073 0.5435
C3 C 0.8024(4) 0.69682(19) 0.49674(17)
C4 C 0.7858(4) 0.7661(2) 0.50396(18)
H2 H 0.7694 0.7956 0.4693
C5 C 0.7927(4) 0.79304(19) 0.56156(18)
C6 C 0.8150(4) 0.74925(19) 0.61222(18)
H3 H 0.8153 0.7669 0.6513
C7 C 0.8791(4) 0.6328(2) 0.65943(18)
C8 C 0.8168(6) 0.5838(2) 0.7483(2)
C9 C 0.7913(4) 0.67046(18) 0.43340(17)
C10 C 0.6264(5) 0.6505(2) 0.32804(17)
H4 H 0.6103 0.6014 0.3213
H5 H 0.7175 0.6645 0.3168
H6 H 0.5362 0.6752 0.3022
C11 C 0.7964(5) 0.8683(2) 0.56918(19)
C12 C 0.6817(7) 0.9744(2) 0.5871(3)
H7 H 0.6759 0.9981 0.5484
H8 H 0.7792 0.9856 0.6185
H9 H 0.5959 0.9888 0.6016
C13 C 0.6198(4) 0.64463(19) 0.66751(17)
C14 C 0.5295(4) 0.6049(2) 0.61945(17)
H10 H 0.5752 0.5705 0.6014
C15 C 0.3717(4) 0.61584(18) 0.59797(17)
C16 C 0.3046(4) 0.66609(19) 0.62319(17)
H11 H 0.1966 0.6733 0.6083
C17 C 0.3960(5) 0.7064(2) 0.67073(17)
C18 C 0.5541(4) 0.6948(2) 0.69354(18)
H12 H 0.6159 0.7215 0.7269
C19 C 0.1979(5) 0.51623(19) 0.57734(18)
H13 H 0.2733 0.4827 0.6004
H14 H 0.1215 0.4936 0.5429
H15 H 0.1465 0.5369 0.6051
C20 C 0.3016(4) 0.56067(19) 0.49670(17)
C21 C 0.5147(4) 0.67008(19) 0.41413(16)
C22 C 0.4202(4) 0.72681(18) 0.39907(16)
H16 H 0.4420 0.7624 0.3746
C23 C 0.2931(4) 0.73072(18) 0.42034(16)
C24 C 0.2620(4) 0.67867(18) 0.45643(16)
H17 H 0.1775 0.6827 0.4724
C25 C 0.3543(4) 0.62071(18) 0.46923(16)
C26 C 0.4808(4) 0.61659(19) 0.44735(16)
H18 H 0.5438 0.5770 0.4553
C27 C 0.0751(5) 0.7797(2) 0.33946(18)
H19 H 0.0212 0.8231 0.3275
H20 H 0.0006 0.7440 0.3401
H21 H 0.1285 0.7676 0.3094
C28 C 0.1594(5) 0.8307(2) 0.44218(19)
C29 C 0.5269(5) 0.8696(2) 0.56940(19)
C30 C 0.4818(5) 0.8569(2) 0.62176(19)
H22 H 0.5514 0.8644 0.6620
C31 C 0.3348(5) 0.8335(2) 0.61473(19)
C32 C 0.2306(5) 0.8249(2) 0.55710(19)
H23 H 0.1280 0.8116 0.5531
C33 C 0.2752(5) 0.8355(2) 0.50489(19)
C34 C 0.4242(5) 0.85724(19) 0.51099(19)
H24 H 0.4557 0.8637 0.4751
C35 C 0.2189(7) 0.8746(3) 0.6947(2)
H25 H 0.1239 0.8891 0.6634
H26 H 0.2901 0.9132 0.7058
H27 H 0.1951 0.8585 0.7317
C36 C 0.3257(5) 0.7601(2) 0.70031(19)
H37 H 0.777(4) 0.6063(18) 0.7845(17)
H38 H 0.760(5) 0.540(2) 0.7396(17)
H39 H 0.918(7) 0.575(3) 0.766(3)

#END

