
#######################################################################
#
#                 Cambridge Crystallographic Data Centre
#                                CCDC 
#
#######################################################################
#
# If this CIF has been generated directly or indirectly from an entry in the 
# Cambridge Structural Database, then it will include bibliographic, chemical, 
# crystal, experimental, refinement or atomic coordinate data resulting from 
# the CCDC's data processing and validation procedures. Files generated from 
# CSD entries are Copyright 2015 Cambridge Crystallographic Data Centre. They 
# may be used in bona fide research applications only, and may not be copied or 
# further disseminated in any form, whether machine-readable or not, except for 
# the purposes of generating routine backup copies on your local computer 
# system.
# 
# Files arising from any other source may also contain material that is the 
# copyright of third parties, including the originator, and you should check 
# with the originator concerning the permitted uses of the information 
# contained in this CIF.
#
# For further information on the CCDC and the free tools enCIFer and Mercury
# for validating and visualising CIF files, please visit www.ccdc.cam.ac.uk
#
#######################################################################

data_ACDMFM
_audit_creation_date             1980-04-09
_database_code_NBS               500289
_chemical_formula_moiety         'C36 H60 O30,C3 H7 N1 O1,5(H2 O1)'
_chemical_name_systematic        
'\a-Cyclodextrin N,N-dimethylformamide clathrate pentahydrate'
_journal_coden_Cambridge         7
_journal_volume                  52
_journal_year                    1979
_journal_page_first              2451
_journal_name_full               Bull.Chem.Soc.Jpn.
loop_
_publ_author_name
K.Harata
_chemical_absolute_configuration unk
_diffrn_ambient_temperature      295
_exptl_crystal_density_meas      1.46
_exptl_crystal_density_diffrn    1.46
#These two values have been output from a single CSD field.
_refine_ls_R_factor_gt           0.054
_refine_ls_wR_factor_gt          0.054
_diffrn_radiation_probe          x-ray
_symmetry_cell_setting           orthorhombic
_symmetry_space_group_name_H-M   'P 21 21 21'
_symmetry_Int_Tables_number      19
loop_
_symmetry_equiv_pos_site_id
_symmetry_equiv_pos_as_xyz
1 x,y,z
2 1/2+x,1/2-y,-z
3 -x,1/2+y,1/2-z
4 1/2-x,-y,1/2+z
_cell_length_a                   13.750(1)
_cell_length_b                   15.318(1)
_cell_length_c                   24.544(2)
_cell_angle_alpha                90
_cell_angle_beta                 90
_cell_angle_gamma                90
_cell_volume                     5169.52
_cell_formula_units_Z            4
loop_
_atom_site_label
_atom_site_type_symbol
_atom_site_fract_x
_atom_site_fract_y
_atom_site_fract_z
C1 C 0.15650 -0.05010 0.69150
C2 C 0.12780 -0.12430 0.65310
C3 C 0.18550 -0.11650 0.60070
C4 C 0.17380 -0.02640 0.57640
C5 C 0.20180 0.04400 0.61790
C6 C 0.18440 0.13620 0.59710
O1 O 0.14890 -0.20530 0.68020
O2 O 0.14980 -0.18130 0.56320
O3 O 0.24090 -0.02280 0.53140
O4 O 0.14280 0.03190 0.66590
O5 O 0.08710 0.14870 0.57850
C7 C 0.20720 0.00410 0.47950
C8 C 0.22990 -0.06840 0.43890
C9 C 0.33810 -0.08340 0.43690
C10 C 0.38690 0.00190 0.42510
C11 C 0.35860 0.07500 0.46340
C12 C 0.39830 0.16320 0.44660
O6 O 0.18330 -0.14830 0.45520
O7 O 0.36430 -0.14340 0.39440
O8 O 0.49110 -0.01530 0.43340
O9 O 0.25390 0.08200 0.46350
O10 O 0.38310 0.17850 0.38970
C13 C 0.55870 0.00720 0.39210
C14 C 0.62160 -0.07270 0.38260
C15 C 0.67200 -0.09710 0.43520
C16 C 0.72690 -0.01950 0.45870
C17 C 0.66550 0.06440 0.46000
C18 C 0.72560 0.14600 0.47070
O11 O 0.56340 -0.14420 0.36270
O12 O 0.74110 -0.16540 0.42690
O13 O 0.75190 -0.04380 0.51330
O14 O 0.61820 0.07760 0.40820
O15 O 0.81220 0.14980 0.43890
C19 C 0.84740 -0.02540 0.53180
C20 C 0.88240 -0.10610 0.56190
C21 C 0.82560 -0.11960 0.61460
C22 C 0.82700 -0.03670 0.64830
C23 C 0.78760 0.03940 0.61460
C24 C 0.79390 0.12590 0.64410
O16 O 0.87470 -0.18100 0.52710
O17 O 0.87050 -0.18890 0.64460
O18 O 0.76340 -0.05340 0.69400
O19 O 0.84860 0.04850 0.56700
O20 O 0.74750 0.19170 0.60990
C25 C 0.79820 -0.03350 0.74730
C26 C 0.78120 -0.11250 0.78330
C27 C 0.67320 -0.13190 0.78920
C28 C 0.61600 -0.05010 0.80420
C29 C 0.64330 0.02960 0.76980
C30 C 0.60290 0.11520 0.79010
O21 O 0.83100 -0.18550 0.76010
O22 O 0.66330 -0.19720 0.83060
O23 O 0.51560 -0.07050 0.79430
O24 O 0.74810 0.03960 0.76920
O25 O 0.61800 0.12660 0.84800
C31 C 0.44480 -0.05270 0.83390
C32 C 0.37250 -0.12660 0.83650
C33 C 0.32930 -0.13970 0.77910
C34 C 0.28090 -0.05560 0.76280
C35 C 0.34610 0.02420 0.76870
C36 C 0.28910 0.10950 0.76440
O26 O 0.41590 -0.20400 0.85730
O27 O 0.25900 -0.20860 0.78090
O28 O 0.25440 -0.06300 0.70660
O29 O 0.39260 0.02480 0.82220
O30 O 0.19830 0.10780 0.79240
H1 H 0.10900 -0.04700 0.73000
H2 H 0.05000 -0.12300 0.64300
H3 H 0.26600 -0.13100 0.60800
H4 H 0.09500 -0.01800 0.56200
H5 H 0.28100 0.03600 0.62900
H6 H 0.23300 0.14900 0.56300
H7 H 0.20000 0.18500 0.62900
H8 H 0.11000 -0.25000 0.66700
H9 H 0.17100 -0.17100 0.52400
H10 H 0.03100 0.10000 0.57100
H11 H 0.12900 0.02200 0.48300
H12 H 0.20600 -0.05000 0.39700
H13 H 0.36200 -0.10900 0.47500
H14 H 0.37600 0.02300 0.38200
H15 H 0.38700 0.06000 0.50600
H16 H 0.47500 0.16500 0.45400
H17 H 0.35700 0.21700 0.47000
H18 H 0.10200 -0.13000 0.44900
H19 H 0.36700 -0.20000 0.41800
H20 H 0.32600 0.22200 0.38200
H21 H 0.51900 0.03200 0.35800
H22 H 0.67700 -0.06100 0.35200
H23 H 0.62200 -0.11900 0.46500
H24 H 0.79400 -0.00900 0.43500
H25 H 0.60900 0.06000 0.49300
H26 H 0.74500 0.14800 0.51300
H27 H 0.68200 0.20600 0.46400
H28 H 0.50200 -0.14900 0.37200
H29 H 0.69900 -0.22000 0.42800
H30 H 0.80200 0.17700 0.40300
H31 H 0.89500 -0.00700 0.49600
H32 H 0.96100 -0.09600 0.57300
H33 H 0.74600 -0.13600 0.60600
H34 H 0.90300 -0.01800 0.66300
H35 H 0.70900 0.02500 0.60500
H36 H 0.87300 0.14300 0.64900
H37 H 0.75400 0.11900 0.68200
H38 H 0.83000 -0.20000 0.68000
H39 H 0.70100 0.22500 0.63100
H40 H 0.87600 -0.01200 0.74600
H41 H 0.81100 -0.09900 0.82300
H42 H 0.64600 -0.15700 0.75200
H43 H 0.62600 -0.03500 0.84700
H44 H 0.61500 0.02000 0.72800
H45 H 0.63400 0.17000 0.76600
H46 H 0.52400 0.11500 0.78200
H47 H 0.83600 -0.21800 0.77900
H48 H 0.60400 -0.19800 0.82000
H49 H 0.67000 0.16800 0.85000
H50 H 0.48600 -0.04000 0.87300
H51 H 0.31300 -0.11000 0.86800
H52 H 0.38300 -0.15700 0.74900
H53 H 0.21400 -0.04600 0.78800
H54 H 0.40200 0.02300 0.73700
H55 H 0.33400 0.16700 0.78100
H56 H 0.27700 0.12200 0.71900
H57 H 0.46200 -0.22100 0.81900
H58 H 0.23300 -0.22100 0.75000
H59 H 0.17300 0.11800 0.83000

#END

