
#######################################################################
#
#                 Cambridge Crystallographic Data Centre
#                                CCDC 
#
#######################################################################
#
# If this CIF has been generated directly or indirectly from an entry in the 
# Cambridge Structural Database, then it will include bibliographic, chemical, 
# crystal, experimental, refinement or atomic coordinate data resulting from 
# the CCDC's data processing and validation procedures. Files generated from 
# CSD entries are Copyright 2015 Cambridge Crystallographic Data Centre. They 
# may be used in bona fide research applications only, and may not be copied or 
# further disseminated in any form, whether machine-readable or not, except for 
# the purposes of generating routine backup copies on your local computer 
# system.
# 
# Files arising from any other source may also contain material that is the 
# copyright of third parties, including the originator, and you should check 
# with the originator concerning the permitted uses of the information 
# contained in this CIF.
#
# For further information on the CCDC and the free tools enCIFer and Mercury
# for validating and visualising CIF files, please visit www.ccdc.cam.ac.uk
#
#######################################################################

data_AJOJAL
_audit_creation_date             2010-08-29
_database_code_depnum_ccdc_archive 'CCDC 745246'
_chemical_formula_moiety         'C60 H60 B6 O12,C1 H1 Cl3'
_chemical_name_systematic        
'bis(Benzene-1,3,5-triyl)tris(2,7-(5,5,10,10-tetramethyl-3a,5,5a,8a,10,10a-hexahydro[1,3,2]dioxaborolo[5,6]-s-indaceno[1,2-d][1,3,2]dioxaborole)) chloroform clathrate'
_journal_coden_Cambridge         1220
_journal_volume                  15
_journal_year                    2009
_journal_page_first              13327
_journal_name_full               Chem.-Eur.J.
loop_
_publ_author_name
H.Takahagi
S.Fujibe
N.Iwasawa
_chemical_absolute_configuration unk
_diffrn_ambient_temperature      173
_exptl_crystal_density_diffrn    1.159
#These two values have been output from a single CSD field.
_refine_ls_R_factor_gt           0.112
_refine_ls_wR_factor_gt          0.112
_diffrn_radiation_probe          x-ray
_symmetry_cell_setting           orthorhombic
_symmetry_space_group_name_H-M   'P 21 21 2'
_symmetry_Int_Tables_number      18
loop_
_symmetry_equiv_pos_site_id
_symmetry_equiv_pos_as_xyz
1 x,y,z
2 -x,-y,z
3 1/2-x,1/2+y,-z
4 1/2+x,1/2-y,-z
_cell_length_a                   20.606(5)
_cell_length_b                   23.332(6)
_cell_length_c                   13.799(4)
_cell_angle_alpha                90
_cell_angle_beta                 90
_cell_angle_gamma                90
_cell_volume                     6634.27
_cell_formula_units_Z            4
_exptl_crystal_recrystallization_method 'diethyl ether/chloroform'
loop_
_atom_site_label
_atom_site_type_symbol
_atom_site_fract_x
_atom_site_fract_y
_atom_site_fract_z
H1 H 0.4343(18) 1.0793(19) 0.247(6)
C1 C 0.5695(5) 1.1468(4) 0.3127(10)
H2 H 0.5298 1.1668 0.2931
H3 H 0.6059 1.1739 0.3136
H4 H 0.5636 1.1306 0.3776
C2 C 0.6068(4) 0.8956(3) 0.9614(5)
C3 C 0.6710(4) 0.9058(3) 0.9117(5)
H5 H 0.7078 0.9021 0.9585
C4 C 0.6776(4) 0.8611(3) 0.8267(6)
H6 H 0.7120 0.8318 0.8391
C5 C 0.6107(4) 0.8354(3) 0.8210(5)
C6 C 0.5881(4) 0.7968(3) 0.7511(6)
H7 H 0.6161 0.7825 0.7020
C7 C 0.5232(3) 0.7800(3) 0.7559(5)
C8 C 0.4882(4) 0.7376(3) 0.6937(5)
C9 C 0.4166(4) 0.7532(3) 0.7153(5)
H8 H 0.3883 0.7184 0.7136
C10 C 0.4154(3) 0.7810(3) 0.8143(6)
H9 H 0.4017 0.7537 0.8662
C11 C 0.4830(3) 0.8007(3) 0.8273(5)
C12 C 0.5078(4) 0.8393(3) 0.8975(5)
H10 H 0.4800 0.8532 0.9471
C13 C 0.5699(4) 0.8565(3) 0.8952(5)
C14 C 0.6202(4) 0.8635(4) 1.0595(6)
H11 H 0.6327 0.8238 1.0459
H12 H 0.5809 0.8639 1.0994
H13 H 0.6555 0.8828 1.0943
C15 C 0.5700(4) 0.9521(3) 0.9827(7)
H14 H 0.5996 0.9795 1.0134
H15 H 0.5335 0.9443 1.0264
H16 H 0.5536 0.9682 0.9219
C16 C 0.5039(4) 0.6766(3) 0.7324(6)
H17 H 0.5509 0.6701 0.7294
H18 H 0.4816 0.6480 0.6925
H19 H 0.4892 0.6733 0.7997
C17 C 0.5041(5) 0.7416(4) 0.5845(5)
H20 H 0.5062 0.7820 0.5651
H21 H 0.4702 0.7221 0.5471
H22 H 0.5461 0.7233 0.5719
C18 C 0.6596(4) 1.1031(3) 0.6677(5)
C19 C 0.6640(3) 1.0944(4) 0.5667(5)
H23 H 0.6591 1.1263 0.5245
C20 C 0.6755(3) 1.0398(3) 0.5270(5)
C21 C 0.6822(3) 0.9938(3) 0.5921(5)
H24 H 0.6875 0.9561 0.5672
C22 C 0.6814(3) 1.0021(3) 0.6925(5)
C23 C 0.6686(3) 1.0567(3) 0.7277(5)
H25 H 0.6660 1.0623 0.7958
C24 C 0.6380(3) 1.0040(3) 0.2678(5)
H26 H 0.6637 0.9831 0.2174
C25 C 0.6499(4) 1.0699(4) 0.2656(5)
H27 H 0.6833 1.0799 0.2159
C26 C 0.5840(4) 1.0986(4) 0.2407(6)
C27 C 0.5364(4) 1.0502(3) 0.2502(5)
C28 C 0.4695(4) 1.0532(4) 0.2526(5)
C29 C 0.4335(3) 1.0026(4) 0.2543(5)
C30 C 0.5867(5) 1.1189(4) 0.1375(7)
H28 H 0.5891 1.0857 0.0941
H29 H 0.6252 1.1430 0.1283
H30 H 0.5476 1.1412 0.1227
B1 B 0.6829(4) 0.9504(4) 0.7636(7)
B2 B 0.6691(4) 1.0338(4) 0.4175(7)
O1 O 0.6736(3) 0.9594(2) 0.8622(4)
O2 O 0.6897(2) 0.8946(2) 0.7394(4)
O3 O 0.3712(2) 0.8291(2) 0.8054(3)
O4 O 0.3924(2) 0.7970(2) 0.6522(3)
O5 O 0.6556(2) 0.9867(2) 0.3677(4)
O6 O 0.6726(3) 1.0831(2) 0.3594(4)
B3 B 0.6340(4) 1.1602(4) 0.7082(6)
H1A H 0.5657 0.9207 0.247
C1A C 0.4305 0.8532 0.3127
H2A H 0.4702 0.8332 0.2931
H3A H 0.3941 0.8261 0.3136
H4A H 0.4364 0.8694 0.3776
C2A C 0.3932 1.1044 0.9614
C3A C 0.329 1.0942 0.9117
H5A H 0.2922 1.0979 0.9585
C4A C 0.3224 1.1389 0.8267
H6A H 0.288 1.1682 0.8391
C5A C 0.3893 1.1646 0.821
C6A C 0.4119 1.2032 0.7511
H7A H 0.3839 1.2175 0.702
C7A C 0.4768 1.22 0.7559
C8A C 0.5118 1.2624 0.6937
C9A C 0.5834 1.2468 0.7153
H8A H 0.6117 1.2816 0.7136
C10A C 0.5846 1.219 0.8143
H9A H 0.5983 1.2463 0.8662
C11A C 0.517 1.1993 0.8273
C12A C 0.4922 1.1607 0.8975
H10A H 0.52 1.1468 0.9471
C13A C 0.4301 1.1435 0.8952
C14A C 0.3798 1.1365 1.0595
H11A H 0.3673 1.1762 1.0459
H12A H 0.4191 1.1361 1.0994
H13A H 0.3445 1.1172 1.0943
C15A C 0.43 1.0479 0.9827
H14A H 0.4004 1.0205 1.0134
H15A H 0.4665 1.0557 1.0264
H16A H 0.4464 1.0318 0.9219
C16A C 0.4961 1.3234 0.7324
H17A H 0.4491 1.3299 0.7294
H18A H 0.5184 1.352 0.6925
H19A H 0.5108 1.3267 0.7997
C17A C 0.4959 1.2584 0.5845
H20A H 0.4938 1.218 0.5651
H21A H 0.5298 1.2779 0.5471
H22A H 0.4539 1.2767 0.5719
C18A C 0.3404 0.8969 0.6677
C19A C 0.336 0.9056 0.5667
H23A H 0.3409 0.8737 0.5245
C20A C 0.3245 0.9602 0.527
C21A C 0.3178 1.0062 0.5921
H24A H 0.3125 1.0439 0.5672
C22A C 0.3186 0.9979 0.6925
C23A C 0.3314 0.9433 0.7277
H25A H 0.334 0.9377 0.7958
C24A C 0.362 0.996 0.2678
H26A H 0.3363 1.0169 0.2174
C25A C 0.3501 0.9301 0.2656
H27A H 0.3167 0.9201 0.2159
C26A C 0.416 0.9014 0.2407
C27A C 0.4636 0.9498 0.2502
C28A C 0.5305 0.9468 0.2526
C29A C 0.5665 0.9974 0.2543
C30A C 0.4133 0.8811 0.1375
H28A H 0.4109 0.9143 0.0941
H29A H 0.3748 0.857 0.1283
H30A H 0.4524 0.8588 0.1227
B1A B 0.3171 1.0496 0.7636
B2A B 0.3309 0.9662 0.4175
O1A O 0.3264 1.0406 0.8622
O2A O 0.3103 1.1054 0.7394
O3A O 0.6288 1.1709 0.8054
O4A O 0.6076 1.203 0.6522
O5A O 0.3444 1.0133 0.3677
O6A O 0.3274 0.9169 0.3594
B3A B 0.366 0.8398 0.7082
O7 O 0.6090(3) 0.3460(3) 1.1238(4)
O8 O 0.5612(3) 0.3088(2) 0.9892(4)
C31 C 0.5100(5) 0.3397(5) 1.2230(6)
C32 C 0.5607(5) 0.3070(4) 1.1618(6)
H31 H 0.5814 0.2758 1.2005
C33 C 0.5276(4) 0.2826(4) 1.0699(6)
H32 H 0.5300 0.2398 1.0674
C34 C 0.4579(4) 0.3037(3) 1.0768(6)
C35 C 0.4088(4) 0.2948(3) 1.0101(6)
H33 H 0.4154 0.2715 0.9544
C36 C 0.3422(4) 0.3575(3) 1.1071(6)
C37 C 0.4509(4) 0.3383(4) 1.1584(6)
C38 C 0.4981(7) 0.3078(6) 1.3143(6)
H34 H 0.5181 0.3283 1.3685
H35 H 0.5171 0.2694 1.3092
H36 H 0.4513 0.3045 1.3253
C39 C 0.5298(6) 0.4025(5) 1.2489(10)
H37 H 0.5001 0.4177 1.2981
H38 H 0.5275 0.4264 1.1905
H39 H 0.5743 0.4028 1.2742
C40 C 0.5071(3) 0.5604(3) 0.5322(5)
H40 H 0.5116 0.6008 0.5296
C41 C 0.6443(4) 0.5551(5) 0.4142(7)
H41 H 0.6769 0.5856 0.4092
H42 H 0.6039 0.5677 0.3834
H43 H 0.6603 0.5206 0.3817
B4 B 0.6054(5) 0.3469(4) 1.0222(6)
C42 C 0.3489(4) 0.3214(3) 1.0280(6)
C43 C 0.2864(4) 0.3166(4) 0.9703(7)
C44 C 0.2463(5) 0.3676(3) 1.0128(7)
H44 H 0.1998 0.3570 1.0228
C45 C 0.2782(5) 0.3865(4) 1.1061(7)
H45 H 0.2515 0.3757 1.1639
C46 C 0.3916(5) 0.3662(4) 1.1733(7)
H46 H 0.3854 0.3906 1.2277
C47 C 0.2491(6) 0.2613(4) 0.9972(10)
H47 H 0.2138 0.2551 0.9508
H48 H 0.2310 0.2651 1.0626
H49 H 0.2789 0.2286 0.9954
C48 C 0.2984(5) 0.3214(5) 0.8647(7)
H50 H 0.2991 0.2831 0.8358
H51 H 0.3403 0.3402 0.8537
H52 H 0.2638 0.3442 0.8348
C49 C 0.6995(3) 0.4817(3) 0.9559(6)
C50 C 0.6980(3) 0.4782(3) 0.8558(6)
H53 H 0.7175 0.5081 0.8193
C51 C 0.6692(3) 0.4327(3) 0.8058(6)
C52 C 0.6421(3) 0.3897(3) 0.8596(5)
H54 H 0.6221 0.3582 0.8278
C53 C 0.6434(4) 0.3916(3) 0.9631(6)
C54 C 0.6713(3) 0.4376(3) 1.0078(6)
H55 H 0.6712 0.4393 1.0765
C55 C 0.6183(3) 0.4356(3) 0.5434(5)
H56 H 0.6267 0.4097 0.4871
C56 C 0.6675(3) 0.4848(4) 0.5488(6)
H57 H 0.7048 0.4779 0.5041
C57 C 0.6314(4) 0.5417(3) 0.5223(5)
C58 C 0.5614(4) 0.5240(3) 0.5329(5)
C59 C 0.5534(3) 0.4655(3) 0.5354(5)
C60 C 0.6500(4) 0.5909(4) 0.5860(8)
H58 H 0.6609 0.5767 0.6508
H59 H 0.6136 0.6178 0.5906
H60 H 0.6878 0.6106 0.5584
B5 B 0.7215(4) 0.5382(5) 1.0045(7)
B6 B 0.6605(4) 0.4398(4) 0.6934(6)
O9 O 0.2877(3) 0.4481(2) 1.1002(4)
O10 O 0.2528(3) 0.4180(2) 0.9523(5)
O11 O 0.6237(2) 0.4058(2) 0.6353(4)
O12 O 0.6882(2) 0.4859(2) 0.6460(4)
O7A O 0.391 0.654 1.1238
O8A O 0.4388 0.6912 0.9892
C31A C 0.49 0.6603 1.223
C32A C 0.4393 0.693 1.1618
H31A H 0.4186 0.7242 1.2005
C33A C 0.4724 0.7174 1.0699
H32A H 0.47 0.7602 1.0674
C34A C 0.5421 0.6963 1.0768
C35A C 0.5912 0.7052 1.0101
H33A H 0.5846 0.7285 0.9544
C36A C 0.6578 0.6425 1.1071
C37A C 0.5491 0.6617 1.1584
C38A C 0.5019 0.6922 1.3143
H34A H 0.4819 0.6717 1.3685
H35A H 0.4829 0.7306 1.3092
H36A H 0.5487 0.6955 1.3253
C39A C 0.4702 0.5975 1.2489
H37A H 0.4999 0.5823 1.2981
H38A H 0.4725 0.5736 1.1905
H39A H 0.4257 0.5972 1.2742
C40A C 0.4929 0.4396 0.5322
H40A H 0.4884 0.3992 0.5296
C41A C 0.3557 0.4449 0.4142
H41A H 0.3231 0.4144 0.4092
H42A H 0.3961 0.4323 0.3834
H43A H 0.3397 0.4794 0.3817
B4A B 0.3946 0.6531 1.0222
C42A C 0.6511 0.6786 1.028
C43A C 0.7136 0.6834 0.9703
C44A C 0.7537 0.6324 1.0128
H44A H 0.8002 0.643 1.0228
C45A C 0.7218 0.6135 1.1061
H45A H 0.7485 0.6243 1.1639
C46A C 0.6084 0.6338 1.1733
H46A H 0.6146 0.6094 1.2277
C47A C 0.7509 0.7387 0.9972
H47A H 0.7862 0.7449 0.9508
H48A H 0.769 0.7349 1.0626
H49A H 0.7211 0.7714 0.9954
C48A C 0.7016 0.6786 0.8647
H50A H 0.7009 0.7169 0.8358
H51A H 0.6597 0.6598 0.8537
H52A H 0.7362 0.6558 0.8348
C49A C 0.3005 0.5183 0.9559
C50A C 0.302 0.5218 0.8558
H53A H 0.2825 0.4919 0.8193
C51A C 0.3308 0.5673 0.8058
C52A C 0.3579 0.6103 0.8596
H54A H 0.3779 0.6418 0.8278
C53A C 0.3566 0.6084 0.9631
C54A C 0.3287 0.5624 1.0078
H55A H 0.3288 0.5607 1.0765
C55A C 0.3817 0.5644 0.5434
H56A H 0.3733 0.5903 0.4871
C56A C 0.3325 0.5152 0.5488
H57A H 0.2952 0.5221 0.5041
C57A C 0.3686 0.4583 0.5223
C58A C 0.4386 0.476 0.5329
C59A C 0.4466 0.5345 0.5354
C60A C 0.35 0.4091 0.586
H58A H 0.3391 0.4233 0.6508
H59A H 0.3864 0.3822 0.5906
H60A H 0.3122 0.3894 0.5584
B5A B 0.2785 0.4618 1.0045
B6A B 0.3395 0.5602 0.6934
O9A O 0.7123 0.5519 1.1002
O10A O 0.7472 0.582 0.9523
O11A O 0.3763 0.5942 0.6353
O12A O 0.3118 0.5141 0.646
C61 C 0.2391(8) 0.1995(6) 0.5987(11)
H61 H 0.2756 0.1718 0.5892
Cl1 Cl 0.2617(5) 0.2716(3) 0.6130(9)
Cl2 Cl 0.1838(4) 0.1821(5) 0.6908(8)
Cl3 Cl 0.1878(12) 0.2091(10) 0.4991(9)
C62 C 0.3287(7) 0.2331(6) 0.2780(13)
H62 H 0.3534 0.2479 0.2208
Cl4 Cl 0.2943(6) 0.2878(6) 0.3483(11)
Cl5 Cl 0.3753(7) 0.1874(6) 0.3524(13)
Cl6 Cl 0.2593(6) 0.1942(6) 0.2453(10)
C63? C 0.4869(17) 1.0028(10) 0.6264(8)
Cl7? Cl 0.4850(2) 1.0604(2) 0.6820(4)
Cl8? Cl 0.5000 1.0000 0.5026(3)
C64? C 0.4771(7) 0.5059(7) 0.9040(7)
Cl9? Cl 0.5000 0.5000 0.7805(3)
Cl10? Cl 0.46731(18) 0.4462(2) 0.9597(4)

#END

