
#######################################################################
#
#                 Cambridge Crystallographic Data Centre
#                                CCDC 
#
#######################################################################
#
# If this CIF has been generated directly or indirectly from an entry in the 
# Cambridge Structural Database, then it will include bibliographic, chemical, 
# crystal, experimental, refinement or atomic coordinate data resulting from 
# the CCDC's data processing and validation procedures. Files generated from 
# CSD entries are Copyright 2015 Cambridge Crystallographic Data Centre. They 
# may be used in bona fide research applications only, and may not be copied or 
# further disseminated in any form, whether machine-readable or not, except for 
# the purposes of generating routine backup copies on your local computer 
# system.
# 
# Files arising from any other source may also contain material that is the 
# copyright of third parties, including the originator, and you should check 
# with the originator concerning the permitted uses of the information 
# contained in this CIF.
#
# For further information on the CCDC and the free tools enCIFer and Mercury
# for validating and visualising CIF files, please visit www.ccdc.cam.ac.uk
#
#######################################################################

data_BATVUP
_audit_creation_date             2012-08-20
_database_code_depnum_ccdc_archive 'CCDC 883369'
_chemical_formula_moiety         'C36 H36 N24 O12,C3 H6 O1,8(H2 O1)'
_chemical_name_systematic        'Cucurbit[6]uril acetone clathrate octahydrate'
_journal_coden_Cambridge         1147
_journal_volume                  11
_journal_year                    2011
_journal_page_first              5598
_journal_name_full               'Cryst.Growth Des.'
loop_
_publ_author_name
D.Bardelang
K.A.Udachin
D.M.Leek
J.C.Margeson
G.Chan
C.I.Ratcliffe
J.A.Ripmeester
_chemical_absolute_configuration unk
_diffrn_ambient_temperature      100
_exptl_crystal_density_meas      1.625
_exptl_crystal_density_diffrn    1.625
#These two values have been output from a single CSD field.
_refine_ls_R_factor_gt           0.0677
_refine_ls_wR_factor_gt          0.0677
_diffrn_radiation_probe          x-ray
_symmetry_cell_setting           orthorhombic
_symmetry_space_group_name_H-M   'C m c 21'
_symmetry_Int_Tables_number      36
loop_
_symmetry_equiv_pos_site_id
_symmetry_equiv_pos_as_xyz
1 x,y,z
2 -x,-y,1/2+z
3 x,-y,1/2+z
4 -x,y,z
5 1/2+x,1/2+y,z
6 1/2-x,1/2-y,1/2+z
7 1/2+x,1/2-y,1/2+z
8 1/2-x,1/2+y,z
_cell_length_a                   19.5742(10)
_cell_length_b                   15.8048(10)
_cell_length_c                   15.8402(9)
_cell_angle_alpha                90
_cell_angle_beta                 90
_cell_angle_gamma                90
_cell_volume                     4900.42
_cell_formula_units_Z            4
loop_
_atom_site_label
_atom_site_type_symbol
_atom_site_fract_x
_atom_site_fract_y
_atom_site_fract_z
O6 O 0.0000 0.4715(5) 1.1512(6)
O7 O 0.1687(3) 0.3979(4) 1.0849(4)
O8 O 0.1678(3) 0.2455(3) 0.9447(4)
O9 O 0.0000 0.1754(5) 0.8859(5)
O10 O 0.0000 0.2142(4) 1.4434(5)
O11 O 0.1634(2) 0.1378(3) 1.3711(4)
O12 O 0.1682(2) -0.0233(3) 1.2301(4)
O13 O 0.0000 -0.1009(4) 1.1575(6)
N1 N 0.0567(3) 0.3294(3) 1.3850(4)
N2 N 0.0559(3) 0.4335(4) 1.2737(5)
N3 N 0.1669(3) 0.3816(4) 1.2299(5)
N4 N 0.1703(3) 0.2805(4) 1.3472(4)
N5 N 0.2290(3) 0.1944(3) 1.2651(4)
N6 N 0.2366(3) 0.3011(4) 1.1543(5)
N7 N 0.2322(3) 0.1860(3) 1.0528(5)
N8 N 0.2350(3) 0.0783(4) 1.1660(5)
N9 N 0.1675(3) -0.0018(4) 1.0846(5)
N10 N 0.1700(3) 0.1026(4) 0.9708(5)
N11 N 0.0567(3) 0.0562(4) 0.9302(5)
N12 N 0.0564(3) -0.0519(3) 1.0399(4)
C3 C 0.0000 0.4489(6) 1.2250(9)
C4 C 0.0383(3) 0.4136(4) 1.3613(5)
H12 H 0.0572 0.4565 1.4015
C5 C 0.0000 0.2824(7) 1.4093(6)
C6 C 0.1240(4) 0.4540(4) 1.2471(5)
H13 H 0.1459 0.4885 1.2917
H14 H 0.1213 0.4891 1.1955
C7 C 0.1242(4) 0.3068(4) 1.4147(5)
H15 H 0.1200 0.2601 1.4560
H16 H 0.1443 0.3559 1.4443
C8 C 0.2077(3) 0.3376(5) 1.2916(5)
H17 H 0.2365 0.3779 1.3248
C9 C 0.1886(4) 0.3633(5) 1.1493(6)
C10 C 0.2521(3) 0.2784(4) 1.2384(6)
H18 H 0.3017 0.2867 1.2509
C11 C 0.1849(4) 0.1978(5) 1.3286(6)
C12 C 0.2656(4) 0.2633(5) 1.0787(5)
H19 H 0.2627 0.3048 1.0320
H20 H 0.3145 0.2513 1.0889
C13 C 0.2620(3) 0.1164(4) 1.2395(5)
H21 H 0.3111 0.1281 1.2300
H22 H 0.2586 0.0754 1.2866
C14 C 0.2537(4) 0.1028(5) 1.0798(6)
H23 H 0.3033 0.0930 1.0682
C15 C 0.1864(4) 0.1835(5) 0.9861(6)
C16 C 0.2066(4) 0.0440(4) 1.0235(5)
H24 H 0.2349 0.0046 0.9886
C17 C 0.1866(3) 0.0150(4) 1.1654(6)
C18 C 0.1245(4) 0.0796(5) 0.9031(5)
H25 H 0.1447 0.0316 0.8717
H26 H 0.1209 0.1279 0.8636
C19 C 0.1255(4) -0.0747(4) 1.0647(5)
H27 H 0.1234 -0.1121 1.1148
H28 H 0.1473 -0.1068 1.0183
C20 C 0.0000 0.1024(7) 0.9135(7)
C21 C 0.0396(4) -0.0303(4) 0.9555(6)
H29 H 0.0582 -0.0726 0.9146
C22 C 0.0000 -0.0710(7) 1.0867(7)
O7C O -0.1687 0.3979 1.0849
O8C O -0.1678 0.2455 0.9447
O11C O -0.1634 0.1378 1.3711
O12C O -0.1682 -0.0233 1.2301
N1C N -0.0567 0.3294 1.385
N2C N -0.0559 0.4335 1.2737
N3C N -0.1669 0.3816 1.2299
N4C N -0.1703 0.2805 1.3472
N5C N -0.229 0.1944 1.2651
N6C N -0.2366 0.3011 1.1543
N7C N -0.2322 0.186 1.0528
N8C N -0.235 0.0783 1.166
N9C N -0.1675 -0.0018 1.0846
N10C N -0.17 0.1026 0.9708
N11C N -0.0567 0.0562 0.9302
N12C N -0.0564 -0.0519 1.0399
C4C C -0.0383 0.4136 1.3613
H12C H -0.0572 0.4565 1.4015
C6C C -0.124 0.454 1.2471
H13C H -0.1459 0.4885 1.2917
H14C H -0.1213 0.4891 1.1955
C7C C -0.1242 0.3068 1.4147
H15C H -0.12 0.2601 1.456
H16C H -0.1443 0.3559 1.4443
C8C C -0.2077 0.3376 1.2916
H17C H -0.2365 0.3779 1.3248
C9C C -0.1886 0.3633 1.1493
C10C C -0.2521 0.2784 1.2384
H18C H -0.3017 0.2867 1.2509
C11C C -0.1849 0.1978 1.3286
C12C C -0.2656 0.2633 1.0787
H19C H -0.2627 0.3048 1.032
H20C H -0.3145 0.2513 1.0889
C13C C -0.262 0.1164 1.2395
H21C H -0.3111 0.1281 1.23
H22C H -0.2586 0.0754 1.2866
C14C C -0.2537 0.1028 1.0798
H23C H -0.3033 0.093 1.0682
C15C C -0.1864 0.1835 0.9861
C16C C -0.2066 0.044 1.0235
H24C H -0.2349 0.0046 0.9886
C17C C -0.1866 0.015 1.1654
C18C C -0.1245 0.0796 0.9031
H25C H -0.1447 0.0316 0.8717
H26C H -0.1209 0.1279 0.8636
C19C C -0.1255 -0.0747 1.0647
H27C H -0.1234 -0.1121 1.1148
H28C H -0.1473 -0.1068 1.0183
C21C C -0.0396 -0.0303 0.9555
H29C H -0.0582 -0.0726 0.9146

#END

