####################################################################### 
# 
# This file contains crystal structure data downloaded from the 
# Cambridge Structural Database (CSD) hosted by the Cambridge 
# Crystallographic Data Centre (CCDC).
# 
# Full information about CCDC data access policies and citation 
# guidelines are available at http://www.ccdc.cam.ac.uk/access/V1 
# 
# Audit and citation data items may have been added by the CCDC. 
# Please retain this information to preserve the provenance of 
# this file and to allow appropriate attribution of the data. 
# 
#######################################################################

data_ta130
_audit_block_doi                 10.5517/cctjj61
_database_code_depnum_ccdc_archive 'CCDC 760653'
loop_
_citation_id
_citation_doi
_citation_year
1 10.1246/cl.2010.1016 2010
_audit_update_record             
;
2010-01-06 deposited with the CCDC.
2015-08-22 downloaded from the CCDC.
;
#TrackingRef '760653.cif'


_audit_creation_method           SHELXL-97
_chemical_name_systematic        
;
?
;
_chemical_name_common            ?
_chemical_melting_point          ?
_chemical_formula_moiety         ?
_chemical_formula_sum            'C43 H43 F3 N28 O17 S'
_chemical_formula_weight         1313.12

loop_
_atom_type_symbol
_atom_type_description
_atom_type_scat_dispersion_real
_atom_type_scat_dispersion_imag
_atom_type_scat_source
C C 0.0033 0.0016 'International Tables Vol C Tables 4.2.6.8 and 6.1.1.4'
H H 0.0000 0.0000 'International Tables Vol C Tables 4.2.6.8 and 6.1.1.4'
N N 0.0061 0.0033 'International Tables Vol C Tables 4.2.6.8 and 6.1.1.4'
O O 0.0106 0.0060 'International Tables Vol C Tables 4.2.6.8 and 6.1.1.4'
F F 0.0171 0.0103 'International Tables Vol C Tables 4.2.6.8 and 6.1.1.4'
S S 0.1246 0.1234 'International Tables Vol C Tables 4.2.6.8 and 6.1.1.4'

_symmetry_cell_setting           Trigonal
_symmetry_space_group_name_H-M   'R -3'

loop_
_symmetry_equiv_pos_as_xyz
'x, y, z'
'-y, x-y, z'
'-x+y, -x, z'
'x+2/3, y+1/3, z+1/3'
'-y+2/3, x-y+1/3, z+1/3'
'-x+y+2/3, -x+1/3, z+1/3'
'x+1/3, y+2/3, z+2/3'
'-y+1/3, x-y+2/3, z+2/3'
'-x+y+1/3, -x+2/3, z+2/3'
'-x, -y, -z'
'y, -x+y, -z'
'x-y, x, -z'
'-x+2/3, -y+1/3, -z+1/3'
'y+2/3, -x+y+1/3, -z+1/3'
'x-y+2/3, x+1/3, -z+1/3'
'-x+1/3, -y+2/3, -z+2/3'
'y+1/3, -x+y+2/3, -z+2/3'
'x-y+1/3, x+2/3, -z+2/3'

_cell_length_a                   32.3851(9)
_cell_length_b                   32.3851(9)
_cell_length_c                   36.135(2)
_cell_angle_alpha                90.00
_cell_angle_beta                 90.00
_cell_angle_gamma                120.00
_cell_volume                     32821(2)
_cell_formula_units_Z            18
_cell_measurement_temperature    185(2)
_cell_measurement_reflns_used    6268
_cell_measurement_theta_min      2.18
_cell_measurement_theta_max      19.71

_exptl_crystal_description       block
_exptl_crystal_colour            colorless
_exptl_crystal_size_max          0.38
_exptl_crystal_size_mid          0.22
_exptl_crystal_size_min          0.17
_exptl_crystal_density_meas      ?
_exptl_crystal_density_diffrn    1.195
_exptl_crystal_density_method    'not measured'
_exptl_crystal_F_000             12150
_exptl_absorpt_coefficient_mu    0.127
_exptl_absorpt_correction_type   multi-scan
_exptl_absorpt_correction_T_min  0.9535
_exptl_absorpt_correction_T_max  0.9788
_exptl_absorpt_process_details   '(SADABS; Sheldrick, 1996)'

_exptl_special_details           
;
?
;

_diffrn_ambient_temperature      185(2)
_diffrn_radiation_wavelength     0.71073
_diffrn_radiation_type           MoK\a
_diffrn_radiation_source         'fine-focus sealed tube'
_diffrn_radiation_monochromator  graphite
_diffrn_measurement_device_type  'Bruker APEX CCD area detector'
_diffrn_measurement_method       'phi and omega scans'
_diffrn_detector_area_resol_mean ?
_diffrn_standards_number         ?
_diffrn_standards_interval_count ?
_diffrn_standards_interval_time  ?
_diffrn_standards_decay_%        ?
_diffrn_reflns_number            67582
_diffrn_reflns_av_R_equivalents  0.0711
_diffrn_reflns_av_sigmaI/netI    0.0686
_diffrn_reflns_limit_h_min       -38
_diffrn_reflns_limit_h_max       38
_diffrn_reflns_limit_k_min       -35
_diffrn_reflns_limit_k_max       38
_diffrn_reflns_limit_l_min       -42
_diffrn_reflns_limit_l_max       42
_diffrn_reflns_theta_min         1.34
_diffrn_reflns_theta_max         25.03
_reflns_number_total             12899
_reflns_number_gt                6775
_reflns_threshold_expression     >2sigma(I)

_computing_data_collection       'Bruker SMART'
_computing_cell_refinement       'Bruker SMART'
_computing_data_reduction        'Bruker SAINT'
_computing_structure_solution    'SHELXS-97 (Sheldrick, 1990)'
_computing_structure_refinement  'SHELXL-97 (Sheldrick, 1997)'
_computing_molecular_graphics    'Bruker SHELXTL'
_computing_publication_material  'Bruker SHELXTL'

_refine_special_details          
;
Refinement of F^2^ against ALL reflections. The weighted R-factor wR and
goodness of fit S are based on F^2^, conventional R-factors R are based
on F, with F set to zero for negative F^2^. The threshold expression of
F^2^ > 2sigma(F^2^) is used only for calculating R-factors(gt) etc. and is
not relevant to the choice of reflections for refinement. R-factors based
on F^2^ are statistically about twice as large as those based on F, and R-
factors based on ALL data will be even larger.
;

_refine_ls_structure_factor_coef Fsqd
_refine_ls_matrix_type           full
_refine_ls_weighting_scheme      calc
_refine_ls_weighting_details     
'calc w=1/[\s^2^(Fo^2^)+(0.1809P)^2^] where P=(Fo^2^+2Fc^2^)/3'
_atom_sites_solution_primary     direct
_atom_sites_solution_secondary   difmap
_atom_sites_solution_hydrogens   geom
_refine_ls_hydrogen_treatment    constr
_refine_ls_extinction_method     none
_refine_ls_extinction_coef       ?
_refine_ls_number_reflns         12899
_refine_ls_number_parameters     811
_refine_ls_number_restraints     23
_refine_ls_R_factor_all          0.1519
_refine_ls_R_factor_gt           0.0931
_refine_ls_wR_factor_ref         0.2984
_refine_ls_wR_factor_gt          0.2645
_refine_ls_goodness_of_fit_ref   1.009
_refine_ls_restrained_S_all      1.046
_refine_ls_shift/su_max          0.011
_refine_ls_shift/su_mean         0.000

loop_
_atom_site_label
_atom_site_type_symbol
_atom_site_fract_x
_atom_site_fract_y
_atom_site_fract_z
_atom_site_U_iso_or_equiv
_atom_site_adp_type
_atom_site_occupancy
_atom_site_symmetry_multiplicity
_atom_site_calc_flag
_atom_site_refinement_flags
_atom_site_disorder_assembly
_atom_site_disorder_group
O1 O 0.18404(15) 0.72624(15) 0.04448(14) 0.0790(13) Uani 1 1 d . . .
O2 O 0.27220(13) 0.87689(13) -0.07604(10) 0.0598(10) Uani 1 1 d . . .
O3 O 0.30378(18) 0.77885(17) 0.09341(15) 0.0987(16) Uani 1 1 d . . .
O4 O 0.3739(2) 0.92986(16) -0.02546(12) 0.0952(16) Uani 1 1 d . . .
O5 O 0.35500(16) 0.85913(16) 0.16894(12) 0.0765(12) Uani 1 1 d . . .
O6 O 0.40934(13) 1.01603(14) 0.05567(10) 0.0626(10) Uani 1 1 d . . .
O7 O 0.28099(15) 0.89969(14) 0.20271(11) 0.0655(11) Uani 1 1 d . . .
O8 O 0.35623(12) 1.07524(12) 0.10702(10) 0.0552(9) Uani 1 1 d . . .
O9 O 0.14939(13) 0.87570(12) 0.19253(10) 0.0589(10) Uani 1 1 d . . .
O10 O 0.23320(12) 1.04980(12) 0.09103(9) 0.0495(9) Uani 1 1 d . . .
O11 O 0.06738(12) 0.80860(12) 0.12115(9) 0.0487(9) Uani 1 1 d . . .
O12 O 0.15677(12) 0.98047(11) 0.02487(9) 0.0475(8) Uani 1 1 d . . .
O13 O 0.07150(13) 0.73068(12) 0.05531(10) 0.0573(10) Uani 1 1 d . . .
O14 O 0.17803(13) 0.90530(12) -0.04474(10) 0.0568(10) Uani 1 1 d . . .
N1 N 0.24214(17) 0.75761(17) -0.00128(16) 0.0698(14) Uani 1 1 d . . .
N2 N 0.16787(16) 0.74111(15) -0.01454(14) 0.0585(12) Uani 1 1 d . . .
N3 N 0.27596(17) 0.81340(16) -0.05247(14) 0.0634(13) Uani 1 1 d . . .
N4 N 0.20538(16) 0.80757(15) -0.05870(12) 0.0554(11) Uani 1 1 d . . .
N5 N 0.3751(2) 0.83983(18) 0.06971(14) 0.0663(13) Uani 1 1 d . . .
N6 N 0.31830(18) 0.79163(18) 0.03090(16) 0.0677(14) Uani 1 1 d . . .
N7 N 0.39897(19) 0.90131(17) 0.02340(14) 0.0674(13) Uani 1 1 d . . .
N8 N 0.35090(18) 0.85083(17) -0.01851(14) 0.0650(13) Uani 1 1 d . . .
N9 N 0.39716(17) 0.94023(17) 0.16187(12) 0.0585(12) Uani 1 1 d . . .
N10 N 0.40608(19) 0.89585(17) 0.12070(14) 0.0694(14) Uani 1 1 d . . .
N11 N 0.42124(15) 1.00460(16) 0.11691(12) 0.0518(11) Uani 1 1 d . . .
N12 N 0.42518(19) 0.95734(18) 0.07413(13) 0.0697(14) Uani 1 1 d . . .
N13 N 0.28309(15) 0.97156(14) 0.19563(11) 0.0463(10) Uani 1 1 d . . .
N14 N 0.35055(16) 0.97007(16) 0.19226(11) 0.0523(11) Uani 1 1 d . . .
N15 N 0.31710(14) 1.04721(14) 0.16263(11) 0.0450(10) Uani 1 1 d . . .
N16 N 0.37748(14) 1.03584(14) 0.14919(11) 0.0464(10) Uani 1 1 d . . .
N17 N 0.13119(14) 0.92907(14) 0.16510(11) 0.0456(10) Uani 1 1 d . . .
N18 N 0.20220(14) 0.95686(13) 0.19157(11) 0.0449(10) Uani 1 1 d . . .
N19 N 0.16516(14) 0.99714(13) 0.12321(10) 0.0397(9) Uani 1 1 d . . .
N20 N 0.23526(13) 1.02642(13) 0.15113(10) 0.0404(9) Uani 1 1 d . . .
N21 N 0.04909(14) 0.83427(13) 0.06730(10) 0.0434(10) Uani 1 1 d . . .
N22 N 0.07754(14) 0.88418(14) 0.11529(11) 0.0448(10) Uani 1 1 d . . .
N23 N 0.09259(14) 0.90412(13) 0.02884(10) 0.0442(10) Uani 1 1 d . . .
N24 N 0.10675(13) 0.95447(13) 0.07538(11) 0.0421(9) Uani 1 1 d . . .
N25 N 0.10358(15) 0.75677(14) -0.00279(12) 0.0522(11) Uani 1 1 d . . .
N26 N 0.06135(14) 0.78560(13) 0.02239(11) 0.0445(10) Uani 1 1 d . . .
N27 N 0.14114(14) 0.82289(13) -0.04631(11) 0.0444(10) Uani 1 1 d . . .
N28 N 0.10601(13) 0.85672(13) -0.01537(10) 0.0405(9) Uani 1 1 d . . .
C1 C 0.1964(2) 0.74062(19) 0.0124(2) 0.0683(17) Uani 1 1 d . . .
C2 C 0.2442(2) 0.7654(2) -0.04022(19) 0.0660(16) Uani 1 1 d . . .
H2 H 0.2496 0.7418 -0.0540 0.079 Uiso 1 1 calc R . .
C3 C 0.1938(2) 0.75872(19) -0.04868(17) 0.0606(15) Uani 1 1 d . . .
H3 H 0.1778 0.7359 -0.0695 0.073 Uiso 1 1 calc R . .
C4 C 0.25368(19) 0.83665(19) -0.06334(15) 0.0520(13) Uani 1 1 d . . .
C5 C 0.2770(2) 0.7495(2) 0.0185(2) 0.084(2) Uani 1 1 d . . .
H5A H 0.2612 0.7290 0.0402 0.101 Uiso 1 1 calc R . .
H5B H 0.2873 0.7318 0.0020 0.101 Uiso 1 1 calc R . .
C6 C 0.3275(2) 0.8348(2) -0.05403(17) 0.0676(16) Uani 1 1 d . . .
H6A H 0.3353 0.8111 -0.0643 0.081 Uiso 1 1 calc R . .
H6B H 0.3405 0.8623 -0.0712 0.081 Uiso 1 1 calc R . .
C7 C 0.3307(3) 0.8015(3) 0.0675(2) 0.079(2) Uani 1 1 d . . .
C8 C 0.3954(2) 0.8565(2) 0.03451(18) 0.0682(16) Uani 1 1 d . . .
H8 H 0.4267 0.8577 0.0321 0.082 Uiso 1 1 calc R . .
C9 C 0.3580(2) 0.8205(2) 0.00649(18) 0.0647(16) Uani 1 1 d . . .
H9 H 0.3698 0.8012 -0.0065 0.078 Uiso 1 1 calc R . .
C10 C 0.3738(2) 0.8972(2) -0.00876(18) 0.0662(16) Uani 1 1 d . . .
C11 C 0.4020(3) 0.8528(2) 0.10377(18) 0.0759(18) Uani 1 1 d . . .
H11A H 0.4343 0.8581 0.0987 0.091 Uiso 1 1 calc R . .
H11B H 0.3863 0.8260 0.1215 0.091 Uiso 1 1 calc R . .
C12 C 0.4353(2) 0.9465(2) 0.03759(18) 0.078(2) Uani 1 1 d . . .
H12A H 0.4393 0.9719 0.0203 0.094 Uiso 1 1 calc R . .
H12B H 0.4659 0.9465 0.0384 0.094 Uiso 1 1 calc R . .
C13 C 0.3828(2) 0.8956(2) 0.15218(16) 0.0593(15) Uani 1 1 d . . .
C14 C 0.43408(19) 0.9744(2) 0.13788(15) 0.0547(13) Uani 1 1 d . . .
H14 H 0.4647 0.9936 0.1515 0.066 Uiso 1 1 calc R . .
C15 C 0.4385(2) 0.9434(2) 0.10854(18) 0.0710(17) Uani 1 1 d . . .
H15 H 0.4718 0.9492 0.1072 0.085 Uiso 1 1 calc R . .
C16 C 0.41731(18) 0.9948(2) 0.07975(16) 0.0554(14) Uani 1 1 d . . .
C17 C 0.3836(2) 0.9523(2) 0.19642(15) 0.0605(15) Uani 1 1 d . . .
H17A H 0.4127 0.9769 0.2091 0.073 Uiso 1 1 calc R . .
H17B H 0.3688 0.9237 0.2124 0.073 Uiso 1 1 calc R . .
C18 C 0.42149(17) 1.04600(18) 0.13192(14) 0.0496(13) Uani 1 1 d . . .
H18A H 0.4475 1.0611 0.1504 0.059 Uiso 1 1 calc R . .
H18B H 0.4286 1.0693 0.1117 0.059 Uiso 1 1 calc R . .
C19 C 0.3027(2) 0.9426(2) 0.19712(14) 0.0513(13) Uani 1 1 d . . .
C20 C 0.31995(17) 1.02100(17) 0.19451(13) 0.0457(12) Uani 1 1 d . . .
H20 H 0.3219 1.0377 0.2183 0.055 Uiso 1 1 calc R . .
C21 C 0.36534(18) 1.01944(18) 0.18698(14) 0.0477(12) Uani 1 1 d . . .
H21 H 0.3914 1.0403 0.2045 0.057 Uiso 1 1 calc R . .
C22 C 0.35027(17) 1.05433(18) 0.13649(14) 0.0466(12) Uani 1 1 d . . .
C23 C 0.23769(17) 0.95650(18) 0.21478(14) 0.0482(12) Uani 1 1 d . . .
H23A H 0.2254 0.9239 0.2246 0.058 Uiso 1 1 calc R . .
H23B H 0.2436 0.9780 0.2361 0.058 Uiso 1 1 calc R . .
C24 C 0.28381(16) 1.06373(16) 0.15929(15) 0.0452(12) Uani 1 1 d . . .
H24A H 0.2947 1.0880 0.1394 0.054 Uiso 1 1 calc R . .
H24B H 0.2837 1.0795 0.1827 0.054 Uiso 1 1 calc R . .
C25 C 0.15971(19) 0.91609(18) 0.18353(13) 0.0470(12) Uani 1 1 d . . .
C26 C 0.15285(16) 0.98000(15) 0.16083(13) 0.0400(11) Uani 1 1 d . . .
H26 H 0.1334 0.9923 0.1730 0.048 Uiso 1 1 calc R . .
C27 C 0.20190(16) 0.99950(15) 0.17974(12) 0.0381(11) Uani 1 1 d . . .
H27 H 0.2051 1.0202 0.2013 0.046 Uiso 1 1 calc R . .
C28 C 0.21304(17) 1.02656(16) 0.11851(13) 0.0393(11) Uani 1 1 d . . .
C29 C 0.08329(17) 0.89562(18) 0.15417(13) 0.0481(13) Uani 1 1 d . . .
H29A H 0.0625 0.9088 0.1608 0.058 Uiso 1 1 calc R . .
H29B H 0.0723 0.8658 0.1684 0.058 Uiso 1 1 calc R . .
C30 C 0.13061(17) 0.99680(16) 0.09702(13) 0.0407(11) Uani 1 1 d . . .
H30A H 0.1065 1.0008 0.1109 0.049 Uiso 1 1 calc R . .
H30B H 0.1473 1.0245 0.0802 0.049 Uiso 1 1 calc R . .
C31 C 0.06519(16) 0.83928(18) 0.10307(14) 0.0435(12) Uani 1 1 d . . .
C32 C 0.05223(17) 0.87748(16) 0.05344(13) 0.0411(11) Uani 1 1 d . . .
H32 H 0.0216 0.8717 0.0422 0.049 Uiso 1 1 calc R . .
C33 C 0.06584(17) 0.90961(17) 0.08794(14) 0.0452(12) Uani 1 1 d . . .
H33 H 0.0390 0.9142 0.0964 0.054 Uiso 1 1 calc R . .
C34 C 0.12251(18) 0.94976(17) 0.04136(13) 0.0410(11) Uani 1 1 d . . .
C35 C 0.02843(17) 0.78980(16) 0.04744(13) 0.0447(12) Uani 1 1 d . . .
H35A H 0.0008 0.7862 0.0330 0.054 Uiso 1 1 calc R . .
H35B H 0.0163 0.7633 0.0655 0.054 Uiso 1 1 calc R . .
C36 C 0.09271(18) 0.89217(16) -0.00968(12) 0.0433(12) Uani 1 1 d . . .
H36A H 0.0605 0.8805 -0.0201 0.052 Uiso 1 1 calc R . .
H36B H 0.1151 0.9214 -0.0234 0.052 Uiso 1 1 calc R . .
C37 C 0.07845(17) 0.75520(17) 0.02768(14) 0.0449(12) Uani 1 1 d . . .
C38 C 0.09744(17) 0.78312(16) -0.03324(13) 0.0441(12) Uani 1 1 d . . .
H38 H 0.0784 0.7614 -0.0539 0.053 Uiso 1 1 calc R . .
C39 C 0.07108(17) 0.80560(16) -0.01466(13) 0.0437(12) Uani 1 1 d . . .
H39 H 0.0412 0.7981 -0.0282 0.052 Uiso 1 1 calc R . .
C40 C 0.14528(18) 0.86535(18) -0.03660(14) 0.0475(12) Uani 1 1 d . . .
C41 C 0.11839(19) 0.72181(18) -0.01009(17) 0.0562(14) Uani 1 1 d . . .
H41A H 0.1075 0.6987 0.0106 0.067 Uiso 1 1 calc R . .
H41B H 0.1022 0.7040 -0.0328 0.067 Uiso 1 1 calc R . .
C42 C 0.17070(19) 0.81865(19) -0.07417(14) 0.0520(13) Uani 1 1 d . . .
H42A H 0.1877 0.8490 -0.0881 0.062 Uiso 1 1 calc R . .
H42B H 0.1501 0.7933 -0.0918 0.062 Uiso 1 1 calc R . .

loop_
_atom_site_aniso_label
_atom_site_aniso_U_11
_atom_site_aniso_U_22
_atom_site_aniso_U_33
_atom_site_aniso_U_23
_atom_site_aniso_U_13
_atom_site_aniso_U_12
O1 0.074(3) 0.072(3) 0.092(4) 0.026(3) 0.021(3) 0.036(2)
O2 0.063(2) 0.053(2) 0.058(2) 0.0089(19) 0.0197(19) 0.026(2)
O3 0.103(4) 0.086(3) 0.108(4) 0.053(3) 0.032(3) 0.048(3)
O4 0.144(4) 0.061(3) 0.056(3) 0.015(2) 0.013(3) 0.033(3)
O5 0.092(3) 0.082(3) 0.069(3) 0.010(2) 0.018(2) 0.053(3)
O6 0.068(2) 0.075(3) 0.040(2) 0.0043(19) -0.0007(18) 0.033(2)
O7 0.081(3) 0.061(3) 0.066(3) 0.010(2) 0.005(2) 0.044(2)
O8 0.049(2) 0.061(2) 0.047(2) 0.0113(18) 0.0003(17) 0.0210(18)
O9 0.074(3) 0.039(2) 0.051(2) 0.0037(17) -0.0053(19) 0.0181(18)
O10 0.059(2) 0.0474(19) 0.0348(19) 0.0073(16) 0.0055(17) 0.0208(17)
O11 0.052(2) 0.050(2) 0.0352(19) 0.0078(16) 0.0025(15) 0.0183(17)
O12 0.052(2) 0.0344(18) 0.041(2) -0.0002(15) 0.0009(17) 0.0110(16)
O13 0.073(2) 0.051(2) 0.045(2) 0.0098(18) 0.0001(18) 0.0295(19)
O14 0.055(2) 0.037(2) 0.062(2) 0.0078(17) 0.0099(18) 0.0110(18)
N1 0.061(3) 0.062(3) 0.095(4) 0.023(3) 0.016(3) 0.037(3)
N2 0.058(3) 0.052(3) 0.070(3) 0.017(2) 0.013(3) 0.031(2)
N3 0.061(3) 0.052(3) 0.076(3) 0.004(2) 0.025(3) 0.027(2)
N4 0.059(3) 0.047(3) 0.058(3) 0.009(2) 0.015(2) 0.025(2)
N5 0.079(4) 0.058(3) 0.065(4) 0.010(3) 0.020(3) 0.037(3)
N6 0.062(3) 0.062(3) 0.084(4) 0.017(3) 0.008(3) 0.034(3)
N7 0.081(3) 0.059(3) 0.056(3) 0.007(2) 0.018(3) 0.030(3)
N8 0.077(3) 0.062(3) 0.053(3) 0.005(2) 0.019(3) 0.033(3)
N9 0.070(3) 0.066(3) 0.046(3) 0.002(2) 0.005(2) 0.040(3)
N10 0.093(4) 0.056(3) 0.064(3) 0.007(2) 0.020(3) 0.040(3)
N11 0.053(3) 0.067(3) 0.042(3) -0.004(2) -0.004(2) 0.034(2)
N12 0.090(4) 0.073(3) 0.046(3) 0.008(2) 0.016(3) 0.040(3)
N13 0.055(3) 0.045(2) 0.045(3) -0.0022(19) -0.005(2) 0.030(2)
N14 0.064(3) 0.070(3) 0.037(2) 0.006(2) 0.005(2) 0.044(3)
N15 0.044(2) 0.047(2) 0.040(2) 0.0037(19) -0.0012(19) 0.020(2)
N16 0.045(2) 0.059(3) 0.038(2) 0.003(2) -0.0026(19) 0.028(2)
N17 0.042(2) 0.044(2) 0.040(2) 0.0024(19) -0.0025(19) 0.0136(19)
N18 0.050(2) 0.038(2) 0.038(2) -0.0002(18) -0.0062(19) 0.016(2)
N19 0.047(2) 0.037(2) 0.031(2) 0.0008(17) 0.0006(18) 0.0184(19)
N20 0.045(2) 0.034(2) 0.036(2) 0.0021(17) -0.0035(18) 0.0150(18)
N21 0.052(2) 0.040(2) 0.033(2) -0.0014(18) -0.0023(18) 0.0193(19)
N22 0.050(2) 0.046(2) 0.033(2) 0.0002(18) -0.0001(18) 0.020(2)
N23 0.053(2) 0.036(2) 0.032(2) -0.0032(17) -0.0060(19) 0.0136(19)
N24 0.048(2) 0.037(2) 0.038(2) -0.0062(18) -0.0042(18) 0.0188(19)
N25 0.060(3) 0.040(2) 0.054(3) 0.002(2) 0.003(2) 0.024(2)
N26 0.057(3) 0.039(2) 0.031(2) 0.0003(18) -0.0009(19) 0.019(2)
N27 0.044(2) 0.037(2) 0.044(2) 0.0031(19) 0.0030(19) 0.0142(19)
N28 0.047(2) 0.033(2) 0.034(2) -0.0049(17) -0.0058(18) 0.0144(18)
C1 0.077(4) 0.042(3) 0.087(5) 0.012(3) 0.023(4) 0.030(3)
C2 0.063(4) 0.053(3) 0.084(5) 0.004(3) 0.023(3) 0.031(3)
C3 0.069(4) 0.045(3) 0.066(4) -0.002(3) 0.018(3) 0.028(3)
C4 0.054(3) 0.041(3) 0.056(3) -0.006(3) 0.018(3) 0.020(3)
C5 0.076(4) 0.059(4) 0.122(6) 0.029(4) 0.019(4) 0.037(4)
C6 0.066(4) 0.076(4) 0.059(4) -0.007(3) 0.022(3) 0.034(3)
C7 0.107(6) 0.081(5) 0.079(5) 0.020(4) 0.027(5) 0.069(5)
C8 0.066(4) 0.067(4) 0.069(4) -0.009(3) 0.009(3) 0.031(3)
C9 0.065(4) 0.064(4) 0.074(4) -0.004(3) 0.012(3) 0.040(3)
C10 0.079(4) 0.056(4) 0.054(4) 0.004(3) 0.026(3) 0.026(3)
C11 0.100(5) 0.078(4) 0.065(4) 0.004(3) 0.014(4) 0.055(4)
C12 0.091(5) 0.058(4) 0.067(4) -0.011(3) 0.032(4) 0.023(4)
C13 0.066(4) 0.075(4) 0.048(4) 0.014(3) 0.010(3) 0.044(3)
C14 0.051(3) 0.069(4) 0.046(3) 0.002(3) -0.003(3) 0.031(3)
C15 0.077(4) 0.084(5) 0.067(4) 0.015(3) 0.021(3) 0.052(4)
C16 0.049(3) 0.067(4) 0.049(4) 0.009(3) 0.004(3) 0.029(3)
C17 0.078(4) 0.086(4) 0.038(3) 0.010(3) -0.001(3) 0.057(4)
C18 0.045(3) 0.058(3) 0.043(3) 0.002(3) -0.008(2) 0.024(3)
C19 0.070(4) 0.052(3) 0.034(3) 0.006(2) 0.002(3) 0.031(3)
C20 0.052(3) 0.046(3) 0.036(3) -0.001(2) -0.006(2) 0.022(2)
C21 0.053(3) 0.056(3) 0.038(3) -0.009(2) -0.010(2) 0.030(3)
C22 0.046(3) 0.048(3) 0.037(3) 0.000(2) -0.012(2) 0.016(2)
C23 0.052(3) 0.048(3) 0.038(3) 0.009(2) 0.002(2) 0.019(2)
C24 0.042(3) 0.035(3) 0.057(3) -0.007(2) -0.011(2) 0.019(2)
C25 0.059(3) 0.045(3) 0.030(3) -0.001(2) 0.005(2) 0.021(3)
C26 0.045(3) 0.033(2) 0.038(3) -0.005(2) 0.003(2) 0.016(2)
C27 0.048(3) 0.034(2) 0.032(3) -0.007(2) -0.003(2) 0.020(2)
C28 0.052(3) 0.031(2) 0.038(3) -0.007(2) 0.002(2) 0.023(2)
C29 0.045(3) 0.046(3) 0.036(3) -0.001(2) 0.007(2) 0.010(2)
C30 0.052(3) 0.035(2) 0.039(3) -0.009(2) -0.011(2) 0.024(2)
C31 0.034(3) 0.047(3) 0.038(3) 0.007(2) 0.004(2) 0.011(2)
C32 0.042(3) 0.041(3) 0.037(3) -0.004(2) -0.007(2) 0.018(2)
C33 0.040(3) 0.046(3) 0.049(3) -0.004(2) -0.005(2) 0.021(2)
C34 0.052(3) 0.041(3) 0.034(3) -0.004(2) -0.013(2) 0.026(3)
C35 0.049(3) 0.039(3) 0.036(3) 0.003(2) 0.001(2) 0.014(2)
C36 0.051(3) 0.037(3) 0.034(3) 0.003(2) -0.006(2) 0.017(2)
C37 0.046(3) 0.040(3) 0.038(3) 0.000(2) 0.000(2) 0.014(2)
C38 0.052(3) 0.041(3) 0.033(3) 0.002(2) 0.004(2) 0.019(2)
C39 0.049(3) 0.038(3) 0.031(3) 0.000(2) -0.002(2) 0.013(2)
C40 0.051(3) 0.044(3) 0.037(3) 0.002(2) -0.004(2) 0.016(3)
C41 0.059(3) 0.040(3) 0.069(4) 0.010(3) 0.009(3) 0.024(3)
C42 0.061(3) 0.050(3) 0.041(3) 0.003(2) 0.008(3) 0.025(3)
C43 0.231(14) 0.194(12) 0.138(10) 0.044(9) -0.004(10) 0.156(12)
S1 0.1149(16) 0.0956(14) 0.0970(15) -0.0311(12) -0.0176(12) 0.0634(13)
O15 0.160(4) 0.129(4) 0.137(4) -0.019(3) -0.018(3) 0.106(3)
O15' 0.160(4) 0.129(4) 0.137(4) -0.019(3) -0.018(3) 0.106(3)
O16 0.160(4) 0.129(4) 0.137(4) -0.019(3) -0.018(3) 0.106(3)
O17 0.160(4) 0.129(4) 0.137(4) -0.019(3) -0.018(3) 0.106(3)
O17' 0.160(4) 0.129(4) 0.137(4) -0.019(3) -0.018(3) 0.106(3)
F1 0.280(5) 0.147(3) 0.204(4) 0.007(3) 0.043(4) 0.136(4)
F2 0.280(5) 0.147(3) 0.204(4) 0.007(3) 0.043(4) 0.136(4)
F3 0.280(5) 0.147(3) 0.204(4) 0.007(3) 0.043(4) 0.136(4)

_geom_special_details            
;
All esds (except the esd in the dihedral angle between two l.s. planes)
are estimated using the full covariance matrix. The cell esds are taken
into account individually in the estimation of esds in distances, angles
and torsion angles; correlations between esds in cell parameters are only
used when they are defined by crystal symmetry. An approximate (isotropic)
treatment of cell esds is used for estimating esds involving l.s. planes.
;

loop_
_geom_bond_atom_site_label_1
_geom_bond_atom_site_label_2
_geom_bond_distance
_geom_bond_site_symmetry_2
_geom_bond_publ_flag
O1 C1 1.238(7) . ?
O2 C4 1.220(6) . ?
O3 C7 1.238(8) . ?
O4 C10 1.216(7) . ?
O5 C13 1.227(7) . ?
O6 C16 1.213(6) . ?
O7 C19 1.219(6) . ?
O8 C22 1.224(6) . ?
O9 C25 1.221(6) . ?
O10 C28 1.220(5) . ?
O11 C31 1.221(6) . ?
O12 C34 1.213(6) . ?
O13 C37 1.225(6) . ?
O14 C40 1.230(6) . ?
N1 C1 1.389(8) . ?
N1 C2 1.425(8) . ?
N1 C5 1.469(8) . ?
N2 C1 1.348(8) . ?
N2 C41 1.408(7) . ?
N2 C3 1.440(7) . ?
N3 C4 1.336(7) . ?
N3 C2 1.439(7) . ?
N3 C6 1.454(7) . ?
N4 C4 1.374(7) . ?
N4 C42 1.451(7) . ?
N4 C3 1.477(7) . ?
N5 C7 1.352(9) . ?
N5 C8 1.409(8) . ?
N5 C11 1.443(8) . ?
N6 C7 1.374(9) . ?
N6 C5 1.423(8) . ?
N6 C9 1.451(7) . ?
N7 C10 1.387(8) . ?
N7 C12 1.437(8) . ?
N7 C8 1.453(8) . ?
N8 C10 1.348(7) . ?
N8 C9 1.434(8) . ?
N8 C6 1.449(8) . ?
N9 C13 1.326(7) . ?
N9 C17 1.441(7) . ?
N9 C14 1.443(7) . ?
N10 C13 1.362(7) . ?
N10 C15 1.431(8) . ?
N10 C11 1.466(8) . ?
N11 C16 1.371(7) . ?
N11 C18 1.443(6) . ?
N11 C14 1.454(7) . ?
N12 C16 1.375(7) . ?
N12 C12 1.446(7) . ?
N12 C15 1.460(8) . ?
N13 C19 1.373(6) . ?
N13 C20 1.442(6) . ?
N13 C23 1.470(6) . ?
N14 C19 1.358(7) . ?
N14 C21 1.434(6) . ?
N14 C17 1.454(7) . ?
N15 C22 1.361(6) . ?
N15 C24 1.428(6) . ?
N15 C20 1.461(6) . ?
N16 C22 1.369(6) . ?
N16 C18 1.435(6) . ?
N16 C21 1.447(6) . ?
N17 C25 1.364(6) . ?
N17 C29 1.434(6) . ?
N17 C26 1.442(6) . ?
N18 C25 1.380(6) . ?
N18 C23 1.427(6) . ?
N18 C27 1.450(6) . ?
N19 C28 1.365(6) . ?
N19 C26 1.447(6) . ?
N19 C30 1.461(6) . ?
N20 C28 1.382(6) . ?
N20 C27 1.433(6) . ?
N20 C24 1.456(6) . ?
N21 C31 1.373(6) . ?
N21 C32 1.441(6) . ?
N21 C35 1.440(6) . ?
N22 C31 1.374(6) . ?
N22 C29 1.441(6) . ?
N22 C33 1.453(6) . ?
N23 C34 1.377(6) . ?
N23 C36 1.445(6) . ?
N23 C32 1.455(6) . ?
N24 C34 1.368(6) . ?
N24 C30 1.425(6) . ?
N24 C33 1.465(6) . ?
N25 C37 1.355(6) . ?
N25 C41 1.457(6) . ?
N25 C38 1.465(6) . ?
N26 C37 1.363(6) . ?
N26 C39 1.451(6) . ?
N26 C35 1.456(6) . ?
N27 C40 1.359(6) . ?
N27 C38 1.436(6) . ?
N27 C42 1.442(6) . ?
N28 C40 1.389(6) . ?
N28 C36 1.429(6) . ?
N28 C39 1.466(6) . ?
C2 C3 1.564(8) . ?
C2 H2 1.0000 . ?
C3 H3 1.0000 . ?
C5 H5A 0.9900 . ?
C5 H5B 0.9900 . ?
C6 H6A 0.9900 . ?
C6 H6B 0.9900 . ?
C8 C9 1.561(8) . ?
C8 H8 1.0000 . ?
C9 H9 1.0000 . ?
C11 H11A 0.9900 . ?
C11 H11B 0.9900 . ?
C12 H12A 0.9900 . ?
C12 H12B 0.9900 . ?
C14 C15 1.515(8) . ?
C14 H14 1.0000 . ?
C15 H15 1.0000 . ?
C17 H17A 0.9900 . ?
C17 H17B 0.9900 . ?
C18 H18A 0.9900 . ?
C18 H18B 0.9900 . ?
C20 C21 1.520(7) . ?
C20 H20 1.0000 . ?
C21 H21 1.0000 . ?
C23 H23A 0.9900 . ?
C23 H23B 0.9900 . ?
C24 H24A 0.9900 . ?
C24 H24B 0.9900 . ?
C26 C27 1.545(6) . ?
C26 H26 1.0000 . ?
C27 H27 1.0000 . ?
C29 H29A 0.9900 . ?
C29 H29B 0.9900 . ?
C30 H30A 0.9900 . ?
C30 H30B 0.9900 . ?
C32 C33 1.540(7) . ?
C32 H32 1.0000 . ?
C33 H33 1.0000 . ?
C35 H35A 0.9900 . ?
C35 H35B 0.9900 . ?
C36 H36A 0.9900 . ?
C36 H36B 0.9900 . ?
C38 C39 1.527(7) . ?
C38 H38 1.0000 . ?
C39 H39 1.0000 . ?
C41 H41A 0.9900 . ?
C41 H41B 0.9900 . ?
C42 H42A 0.9900 . ?
C42 H42B 0.9900 . ?
C43 F1 1.206(7) . ?
C43 F2 1.296(8) . ?
C43 F3 1.401(8) . ?
C43 S1 1.889(7) . ?
S1 O15 1.319(7) . ?
S1 O16 1.387(4) . ?
S1 O17' 1.387(7) . ?
S1 O15' 1.516(6) . ?
S1 O17 1.529(7) . ?

loop_
_geom_angle_atom_site_label_1
_geom_angle_atom_site_label_2
_geom_angle_atom_site_label_3
_geom_angle
_geom_angle_site_symmetry_1
_geom_angle_site_symmetry_3
_geom_angle_publ_flag
C1 N1 C2 111.6(5) . . ?
C1 N1 C5 121.3(6) . . ?
C2 N1 C5 122.8(5) . . ?
C1 N2 C41 123.1(5) . . ?
C1 N2 C3 110.9(5) . . ?
C41 N2 C3 125.6(5) . . ?
C4 N3 C2 113.7(5) . . ?
C4 N3 C6 122.4(5) . . ?
C2 N3 C6 123.9(5) . . ?
C4 N4 C42 122.7(4) . . ?
C4 N4 C3 110.9(4) . . ?
C42 N4 C3 123.1(4) . . ?
C7 N5 C8 112.2(6) . . ?
C7 N5 C11 121.8(6) . . ?
C8 N5 C11 124.1(6) . . ?
C7 N6 C5 123.5(6) . . ?
C7 N6 C9 112.0(6) . . ?
C5 N6 C9 122.1(6) . . ?
C10 N7 C12 122.6(5) . . ?
C10 N7 C8 112.7(5) . . ?
C12 N7 C8 122.2(6) . . ?
C10 N8 C9 114.2(5) . . ?
C10 N8 C6 122.0(6) . . ?
C9 N8 C6 123.1(5) . . ?
C13 N9 C17 122.5(5) . . ?
C13 N9 C14 112.4(5) . . ?
C17 N9 C14 124.1(5) . . ?
C13 N10 C15 111.7(5) . . ?
C13 N10 C11 123.7(5) . . ?
C15 N10 C11 124.3(5) . . ?
C16 N11 C18 122.6(4) . . ?
C16 N11 C14 112.3(4) . . ?
C18 N11 C14 124.0(4) . . ?
C16 N12 C12 121.0(5) . . ?
C16 N12 C15 111.2(5) . . ?
C12 N12 C15 124.4(5) . . ?
C19 N13 C20 110.5(4) . . ?
C19 N13 C23 118.9(4) . . ?
C20 N13 C23 121.1(4) . . ?
C19 N14 C21 112.6(4) . . ?
C19 N14 C17 123.5(5) . . ?
C21 N14 C17 123.5(5) . . ?
C22 N15 C24 123.9(4) . . ?
C22 N15 C20 111.8(4) . . ?
C24 N15 C20 124.3(4) . . ?
C22 N16 C18 122.5(4) . . ?
C22 N16 C21 111.2(4) . . ?
C18 N16 C21 123.4(4) . . ?
C25 N17 C29 123.0(4) . . ?
C25 N17 C26 112.8(4) . . ?
C29 N17 C26 123.9(4) . . ?
C25 N18 C23 122.5(4) . . ?
C25 N18 C27 111.8(4) . . ?
C23 N18 C27 124.7(4) . . ?
C28 N19 C26 112.6(4) . . ?
C28 N19 C30 121.5(4) . . ?
C26 N19 C30 122.9(4) . . ?
C28 N20 C27 112.4(4) . . ?
C28 N20 C24 121.2(4) . . ?
C27 N20 C24 122.1(4) . . ?
C31 N21 C32 112.0(4) . . ?
C31 N21 C35 123.1(4) . . ?
C32 N21 C35 124.7(4) . . ?
C31 N22 C29 121.2(4) . . ?
C31 N22 C33 111.2(4) . . ?
C29 N22 C33 123.7(4) . . ?
C34 N23 C36 120.6(4) . . ?
C34 N23 C32 112.2(4) . . ?
C36 N23 C32 123.5(4) . . ?
C34 N24 C30 123.2(4) . . ?
C34 N24 C33 111.8(4) . . ?
C30 N24 C33 124.8(4) . . ?
C37 N25 C41 122.9(4) . . ?
C37 N25 C38 112.2(4) . . ?
C41 N25 C38 120.6(4) . . ?
C37 N26 C39 112.1(4) . . ?
C37 N26 C35 124.1(4) . . ?
C39 N26 C35 122.5(4) . . ?
C40 N27 C38 112.1(4) . . ?
C40 N27 C42 122.8(4) . . ?
C38 N27 C42 123.2(4) . . ?
C40 N28 C36 122.1(4) . . ?
C40 N28 C39 110.4(4) . . ?
C36 N28 C39 122.2(4) . . ?
O1 C1 N2 125.9(6) . . ?
O1 C1 N1 124.3(7) . . ?
N2 C1 N1 109.8(6) . . ?
N1 C2 N3 116.1(5) . . ?
N1 C2 C3 102.5(4) . . ?
N3 C2 C3 102.9(5) . . ?
N1 C2 H2 111.5 . . ?
N3 C2 H2 111.5 . . ?
C3 C2 H2 111.5 . . ?
N2 C3 N4 114.8(4) . . ?
N2 C3 C2 104.4(5) . . ?
N4 C3 C2 102.1(4) . . ?
N2 C3 H3 111.6 . . ?
N4 C3 H3 111.6 . . ?
C2 C3 H3 111.6 . . ?
O2 C4 N3 126.7(5) . . ?
O2 C4 N4 124.2(5) . . ?
N3 C4 N4 109.2(5) . . ?
N6 C5 N1 114.8(5) . . ?
N6 C5 H5A 108.6 . . ?
N1 C5 H5A 108.6 . . ?
N6 C5 H5B 108.6 . . ?
N1 C5 H5B 108.6 . . ?
H5A C5 H5B 107.6 . . ?
N8 C6 N3 114.0(5) . . ?
N8 C6 H6A 108.8 . . ?
N3 C6 H6A 108.8 . . ?
N8 C6 H6B 108.8 . . ?
N3 C6 H6B 108.8 . . ?
H6A C6 H6B 107.7 . . ?
O3 C7 N5 127.6(8) . . ?
O3 C7 N6 123.5(8) . . ?
N5 C7 N6 108.8(6) . . ?
N5 C8 N7 114.9(5) . . ?
N5 C8 C9 105.1(5) . . ?
N7 C8 C9 102.2(5) . . ?
N5 C8 H8 111.4 . . ?
N7 C8 H8 111.4 . . ?
C9 C8 H8 111.4 . . ?
N8 C9 N6 115.5(5) . . ?
N8 C9 C8 103.2(5) . . ?
N6 C9 C8 101.1(5) . . ?
N8 C9 H9 112.1 . . ?
N6 C9 H9 112.1 . . ?
C8 C9 H9 112.1 . . ?
O4 C10 N8 126.9(7) . . ?
O4 C10 N7 125.9(6) . . ?
N8 C10 N7 107.2(6) . . ?
N5 C11 N10 112.8(5) . . ?
N5 C11 H11A 109.0 . . ?
N10 C11 H11A 109.0 . . ?
N5 C11 H11B 109.0 . . ?
N10 C11 H11B 109.0 . . ?
H11A C11 H11B 107.8 . . ?
N7 C12 N12 113.8(5) . . ?
N7 C12 H12A 108.8 . . ?
N12 C12 H12A 108.8 . . ?
N7 C12 H12B 108.8 . . ?
N12 C12 H12B 108.8 . . ?
H12A C12 H12B 107.7 . . ?
O5 C13 N9 127.3(5) . . ?
O5 C13 N10 123.8(6) . . ?
N9 C13 N10 108.8(5) . . ?
N9 C14 N11 115.0(4) . . ?
N9 C14 C15 103.3(5) . . ?
N11 C14 C15 103.6(4) . . ?
N9 C14 H14 111.5 . . ?
N11 C14 H14 111.5 . . ?
C15 C14 H14 111.5 . . ?
N10 C15 N12 115.0(6) . . ?
N10 C15 C14 103.6(5) . . ?
N12 C15 C14 104.5(5) . . ?
N10 C15 H15 111.1 . . ?
N12 C15 H15 111.1 . . ?
C14 C15 H15 111.1 . . ?
O6 C16 N11 126.4(5) . . ?
O6 C16 N12 125.4(5) . . ?
N11 C16 N12 108.1(5) . . ?
N9 C17 N14 113.7(4) . . ?
N9 C17 H17A 108.8 . . ?
N14 C17 H17A 108.8 . . ?
N9 C17 H17B 108.8 . . ?
N14 C17 H17B 108.8 . . ?
H17A C17 H17B 107.7 . . ?
N16 C18 N11 114.0(4) . . ?
N16 C18 H18A 108.8 . . ?
N11 C18 H18A 108.8 . . ?
N16 C18 H18B 108.8 . . ?
N11 C18 H18B 108.8 . . ?
H18A C18 H18B 107.6 . . ?
O7 C19 N14 126.0(5) . . ?
O7 C19 N13 125.8(5) . . ?
N14 C19 N13 108.2(4) . . ?
N13 C20 N15 114.2(4) . . ?
N13 C20 C21 104.2(4) . . ?
N15 C20 C21 102.8(4) . . ?
N13 C20 H20 111.7 . . ?
N15 C20 H20 111.7 . . ?
C21 C20 H20 111.7 . . ?
N14 C21 N16 114.4(4) . . ?
N14 C21 C20 102.9(4) . . ?
N16 C21 C20 104.3(4) . . ?
N14 C21 H21 111.6 . . ?
N16 C21 H21 111.6 . . ?
C20 C21 H21 111.6 . . ?
O8 C22 N15 126.2(5) . . ?
O8 C22 N16 125.1(5) . . ?
N15 C22 N16 108.6(4) . . ?
N18 C23 N13 113.4(4) . . ?
N18 C23 H23A 108.9 . . ?
N13 C23 H23A 108.9 . . ?
N18 C23 H23B 108.9 . . ?
N13 C23 H23B 108.9 . . ?
H23A C23 H23B 107.7 . . ?
N15 C24 N20 114.2(4) . . ?
N15 C24 H24A 108.7 . . ?
N20 C24 H24A 108.7 . . ?
N15 C24 H24B 108.7 . . ?
N20 C24 H24B 108.7 . . ?
H24A C24 H24B 107.6 . . ?
O9 C25 N17 126.5(5) . . ?
O9 C25 N18 125.2(5) . . ?
N17 C25 N18 108.2(4) . . ?
N17 C26 N19 115.0(4) . . ?
N17 C26 C27 103.5(4) . . ?
N19 C26 C27 103.2(4) . . ?
N17 C26 H26 111.5 . . ?
N19 C26 H26 111.5 . . ?
C27 C26 H26 111.5 . . ?
N20 C27 N18 115.5(4) . . ?
N20 C27 C26 103.8(4) . . ?
N18 C27 C26 103.7(3) . . ?
N20 C27 H27 111.1 . . ?
N18 C27 H27 111.1 . . ?
C26 C27 H27 111.1 . . ?
O10 C28 N19 127.1(4) . . ?
O10 C28 N20 125.3(4) . . ?
N19 C28 N20 107.6(4) . . ?
N17 C29 N22 114.5(4) . . ?
N17 C29 H29A 108.6 . . ?
N22 C29 H29A 108.6 . . ?
N17 C29 H29B 108.6 . . ?
N22 C29 H29B 108.6 . . ?
H29A C29 H29B 107.6 . . ?
N24 C30 N19 114.1(4) . . ?
N24 C30 H30A 108.7 . . ?
N19 C30 H30A 108.7 . . ?
N24 C30 H30B 108.7 . . ?
N19 C30 H30B 108.7 . . ?
H30A C30 H30B 107.6 . . ?
O11 C31 N21 125.5(5) . . ?
O11 C31 N22 125.8(4) . . ?
N21 C31 N22 108.7(4) . . ?
N21 C32 N23 113.2(4) . . ?
N21 C32 C33 103.4(4) . . ?
N23 C32 C33 103.0(4) . . ?
N21 C32 H32 112.2 . . ?
N23 C32 H32 112.2 . . ?
C33 C32 H32 112.2 . . ?
N22 C33 N24 114.2(4) . . ?
N22 C33 C32 103.6(4) . . ?
N24 C33 C32 103.3(4) . . ?
N22 C33 H33 111.7 . . ?
N24 C33 H33 111.7 . . ?
C32 C33 H33 111.7 . . ?
O12 C34 N24 126.1(4) . . ?
O12 C34 N23 125.6(4) . . ?
N24 C34 N23 108.3(4) . . ?
N21 C35 N26 114.1(4) . . ?
N21 C35 H35A 108.7 . . ?
N26 C35 H35A 108.7 . . ?
N21 C35 H35B 108.7 . . ?
N26 C35 H35B 108.7 . . ?
H35A C35 H35B 107.6 . . ?
N28 C36 N23 113.3(4) . . ?
N28 C36 H36A 108.9 . . ?
N23 C36 H36A 108.9 . . ?
N28 C36 H36B 108.9 . . ?
N23 C36 H36B 108.9 . . ?
H36A C36 H36B 107.7 . . ?
O13 C37 N25 126.8(5) . . ?
O13 C37 N26 125.0(5) . . ?
N25 C37 N26 108.2(4) . . ?
N27 C38 N25 114.2(4) . . ?
N27 C38 C39 104.6(4) . . ?
N25 C38 C39 102.6(4) . . ?
N27 C38 H38 111.6 . . ?
N25 C38 H38 111.6 . . ?
C39 C38 H38 111.6 . . ?
N26 C39 N28 113.1(4) . . ?
N26 C39 C38 104.0(4) . . ?
N28 C39 C38 103.4(4) . . ?
N26 C39 H39 111.9 . . ?
N28 C39 H39 111.9 . . ?
C38 C39 H39 111.9 . . ?
O14 C40 N27 126.8(5) . . ?
O14 C40 N28 124.4(5) . . ?
N27 C40 N28 108.8(4) . . ?
N2 C41 N25 114.8(4) . . ?
N2 C41 H41A 108.6 . . ?
N25 C41 H41A 108.6 . . ?
N2 C41 H41B 108.6 . . ?
N25 C41 H41B 108.6 . . ?
H41A C41 H41B 107.5 . . ?
N27 C42 N4 112.8(4) . . ?
N27 C42 H42A 109.0 . . ?
N4 C42 H42A 109.0 . . ?
N27 C42 H42B 109.0 . . ?
N4 C42 H42B 109.0 . . ?
H42A C42 H42B 107.8 . . ?
F1 C43 F2 120.3(7) . . ?
F1 C43 F3 106.0(8) . . ?
F2 C43 F3 105.1(7) . . ?
F1 C43 S1 115.2(6) . . ?
F2 C43 S1 108.0(6) . . ?
F3 C43 S1 99.6(5) . . ?
O15 S1 O16 124.7(6) . . ?
O15 S1 O17' 69.3(6) . . ?
O16 S1 O17' 122.8(5) . . ?
O15 S1 O15' 33.1(6) . . ?
O16 S1 O15' 106.7(5) . . ?
O17' S1 O15' 102.3(5) . . ?
O15 S1 O17 110.0(6) . . ?
O16 S1 O17 101.8(4) . . ?
O17' S1 O17 41.1(5) . . ?
O15' S1 O17 142.8(5) . . ?
O15 S1 C43 113.5(7) . . ?
O16 S1 C43 105.4(4) . . ?
O17' S1 C43 118.5(6) . . ?
O15' S1 C43 97.3(4) . . ?
O17 S1 C43 97.5(4) . . ?

_diffrn_measured_fraction_theta_max 0.999
_diffrn_reflns_theta_full        25.03
_diffrn_measured_fraction_theta_full 0.999
_refine_diff_density_max         1.557
_refine_diff_density_min         -1.168
_refine_diff_density_rms         0.082

_vrf_PLAT601_ta130               
;
PROBLEM: Structure Contains Solvent Accessible VOIDS of . 3724.00 A**3
RESPONSE: Due to the serious disorder of water molecules,
the structure was refined using the SQUEEZE method, where the disordered
water molecules were subtracted from the observed data.
;


