 
data_CC11 

_audit_creation_method            SHELXL-97 
_chemical_name_systematic 
; 
 ? 
; 
_chemical_name_common             ? 
_chemical_melting_point           ? 
_chemical_formula_moiety          ? 
_chemical_formula_sum 
 'C112.75 H139 N20 O10.75' 
_chemical_formula_weight          1946.44 
 
loop_ 
 _atom_type_symbol 
 _atom_type_description 
 _atom_type_scat_dispersion_real 
 _atom_type_scat_dispersion_imag 
 _atom_type_scat_source 
 'C'  'C'   0.0033   0.0016 
 'International Tables Vol C Tables 4.2.6.8 and 6.1.1.4' 
 'H'  'H'   0.0000   0.0000 
 'International Tables Vol C Tables 4.2.6.8 and 6.1.1.4' 
 'N'  'N'   0.0061   0.0033 
 'International Tables Vol C Tables 4.2.6.8 and 6.1.1.4' 
 'O'  'O'   0.0106   0.0060 
 'International Tables Vol C Tables 4.2.6.8 and 6.1.1.4' 
 
_symmetry_cell_setting            triclinic 
_symmetry_space_group_name_H-M    P-1
 
loop_ 
 _symmetry_equiv_pos_as_xyz 
 'x, y, z' 
 '-x, -y, -z' 
 
_cell_length_a                    18.6118(15) 
_cell_length_b                    34.059(3) 
_cell_length_c                    37.687(3) 
_cell_angle_alpha                 67.605(2) 
_cell_angle_beta                  87.377(2) 
_cell_angle_gamma                 75.497(2) 
_cell_volume                      21351(3) 
_cell_formula_units_Z             8 
_cell_measurement_temperature     100(2) 
_cell_measurement_reflns_used     9794
_cell_measurement_theta_min       2.18
_cell_measurement_theta_max       22.10
 
_exptl_crystal_description        plate 
_exptl_crystal_colour             colourless 
_exptl_crystal_size_max           0.13 
_exptl_crystal_size_mid           0.11 
_exptl_crystal_size_min           0.02 
_exptl_crystal_density_meas       ? 
_exptl_crystal_density_diffrn     1.211 
_exptl_crystal_density_method     'not measured' 
_exptl_crystal_F_000              8332 
_exptl_absorpt_coefficient_mu     0.080 
_exptl_absorpt_correction_type    multi-scan
_exptl_absorpt_correction_T_min   0.7276
_exptl_absorpt_correction_T_max   1.0000
_exptl_absorpt_process_details    'SADABS 2008/1 (Sheldrick, 2008)'
 
_exptl_special_details 
; 
 ? 
; 
 
_diffrn_ambient_temperature       100(2) 
_diffrn_radiation_wavelength      0.71073 
_diffrn_radiation_type            'Mo K\a'
_diffrn_radiation_source          'Rotating Anode'
_diffrn_radiation_monochromator   confocal
_diffrn_measurement_device_type   'Rigaku Saturn724+ (2x2 bin mode)'
_diffrn_measurement_method        'profile data from \w-scans'
_diffrn_detector_area_resol_mean  28.5714
_diffrn_reflns_number             170920 
_diffrn_reflns_av_R_equivalents   0.0736 
_diffrn_reflns_av_sigmaI/netI     0.0926 
_diffrn_reflns_limit_h_min        -18 
_diffrn_reflns_limit_h_max        19 
_diffrn_reflns_limit_k_min        -33 
_diffrn_reflns_limit_k_max        35 
_diffrn_reflns_limit_l_min        -39 
_diffrn_reflns_limit_l_max        39 
_diffrn_reflns_theta_min          1.10 
_diffrn_reflns_theta_max          21.97 
_reflns_number_total              52177 
_reflns_number_gt                 30279 
_reflns_threshold_expression      >2sigma(I) 
 
_computing_data_collection        'CrystalClear-SM Expert 2.1 (Rigaku, 2011)'
_computing_cell_refinement        'Bruker AXS SAINT V7.68A'
_computing_data_reduction         'Bruker AXS SAINT V7.68A'
_computing_structure_solution     'SHELXD (Sheldrick, 2008)'
_computing_structure_refinement   'SHELXL (Sheldrick, 2008)'
_computing_molecular_graphics     ? 
_computing_publication_material   ? 
 
_refine_special_details 
; 
 Refinement of F^2^ against ALL reflections.  The weighted R-factor wR and 
 goodness of fit S are based on F^2^, conventional R-factors R are based 
 on F, with F set to zero for negative F^2^. The threshold expression of 
 F^2^ > 2sigma(F^2^) is used only for calculating R-factors(gt) etc. and is 
 not relevant to the choice of reflections for refinement.  R-factors based 
 on F^2^ are statistically about twice as large as those based on F, and R- 
 factors based on ALL data will be even larger. 
; 
 
_refine_ls_structure_factor_coef  Fsqd  
_refine_ls_matrix_type            full 
_refine_ls_weighting_scheme       calc  
_refine_ls_weighting_details 
 'calc w=1/[\s^2^(Fo^2^)+(0.1000P)^2^+35.0000P] where P=(Fo^2^+2Fc^2^)/3' 
_atom_sites_solution_primary      direct 
_atom_sites_solution_secondary    difmap 
_atom_sites_solution_hydrogens    difmap
_refine_ls_hydrogen_treatment     constr
_refine_ls_extinction_method      none 
_refine_ls_extinction_coef        ? 
_refine_ls_number_reflns          52177 
_refine_ls_number_parameters      4901 
_refine_ls_number_restraints      0 
_refine_ls_R_factor_all           0.1543 
_refine_ls_R_factor_gt            0.0910 
_refine_ls_wR_factor_ref          0.2599 
_refine_ls_wR_factor_gt           0.2262 
_refine_ls_goodness_of_fit_ref    1.112 
_refine_ls_restrained_S_all       1.112 
_refine_ls_shift/su_max           0.000 
_refine_ls_shift/su_mean          0.000 
 
loop_ 
 _atom_site_label 
 _atom_site_type_symbol 
 _atom_site_fract_x 
 _atom_site_fract_y 
 _atom_site_fract_z 
 _atom_site_U_iso_or_equiv 
 _atom_site_adp_type 
 _atom_site_occupancy 
 _atom_site_symmetry_multiplicity 
 _atom_site_calc_flag 
 _atom_site_refinement_flags 
 _atom_site_disorder_assembly 
 _atom_site_disorder_group 
N1 N 0.4130(3) 0.27833(16) 0.23827(15) 0.0441(13) Uani 1 1 d . . . 
N2 N 0.0427(3) 0.24897(18) 0.20262(15) 0.0515(14) Uani 1 1 d . . . 
N3 N 0.2289(3) 0.13187(18) 0.37603(15) 0.0498(14) Uani 1 1 d . . . 
N4 N 0.1279(3) 0.29946(17) 0.33678(14) 0.0437(13) Uani 1 1 d . . . 
N5 N 0.0615(3) 0.51767(17) 0.10212(16) 0.0550(15) Uani 1 1 d . . . 
N6 N -0.2189(3) 0.14044(16) 0.40700(15) 0.0446(13) Uani 1 1 d . . . 
N7 N 0.4106(4) 0.0472(2) 0.18744(19) 0.0717(18) Uani 1 1 d . . . 
N8 N 0.5288(3) 0.22817(15) 0.47955(14) 0.0382(12) Uani 1 1 d . . . 
N9 N 0.2187(3) 0.4551(2) 0.10559(16) 0.0589(16) Uani 1 1 d . . . 
N10 N 0.0825(3) 0.48065(17) 0.19029(15) 0.0480(14) Uani 1 1 d . . . 
N11 N -0.0381(4) 0.4594(2) 0.1051(2) 0.0672(18) Uani 1 1 d . . . 
N12 N -0.1671(3) 0.22678(15) 0.38772(14) 0.0397(13) Uani 1 1 d . . . 
N13 N -0.1751(3) 0.14930(17) 0.32387(15) 0.0508(14) Uani 1 1 d . . . 
N14 N -0.0784(3) 0.09266(17) 0.45185(15) 0.0471(14) Uani 1 1 d . . . 
N15 N 0.3029(4) 0.1325(2) 0.13674(18) 0.0742(19) Uani 1 1 d . . . 
N16 N 0.3051(4) 0.0359(2) 0.25501(18) 0.078(2) Uani 1 1 d . . . 
N17 N 0.5024(4) 0.0898(2) 0.22230(19) 0.0756(19) Uani 1 1 d . . . 
N18 N 0.5619(3) 0.27148(16) 0.39421(14) 0.0423(13) Uani 1 1 d . . . 
N19 N 0.4979(3) 0.14595(16) 0.46915(16) 0.0429(13) Uani 1 1 d . . . 
N20 N 0.3626(3) 0.27108(17) 0.47385(14) 0.0422(13) Uani 1 1 d . . . 
C1 C 0.3620(4) 0.3134(2) 0.21002(18) 0.0442(16) Uani 1 1 d . . . 
C2 C 0.3707(4) 0.3560(2) 0.19596(18) 0.0454(17) Uani 1 1 d . . . 
H2 H 0.4106 0.3622 0.2060 0.055 Uiso 1 1 calc R . . 
C3 C 0.3222(4) 0.3891(2) 0.16770(18) 0.0486(17) Uani 1 1 d . . . 
H3 H 0.3285 0.4181 0.1590 0.058 Uiso 1 1 calc R . . 
C4 C 0.2636(4) 0.3815(2) 0.15134(18) 0.0491(17) Uani 1 1 d . . . 
C5 C 0.2557(4) 0.3387(2) 0.1655(2) 0.059(2) Uani 1 1 d . . . 
H5 H 0.2167 0.3323 0.1549 0.071 Uiso 1 1 calc R . . 
C6 C 0.3033(4) 0.3053(2) 0.1945(2) 0.0556(19) Uani 1 1 d . . . 
H6 H 0.2959 0.2766 0.2040 0.067 Uiso 1 1 calc R . . 
C7 C 0.2131(4) 0.4163(3) 0.1195(2) 0.0590(19) Uani 1 1 d . . . 
H7 H 0.1750 0.4089 0.1092 0.071 Uiso 1 1 calc R . . 
C8 C 0.4235(4) 0.2353(2) 0.23773(18) 0.0453(17) Uani 1 1 d . . . 
C9 C 0.4557(4) 0.2257(2) 0.2076(2) 0.060(2) Uani 1 1 d . . . 
H9 H 0.4715 0.2474 0.1866 0.072 Uiso 1 1 calc R . . 
C10 C 0.4650(4) 0.1829(3) 0.2083(2) 0.069(2) Uani 1 1 d . . . 
H10 H 0.4876 0.1757 0.1877 0.083 Uiso 1 1 calc R . . 
C11 C 0.4409(4) 0.1513(2) 0.2392(2) 0.0532(18) Uani 1 1 d . . . 
C12 C 0.4067(4) 0.1627(2) 0.26754(19) 0.0518(18) Uani 1 1 d . . . 
H12 H 0.3883 0.1416 0.2879 0.062 Uiso 1 1 calc R . . 
C13 C 0.3977(4) 0.2038(2) 0.26783(19) 0.0492(17) Uani 1 1 d . . . 
H13 H 0.3741 0.2108 0.2883 0.059 Uiso 1 1 calc R . . 
C14 C 0.4559(4) 0.1048(2) 0.2422(2) 0.063(2) Uani 1 1 d . . . 
H14 H 0.4294 0.0860 0.2599 0.076 Uiso 1 1 calc R . . 
C15 C 0.4340(4) 0.2819(2) 0.27217(18) 0.0428(16) Uani 1 1 d . . . 
C16 C 0.4994(3) 0.2533(2) 0.29349(18) 0.0420(16) Uani 1 1 d . . . 
H16 H 0.5291 0.2321 0.2847 0.050 Uiso 1 1 calc R . . 
C17 C 0.5213(3) 0.2555(2) 0.32725(18) 0.0403(16) Uani 1 1 d . . . 
H17 H 0.5658 0.2360 0.3412 0.048 Uiso 1 1 calc R . . 
C18 C 0.4781(3) 0.28624(19) 0.34083(17) 0.0362(15) Uani 1 1 d . . . 
C19 C 0.4132(3) 0.3139(2) 0.31988(18) 0.0419(16) Uani 1 1 d . . . 
H19 H 0.3825 0.3345 0.3290 0.050 Uiso 1 1 calc R . . 
C20 C 0.3924(3) 0.3119(2) 0.28595(18) 0.0432(16) Uani 1 1 d . . . 
H20 H 0.3483 0.3318 0.2718 0.052 Uiso 1 1 calc R . . 
C21 C 0.4997(4) 0.2915(2) 0.37509(18) 0.0432(17) Uani 1 1 d . . . 
H21 H 0.4652 0.3112 0.3838 0.052 Uiso 1 1 calc R . . 
C22 C 0.0055(4) 0.2232(2) 0.23246(18) 0.0503(18) Uani 1 1 d . . . 
C23 C -0.0705(4) 0.2370(2) 0.23676(19) 0.0520(18) Uani 1 1 d . . . 
H23 H -0.0979 0.2652 0.2199 0.062 Uiso 1 1 calc R . . 
C24 C -0.1067(4) 0.2103(2) 0.26530(18) 0.0487(17) Uani 1 1 d . . . 
H24 H -0.1584 0.2204 0.2675 0.058 Uiso 1 1 calc R . . 
C25 C -0.0683(4) 0.1690(2) 0.29065(19) 0.0478(17) Uani 1 1 d . . . 
C26 C 0.0077(4) 0.1552(2) 0.28668(19) 0.0544(19) Uani 1 1 d . . . 
H26 H 0.0351 0.1272 0.3038 0.065 Uiso 1 1 calc R . . 
C27 C 0.0439(4) 0.1820(2) 0.2579(2) 0.0565(19) Uani 1 1 d . . . 
H27 H 0.0956 0.1718 0.2556 0.068 Uiso 1 1 calc R . . 
C28 C -0.1059(4) 0.1401(2) 0.32013(19) 0.0521(18) Uani 1 1 d . . . 
H28 H -0.0766 0.1128 0.3374 0.063 Uiso 1 1 calc R . . 
C29 C 0.1076(4) 0.2274(2) 0.18899(19) 0.0517(18) Uani 1 1 d . . . 
C30 C 0.1048(4) 0.1937(2) 0.17736(19) 0.0557(19) Uani 1 1 d . . . 
H30 H 0.0597 0.1852 0.1784 0.067 Uiso 1 1 calc R . . 
C31 C 0.1678(4) 0.1724(2) 0.16411(19) 0.058(2) Uani 1 1 d . . . 
H31 H 0.1655 0.1495 0.1559 0.070 Uiso 1 1 calc R . . 
C32 C 0.2345(4) 0.1849(2) 0.16294(19) 0.0549(19) Uani 1 1 d . . . 
C33 C 0.2357(4) 0.2189(2) 0.1741(2) 0.0575(19) Uani 1 1 d . . . 
H33 H 0.2802 0.2280 0.1728 0.069 Uiso 1 1 calc R . . 
C34 C 0.1730(4) 0.2398(2) 0.1871(2) 0.0571(19) Uani 1 1 d . . . 
H34 H 0.1751 0.2630 0.1948 0.069 Uiso 1 1 calc R . . 
C35 C 0.3033(4) 0.1622(3) 0.1497(2) 0.062(2) Uani 1 1 d . . . 
H35 H 0.3484 0.1700 0.1509 0.074 Uiso 1 1 calc R . . 
C36 C 0.0223(4) 0.2957(2) 0.1874(2) 0.0497(17) Uani 1 1 d . . . 
C37 C 0.0309(4) 0.3181(2) 0.1492(2) 0.0528(18) Uani 1 1 d . . . 
H37 H 0.0500 0.3024 0.1332 0.063 Uiso 1 1 calc R . . 
C38 C 0.0116(4) 0.3640(2) 0.1337(2) 0.0567(19) Uani 1 1 d . . . 
H38 H 0.0178 0.3793 0.1073 0.068 Uiso 1 1 calc R . . 
C39 C -0.0160(4) 0.3871(2) 0.1563(2) 0.0579(19) Uani 1 1 d . . . 
C40 C -0.0233(4) 0.3644(3) 0.1944(2) 0.063(2) Uani 1 1 d . . . 
H40 H -0.0412 0.3803 0.2104 0.076 Uiso 1 1 calc R . . 
C41 C -0.0053(4) 0.3186(3) 0.2106(2) 0.060(2) Uani 1 1 d . . . 
H41 H -0.0118 0.3034 0.2371 0.072 Uiso 1 1 calc R . . 
C42 C -0.0392(4) 0.4363(2) 0.1399(2) 0.060(2) Uani 1 1 d . . . 
H42 H -0.0556 0.4507 0.1571 0.073 Uiso 1 1 calc R . . 
C43 C 0.2902(3) 0.1402(2) 0.39156(19) 0.0449(17) Uani 1 1 d . . . 
C44 C 0.3146(3) 0.1181(2) 0.42969(19) 0.0434(16) Uani 1 1 d . . . 
H44 H 0.2911 0.0967 0.4464 0.052 Uiso 1 1 calc R . . 
C45 C 0.3735(3) 0.12721(19) 0.44354(18) 0.0394(15) Uani 1 1 d . . . 
H45 H 0.3891 0.1125 0.4700 0.047 Uiso 1 1 calc R . . 
C46 C 0.4104(3) 0.1575(2) 0.41952(18) 0.0417(16) Uani 1 1 d . . . 
C47 C 0.3865(4) 0.1787(2) 0.3818(2) 0.0485(18) Uani 1 1 d . . . 
H47 H 0.4113 0.1993 0.3650 0.058 Uiso 1 1 calc R . . 
C48 C 0.3270(4) 0.1708(2) 0.36735(19) 0.0548(19) Uani 1 1 d . . . 
H48 H 0.3109 0.1862 0.3410 0.066 Uiso 1 1 calc R . . 
C49 C 0.4757(3) 0.1644(2) 0.4341(2) 0.0408(16) Uani 1 1 d . . . 
H49 H 0.5022 0.1835 0.4167 0.049 Uiso 1 1 calc R . . 
C50 C 0.2456(4) 0.1176(2) 0.3449(2) 0.0503(18) Uani 1 1 d . . . 
C51 C 0.2791(4) 0.0739(2) 0.3518(2) 0.0564(19) Uani 1 1 d . . . 
H51 H 0.2943 0.0537 0.3773 0.068 Uiso 1 1 calc R . . 
C52 C 0.2906(4) 0.0597(2) 0.3218(2) 0.0555(19) Uani 1 1 d . . . 
H52 H 0.3139 0.0298 0.3267 0.067 Uiso 1 1 calc R . . 
C53 C 0.2679(4) 0.0895(2) 0.28393(19) 0.0533(18) Uani 1 1 d . . . 
C54 C 0.2358(4) 0.1332(2) 0.2769(2) 0.0561(19) Uani 1 1 d . . . 
H54 H 0.2221 0.1536 0.2513 0.067 Uiso 1 1 calc R . . 
C55 C 0.2236(4) 0.1472(2) 0.3072(2) 0.0550(19) Uani 1 1 d . . . 
H55 H 0.2001 0.1771 0.3023 0.066 Uiso 1 1 calc R . . 
C56 C 0.2738(4) 0.0751(3) 0.2516(2) 0.065(2) Uani 1 1 d . . . 
H56 H 0.2534 0.0960 0.2270 0.078 Uiso 1 1 calc R . . 
C57 C 0.1635(4) 0.1284(2) 0.39450(18) 0.0445(16) Uani 1 1 d . . . 
C58 C 0.1147(4) 0.1078(2) 0.3849(2) 0.059(2) Uani 1 1 d . . . 
H58 H 0.1275 0.0954 0.3660 0.071 Uiso 1 1 calc R . . 
C59 C 0.0485(4) 0.1053(2) 0.40265(19) 0.0546(19) Uani 1 1 d . . . 
H59 H 0.0172 0.0909 0.3959 0.066 Uiso 1 1 calc R . . 
C60 C 0.0264(4) 0.1232(2) 0.42980(18) 0.0427(16) Uani 1 1 d . . . 
C61 C 0.0738(4) 0.14421(19) 0.43911(18) 0.0461(17) Uani 1 1 d . . . 
H61 H 0.0594 0.1577 0.4571 0.055 Uiso 1 1 calc R . . 
C62 C 0.1418(4) 0.14562(19) 0.42234(18) 0.0460(17) Uani 1 1 d . . . 
H62 H 0.1742 0.1587 0.4302 0.055 Uiso 1 1 calc R . . 
C63 C -0.0431(3) 0.1215(2) 0.44861(18) 0.0460(17) Uani 1 1 d . . . 
H63 H -0.0635 0.1430 0.4591 0.055 Uiso 1 1 calc R . . 
C64 C 0.0679(3) 0.27911(19) 0.34455(17) 0.0402(16) Uani 1 1 d . . . 
C65 C 0.0284(3) 0.27555(18) 0.37723(17) 0.0385(15) Uani 1 1 d . . . 
H65 H 0.0425 0.2858 0.3954 0.046 Uiso 1 1 calc R . . 
C66 C -0.0316(3) 0.25709(18) 0.38337(17) 0.0372(15) Uani 1 1 d . . . 
H66 H -0.0576 0.2543 0.4061 0.045 Uiso 1 1 calc R . . 
C67 C -0.0547(3) 0.24267(18) 0.35727(17) 0.0352(15) Uani 1 1 d . . . 
C68 C -0.0131(3) 0.2454(2) 0.32524(18) 0.0456(17) Uani 1 1 d . . . 
H68 H -0.0266 0.2347 0.3073 0.055 Uiso 1 1 calc R . . 
C69 C 0.0474(3) 0.2633(2) 0.31900(18) 0.0447(17) Uani 1 1 d . . . 
H69 H 0.0750 0.2647 0.2969 0.054 Uiso 1 1 calc R . . 
C70 C -0.1246(3) 0.22987(18) 0.35987(18) 0.0414(16) Uani 1 1 d . . . 
H70 H -0.1394 0.2234 0.3393 0.050 Uiso 1 1 calc R . . 
C71 C 0.1293(3) 0.3341(2) 0.30059(17) 0.0397(15) Uani 1 1 d . . . 
C72 C 0.0646(4) 0.3647(2) 0.28335(17) 0.0407(16) Uani 1 1 d . . . 
H72 H 0.0186 0.3613 0.2945 0.049 Uiso 1 1 calc R . . 
C73 C 0.0659(3) 0.4004(2) 0.24987(18) 0.0416(16) Uani 1 1 d . . . 
H73 H 0.0208 0.4215 0.2383 0.050 Uiso 1 1 calc R . . 
C74 C 0.1319(4) 0.4056(2) 0.23323(17) 0.0403(16) Uani 1 1 d . . . 
C75 C 0.1961(4) 0.3734(2) 0.24947(19) 0.0560(19) Uani 1 1 d . . . 
H75 H 0.2418 0.3758 0.2376 0.067 Uiso 1 1 calc R . . 
C76 C 0.1946(4) 0.3374(2) 0.28323(19) 0.0560(19) Uani 1 1 d . . . 
H76 H 0.2390 0.3152 0.2941 0.067 Uiso 1 1 calc R . . 
C77 C 0.1366(4) 0.4470(2) 0.20177(18) 0.0477(17) Uani 1 1 d . . . 
H77 H 0.1823 0.4484 0.1896 0.057 Uiso 1 1 calc R . . 
C78 C 0.1824(3) 0.2875(2) 0.36712(18) 0.0388(15) Uani 1 1 d . . . 
C79 C 0.2187(4) 0.3171(2) 0.37108(19) 0.0447(17) Uani 1 1 d . . . 
H79 H 0.2087 0.3463 0.3525 0.054 Uiso 1 1 calc R . . 
C80 C 0.2681(3) 0.3045(2) 0.40128(18) 0.0414(16) Uani 1 1 d . . . 
H80 H 0.2927 0.3249 0.4032 0.050 Uiso 1 1 calc R . . 
C81 C 0.2833(3) 0.26213(19) 0.42937(18) 0.0380(15) Uani 1 1 d . . . 
C82 C 0.2467(3) 0.2332(2) 0.42517(19) 0.0458(17) Uani 1 1 d . . . 
H82 H 0.2563 0.2042 0.4440 0.055 Uiso 1 1 calc R . . 
C83 C 0.1973(3) 0.24506(19) 0.39476(19) 0.0439(16) Uani 1 1 d . . . 
H83 H 0.1734 0.2244 0.3926 0.053 Uiso 1 1 calc R . . 
C84 C 0.3334(3) 0.2469(2) 0.46335(18) 0.0408(16) Uani 1 1 d . . . 
H84 H 0.3451 0.2164 0.4789 0.049 Uiso 1 1 calc R . . 
C85 C 0.1272(4) 0.5254(2) 0.0805(2) 0.063(2) Uani 1 1 d . . . 
H85A H 0.1606 0.5328 0.0955 0.075 Uiso 1 1 calc R . . 
H85B H 0.1117 0.5510 0.0560 0.075 Uiso 1 1 calc R . . 
C86 C 0.1696(4) 0.4863(2) 0.0720(2) 0.061(2) Uani 1 1 d . . . 
H86A H 0.1344 0.4719 0.0660 0.073 Uiso 1 1 calc R . . 
H86B H 0.1996 0.4960 0.0494 0.073 Uiso 1 1 calc R . . 
C87 C -0.0019(4) 0.5286(2) 0.0759(2) 0.062(2) Uani 1 1 d . . . 
H87A H 0.0152 0.5196 0.0543 0.074 Uiso 1 1 calc R . . 
H87B H -0.0223 0.5609 0.0653 0.074 Uiso 1 1 calc R . . 
C88 C -0.0626(4) 0.5072(2) 0.0946(2) 0.066(2) Uani 1 1 d . . . 
H88A H -0.0763 0.5135 0.1179 0.079 Uiso 1 1 calc R . . 
H88B H -0.1071 0.5195 0.0767 0.079 Uiso 1 1 calc R . . 
C89 C 0.0449(4) 0.5418(2) 0.12745(19) 0.0561(19) Uani 1 1 d . . . 
H89A H -0.0066 0.5427 0.1355 0.067 Uiso 1 1 calc R . . 
H89B H 0.0481 0.5724 0.1131 0.067 Uiso 1 1 calc R . . 
C90 C 0.0980(4) 0.5212(2) 0.16305(19) 0.0537(19) Uani 1 1 d . . . 
H90A H 0.1497 0.5148 0.1552 0.064 Uiso 1 1 calc R . . 
H90B H 0.0932 0.5423 0.1757 0.064 Uiso 1 1 calc R . . 
C91 C -0.2588(4) 0.1355(2) 0.37653(19) 0.0490(17) Uani 1 1 d . . . 
H91A H -0.2892 0.1646 0.3596 0.059 Uiso 1 1 calc R . . 
H91B H -0.2929 0.1165 0.3884 0.059 Uiso 1 1 calc R . . 
C92 C -0.2055(4) 0.1157(2) 0.35265(19) 0.0545(19) Uani 1 1 d . . . 
H92A H -0.1645 0.0921 0.3696 0.065 Uiso 1 1 calc R . . 
H92B H -0.2319 0.1025 0.3397 0.065 Uiso 1 1 calc R . . 
C93 C -0.2100(4) 0.1013(2) 0.44280(19) 0.0503(18) Uani 1 1 d . . . 
H93A H -0.1995 0.0749 0.4363 0.060 Uiso 1 1 calc R . . 
H93B H -0.2573 0.1028 0.4559 0.060 Uiso 1 1 calc R . . 
C94 C -0.1490(4) 0.0965(2) 0.46973(19) 0.0496(18) Uani 1 1 d . . . 
H94A H -0.1596 0.1224 0.4769 0.060 Uiso 1 1 calc R . . 
H94B H -0.1464 0.0701 0.4934 0.060 Uiso 1 1 calc R . . 
C95 C -0.2567(3) 0.1807(2) 0.41327(18) 0.0451(16) Uani 1 1 d . . . 
H95A H -0.2397 0.1783 0.4387 0.054 Uiso 1 1 calc R . . 
H95B H -0.3110 0.1835 0.4134 0.054 Uiso 1 1 calc R . . 
C96 C -0.2411(3) 0.2214(2) 0.38226(19) 0.0476(17) Uani 1 1 d . . . 
H96A H -0.2452 0.2195 0.3569 0.057 Uiso 1 1 calc R . . 
H96B H -0.2792 0.2475 0.3822 0.057 Uiso 1 1 calc R . . 
C97 C 0.4910(5) 0.0379(3) 0.1928(2) 0.077(2) Uani 1 1 d . . . 
H97A H 0.5100 0.0582 0.1701 0.093 Uiso 1 1 calc R . . 
H97B H 0.5136 0.0076 0.1945 0.093 Uiso 1 1 calc R . . 
C98 C 0.5148(5) 0.0426(2) 0.2292(3) 0.084(3) Uani 1 1 d . . . 
H98A H 0.4857 0.0287 0.2509 0.100 Uiso 1 1 calc R . . 
H98B H 0.5681 0.0276 0.2361 0.100 Uiso 1 1 calc R . . 
C99 C 0.3879(5) 0.0620(3) 0.1470(2) 0.077(2) Uani 1 1 d . . . 
H99A H 0.3417 0.0533 0.1451 0.092 Uiso 1 1 calc R . . 
H99B H 0.4269 0.0470 0.1344 0.092 Uiso 1 1 calc R . . 
C100 C 0.3747(5) 0.1105(3) 0.1260(2) 0.075(2) Uani 1 1 d . . . 
H10A H 0.4155 0.1207 0.1327 0.090 Uiso 1 1 calc R . . 
H10B H 0.3734 0.1178 0.0979 0.090 Uiso 1 1 calc R . . 
C101 C 0.3826(5) 0.0095(3) 0.2112(3) 0.084(3) Uani 1 1 d . . . 
H10C H 0.4144 -0.0074 0.2352 0.101 Uiso 1 1 calc R . . 
H10D H 0.3843 -0.0101 0.1973 0.101 Uiso 1 1 calc R . . 
C102 C 0.3035(5) 0.0254(3) 0.2208(2) 0.084(3) Uani 1 1 d . . . 
H10E H 0.2772 0.0517 0.1988 0.101 Uiso 1 1 calc R . . 
H10F H 0.2766 0.0022 0.2258 0.101 Uiso 1 1 calc R . . 
C103 C 0.5937(3) 0.24434(19) 0.46357(17) 0.0400(15) Uani 1 1 d . . . 
H10G H 0.6314 0.2204 0.4594 0.048 Uiso 1 1 calc R . . 
H10H H 0.6158 0.2523 0.4825 0.048 Uiso 1 1 calc R . . 
C104 C 0.5761(3) 0.28353(19) 0.42623(17) 0.0415(16) Uani 1 1 d . . . 
H10I H 0.5318 0.3053 0.4288 0.050 Uiso 1 1 calc R . . 
H10J H 0.6183 0.2974 0.4205 0.050 Uiso 1 1 calc R . . 
C105 C 0.5518(4) 0.18101(19) 0.50411(18) 0.0443(16) Uani 1 1 d . . . 
H10K H 0.5121 0.1731 0.5218 0.053 Uiso 1 1 calc R . . 
H10L H 0.5972 0.1752 0.5199 0.053 Uiso 1 1 calc R . . 
C106 C 0.5669(3) 0.1525(2) 0.48077(19) 0.0472(17) Uani 1 1 d . . . 
H10M H 0.5926 0.1665 0.4576 0.057 Uiso 1 1 calc R . . 
H10N H 0.6002 0.1237 0.4962 0.057 Uiso 1 1 calc R . . 
C107 C 0.4890(3) 0.2536(2) 0.50167(18) 0.0428(16) Uani 1 1 d . . . 
H10O H 0.4879 0.2849 0.4875 0.051 Uiso 1 1 calc R . . 
H10P H 0.5169 0.2436 0.5266 0.051 Uiso 1 1 calc R . . 
C108 C 0.4104(3) 0.2496(2) 0.50925(18) 0.0467(17) Uani 1 1 d . . . 
H10Q H 0.4104 0.2182 0.5209 0.056 Uiso 1 1 calc R . . 
H10R H 0.3903 0.2632 0.5278 0.056 Uiso 1 1 calc R . . 
N21 N 0.7209(3) 0.56257(16) 0.18702(15) 0.0447(13) Uani 1 1 d . . . 
N22 N 0.8630(3) 0.37381(15) 0.36061(13) 0.0384(12) Uani 1 1 d . . . 
N23 N 0.6973(3) 0.57960(15) 0.37239(14) 0.0404(13) Uani 1 1 d . . . 
N24 N 0.4998(3) 0.45898(16) 0.33274(14) 0.0425(13) Uani 1 1 d . . . 
N25 N 0.6701(3) 0.31379(17) 0.18238(14) 0.0451(13) Uani 1 1 d . . . 
N26 N 0.6553(3) 0.35132(16) 0.57621(14) 0.0411(13) Uani 1 1 d . . . 
N27 N 1.1456(3) 0.56555(16) 0.28150(14) 0.0408(13) Uani 1 1 d . . . 
N28 N 0.3063(3) 0.74468(18) 0.20876(17) 0.0570(16) Uani 1 1 d . . . 
N29 N 0.7509(3) 0.38796(17) 0.14955(16) 0.0485(14) Uani 1 1 d . . . 
N30 N 0.5389(3) 0.37640(17) 0.20377(14) 0.0432(13) Uani 1 1 d . . . 
N31 N 0.7342(3) 0.28390(16) 0.26293(14) 0.0410(13) Uani 1 1 d . . . 
N32 N 0.5778(3) 0.33610(16) 0.51403(15) 0.0459(14) Uani 1 1 d . . . 
N33 N 0.8039(3) 0.34602(17) 0.53769(15) 0.0422(13) Uani 1 1 d . . . 
N34 N 0.6020(3) 0.45237(16) 0.53444(16) 0.0444(13) Uani 1 1 d . . . 
N35 N 1.0172(3) 0.61097(16) 0.21892(15) 0.0456(14) Uani 1 1 d . . . 
N36 N 1.1201(3) 0.47418(16) 0.29514(14) 0.0431(13) Uani 1 1 d . . . 
N37 N 1.0452(3) 0.57327(16) 0.34699(14) 0.0425(13) Uani 1 1 d . . . 
N38 N 0.4062(4) 0.7085(2) 0.15273(19) 0.0747(19) Uani 1 1 d . . . 
N39 N 0.2851(3) 0.65624(19) 0.2648(2) 0.0617(17) Uani 1 1 d . . . 
N40 N 0.4387(3) 0.73823(18) 0.25955(16) 0.0562(15) Uani 1 1 d . . . 
C109 C 0.7310(4) 0.5207(2) 0.18515(18) 0.0435(16) Uani 1 1 d . . . 
C110 C 0.6925(4) 0.5157(2) 0.15709(18) 0.0439(16) Uani 1 1 d . . . 
H110 H 0.6568 0.5400 0.1399 0.053 Uiso 1 1 calc R . . 
C111 C 0.7062(3) 0.4753(2) 0.15419(18) 0.0445(16) Uani 1 1 d . . . 
H111 H 0.6808 0.4726 0.1343 0.053 Uiso 1 1 calc R . . 
C112 C 0.7559(4) 0.4385(2) 0.17953(19) 0.0445(17) Uani 1 1 d . . . 
C113 C 0.7914(4) 0.4435(2) 0.2084(2) 0.0509(18) Uani 1 1 d . . . 
H113 H 0.8242 0.4187 0.2268 0.061 Uiso 1 1 calc R . . 
C114 C 0.7796(4) 0.4846(2) 0.21096(19) 0.0506(18) Uani 1 1 d . . . 
H114 H 0.8054 0.4875 0.2306 0.061 Uiso 1 1 calc R . . 
C115 C 0.7734(4) 0.3948(2) 0.1771(2) 0.0469(17) Uani 1 1 d . . . 
H115 H 0.8033 0.3706 0.1974 0.056 Uiso 1 1 calc R . . 
C116 C 0.7811(4) 0.57278(19) 0.20076(18) 0.0419(16) Uani 1 1 d . . . 
C117 C 0.8494(4) 0.5679(2) 0.18406(18) 0.0486(17) Uani 1 1 d . . . 
H117 H 0.8560 0.5573 0.1639 0.058 Uiso 1 1 calc R . . 
C118 C 0.9067(4) 0.5784(2) 0.19662(19) 0.0473(17) Uani 1 1 d . . . 
H118 H 0.9528 0.5752 0.1848 0.057 Uiso 1 1 calc R . . 
C119 C 0.8994(4) 0.5934(2) 0.22596(18) 0.0428(16) Uani 1 1 d . . . 
C120 C 0.8317(4) 0.5971(2) 0.24325(19) 0.0484(17) Uani 1 1 d . . . 
H120 H 0.8258 0.6069 0.2639 0.058 Uiso 1 1 calc R . . 
C121 C 0.7734(4) 0.5868(2) 0.23087(18) 0.0480(17) Uani 1 1 d . . . 
H121 H 0.7276 0.5893 0.2431 0.058 Uiso 1 1 calc R . . 
C122 C 0.9584(4) 0.6089(2) 0.23719(18) 0.0449(17) Uani 1 1 d . . . 
H122 H 0.9523 0.6175 0.2585 0.054 Uiso 1 1 calc R . . 
C123 C 0.6479(4) 0.5898(2) 0.18446(18) 0.0453(17) Uani 1 1 d . . . 
C124 C 0.6320(4) 0.6343(2) 0.1613(2) 0.0552(19) Uani 1 1 d . . . 
H124 H 0.6698 0.6466 0.1470 0.066 Uiso 1 1 calc R . . 
C125 C 0.5612(4) 0.6604(2) 0.1592(2) 0.0555(19) Uani 1 1 d . . . 
H125 H 0.5510 0.6907 0.1433 0.067 Uiso 1 1 calc R . . 
C126 C 0.5046(4) 0.6436(2) 0.1797(2) 0.0582(19) Uani 1 1 d . . . 
C127 C 0.5213(4) 0.5993(2) 0.2030(2) 0.062(2) Uani 1 1 d . . . 
H127 H 0.4836 0.5870 0.2173 0.075 Uiso 1 1 calc R . . 
C128 C 0.5925(4) 0.5730(2) 0.2056(2) 0.061(2) Uani 1 1 d . . . 
H128 H 0.6033 0.5429 0.2222 0.073 Uiso 1 1 calc R . . 
C129 C 0.4270(4) 0.6695(3) 0.1761(2) 0.066(2) Uani 1 1 d . . . 
H129 H 0.3917 0.6562 0.1920 0.079 Uiso 1 1 calc R . . 
C130 C 0.8415(3) 0.37425(19) 0.39748(17) 0.0370(15) Uani 1 1 d . . . 
C131 C 0.8516(3) 0.33574(19) 0.42979(17) 0.0393(15) Uani 1 1 d . . . 
H131 H 0.8700 0.3082 0.4275 0.047 Uiso 1 1 calc R . . 
C132 C 0.8348(3) 0.33748(19) 0.46536(17) 0.0411(16) Uani 1 1 d . . . 
H132 H 0.8420 0.3110 0.4875 0.049 Uiso 1 1 calc R . . 
C133 C 0.8073(3) 0.37777(19) 0.46914(17) 0.0350(15) Uani 1 1 d . . . 
C134 C 0.7960(3) 0.4160(2) 0.43634(17) 0.0393(15) Uani 1 1 d . . . 
H134 H 0.7760 0.4436 0.4383 0.047 Uiso 1 1 calc R . . 
C135 C 0.8136(3) 0.41427(19) 0.40117(17) 0.0393(15) Uani 1 1 d . . . 
H135 H 0.8066 0.4407 0.3791 0.047 Uiso 1 1 calc R . . 
C136 C 0.7920(3) 0.3796(2) 0.50734(18) 0.0389(15) Uani 1 1 d . . . 
H136 H 0.7724 0.4075 0.5089 0.047 Uiso 1 1 calc R . . 
C137 C 0.9088(3) 0.40243(19) 0.34078(17) 0.0365(15) Uani 1 1 d . . . 
C138 C 0.9768(3) 0.39699(19) 0.35858(18) 0.0398(16) Uani 1 1 d . . . 
H138 H 0.9915 0.3750 0.3835 0.048 Uiso 1 1 calc R . . 
C139 C 1.0226(3) 0.42393(19) 0.33958(17) 0.0387(15) Uani 1 1 d . . . 
H139 H 1.0692 0.4198 0.3516 0.046 Uiso 1 1 calc R . . 
C140 C 1.0024(3) 0.45655(19) 0.30373(17) 0.0379(15) Uani 1 1 d . . . 
C141 C 0.9333(3) 0.46268(19) 0.28686(18) 0.0410(16) Uani 1 1 d . . . 
H141 H 0.9177 0.4857 0.2625 0.049 Uiso 1 1 calc R . . 
C142 C 0.8868(3) 0.43558(19) 0.30513(17) 0.0405(16) Uani 1 1 d . . . 
H142 H 0.8402 0.4398 0.2931 0.049 Uiso 1 1 calc R . . 
C143 C 1.0553(4) 0.48138(19) 0.28154(18) 0.0403(16) Uani 1 1 d . . . 
H143 H 1.0401 0.5032 0.2566 0.048 Uiso 1 1 calc R . . 
C144 C 0.8232(3) 0.35740(18) 0.34058(17) 0.0377(15) Uani 1 1 d . . . 
C145 C 0.8524(3) 0.34699(19) 0.30985(17) 0.0402(16) Uani 1 1 d . . . 
H145 H 0.8998 0.3514 0.3017 0.048 Uiso 1 1 calc R . . 
C146 C 0.8141(3) 0.33032(19) 0.29105(17) 0.0377(15) Uani 1 1 d . . . 
H146 H 0.8357 0.3230 0.2703 0.045 Uiso 1 1 calc R . . 
C147 C 0.7440(3) 0.32413(18) 0.30205(16) 0.0348(15) Uani 1 1 d . . . 
C148 C 0.7146(3) 0.33462(19) 0.33258(17) 0.0394(15) Uani 1 1 d . . . 
H148 H 0.6667 0.3307 0.3403 0.047 Uiso 1 1 calc R . . 
C149 C 0.7533(3) 0.35063(19) 0.35202(17) 0.0398(16) Uani 1 1 d . . . 
H149 H 0.7324 0.3571 0.3733 0.048 Uiso 1 1 calc R . . 
C150 C 0.7037(4) 0.30350(19) 0.28439(17) 0.0413(16) Uani 1 1 d . . . 
H150 H 0.6527 0.3050 0.2893 0.050 Uiso 1 1 calc R . . 
C151 C 0.6455(3) 0.61093(19) 0.34315(18) 0.0397(16) Uani 1 1 d . . . 
C152 C 0.5794(4) 0.6331(2) 0.35296(19) 0.0462(17) Uani 1 1 d . . . 
H152 H 0.5685 0.6263 0.3792 0.055 Uiso 1 1 calc R . . 
C153 C 0.5285(4) 0.6657(2) 0.32367(19) 0.0479(17) Uani 1 1 d . . . 
H153 H 0.4835 0.6812 0.3303 0.057 Uiso 1 1 calc R . . 
C154 C 0.5431(4) 0.6754(2) 0.28547(19) 0.0464(17) Uani 1 1 d . . . 
C155 C 0.6092(4) 0.6526(2) 0.27623(19) 0.0504(18) Uani 1 1 d . . . 
H155 H 0.6200 0.6590 0.2500 0.060 Uiso 1 1 calc R . . 
C156 C 0.6601(4) 0.6204(2) 0.30516(19) 0.0469(17) Uani 1 1 d . . . 
H156 H 0.7051 0.6049 0.2985 0.056 Uiso 1 1 calc R . . 
C157 C 0.4950(4) 0.7117(2) 0.2540(2) 0.0540(18) Uani 1 1 d . . . 
H157 H 0.5066 0.7154 0.2283 0.065 Uiso 1 1 calc R . . 
C158 C 0.7747(3) 0.57190(19) 0.36483(17) 0.0377(15) Uani 1 1 d . . . 
C159 C 0.8097(3) 0.6057(2) 0.35495(17) 0.0422(16) Uani 1 1 d . . . 
H159 H 0.7822 0.6339 0.3534 0.051 Uiso 1 1 calc R . . 
C160 C 0.8836(4) 0.59913(19) 0.34736(17) 0.0439(16) Uani 1 1 d . . . 
H160 H 0.9066 0.6228 0.3405 0.053 Uiso 1 1 calc R . . 
C161 C 0.9259(3) 0.55723(19) 0.34966(17) 0.0382(15) Uani 1 1 d . . . 
C162 C 0.8890(3) 0.5243(2) 0.35857(17) 0.0435(16) Uani 1 1 d . . . 
H162 H 0.9156 0.4962 0.3594 0.052 Uiso 1 1 calc R . . 
C163 C 0.8151(4) 0.5313(2) 0.36621(18) 0.0458(17) Uani 1 1 d . . . 
H163 H 0.7914 0.5080 0.3725 0.055 Uiso 1 1 calc R . . 
C164 C 1.0072(3) 0.5477(2) 0.34650(16) 0.0422(16) Uani 1 1 d . . . 
H164 H 1.0320 0.5209 0.3440 0.051 Uiso 1 1 calc R . . 
C165 C 0.6742(3) 0.54690(19) 0.40401(18) 0.0390(16) Uani 1 1 d . . . 
C166 C 0.7015(4) 0.5369(2) 0.44099(18) 0.0450(17) Uani 1 1 d . . . 
H166 H 0.7371 0.5508 0.4448 0.054 Uiso 1 1 calc R . . 
C167 C 0.6768(3) 0.50682(19) 0.47221(18) 0.0417(16) Uani 1 1 d . . . 
H167 H 0.6961 0.5001 0.4974 0.050 Uiso 1 1 calc R . . 
C168 C 0.6242(3) 0.48620(19) 0.46738(18) 0.0400(16) Uani 1 1 d . . . 
C169 C 0.5993(3) 0.4955(2) 0.43038(19) 0.0440(16) Uani 1 1 d . . . 
H169 H 0.5646 0.4811 0.4264 0.053 Uiso 1 1 calc R . . 
C170 C 0.6242(4) 0.5256(2) 0.39888(18) 0.0449(16) Uani 1 1 d . . . 
H170 H 0.6066 0.5315 0.3737 0.054 Uiso 1 1 calc R . . 
C171 C 0.5921(3) 0.45663(19) 0.5002(2) 0.0420(16) Uani 1 1 d . . . 
H171 H 0.5626 0.4400 0.4952 0.050 Uiso 1 1 calc R . . 
C172 C 0.4616(3) 0.5034(2) 0.32105(17) 0.0374(15) Uani 1 1 d . . . 
C173 C 0.4142(3) 0.5241(2) 0.28820(18) 0.0432(16) Uani 1 1 d . . . 
H173 H 0.4082 0.5082 0.2731 0.052 Uiso 1 1 calc R . . 
C174 C 0.3755(3) 0.5678(2) 0.27719(18) 0.0431(16) Uani 1 1 d . . . 
H174 H 0.3431 0.5813 0.2548 0.052 Uiso 1 1 calc R . . 
C175 C 0.3835(4) 0.5921(2) 0.29846(19) 0.0423(16) Uani 1 1 d . . . 
C176 C 0.4323(4) 0.5711(2) 0.3307(2) 0.0555(19) Uani 1 1 d . . . 
H176 H 0.4403 0.5872 0.3452 0.067 Uiso 1 1 calc R . . 
C177 C 0.4692(4) 0.5277(2) 0.34217(19) 0.0485(17) Uani 1 1 d . . . 
H177 H 0.5006 0.5141 0.3650 0.058 Uiso 1 1 calc R . . 
C178 C 0.3386(4) 0.6376(2) 0.2896(2) 0.0503(18) Uani 1 1 d . . . 
H178 H 0.3508 0.6535 0.3034 0.060 Uiso 1 1 calc R . . 
C179 C 0.5284(3) 0.43332(19) 0.37141(17) 0.0371(15) Uani 1 1 d . . . 
C180 C 0.4817(3) 0.4270(2) 0.40199(18) 0.0422(16) Uani 1 1 d . . . 
H180 H 0.4302 0.4412 0.3973 0.051 Uiso 1 1 calc R . . 
C181 C 0.5092(4) 0.4007(2) 0.43882(18) 0.0433(16) Uani 1 1 d . . . 
H181 H 0.4763 0.3965 0.4592 0.052 Uiso 1 1 calc R . . 
C182 C 0.5843(3) 0.37999(19) 0.44676(17) 0.0361(15) Uani 1 1 d . . . 
C183 C 0.6307(3) 0.3876(2) 0.41626(18) 0.0426(16) Uani 1 1 d . . . 
H183 H 0.6825 0.3744 0.4211 0.051 Uiso 1 1 calc R . . 
C184 C 0.6036(4) 0.4139(2) 0.37899(18) 0.0439(16) Uani 1 1 d . . . 
H184 H 0.6366 0.4187 0.3587 0.053 Uiso 1 1 calc R . . 
C185 C 0.6157(4) 0.3478(2) 0.48486(19) 0.0428(16) Uani 1 1 d . . . 
H185 H 0.6678 0.3351 0.4878 0.051 Uiso 1 1 calc R . . 
C186 C 0.5244(3) 0.4414(2) 0.30367(17) 0.0388(15) Uani 1 1 d . . . 
C187 C 0.5031(3) 0.40496(19) 0.30451(17) 0.0405(16) Uani 1 1 d . . . 
H187 H 0.4753 0.3905 0.3249 0.049 Uiso 1 1 calc R . . 
C188 C 0.5231(3) 0.3899(2) 0.27514(17) 0.0414(16) Uani 1 1 d . . . 
H188 H 0.5090 0.3648 0.2756 0.050 Uiso 1 1 calc R . . 
C189 C 0.5635(3) 0.41106(19) 0.24499(16) 0.0377(15) Uani 1 1 d . . . 
C190 C 0.5876(4) 0.4464(2) 0.24606(17) 0.0456(17) Uani 1 1 d . . . 
H190 H 0.6179 0.4601 0.2267 0.055 Uiso 1 1 calc R . . 
C191 C 0.5672(4) 0.4611(2) 0.27512(18) 0.0453(17) Uani 1 1 d . . . 
H191 H 0.5830 0.4854 0.2755 0.054 Uiso 1 1 calc R . . 
C192 C 0.5758(4) 0.3994(2) 0.21097(17) 0.0427(16) Uani 1 1 d . . . 
H192 H 0.6125 0.4094 0.1939 0.051 Uiso 1 1 calc R . . 
C193 C 0.7102(4) 0.3261(2) 0.14673(18) 0.0493(18) Uani 1 1 d . . . 
H19A H 0.6757 0.3492 0.1256 0.059 Uiso 1 1 calc R . . 
H19B H 0.7278 0.3002 0.1397 0.059 Uiso 1 1 calc R . . 
C194 C 0.7752(4) 0.3426(2) 0.15116(19) 0.0481(17) Uani 1 1 d . . . 
H19C H 0.8026 0.3233 0.1761 0.058 Uiso 1 1 calc R . . 
H19D H 0.8093 0.3416 0.1304 0.058 Uiso 1 1 calc R . . 
C195 C 0.7024(4) 0.2682(2) 0.20825(17) 0.0465(17) Uani 1 1 d . . . 
H19E H 0.7564 0.2603 0.2048 0.056 Uiso 1 1 calc R . . 
H19F H 0.6798 0.2484 0.2014 0.056 Uiso 1 1 calc R . . 
C196 C 0.6897(4) 0.2613(2) 0.25011(18) 0.0459(17) Uani 1 1 d . . . 
H19G H 0.6364 0.2728 0.2531 0.055 Uiso 1 1 calc R . . 
H19H H 0.7039 0.2295 0.2662 0.055 Uiso 1 1 calc R . . 
C197 C 0.5894(4) 0.3224(2) 0.17458(19) 0.0520(18) Uani 1 1 d . . . 
H19I H 0.5681 0.3029 0.1969 0.062 Uiso 1 1 calc R . . 
H19J H 0.5807 0.3158 0.1519 0.062 Uiso 1 1 calc R . . 
C198 C 0.5510(4) 0.3701(2) 0.16704(18) 0.0514(18) Uani 1 1 d . . . 
H19K H 0.5821 0.3893 0.1511 0.062 Uiso 1 1 calc R . . 
H19L H 0.5026 0.3785 0.1528 0.062 Uiso 1 1 calc R . . 
C199 C 0.7300(3) 0.3279(2) 0.59394(17) 0.0419(16) Uani 1 1 d . . . 
H19M H 0.7430 0.2983 0.5929 0.050 Uiso 1 1 calc R . . 
H19N H 0.7304 0.3241 0.6213 0.050 Uiso 1 1 calc R . . 
C200 C 0.7875(3) 0.3521(2) 0.57403(17) 0.0431(16) Uani 1 1 d . . . 
H20A H 0.7685 0.3837 0.5689 0.052 Uiso 1 1 calc R . . 
H20B H 0.8335 0.3407 0.5908 0.052 Uiso 1 1 calc R . . 
C201 C 0.6212(4) 0.3844(2) 0.59209(18) 0.0490(18) Uani 1 1 d . . . 
H20C H 0.6607 0.3953 0.5991 0.059 Uiso 1 1 calc R . . 
H20D H 0.5969 0.3704 0.6159 0.059 Uiso 1 1 calc R . . 
C202 C 0.5641(4) 0.4231(2) 0.56439(18) 0.0508(18) Uani 1 1 d . . . 
H20E H 0.5315 0.4123 0.5522 0.061 Uiso 1 1 calc R . . 
H20F H 0.5328 0.4395 0.5786 0.061 Uiso 1 1 calc R . . 
C203 C 0.6078(4) 0.3210(2) 0.58130(18) 0.0482(17) Uani 1 1 d . . . 
H20G H 0.5552 0.3365 0.5814 0.058 Uiso 1 1 calc R . . 
H20H H 0.6213 0.2962 0.6065 0.058 Uiso 1 1 calc R . . 
C204 C 0.6159(4) 0.3032(2) 0.54983(18) 0.0510(18) Uani 1 1 d . . . 
H20I H 0.6693 0.2937 0.5457 0.061 Uiso 1 1 calc R . . 
H20J H 0.5952 0.2772 0.5578 0.061 Uiso 1 1 calc R . . 
C205 C 1.1451(4) 0.5986(2) 0.24257(18) 0.0473(17) Uani 1 1 d . . . 
H20K H 1.1591 0.5837 0.2243 0.057 Uiso 1 1 calc R . . 
H20L H 1.1823 0.6151 0.2419 0.057 Uiso 1 1 calc R . . 
C206 C 1.0689(4) 0.6303(2) 0.23015(19) 0.0531(18) Uani 1 1 d . . . 
H20M H 1.0491 0.6391 0.2516 0.064 Uiso 1 1 calc R . . 
H20N H 1.0736 0.6571 0.2082 0.064 Uiso 1 1 calc R . . 
C207 C 1.1578(3) 0.5815(2) 0.31087(17) 0.0414(16) Uani 1 1 d . . . 
H20O H 1.1344 0.6134 0.3018 0.050 Uiso 1 1 calc R . . 
H20P H 1.2119 0.5770 0.3152 0.050 Uiso 1 1 calc R . . 
C208 C 1.1256(3) 0.5580(2) 0.34869(18) 0.0450(16) Uani 1 1 d . . . 
H20Q H 1.1396 0.5260 0.3547 0.054 Uiso 1 1 calc R . . 
H20R H 1.1471 0.5630 0.3697 0.054 Uiso 1 1 calc R . . 
C209 C 1.2005(4) 0.5242(2) 0.28616(19) 0.0470(17) Uani 1 1 d . . . 
H20S H 1.2141 0.5069 0.3138 0.056 Uiso 1 1 calc R . . 
H20T H 1.2460 0.5307 0.2732 0.056 Uiso 1 1 calc R . . 
C210 C 1.1703(4) 0.4971(2) 0.26936(18) 0.0463(17) Uani 1 1 d . . . 
H21A H 1.1434 0.5166 0.2443 0.056 Uiso 1 1 calc R . . 
H21B H 1.2122 0.4754 0.2647 0.056 Uiso 1 1 calc R . . 
C211 C 0.3065(5) 0.7631(3) 0.1667(2) 0.079(3) Uani 1 1 d . . . 
H21C H 0.3434 0.7809 0.1588 0.095 Uiso 1 1 calc R . . 
H21D H 0.2570 0.7828 0.1561 0.095 Uiso 1 1 calc R . . 
C212 C 0.3246(5) 0.7285(3) 0.1500(3) 0.085(3) Uani 1 1 d . . . 
H21E H 0.2988 0.7054 0.1639 0.103 Uiso 1 1 calc R . . 
H21F H 0.3063 0.7417 0.1227 0.103 Uiso 1 1 calc R . . 
C213 C 0.3185(4) 0.7769(2) 0.2234(2) 0.0570(19) Uani 1 1 d . . . 
H21G H 0.2989 0.7709 0.2493 0.068 Uiso 1 1 calc R . . 
H21H H 0.2910 0.8067 0.2063 0.068 Uiso 1 1 calc R . . 
C214 C 0.3996(4) 0.7752(2) 0.2256(2) 0.063(2) Uani 1 1 d . . . 
H21I H 0.4224 0.7723 0.2021 0.075 Uiso 1 1 calc R . . 
H21J H 0.4052 0.8029 0.2265 0.075 Uiso 1 1 calc R . . 
C215 C 0.2370(4) 0.7332(2) 0.2217(3) 0.069(2) Uani 1 1 d . . . 
H21K H 0.2199 0.7214 0.2043 0.083 Uiso 1 1 calc R . . 
H21L H 0.1989 0.7601 0.2199 0.083 Uiso 1 1 calc R . . 
C216 C 0.2428(4) 0.6999(2) 0.2623(2) 0.069(2) Uani 1 1 d . . . 
H21M H 0.2676 0.7091 0.2794 0.083 Uiso 1 1 calc R . . 
H21N H 0.1923 0.6985 0.2712 0.083 Uiso 1 1 calc R . . 
N41 N 1.0130(3) 0.72593(16) 0.32301(14) 0.0431(13) Uani 1 1 d . . . 
N42 N 0.8218(4) 0.89842(18) 0.29061(16) 0.0601(17) Uani 1 1 d . . . 
N43 N 0.6530(3) 0.78400(16) 0.36735(15) 0.0444(13) Uani 1 1 d . . . 
N44 N 0.9406(3) 0.83178(16) 0.46373(14) 0.0439(13) Uani 1 1 d . . . 
N45 N 1.3066(3) 0.88615(17) 0.32189(16) 0.0555(15) Uani 1 1 d . . . 
N46 N 0.5156(3) 1.02529(15) 0.42055(14) 0.0402(13) Uani 1 1 d . . . 
N47 N 0.9206(3) 0.55140(15) 0.54617(14) 0.0396(13) Uani 1 1 d . . . 
N48 N 0.6837(3) 0.78428(19) 0.13880(16) 0.0574(16) Uani 1 1 d . . . 
N49 N 1.2691(4) 0.8325(2) 0.28260(16) 0.0597(16) Uani 1 1 d . . . 
N50 N 1.2732(3) 0.83969(18) 0.40725(16) 0.0520(15) Uani 1 1 d . . . 
N51 N 1.1417(4) 0.9381(2) 0.3022(2) 0.0727(19) Uani 1 1 d . . . 
N52 N 0.6770(3) 1.00142(17) 0.45309(16) 0.0496(14) Uani 1 1 d . . . 
N53 N 0.5596(3) 1.02746(18) 0.34263(15) 0.0510(14) Uani 1 1 d . . . 
N54 N 0.4973(3) 0.93025(16) 0.43748(14) 0.0428(13) Uani 1 1 d . . . 
N55 N 1.0464(3) 0.57769(18) 0.49477(14) 0.0429(13) Uani 1 1 d . . . 
N56 N 0.8824(3) 0.64035(17) 0.55736(15) 0.0433(13) Uani 1 1 d . . . 
N57 N 0.8043(3) 0.58283(17) 0.47841(15) 0.0438(13) Uani 1 1 d . . . 
N58 N 0.5746(3) 0.7929(2) 0.19839(16) 0.0633(17) Uani 1 1 d . . . 
N59 N 0.7518(4) 0.8589(2) 0.1409(2) 0.0633(17) Uani 1 1 d . . . 
N60 N 0.8125(3) 0.71215(17) 0.19419(17) 0.0520(15) Uani 1 1 d . . . 
C217 C 1.0606(4) 0.7542(2) 0.30921(18) 0.0440(17) Uani 1 1 d . . . 
C218 C 1.1261(4) 0.74610(19) 0.33005(18) 0.0427(16) Uani 1 1 d . . . 
H218 H 1.1393 0.7207 0.3530 0.051 Uiso 1 1 calc R . . 
C219 C 1.1725(4) 0.7741(2) 0.31812(19) 0.0494(17) Uani 1 1 d . . . 
H219 H 1.2167 0.7681 0.3330 0.059 Uiso 1 1 calc R . . 
C220 C 1.1540(4) 0.8117(2) 0.28394(19) 0.0470(17) Uani 1 1 d . . . 
C221 C 1.0899(4) 0.8192(2) 0.2629(2) 0.0541(19) Uani 1 1 d . . . 
H221 H 1.0773 0.8444 0.2397 0.065 Uiso 1 1 calc R . . 
C222 C 1.0430(4) 0.7911(2) 0.27437(19) 0.0511(18) Uani 1 1 d . . . 
H222 H 0.9997 0.7967 0.2590 0.061 Uiso 1 1 calc R . . 
C223 C 1.2026(5) 0.8419(2) 0.27046(19) 0.0521(18) Uani 1 1 d . . . 
H223 H 1.1826 0.8703 0.2514 0.062 Uiso 1 1 calc R . . 
C224 C 0.9612(4) 0.72236(18) 0.29862(18) 0.0417(16) Uani 1 1 d . . . 
C225 C 0.9800(4) 0.72089(19) 0.26276(18) 0.0438(17) Uani 1 1 d . . . 
H225 H 1.0287 0.7219 0.2544 0.053 Uiso 1 1 calc R . . 
C226 C 0.9280(4) 0.71792(19) 0.23930(18) 0.0449(17) Uani 1 1 d . . . 
H226 H 0.9410 0.7176 0.2147 0.054 Uiso 1 1 calc R . . 
C227 C 0.8566(4) 0.71541(19) 0.25146(18) 0.0447(17) Uani 1 1 d . . . 
C228 C 0.8396(4) 0.7163(2) 0.28717(18) 0.0455(17) Uani 1 1 d . . . 
H228 H 0.7913 0.7145 0.2958 0.055 Uiso 1 1 calc R . . 
C229 C 0.8902(4) 0.71970(19) 0.31066(18) 0.0416(16) Uani 1 1 d . . . 
H229 H 0.8767 0.7202 0.3351 0.050 Uiso 1 1 calc R . . 
C230 C 0.8001(4) 0.7118(2) 0.2275(2) 0.0472(17) Uani 1 1 d . . . 
H230 H 0.7530 0.7091 0.2375 0.057 Uiso 1 1 calc R . . 
C231 C 1.0152(3) 0.70017(19) 0.36320(17) 0.0398(16) Uani 1 1 d . . . 
C232 C 1.0237(3) 0.6550(2) 0.37503(18) 0.0424(16) Uani 1 1 d . . . 
H232 H 1.0266 0.6422 0.3564 0.051 Uiso 1 1 calc R . . 
C233 C 1.0277(3) 0.6291(2) 0.41322(17) 0.0398(16) Uani 1 1 d . . . 
H233 H 1.0343 0.5984 0.4209 0.048 Uiso 1 1 calc R . . 
C234 C 1.0222(3) 0.6470(2) 0.44114(18) 0.0398(16) Uani 1 1 d . . . 
C235 C 1.0120(3) 0.6922(2) 0.42922(18) 0.0429(16) Uani 1 1 d . . . 
H235 H 1.0078 0.7050 0.4478 0.051 Uiso 1 1 calc R . . 
C236 C 1.0080(3) 0.7187(2) 0.39036(18) 0.0444(17) Uani 1 1 d . . . 
H236 H 1.0002 0.7495 0.3825 0.053 Uiso 1 1 calc R . . 
C237 C 1.0291(3) 0.6192(2) 0.48268(18) 0.0423(16) Uani 1 1 d . . . 
H237 H 1.0203 0.6328 0.5008 0.051 Uiso 1 1 calc R . . 
C238 C 0.7600(4) 0.9194(2) 0.30617(19) 0.058(2) Uani 1 1 d . . . 
C239 C 0.7668(4) 0.9505(2) 0.32079(18) 0.0541(19) Uani 1 1 d . . . 
H239 H 0.8138 0.9559 0.3228 0.065 Uiso 1 1 calc R . . 
C240 C 0.7033(4) 0.9733(2) 0.33242(19) 0.058(2) Uani 1 1 d . . . 
H240 H 0.7077 0.9947 0.3420 0.069 Uiso 1 1 calc R . . 
C241 C 0.6346(4) 0.9658(2) 0.33041(19) 0.0523(19) Uani 1 1 d . . . 
C242 C 0.6307(5) 0.9322(2) 0.3184(2) 0.069(2) Uani 1 1 d . . . 
H242 H 0.5849 0.9245 0.3188 0.083 Uiso 1 1 calc R . . 
C243 C 0.6929(5) 0.9100(2) 0.3061(2) 0.072(2) Uani 1 1 d . . . 
H243 H 0.6889 0.8878 0.2973 0.087 Uiso 1 1 calc R . . 
C244 C 0.5657(4) 0.9909(2) 0.34009(19) 0.058(2) Uani 1 1 d . . . 
H244 H 0.5236 0.9790 0.3447 0.070 Uiso 1 1 calc R . . 
C245 C 0.8091(4) 0.8839(2) 0.2614(2) 0.0565(19) Uani 1 1 d . . . 
C246 C 0.7602(4) 0.9099(2) 0.2300(2) 0.066(2) Uani 1 1 d . . . 
H246 H 0.7330 0.9383 0.2281 0.079 Uiso 1 1 calc R . . 
C247 C 0.7499(4) 0.8956(2) 0.2014(2) 0.065(2) Uani 1 1 d . . . 
H247 H 0.7152 0.9138 0.1803 0.078 Uiso 1 1 calc R . . 
C248 C 0.7911(4) 0.8539(2) 0.2034(2) 0.0566(19) Uani 1 1 d . . . 
C249 C 0.8400(4) 0.8282(2) 0.2346(2) 0.066(2) Uani 1 1 d . . . 
H249 H 0.8685 0.8002 0.2364 0.079 Uiso 1 1 calc R . . 
C250 C 0.8483(4) 0.8427(2) 0.2638(2) 0.064(2) Uani 1 1 d . . . 
H250 H 0.8812 0.8240 0.2855 0.076 Uiso 1 1 calc R . . 
C251 C 0.7878(4) 0.8377(2) 0.1725(2) 0.062(2) Uani 1 1 d . . . 
H251 H 0.8155 0.8085 0.1770 0.074 Uiso 1 1 calc R . . 
C252 C 0.8960(5) 0.8972(2) 0.3000(2) 0.061(2) Uani 1 1 d . . . 
C253 C 0.9436(5) 0.9105(2) 0.2707(2) 0.060(2) Uani 1 1 d . . . 
H253 H 0.9288 0.9166 0.2449 0.072 Uiso 1 1 calc R . . 
C254 C 1.0121(5) 0.9150(2) 0.2786(2) 0.059(2) Uani 1 1 d . . . 
H254 H 1.0428 0.9252 0.2581 0.071 Uiso 1 1 calc R . . 
C255 C 1.0372(5) 0.9048(2) 0.3160(2) 0.060(2) Uani 1 1 d . . . 
C256 C 0.9924(5) 0.8880(3) 0.3445(2) 0.080(3) Uani 1 1 d . . . 
H256 H 1.0100 0.8786 0.3704 0.096 Uiso 1 1 calc R . . 
C257 C 0.9224(5) 0.8837(3) 0.3376(2) 0.077(3) Uani 1 1 d . . . 
H257 H 0.8933 0.8717 0.3584 0.093 Uiso 1 1 calc R . . 
C258 C 1.1040(5) 0.9150(3) 0.3262(2) 0.066(2) Uani 1 1 d . . . 
H258 H 1.1199 0.9034 0.3526 0.079 Uiso 1 1 calc R . . 
C259 C 0.6295(4) 0.7926(2) 0.32979(19) 0.0455(17) Uani 1 1 d . . . 
C260 C 0.6421(4) 0.7588(2) 0.31623(19) 0.0488(17) Uani 1 1 d . . . 
H260 H 0.6642 0.7295 0.3330 0.059 Uiso 1 1 calc R . . 
C261 C 0.6226(4) 0.7680(2) 0.2785(2) 0.0510(18) Uani 1 1 d . . . 
H261 H 0.6316 0.7445 0.2697 0.061 Uiso 1 1 calc R . . 
C262 C 0.5902(4) 0.8103(2) 0.2529(2) 0.0578(19) Uani 1 1 d . . . 
C263 C 0.5763(4) 0.8434(2) 0.2668(2) 0.063(2) Uani 1 1 d . . . 
H263 H 0.5544 0.8727 0.2499 0.076 Uiso 1 1 calc R . . 
C264 C 0.5936(4) 0.8349(2) 0.30462(19) 0.0510(18) Uani 1 1 d . . . 
H264 H 0.5808 0.8581 0.3137 0.061 Uiso 1 1 calc R . . 
C265 C 0.5715(4) 0.8216(3) 0.2123(2) 0.063(2) Uani 1 1 d . . . 
H265 H 0.5566 0.8517 0.1958 0.075 Uiso 1 1 calc R . . 
C266 C 0.6297(4) 0.81542(19) 0.38493(17) 0.0386(15) Uani 1 1 d . . . 
C267 C 0.5553(4) 0.8343(2) 0.38617(17) 0.0420(16) Uani 1 1 d . . . 
H267 H 0.5188 0.8260 0.3757 0.050 Uiso 1 1 calc R . . 
C268 C 0.5334(4) 0.86543(19) 0.40260(17) 0.0426(16) Uani 1 1 d . . . 
H268 H 0.4821 0.8791 0.4023 0.051 Uiso 1 1 calc R . . 
C269 C 0.5852(4) 0.87664(19) 0.41924(17) 0.0378(15) Uani 1 1 d . . . 
C270 C 0.6596(4) 0.8568(2) 0.41902(19) 0.0514(18) Uani 1 1 d . . . 
H270 H 0.6959 0.8640 0.4307 0.062 Uiso 1 1 calc R . . 
C271 C 0.6817(4) 0.8265(2) 0.40197(19) 0.0517(18) Uani 1 1 d . . . 
H271 H 0.7331 0.8132 0.4019 0.062 Uiso 1 1 calc R . . 
C272 C 0.5628(4) 0.9077(2) 0.43881(18) 0.0464(17) Uani 1 1 d . . . 
H272 H 0.5999 0.9108 0.4533 0.056 Uiso 1 1 calc R . . 
C273 C 0.6984(4) 0.7416(2) 0.39066(18) 0.0461(17) Uani 1 1 d . . . 
C274 C 0.6646(4) 0.7083(2) 0.41254(18) 0.0482(17) Uani 1 1 d . . . 
H274 H 0.6119 0.7143 0.4128 0.058 Uiso 1 1 calc R . . 
C275 C 0.7075(4) 0.6668(2) 0.43379(18) 0.0483(17) Uani 1 1 d . . . 
H275 H 0.6839 0.6445 0.4487 0.058 Uiso 1 1 calc R . . 
C276 C 0.7838(4) 0.6571(2) 0.43368(18) 0.0428(16) Uani 1 1 d . . . 
C277 C 0.8171(4) 0.6904(2) 0.41137(19) 0.0488(17) Uani 1 1 d . . . 
H277 H 0.8697 0.6842 0.4109 0.059 Uiso 1 1 calc R . . 
C278 C 0.7745(4) 0.7322(2) 0.38978(19) 0.0481(17) Uani 1 1 d . . . 
H278 H 0.7980 0.7543 0.3744 0.058 Uiso 1 1 calc R . . 
C279 C 0.8310(4) 0.6129(2) 0.45491(18) 0.0448(16) Uani 1 1 d . . . 
H279 H 0.8828 0.6068 0.4509 0.054 Uiso 1 1 calc R . . 
C280 C 0.9173(4) 0.7917(2) 0.47976(18) 0.0427(16) Uani 1 1 d . . . 
C281 C 0.9600(4) 0.7565(2) 0.50962(18) 0.0437(16) Uani 1 1 d . . . 
H281 H 1.0035 0.7592 0.5197 0.052 Uiso 1 1 calc R . . 
C282 C 0.9388(4) 0.7171(2) 0.52480(18) 0.0464(17) Uani 1 1 d . . . 
H282 H 0.9689 0.6926 0.5448 0.056 Uiso 1 1 calc R . . 
C283 C 0.8738(4) 0.7135(2) 0.51083(18) 0.0397(16) Uani 1 1 d . . . 
C284 C 0.8323(4) 0.7483(2) 0.48068(18) 0.0444(16) Uani 1 1 d . . . 
H284 H 0.7889 0.7457 0.4704 0.053 Uiso 1 1 calc R . . 
C285 C 0.8541(4) 0.7876(2) 0.46519(18) 0.0465(17) Uani 1 1 d . . . 
H285 H 0.8252 0.8117 0.4444 0.056 Uiso 1 1 calc R . . 
C286 C 0.8481(4) 0.6732(2) 0.52839(19) 0.0442(16) Uani 1 1 d . . . 
H286 H 0.8043 0.6715 0.5177 0.053 Uiso 1 1 calc R . . 
C287 C 0.8858(4) 0.8728(2) 0.45422(18) 0.0436(16) Uani 1 1 d . . . 
C288 C 0.8259(4) 0.8755(2) 0.47749(18) 0.0429(16) Uani 1 1 d . . . 
H288 H 0.8216 0.8504 0.4992 0.051 Uiso 1 1 calc R . . 
C289 C 0.7729(4) 0.9146(2) 0.46903(19) 0.0488(17) Uani 1 1 d . . . 
H289 H 0.7326 0.9162 0.4853 0.059 Uiso 1 1 calc R . . 
C290 C 0.7773(4) 0.9521(2) 0.43682(19) 0.0466(17) Uani 1 1 d . . . 
C291 C 0.8370(4) 0.9480(2) 0.41456(19) 0.0507(18) Uani 1 1 d . . . 
H291 H 0.8408 0.9728 0.3924 0.061 Uiso 1 1 calc R . . 
C292 C 0.8918(4) 0.9093(2) 0.42295(19) 0.0530(18) Uani 1 1 d . . . 
H292 H 0.9331 0.9081 0.4073 0.064 Uiso 1 1 calc R . . 
C293 C 0.7201(4) 0.9943(2) 0.42823(19) 0.0466(17) Uani 1 1 d . . . 
H293 H 0.7159 1.0166 0.4032 0.056 Uiso 1 1 calc R . . 
C294 C 1.0127(4) 0.8288(2) 0.44939(17) 0.0430(16) Uani 1 1 d . . . 
C295 C 1.0558(4) 0.8568(2) 0.45088(17) 0.0451(17) Uani 1 1 d . . . 
H295 H 1.0371 0.8779 0.4620 0.054 Uiso 1 1 calc R . . 
C296 C 1.1251(4) 0.8535(2) 0.43630(17) 0.0447(16) Uani 1 1 d . . . 
H296 H 1.1533 0.8729 0.4369 0.054 Uiso 1 1 calc R . . 
C297 C 1.1548(4) 0.8221(2) 0.42062(18) 0.0487(17) Uani 1 1 d . . . 
C298 C 1.1115(4) 0.7947(2) 0.41953(19) 0.0521(18) Uani 1 1 d . . . 
H298 H 1.1304 0.7734 0.4087 0.063 Uiso 1 1 calc R . . 
C299 C 1.0425(4) 0.7977(2) 0.43373(18) 0.0514(18) Uani 1 1 d . . . 
H299 H 1.0144 0.7783 0.4329 0.062 Uiso 1 1 calc R . . 
C300 C 1.2293(4) 0.8182(2) 0.40486(18) 0.0500(18) Uani 1 1 d . . . 
H300 H 1.2448 0.7984 0.3922 0.060 Uiso 1 1 calc R . . 
C301 C 1.3550(4) 0.8690(3) 0.2966(2) 0.062(2) Uani 1 1 d . . . 
H30A H 1.3864 0.8395 0.3121 0.075 Uiso 1 1 calc R . . 
H30B H 1.3884 0.8885 0.2846 0.075 Uiso 1 1 calc R . . 
C302 C 1.3115(5) 0.8659(3) 0.2655(2) 0.072(2) Uani 1 1 d . . . 
H30C H 1.2769 0.8948 0.2512 0.087 Uiso 1 1 calc R . . 
H30D H 1.3458 0.8579 0.2471 0.087 Uiso 1 1 calc R . . 
C303 C 1.2752(5) 0.9333(2) 0.3022(2) 0.079(2) Uani 1 1 d . . . 
H30E H 1.2676 0.9404 0.2744 0.095 Uiso 1 1 calc R . . 
H30F H 1.3107 0.9493 0.3053 0.095 Uiso 1 1 calc R . . 
C304 C 1.2021(5) 0.9483(3) 0.3179(3) 0.087(3) Uani 1 1 d . . . 
H30G H 1.2056 0.9336 0.3463 0.104 Uiso 1 1 calc R . . 
H30H H 1.1911 0.9804 0.3112 0.104 Uiso 1 1 calc R . . 
C305 C 1.3487(4) 0.8770(2) 0.3576(2) 0.060(2) Uani 1 1 d . . . 
H30I H 1.3289 0.9011 0.3667 0.071 Uiso 1 1 calc R . . 
H30J H 1.4014 0.8762 0.3521 0.071 Uiso 1 1 calc R . . 
C306 C 1.3443(4) 0.8340(2) 0.38899(19) 0.0514(18) Uani 1 1 d . . . 
H30K H 1.3487 0.8115 0.3780 0.062 Uiso 1 1 calc R . . 
H30L H 1.3858 0.8240 0.4084 0.062 Uiso 1 1 calc R . . 
C307 C 0.4910(4) 1.0633(2) 0.38398(18) 0.0487(17) Uani 1 1 d . . . 
H30M H 0.5268 1.0818 0.3782 0.058 Uiso 1 1 calc R . . 
H30N H 0.4420 1.0813 0.3869 0.058 Uiso 1 1 calc R . . 
C308 C 0.4850(4) 1.0495(2) 0.35084(19) 0.0565(19) Uani 1 1 d . . . 
H30O H 0.4523 1.0291 0.3573 0.068 Uiso 1 1 calc R . . 
H30P H 0.4626 1.0756 0.3277 0.068 Uiso 1 1 calc R . . 
C309 C 0.4539(4) 1.00544(19) 0.43654(19) 0.0459(17) Uani 1 1 d . . . 
H30Q H 0.4202 1.0092 0.4153 0.055 Uiso 1 1 calc R . . 
H30R H 0.4252 1.0207 0.4524 0.055 Uiso 1 1 calc R . . 
C310 C 0.4822(4) 0.9565(2) 0.46127(18) 0.0468(17) Uani 1 1 d . . . 
H31A H 0.5283 0.9517 0.4761 0.056 Uiso 1 1 calc R . . 
H31B H 0.4446 0.9469 0.4798 0.056 Uiso 1 1 calc R . . 
C311 C 0.5450(3) 1.0387(2) 0.44815(19) 0.0462(17) Uani 1 1 d . . . 
H31C H 0.5444 1.0165 0.4743 0.055 Uiso 1 1 calc R . . 
H31D H 0.5117 1.0669 0.4472 0.055 Uiso 1 1 calc R . . 
C312 C 0.6230(4) 1.0443(2) 0.4413(2) 0.0505(18) Uani 1 1 d . . . 
H31E H 0.6270 1.0614 0.4137 0.061 Uiso 1 1 calc R . . 
H31F H 0.6342 1.0609 0.4561 0.061 Uiso 1 1 calc R . . 
C313 C 0.9059(4) 0.5606(2) 0.58100(17) 0.0443(16) Uani 1 1 d . . . 
H31G H 0.9528 0.5616 0.5916 0.053 Uiso 1 1 calc R . . 
H31H H 0.8882 0.5363 0.6004 0.053 Uiso 1 1 calc R . . 
C314 C 0.8482(4) 0.6037(2) 0.57401(18) 0.0461(17) Uani 1 1 d . . . 
H31I H 0.8073 0.6071 0.5563 0.055 Uiso 1 1 calc R . . 
H31J H 0.8269 0.6036 0.5986 0.055 Uiso 1 1 calc R . . 
C315 C 0.8673(4) 0.5293(2) 0.53980(18) 0.0461(17) Uani 1 1 d . . . 
H31K H 0.8193 0.5389 0.5502 0.055 Uiso 1 1 calc R . . 
H31L H 0.8859 0.4972 0.5537 0.055 Uiso 1 1 calc R . . 
C316 C 0.8551(4) 0.5393(2) 0.49733(19) 0.0495(17) Uani 1 1 d . . . 
H31M H 0.9034 0.5385 0.4850 0.059 Uiso 1 1 calc R . . 
H31N H 0.8341 0.5168 0.4943 0.059 Uiso 1 1 calc R . . 
C317 C 0.9966(3) 0.5259(2) 0.54731(18) 0.0438(16) Uani 1 1 d . . . 
H31O H 0.9990 0.5104 0.5296 0.053 Uiso 1 1 calc R . . 
H31P H 1.0104 0.5034 0.5736 0.053 Uiso 1 1 calc R . . 
C318 C 1.0522(3) 0.5534(2) 0.53626(17) 0.0431(16) Uani 1 1 d . . . 
H31Q H 1.0426 0.5742 0.5495 0.052 Uiso 1 1 calc R . . 
H31R H 1.1031 0.5342 0.5443 0.052 Uiso 1 1 calc R . . 
C319 C 0.7330(4) 0.7453(2) 0.1354(2) 0.064(2) Uani 1 1 d . . . 
H31S H 0.7792 0.7525 0.1238 0.076 Uiso 1 1 calc R . . 
H31T H 0.7085 0.7364 0.1180 0.076 Uiso 1 1 calc R . . 
C320 C 0.7524(4) 0.7076(2) 0.17368(19) 0.059(2) Uani 1 1 d . . . 
H32A H 0.7081 0.7068 0.1893 0.070 Uiso 1 1 calc R . . 
H32B H 0.7679 0.6796 0.1697 0.070 Uiso 1 1 calc R . . 
C321 C 0.6898(4) 0.8251(2) 0.1072(2) 0.063(2) Uani 1 1 d . . . 
H32C H 0.6458 0.8491 0.1060 0.075 Uiso 1 1 calc R . . 
H32D H 0.6906 0.8211 0.0825 0.075 Uiso 1 1 calc R . . 
C322 C 0.7599(4) 0.8379(3) 0.1127(2) 0.068(2) Uani 1 1 d . . . 
H32E H 0.8019 0.8113 0.1215 0.081 Uiso 1 1 calc R . . 
H32F H 0.7719 0.8583 0.0877 0.081 Uiso 1 1 calc R . . 
C323 C 0.6061(4) 0.7807(3) 0.1393(2) 0.064(2) Uani 1 1 d . . . 
H32G H 0.6055 0.7497 0.1537 0.077 Uiso 1 1 calc R . . 
H32H H 0.5874 0.7891 0.1126 0.077 Uiso 1 1 calc R . . 
C324 C 0.5538(4) 0.8090(3) 0.1573(2) 0.072(2) Uani 1 1 d . . . 
H32I H 0.5566 0.8398 0.1445 0.086 Uiso 1 1 calc R . . 
H32J H 0.5020 0.8078 0.1538 0.086 Uiso 1 1 calc R . . 
N61 N 0.1030(3) 0.69478(17) -0.06502(14) 0.0472(14) Uani 1 1 d . . . 
N62 N 0.0495(3) 0.69639(16) 0.12315(14) 0.0448(14) Uani 1 1 d . . . 
N63 N 0.2804(3) 0.8124(2) -0.00373(19) 0.0670(17) Uani 1 1 d . . . 
N64 N -0.1152(3) 0.86884(19) -0.03749(15) 0.0539(15) Uani 1 1 d . . . 
N65 N -0.3361(4) 0.6567(3) 0.0188(3) 0.101(3) Uani 1 1 d . . . 
N66 N 0.4676(3) 0.52240(19) 0.10255(17) 0.0611(16) Uani 1 1 d . . . 
N67 N 0.1167(6) 0.9426(2) -0.2476(2) 0.101(3) Uani 1 1 d . . . 
N68 N 0.0356(4) 0.94762(18) 0.13772(16) 0.0644(17) Uani 1 1 d . . . 
N69 N -0.2247(4) 0.6581(3) -0.0449(2) 0.110(3) Uani 1 1 d . . . 
N70 N -0.3559(6) 0.7514(3) 0.0082(4) 0.172(6) Uani 1 1 d . . . 
N71 N -0.2089(4) 0.6229(2) 0.08220(17) 0.0653(17) Uani 1 1 d . . . 
N72 N 0.3335(3) 0.5287(2) 0.05483(18) 0.0629(16) Uani 1 1 d . . . 
N73 N 0.4751(5) 0.6158(2) 0.0473(2) 0.087(2) Uani 1 1 d . . . 
N74 N 0.3745(3) 0.5584(2) 0.15802(17) 0.0661(17) Uani 1 1 d . . . 
N75 N -0.0384(5) 0.9353(2) -0.21551(18) 0.089(2) Uani 1 1 d . . . 
N76 N 0.1838(5) 0.8443(2) -0.2152(2) 0.086(2) Uani 1 1 d . . . 
N77 N 0.1811(5) 0.9514(2) -0.1767(2) 0.104(3) Uani 1 1 d . . . 
N78 N -0.0276(3) 0.86780(17) 0.16616(17) 0.0559(15) Uani 1 1 d . . . 
N79 N 0.1903(4) 0.8921(2) 0.12592(19) 0.077(2) Uani 1 1 d . . . 
N80 N -0.0287(4) 0.9778(2) 0.05469(17) 0.081(2) Uani 1 1 d . . . 
C325 C 0.0277(4) 0.6945(2) -0.06183(17) 0.0455(17) Uani 1 1 d . . . 
C326 C -0.0287(4) 0.7327(2) -0.07557(19) 0.0566(19) Uani 1 1 d . . . 
H326 H -0.0165 0.7601 -0.0875 0.068 Uiso 1 1 calc R . . 
C327 C -0.1021(4) 0.7317(3) -0.0723(2) 0.068(2) Uani 1 1 d . . . 
H327 H -0.1395 0.7585 -0.0812 0.082 Uiso 1 1 calc R . . 
C328 C -0.1229(4) 0.6923(3) -0.0563(2) 0.066(2) Uani 1 1 d . . . 
C329 C -0.0657(4) 0.6539(2) -0.04210(19) 0.060(2) Uani 1 1 d . . . 
H329 H -0.0778 0.6265 -0.0299 0.071 Uiso 1 1 calc R . . 
C330 C 0.0071(4) 0.6549(2) -0.04541(18) 0.0529(18) Uani 1 1 d . . . 
H330 H 0.0446 0.6281 -0.0364 0.064 Uiso 1 1 calc R . . 
C331 C -0.2024(5) 0.6931(4) -0.0561(2) 0.100(3) Uani 1 1 d . . . 
H331 H -0.2382 0.7206 -0.0646 0.120 Uiso 1 1 calc R . . 
C332 C 0.1544(4) 0.6643(2) -0.03395(19) 0.0488(17) Uani 1 1 d . . . 
C333 C 0.1388(4) 0.6590(2) 0.00332(19) 0.0543(19) Uani 1 1 d . . . 
H333 H 0.0953 0.6772 0.0085 0.065 Uiso 1 1 calc R . . 
C334 C 0.1863(4) 0.6274(2) 0.0334(2) 0.0568(19) Uani 1 1 d . . . 
H334 H 0.1755 0.6245 0.0590 0.068 Uiso 1 1 calc R . . 
C335 C 0.2491(4) 0.5998(2) 0.02697(19) 0.0471(17) Uani 1 1 d . . . 
C336 C 0.2658(4) 0.6072(2) -0.0106(2) 0.061(2) Uani 1 1 d . . . 
H336 H 0.3104 0.5899 -0.0159 0.073 Uiso 1 1 calc R . . 
C337 C 0.2195(4) 0.6391(2) -0.0409(2) 0.063(2) Uani 1 1 d . . . 
H337 H 0.2325 0.6437 -0.0666 0.076 Uiso 1 1 calc R . . 
C338 C 0.2918(4) 0.5620(2) 0.0593(2) 0.0577(19) Uani 1 1 d . . . 
H338 H 0.2882 0.5625 0.0844 0.069 Uiso 1 1 calc R . . 
C339 C 0.1259(4) 0.7299(2) -0.09397(19) 0.0464(17) Uani 1 1 d . . . 
C340 C 0.1758(4) 0.7479(2) -0.0843(2) 0.062(2) Uani 1 1 d . . . 
H340 H 0.1936 0.7376 -0.0583 0.074 Uiso 1 1 calc R . . 
C341 C 0.2011(5) 0.7817(2) -0.1127(2) 0.071(2) Uani 1 1 d . . . 
H341 H 0.2355 0.7944 -0.1059 0.086 Uiso 1 1 calc R . . 
C342 C 0.1755(4) 0.7964(2) -0.1505(2) 0.0555(19) Uani 1 1 d . . . 
C343 C 0.1248(4) 0.7781(2) -0.1593(2) 0.0511(18) Uani 1 1 d . . . 
H343 H 0.1061 0.7885 -0.1851 0.061 Uiso 1 1 calc R . . 
C344 C 0.1003(4) 0.7451(2) -0.13163(18) 0.0464(17) Uani 1 1 d . . . 
H344 H 0.0655 0.7328 -0.1385 0.056 Uiso 1 1 calc R . . 
C345 C 0.2054(5) 0.8310(2) -0.1804(2) 0.074(2) Uani 1 1 d . . . 
H345 H 0.2406 0.8430 -0.1732 0.089 Uiso 1 1 calc R . . 
C346 C -0.0054(4) 0.6839(2) 0.10690(18) 0.0457(17) Uani 1 1 d . . . 
C347 C 0.0094(4) 0.6755(2) 0.07390(19) 0.0486(17) Uani 1 1 d . . . 
H347 H 0.0544 0.6790 0.0616 0.058 Uiso 1 1 calc R . . 
C348 C -0.0413(4) 0.6619(2) 0.05891(19) 0.0517(18) Uani 1 1 d . . . 
H348 H -0.0312 0.6568 0.0358 0.062 Uiso 1 1 calc R . . 
C349 C -0.1064(4) 0.6554(2) 0.07639(18) 0.0478(17) Uani 1 1 d . . . 
C350 C -0.1211(4) 0.6652(2) 0.10920(19) 0.0511(18) Uani 1 1 d . . . 
H350 H -0.1663 0.6619 0.1214 0.061 Uiso 1 1 calc R . . 
C351 C -0.0714(4) 0.6797(2) 0.12442(19) 0.0500(18) Uani 1 1 d . . . 
H351 H -0.0825 0.6865 0.1466 0.060 Uiso 1 1 calc R . . 
C352 C -0.1546(4) 0.6348(2) 0.0633(2) 0.0567(19) Uani 1 1 d . . . 
H352 H -0.1449 0.6302 0.0400 0.068 Uiso 1 1 calc R . . 
C353 C 0.0309(4) 0.7381(2) 0.12541(19) 0.0450(17) Uani 1 1 d . . . 
C354 C -0.0205(4) 0.7717(2) 0.09921(19) 0.0519(18) Uani 1 1 d . . . 
H354 H -0.0408 0.7673 0.0787 0.062 Uiso 1 1 calc R . . 
C355 C -0.0433(4) 0.8125(2) 0.1027(2) 0.0520(18) Uani 1 1 d . . . 
H355 H -0.0779 0.8360 0.0841 0.062 Uiso 1 1 calc R . . 
C356 C -0.0151(4) 0.8187(2) 0.13347(19) 0.0474(17) Uani 1 1 d . . . 
C357 C 0.0383(4) 0.7848(2) 0.15865(18) 0.0474(17) Uani 1 1 d . . . 
H357 H 0.0592 0.7889 0.1791 0.057 Uiso 1 1 calc R . . 
C358 C 0.0619(4) 0.7450(2) 0.15469(18) 0.0465(17) Uani 1 1 d . . . 
H358 H 0.0995 0.7223 0.1720 0.056 Uiso 1 1 calc R . . 
C359 C -0.0443(4) 0.8612(2) 0.1374(2) 0.0527(18) Uani 1 1 d . . . 
H359 H -0.0767 0.8843 0.1174 0.063 Uiso 1 1 calc R . . 
C360 C 0.1241(4) 0.6721(2) 0.12589(18) 0.0461(17) Uani 1 1 d . . . 
C361 C 0.1807(4) 0.6923(2) 0.1115(2) 0.059(2) Uani 1 1 d . . . 
H361 H 0.1698 0.7234 0.0995 0.071 Uiso 1 1 calc R . . 
C362 C 0.2537(4) 0.6677(2) 0.1144(2) 0.064(2) Uani 1 1 d . . . 
H362 H 0.2915 0.6823 0.1036 0.076 Uiso 1 1 calc R . . 
C363 C 0.2725(4) 0.6226(2) 0.13260(19) 0.0530(18) Uani 1 1 d . . . 
C364 C 0.2148(4) 0.6024(2) 0.14618(18) 0.0493(17) Uani 1 1 d . . . 
H364 H 0.2258 0.5713 0.1579 0.059 Uiso 1 1 calc R . . 
C365 C 0.1421(4) 0.6265(2) 0.14301(17) 0.0452(17) Uani 1 1 d . . . 
H365 H 0.1039 0.6118 0.1526 0.054 Uiso 1 1 calc R . . 
C366 C 0.3508(4) 0.5990(3) 0.1374(2) 0.0558(19) Uani 1 1 d . . . 
H366 H 0.3859 0.6147 0.1244 0.067 Uiso 1 1 calc R . . 
C367 C 0.3171(4) 0.7674(3) 0.0051(3) 0.068(2) Uani 1 1 d . . . 
C368 C 0.3089(6) 0.7477(3) -0.0201(3) 0.096(3) Uani 1 1 d . . . 
H368 H 0.2792 0.7643 -0.0433 0.116 Uiso 1 1 calc R . . 
C369 C 0.3433(7) 0.7047(3) -0.0115(4) 0.116(4) Uani 1 1 d . . . 
H369 H 0.3350 0.6911 -0.0282 0.139 Uiso 1 1 calc R . . 
C370 C 0.3883(5) 0.6813(3) 0.0197(4) 0.086(3) Uani 1 1 d . . . 
C371 C 0.3995(4) 0.7007(3) 0.0449(3) 0.078(3) Uani 1 1 d . . . 
H371 H 0.4320 0.6840 0.0672 0.093 Uiso 1 1 calc R . . 
C372 C 0.3636(4) 0.7443(3) 0.0378(3) 0.068(2) Uani 1 1 d . . . 
H372 H 0.3709 0.7577 0.0549 0.082 Uiso 1 1 calc R . . 
C373 C 0.4290(7) 0.6341(5) 0.0235(3) 0.126(5) Uani 1 1 d . . . 
H373 H 0.4164 0.6212 0.0071 0.151 Uiso 1 1 calc R . . 
C374 C 0.2495(4) 0.8258(2) 0.0263(2) 0.061(2) Uani 1 1 d . . . 
C375 C 0.2059(4) 0.8038(2) 0.0529(2) 0.0585(19) Uani 1 1 d . . . 
H375 H 0.1967 0.7781 0.0518 0.070 Uiso 1 1 calc R . . 
C376 C 0.1753(4) 0.8177(2) 0.0809(2) 0.0586(19) Uani 1 1 d . . . 
H376 H 0.1436 0.8024 0.0982 0.070 Uiso 1 1 calc R . . 
C377 C 0.1900(4) 0.8537(2) 0.0845(2) 0.0573(19) Uani 1 1 d . . . 
C378 C 0.2331(5) 0.8772(3) 0.0571(2) 0.079(2) Uani 1 1 d . . . 
H378 H 0.2414 0.9032 0.0580 0.095 Uiso 1 1 calc R . . 
C379 C 0.2635(5) 0.8627(3) 0.0288(2) 0.079(3) Uani 1 1 d . . . 
H379 H 0.2942 0.8782 0.0110 0.094 Uiso 1 1 calc R . . 
C380 C 0.1639(4) 0.8663(2) 0.1169(2) 0.059(2) Uani 1 1 d . . . 
H380 H 0.1258 0.8547 0.1315 0.071 Uiso 1 1 calc R . . 
C381 C 0.2472(5) 0.8397(2) -0.0409(2) 0.063(2) Uani 1 1 d . . . 
C382 C 0.2912(5) 0.8510(3) -0.0726(3) 0.074(2) Uani 1 1 d . . . 
H382 H 0.3434 0.8388 -0.0697 0.089 Uiso 1 1 calc R . . 
C383 C 0.2582(6) 0.8802(3) -0.1082(3) 0.079(3) Uani 1 1 d . . . 
H383 H 0.2883 0.8892 -0.1294 0.095 Uiso 1 1 calc R . . 
C384 C 0.1816(6) 0.8963(3) -0.1133(2) 0.072(2) Uani 1 1 d . . . 
C385 C 0.1386(5) 0.8834(3) -0.0828(2) 0.075(2) Uani 1 1 d . . . 
H385 H 0.0860 0.8936 -0.0861 0.089 Uiso 1 1 calc R . . 
C386 C 0.1717(5) 0.8553(3) -0.0469(2) 0.074(2) Uani 1 1 d . . . 
H386 H 0.1411 0.8466 -0.0260 0.089 Uiso 1 1 calc R . . 
C387 C 0.1442(6) 0.9304(3) -0.1503(2) 0.084(3) Uani 1 1 d . . . 
H387 H 0.0918 0.9365 -0.1541 0.100 Uiso 1 1 calc R . . 
C388 C -0.0862(4) 0.8768(2) -0.07472(19) 0.0484(17) Uani 1 1 d . . . 
C389 C -0.0428(4) 0.8435(2) -0.0838(2) 0.059(2) Uani 1 1 d . . . 
H389 H -0.0308 0.8145 -0.0647 0.070 Uiso 1 1 calc R . . 
C390 C -0.0160(4) 0.8509(2) -0.1198(2) 0.060(2) Uani 1 1 d . . . 
H390 H 0.0156 0.8275 -0.1252 0.072 Uiso 1 1 calc R . . 
C391 C -0.0352(4) 0.8926(2) -0.14821(19) 0.0546(19) Uani 1 1 d . . . 
C392 C -0.0779(4) 0.9263(2) -0.1387(2) 0.067(2) Uani 1 1 d . . . 
H392 H -0.0897 0.9553 -0.1576 0.080 Uiso 1 1 calc R . . 
C393 C -0.1038(4) 0.9186(2) -0.1022(2) 0.066(2) Uani 1 1 d . . . 
H393 H -0.1335 0.9421 -0.0963 0.080 Uiso 1 1 calc R . . 
C394 C -0.0119(5) 0.8989(2) -0.1873(2) 0.073(2) Uani 1 1 d . . . 
H394 H 0.0232 0.8759 -0.1918 0.087 Uiso 1 1 calc R . . 
C395 C -0.0101(4) 0.8792(2) -0.0098(2) 0.0580(19) Uani 1 1 d . . . 
H395 H 0.0218 0.8613 -0.0212 0.070 Uiso 1 1 calc R . . 
C396 C 0.0206(4) 0.8981(2) 0.0103(2) 0.062(2) Uani 1 1 d . . . 
H396 H 0.0730 0.8933 0.0123 0.075 Uiso 1 1 calc R . . 
C397 C -0.0242(5) 0.9237(2) 0.0275(2) 0.0574(19) Uani 1 1 d . . . 
C398 C -0.1008(5) 0.9288(2) 0.0248(2) 0.065(2) Uani 1 1 d . . . 
H398 H -0.1326 0.9456 0.0372 0.077 Uiso 1 1 calc R . . 
C399 C -0.1315(4) 0.9098(2) 0.0045(2) 0.059(2) Uani 1 1 d . . . 
H399 H -0.1837 0.9134 0.0033 0.071 Uiso 1 1 calc R . . 
C400 C -0.0863(4) 0.8858(2) -0.01362(19) 0.0512(18) Uani 1 1 d . . . 
C401 C 0.0103(5) 0.9470(3) 0.0445(2) 0.067(2) Uani 1 1 d . . . 
H401 H 0.0629 0.9393 0.0482 0.081 Uiso 1 1 calc R . . 
C402 C -0.1592(4) 0.8386(2) -0.0231(2) 0.0527(18) Uani 1 1 d . . . 
C403 C -0.1544(5) 0.8129(2) 0.0160(2) 0.067(2) Uani 1 1 d . . . 
H403 H -0.1217 0.8157 0.0330 0.080 Uiso 1 1 calc R . . 
C404 C -0.1971(6) 0.7835(3) 0.0298(3) 0.079(3) Uani 1 1 d . . . 
H404 H -0.1921 0.7655 0.0565 0.095 Uiso 1 1 calc R . . 
C405 C -0.2462(5) 0.7791(3) 0.0071(3) 0.076(2) Uani 1 1 d . . . 
C406 C -0.2504(4) 0.8042(3) -0.0325(3) 0.075(2) Uani 1 1 d . . . 
H406 H -0.2833 0.8010 -0.0492 0.091 Uiso 1 1 calc R . . 
C407 C -0.2069(4) 0.8332(2) -0.0471(2) 0.064(2) Uani 1 1 d . . . 
H407 H -0.2094 0.8498 -0.0740 0.077 Uiso 1 1 calc R . . 
C408 C -0.2958(7) 0.7497(3) 0.0247(3) 0.105(4) Uani 1 1 d . . . 
H408 H -0.2822 0.7282 0.0499 0.127 Uiso 1 1 calc R . . 
C409 C -0.3348(6) 0.6380(4) -0.0102(3) 0.121(4) Uani 1 1 d . . . 
H40A H -0.3857 0.6363 -0.0148 0.145 Uiso 1 1 calc R . . 
H40B H -0.3027 0.6077 -0.0002 0.145 Uiso 1 1 calc R . . 
C410 C -0.3061(5) 0.6646(5) -0.0489(3) 0.151(6) Uani 1 1 d . . . 
H41A H -0.3178 0.6550 -0.0691 0.182 Uiso 1 1 calc R . . 
H41B H -0.3311 0.6962 -0.0566 0.182 Uiso 1 1 calc R . . 
C411 C -0.3255(5) 0.6219(3) 0.0571(3) 0.087(3) Uani 1 1 d . . . 
H41C H -0.3537 0.6006 0.0577 0.105 Uiso 1 1 calc R . . 
H41D H -0.3461 0.6349 0.0760 0.105 Uiso 1 1 calc R . . 
C412 C -0.2466(5) 0.5982(3) 0.0687(2) 0.070(2) Uani 1 1 d . . . 
H41E H -0.2439 0.5692 0.0894 0.084 Uiso 1 1 calc R . . 
H41F H -0.2211 0.5933 0.0466 0.084 Uiso 1 1 calc R . . 
C413 C -0.4057(6) 0.6906(5) 0.0134(4) 0.163(7) Uani 1 1 d . . . 
H41G H -0.4461 0.6764 0.0249 0.196 Uiso 1 1 calc R . . 
H41H H -0.4186 0.7069 -0.0145 0.196 Uiso 1 1 calc R . . 
C414 C -0.4004(7) 0.7228(4) 0.0316(6) 0.210(9) Uani 1 1 d . . . 
H41I H -0.4507 0.7404 0.0332 0.252 Uiso 1 1 calc R . . 
H41J H -0.3771 0.7066 0.0580 0.252 Uiso 1 1 calc R . . 
C415 C 0.4536(4) 0.4896(2) 0.0893(2) 0.068(2) Uani 1 1 d . . . 
H41K H 0.4815 0.4600 0.1065 0.081 Uiso 1 1 calc R . . 
H41L H 0.4713 0.4951 0.0631 0.081 Uiso 1 1 calc R . . 
C416 C 0.3700(4) 0.4916(2) 0.0889(2) 0.072(2) Uani 1 1 d . . . 
H41M H 0.3626 0.4640 0.0884 0.086 Uiso 1 1 calc R . . 
H41N H 0.3485 0.4951 0.1123 0.086 Uiso 1 1 calc R . . 
C417 C 0.4754(4) 0.5048(3) 0.1443(2) 0.078(2) Uani 1 1 d . . . 
H41O H 0.5273 0.4874 0.1526 0.094 Uiso 1 1 calc R . . 
H41P H 0.4425 0.4847 0.1548 0.094 Uiso 1 1 calc R . . 
C418 C 0.4564(4) 0.5402(3) 0.1609(2) 0.077(2) Uani 1 1 d . . . 
H41Q H 0.4749 0.5276 0.1881 0.092 Uiso 1 1 calc R . . 
H41R H 0.4808 0.5639 0.1465 0.092 Uiso 1 1 calc R . . 
C419 C 0.5326(4) 0.5370(2) 0.0850(2) 0.066(2) Uani 1 1 d . . . 
H41S H 0.5722 0.5112 0.0854 0.079 Uiso 1 1 calc R . . 
H41T H 0.5517 0.5506 0.1004 0.079 Uiso 1 1 calc R . . 
C420 C 0.5157(4) 0.5696(2) 0.0443(2) 0.080(3) Uani 1 1 d . . . 
H42A H 0.4826 0.5609 0.0304 0.096 Uiso 1 1 calc R . . 
H42B H 0.5620 0.5716 0.0305 0.096 Uiso 1 1 calc R . . 
C421 C 0.1570(7) 0.9159(3) -0.2685(2) 0.120(4) Uani 1 1 d . . . 
H42C H 0.1796 0.9346 -0.2907 0.144 Uiso 1 1 calc R . . 
H42D H 0.1213 0.9050 -0.2786 0.144 Uiso 1 1 calc R . . 
C422 C 0.2161(6) 0.8780(3) -0.2442(3) 0.105(4) Uani 1 1 d . . . 
H42E H 0.2479 0.8882 -0.2311 0.126 Uiso 1 1 calc R . . 
H42F H 0.2477 0.8648 -0.2607 0.126 Uiso 1 1 calc R . . 
C423 C 0.1568(7) 0.9733(3) -0.2460(3) 0.117(4) Uani 1 1 d . . . 
H42G H 0.1450 1.0000 -0.2699 0.140 Uiso 1 1 calc R . . 
H42H H 0.2109 0.9599 -0.2443 0.140 Uiso 1 1 calc R . . 
C424 C 0.1368(6) 0.9860(3) -0.2117(2) 0.102(3) Uani 1 1 d . . . 
H42I H 0.1475 1.0145 -0.2165 0.122 Uiso 1 1 calc R . . 
H42J H 0.0831 0.9890 -0.2077 0.122 Uiso 1 1 calc R . . 
C425 C 0.0413(8) 0.9664(3) -0.2666(3) 0.119(5) Uani 1 1 d . . . 
H42K H 0.0450 0.9763 -0.2948 0.143 Uiso 1 1 calc R . . 
H42L H 0.0226 0.9927 -0.2604 0.143 Uiso 1 1 calc R . . 
C426 C -0.0130(7) 0.9383(3) -0.2544(2) 0.107(4) Uani 1 1 d . . . 
H42M H -0.0563 0.9512 -0.2732 0.129 Uiso 1 1 calc R . . 
H42N H 0.0109 0.9086 -0.2538 0.129 Uiso 1 1 calc R . . 
C427 C -0.0059(4) 0.9328(2) 0.17211(19) 0.061(2) Uani 1 1 d . . . 
H42O H -0.0304 0.9583 0.1787 0.073 Uiso 1 1 calc R . . 
H42P H 0.0293 0.9117 0.1938 0.073 Uiso 1 1 calc R . . 
C428 C -0.0640(4) 0.9112(2) 0.1671(2) 0.062(2) Uani 1 1 d . . . 
H42Q H -0.0975 0.9077 0.1887 0.075 Uiso 1 1 calc R . . 
H42R H -0.0942 0.9298 0.1429 0.075 Uiso 1 1 calc R . . 
C429 C 0.1117(5) 0.9463(3) 0.1482(2) 0.072(2) Uani 1 1 d . . . 
H42S H 0.1102 0.9564 0.1697 0.086 Uiso 1 1 calc R . . 
H42T H 0.1315 0.9668 0.1260 0.086 Uiso 1 1 calc R . . 
C430 C 0.1637(5) 0.9007(3) 0.1600(2) 0.077(2) Uani 1 1 d . . . 
H43A H 0.2065 0.8984 0.1760 0.093 Uiso 1 1 calc R . . 
H43B H 0.1371 0.8785 0.1755 0.093 Uiso 1 1 calc R . . 
C431 C -0.0049(5) 0.9917(2) 0.1117(2) 0.078(3) Uani 1 1 d . . . 
H43C H 0.0083 1.0140 0.1192 0.093 Uiso 1 1 calc R . . 
H43D H -0.0590 0.9947 0.1141 0.093 Uiso 1 1 calc R . . 
C432 C 0.0137(6) 1.0000(3) 0.0699(2) 0.088(3) Uani 1 1 d . . . 
H43E H 0.0003 1.0319 0.0543 0.106 Uiso 1 1 calc R . . 
H43F H 0.0676 0.9884 0.0684 0.106 Uiso 1 1 calc R . . 

#===END

