
#######################################################################
#
#                 Cambridge Crystallographic Data Centre
#                                CCDC 
#
#######################################################################
#
# If this CIF has been generated directly or indirectly from an entry in the 
# Cambridge Structural Database, then it will include bibliographic, chemical, 
# crystal, experimental, refinement or atomic coordinate data resulting from 
# the CCDC's data processing and validation procedures. Files generated from 
# CSD entries are Copyright 2015 Cambridge Crystallographic Data Centre. They 
# may be used in bona fide research applications only, and may not be copied or 
# further disseminated in any form, whether machine-readable or not, except for 
# the purposes of generating routine backup copies on your local computer 
# system.
# 
# Files arising from any other source may also contain material that is the 
# copyright of third parties, including the originator, and you should check 
# with the originator concerning the permitted uses of the information 
# contained in this CIF.
#
# For further information on the CCDC and the free tools enCIFer and Mercury
# for validating and visualising CIF files, please visit www.ccdc.cam.ac.uk
#
#######################################################################

data_ELALAF
_audit_creation_date             2011-03-15
_database_code_depnum_ccdc_archive 'CCDC 783008'
_chemical_formula_moiety         'C48 H48 N12,0.66(C1 H2 Cl2)'
_chemical_name_systematic        
'5,8,16,19,27,30,38,41,46,49,54,57-dodecaazaheptacyclo[21.21.6.6^12,34^.1^3,43^.1^10,14^.1^21,25^.1^32,36^]hexaconta-1,3(51),4,8,10(60),11,13,15,19,21(59),22,24,26,30,32(52),33,35,37,41,43,45,49,53,57-tetracosaene dichloromethane solvate'
_journal_coden_Cambridge         179
_journal_volume                  50
_journal_year                    2011
_journal_page_first              749
_journal_name_full               Angew.Chem.,Int.Ed.
loop_
_publ_author_name
J.T.A.Jones
D.Holden
T.Mitra
T.Hasell
D.J.Adams
K.E.Jelfs
A.Trewin
D.J.Willock
G.M.Day
J.Bacsa
A.Steiner
A.I.Cooper
_chemical_absolute_configuration unk
_diffrn_ambient_temperature      100
_exptl_crystal_density_meas      1.055
_exptl_crystal_density_diffrn    1.054
#These two values have been output from a single CSD field.
_refine_ls_R_factor_gt           0.0426
_refine_ls_wR_factor_gt          0.0426
_diffrn_radiation_probe          x-ray
_symmetry_cell_setting           rhombohedral
_symmetry_space_group_name_H-M   'R 3'
_symmetry_Int_Tables_number      146
loop_
_symmetry_equiv_pos_site_id
_symmetry_equiv_pos_as_xyz
1 x,y,z
2 -y,x-y,z
3 -x+y,-x,z
4 2/3+x,1/3+y,1/3+z
5 2/3-y,1/3+x-y,1/3+z
6 2/3-x+y,1/3-x,1/3+z
7 1/3+x,2/3+y,2/3+z
8 1/3-y,2/3+x-y,2/3+z
9 1/3-x+y,2/3-x,2/3+z
_cell_length_a                   21.015(3)
_cell_length_b                   21.015(3)
_cell_length_c                   10.4913(15)
_cell_angle_alpha                90
_cell_angle_beta                 90
_cell_angle_gamma                120
_cell_volume                     4012.53
_exptl_crystal_colour            colorless
_exptl_crystal_description       prism
_cell_formula_units_Z            3
loop_
_atom_site_label
_atom_site_type_symbol
_atom_site_fract_x
_atom_site_fract_y
_atom_site_fract_z
N1 N 0.49845(9) 0.64892(9) 1.38583(15)
N2 N 0.57063(9) 0.63462(10) 1.15925(15)
N3 N 0.40671(10) 0.49010(10) 0.64204(16)
N4 N 0.59481(10) 0.84236(10) 0.68050(16)
C1 C 0.40859(11) 0.71416(11) 1.35779(19)
H1 H 0.4602 0.7466 1.3572
C2 C 0.38074(11) 0.63846(11) 1.35818(19)
C3 C 0.43090(11) 0.60838(11) 1.3622(2)
H2 H 0.4120 0.5575 1.3468
C4 C 0.54402(11) 0.61516(11) 1.38621(18)
H3 H 0.5137 0.5621 1.3672
H4 H 0.5667 0.6207 1.4712
C5 C 0.60339(11) 0.65253(12) 1.28576(19)
H5 H 0.6292 0.7064 1.2985
H6 H 0.6398 0.6359 1.2940
C6 C 0.57746(11) 0.68679(12) 1.08992(19)
H7 H 0.6033 0.7356 1.1218
C7 C 0.54595(11) 0.67322(12) 0.96001(19)
C8 C 0.50008(11) 0.60067(12) 0.9197(2)
H8 H 0.4875 0.5613 0.9775
C9 C 0.47274(12) 0.58564(12) 0.7961(2)
C10 C 0.49050(11) 0.64387(12) 0.71250(19)
H9 H 0.4716 0.6340 0.6281
C11 C 0.53534(11) 0.71578(12) 0.7513(2)
C12 C 0.56312(11) 0.73042(12) 0.8762(2)
H10 H 0.5938 0.7798 0.9032
C13 C 0.42779(12) 0.50868(12) 0.7555(2)
H11 H 0.4139 0.4712 0.8177
C14 C 0.36258(12) 0.41153(12) 0.6153(2)
H12 H 0.3600 0.3832 0.6923
H13 H 0.3859 0.3982 0.5463
C15 C 0.55306(11) 0.77498(12) 0.6573(2)
H14 H 0.5318 0.7614 0.5748
C16 C 0.28521(12) 0.39235(12) 0.5751(2)
H15 H 0.2880 0.4229 0.5011
H16 H 0.2571 0.3401 0.5490
N1B N 0.15047 0.50155 1.38583
N1A N 0.35108 0.84953 1.38583
N2B N 0.06399 0.42937 1.15925
N2A N 0.36538 0.93601 1.15925
N3A N 0.5099 0.91661 0.64204
N3B N 0.08339 0.59329 0.64204
N4B N 0.24755 0.40519 0.6805
N4A N 0.15764 0.75245 0.6805
C1A C 0.28584 0.69443 1.35779
C1B C 0.30557 0.59141 1.35779
H1A H 0.2534 0.7136 1.3572
H1B H 0.2864 0.5398 1.3572
C2A C 0.36154 0.74228 1.35818
C2B C 0.25772 0.61926 1.35818
C3B C 0.17748 0.5691 1.3622
C3A C 0.39162 0.82252 1.3622
H2A H 0.4425 0.8545 1.3468
H2B H 0.1455 0.588 1.3468
C4B C 0.07114 0.45598 1.38621
C4A C 0.38484 0.92886 1.38621
H3B H 0.0484 0.4863 1.3672
H3A H 0.4379 0.9516 1.3672
H4B H 0.054 0.4333 1.4712
H4A H 0.3793 0.946 1.4712
C5B C 0.04914 0.39661 1.28576
C5A C 0.34747 0.95086 1.28576
H5A H 0.2936 0.9228 1.2985
H5B H 0.0772 0.3708 1.2985
H6A H 0.3641 1.0039 1.294
H6B H -0.0039 0.3602 1.294
C6B C 0.10933 0.42254 1.08992
C6A C 0.31321 0.89067 1.08992
H7B H 0.1323 0.3967 1.1218
H7A H 0.2644 0.8677 1.1218
C7B C 0.12727 0.45405 0.96001
C7A C 0.32678 0.87273 0.96001
C8B C 0.10059 0.49992 0.9197
C8A C 0.39933 0.89941 0.9197
H8B H 0.0738 0.5125 0.9775
H8A H 0.4387 0.9262 0.9775
C9B C 0.1129 0.52726 0.7961
C9A C 0.41436 0.8871 0.7961
C10B C 0.15337 0.5095 0.7125
C10A C 0.35613 0.84663 0.7125
H9B H 0.1624 0.5284 0.6281
H9A H 0.366 0.8376 0.6281
C11B C 0.18044 0.46466 0.7513
C11A C 0.28422 0.81956 0.7513
C12B C 0.1673 0.43688 0.8762
C12A C 0.26958 0.8327 0.8762
H10B H 0.186 0.4062 0.9032
H10A H 0.2202 0.814 0.9032
C13A C 0.49132 0.91911 0.7555
C13B C 0.08089 0.57221 0.7555
H11B H 0.0573 0.5861 0.8177
H11A H 0.5288 0.9427 0.8177
C14A C 0.58847 0.95105 0.6153
C14B C 0.04895 0.63742 0.6153
H12B H 0.0232 0.64 0.6923
H12A H 0.6168 0.9768 0.6923
H13B H 0.0123 0.6141 0.5463
H13A H 0.6018 0.9877 0.5463
C15B C 0.22192 0.44694 0.6573
C15A C 0.22502 0.77808 0.6573
H14A H 0.2386 0.7704 0.5748
H14B H 0.2296 0.4682 0.5748
C16A C 0.60765 0.89286 0.5751
C16B C 0.10714 0.71479 0.5751
H15B H 0.1349 0.712 0.5011
H15A H 0.5771 0.8651 0.5011
H16B H 0.083 0.7429 0.549
H16A H 0.6599 0.917 0.549

#END

