
#######################################################################
#
#                 Cambridge Crystallographic Data Centre
#                                CCDC 
#
#######################################################################
#
# If this CIF has been generated directly or indirectly from an entry in the 
# Cambridge Structural Database, then it will include bibliographic, chemical, 
# crystal, experimental, refinement or atomic coordinate data resulting from 
# the CCDC's data processing and validation procedures. Files generated from 
# CSD entries are Copyright 2015 Cambridge Crystallographic Data Centre. They 
# may be used in bona fide research applications only, and may not be copied or 
# further disseminated in any form, whether machine-readable or not, except for 
# the purposes of generating routine backup copies on your local computer 
# system.
# 
# Files arising from any other source may also contain material that is the 
# copyright of third parties, including the originator, and you should check 
# with the originator concerning the permitted uses of the information 
# contained in this CIF.
#
# For further information on the CCDC and the free tools enCIFer and Mercury
# for validating and visualising CIF files, please visit www.ccdc.cam.ac.uk
#
#######################################################################

data_MOTWUP04
_audit_creation_date             2015-01-26
_database_code_depnum_ccdc_archive 'CCDC 979936'
_chemical_formula_moiety         '2(C72 H84 N12),C72 H69 N11'
_chemical_name_systematic        
'bis(5,12,20,27,35,42,50,57,62,69,74,81-Dodecaazatridecacyclo[29.29.10.10^16,46^.1^3,59^.1^14,18^.1^29,33^.1^44,48^.0^6,11^.0^21,26^.0^36,41^.0^51,56^.0^63,68^.0^75,80^]tetraoctaconta-1,3(71),4,12,14(84),15,17,19,27,29(83),30,32,34,42,44(72),45,47,49,57,59,61,69,73,81-tetracosaene) 10,28,45-triphenyl-1,4,10,16,19,22,28,34,39,45,51-undecaazaoctacyclo[17.17.17.2^6,9^.2^11,14^.2^24,27^.2^29,32^.2^41,44^.2^46,49^]pentahexaconta-4,6,8,11,13,15,22,24,26,29,31,33,39,41,43,46,48,50,54,56,58,60,62,64-tetracosaene'
_journal_coden_Cambridge         1441
_journal_volume                  7
_journal_year                    2015
_journal_page_first              153
_journal_name_full               'Nature Chemistry'
loop_
_publ_author_name
M.A.Little
M.E.Briggs
J.T.A.Jones
M.Schmidtmann
T.Hasell
'Samantha Y.Chong'
K.E.Jelfs
'Linjiang Chen'
A.I.Cooper
_chemical_absolute_configuration unk
_diffrn_ambient_temperature      293
_diffrn_ambient_pressure         'at low pressure (dynamic vacuum)'
_exptl_crystal_density_meas      1.002
_exptl_crystal_density_diffrn    1.002
#These two values have been output from a single CSD field.
_refine_ls_R_factor_gt           0.0583
_refine_ls_wR_factor_gt          0.0583
_diffrn_radiation_probe          x-ray
_diffrn_source                   'synchrotron radiation'
_symmetry_cell_setting           rhombohedral
_symmetry_space_group_name_H-M   'R 3 2'
_symmetry_Int_Tables_number      155
loop_
_symmetry_equiv_pos_site_id
_symmetry_equiv_pos_as_xyz
1 x,y,z
2 -y,x-y,z
3 -x+y,-x,z
4 x-y,-y,-z
5 -x,-x+y,-z
6 y,x,-z
7 2/3+x,1/3+y,1/3+z
8 2/3-y,1/3+x-y,1/3+z
9 2/3-x+y,1/3-x,1/3+z
10 2/3+x-y,1/3-y,1/3-z
11 2/3-x,1/3-x+y,1/3-z
12 2/3+y,1/3+x,1/3-z
13 1/3+x,2/3+y,2/3+z
14 1/3-y,2/3+x-y,2/3+z
15 1/3-x+y,2/3-x,2/3+z
16 1/3+x-y,2/3-y,2/3-z
17 1/3-x,2/3-x+y,2/3-z
18 1/3+y,2/3+x,2/3-z
_cell_length_a                   20.6071(11)
_cell_length_b                   20.6071(11)
_cell_length_c                   44.949(3)
_cell_angle_alpha                90
_cell_angle_beta                 90
_cell_angle_gamma                120
_cell_volume                     16530.4
_exptl_crystal_colour            colorless
_exptl_crystal_description       prism
_cell_formula_units_Z            3
loop_
_atom_site_label
_atom_site_type_symbol
_atom_site_fract_x
_atom_site_fract_y
_atom_site_fract_z
N5 N 0.0000 0.0000 0.32936(10)
C25 C 0.2836(2) 0.2629(2) 0.50447(13)
C26 C 0.4172(4) 0.3992(3) 0.5048(2)
C27 C 0.4124(2) 0.3379(4) 0.51972(17)
H29 H 0.4539 0.3424 0.5298
C28 C 0.3456(2) 0.2697(3) 0.51955(10)
H30 H 0.3424 0.2287 0.5295
N6 N 0.0895(7) 0.1421(5) 0.37151(15)
C29 C 0.0400(11) 0.1305(7) 0.3453(2)
H31 H 0.0559 0.1784 0.3357
H32 H -0.0111 0.1110 0.3521
C30 C 0.0421(9) 0.0769(8) 0.3229(2)
H33 H 0.0251 0.0854 0.3040
H34 H 0.0939 0.0899 0.3204
C31 C 0.0934(3) 0.1329(4) 0.42486(10)
C32 C 0.1689(3) 0.1542(4) 0.42444(8)
H35 H 0.1924 0.1563 0.4065
C33 C 0.2095(2) 0.1725(4) 0.45083(10)
H36 H 0.2600 0.1868 0.4505
C34 C 0.1745(3) 0.1694(3) 0.47765(8)
C35 C 0.0989(3) 0.1481(4) 0.47808(10)
H37 H 0.0755 0.1461 0.4960
C36 C 0.0584(3) 0.1299(5) 0.45169(13)
H38 H 0.0079 0.1156 0.4520
C37 C 0.0475(8) 0.1211(5) 0.39624(19)
H39 H -0.0041 0.1015 0.3961
N7 N 0.2158(3) 0.1928(3) 0.50438(14)
C25A C -0.2629 0.0207 0.50447
C26A C -0.3992 0.018 0.5048
C27A C -0.3379 0.0745 0.51972
H29A H -0.3424 0.1115 0.5298
C28A C -0.2697 0.0759 0.51955
H30A H -0.2287 0.1137 0.5295
N6A N -0.1421 -0.0526 0.37151
C29A C -0.1305 -0.0905 0.3453
H31A H -0.1784 -0.1225 0.3357
H32A H -0.111 -0.1221 0.3521
C30A C -0.0769 -0.0348 0.3229
H33A H -0.0854 -0.0603 0.304
H34A H -0.0899 0.004 0.3204
C31A C -0.1329 -0.0395 0.42486
C32A C -0.1542 0.0147 0.42444
H35A H -0.1563 0.0361 0.4065
C33A C -0.1725 0.037 0.45083
H36A H -0.1868 0.0732 0.4505
C34A C -0.1694 0.0051 0.47765
C35A C -0.1481 -0.0492 0.47808
H37A H -0.1461 -0.0706 0.496
C36A C -0.1299 -0.0715 0.45169
H38A H -0.1156 -0.1077 0.452
C37A C -0.1211 -0.0736 0.39624
H39A H -0.1015 -0.1056 0.3961
N7A N -0.1928 0.023 0.50438
C25B C -0.0207 -0.2836 0.50447
C26B C -0.018 -0.4172 0.5048
C27B C -0.0745 -0.4124 0.51972
H29B H -0.1115 -0.4539 0.5298
C28B C -0.0759 -0.3456 0.51955
H30B H -0.1137 -0.3424 0.5295
N6B N 0.0526 -0.0895 0.37151
C29B C 0.0905 -0.04 0.3453
H31B H 0.1225 -0.0559 0.3357
H32B H 0.1221 0.0111 0.3521
C30B C 0.0348 -0.0421 0.3229
H33B H 0.0603 -0.0251 0.304
H34B H -0.004 -0.0939 0.3204
C31B C 0.0395 -0.0934 0.42486
C32B C -0.0147 -0.1689 0.42444
H35B H -0.0361 -0.1924 0.4065
C33B C -0.037 -0.2095 0.45083
H36B H -0.0732 -0.26 0.4505
C34B C -0.0051 -0.1745 0.47765
C35B C 0.0492 -0.0989 0.47808
H37B H 0.0706 -0.0755 0.496
C36B C 0.0715 -0.0584 0.45169
H38B H 0.1077 -0.0079 0.452
C37B C 0.0736 -0.0475 0.39624
H39B H 0.1056 0.0041 0.3961
N7B N -0.023 -0.2158 0.50438
N5C N 0 0 0.67064
C25D C -0.2836 -0.0207 0.49553
C26D C -0.4172 -0.018 0.4952
C27D C -0.4124 -0.0745 0.48028
H29D H -0.4539 -0.1115 0.4702
C28D C -0.3456 -0.0759 0.48045
H30D H -0.3424 -0.1137 0.4705
N6D N -0.0895 0.0526 0.62849
C29D C -0.04 0.0905 0.6547
H31D H -0.0559 0.1225 0.6643
H32D H 0.0111 0.1221 0.6479
C30D C -0.0421 0.0348 0.6771
H33D H -0.0251 0.0603 0.696
H34D H -0.0939 -0.004 0.6796
C31D C -0.0934 0.0395 0.57514
C32D C -0.1689 -0.0147 0.57556
H35D H -0.1924 -0.0361 0.5935
C33D C -0.2095 -0.037 0.54917
H36D H -0.26 -0.0732 0.5495
C34D C -0.1745 -0.0051 0.52235
C35D C -0.0989 0.0492 0.52192
H37D H -0.0755 0.0706 0.504
C36D C -0.0584 0.0715 0.54831
H38D H -0.0079 0.1077 0.548
C37D C -0.0475 0.0736 0.60376
H39D H 0.0041 0.1056 0.6039
N7D N -0.2158 -0.023 0.49562
C25E C 0.2629 0.2836 0.49553
C26E C 0.3992 0.4172 0.4952
C27E C 0.3379 0.4124 0.48028
H29E H 0.3424 0.4539 0.4702
C28E C 0.2697 0.3456 0.48045
H30E H 0.2287 0.3424 0.4705
N6E N 0.1421 0.0895 0.62849
C29E C 0.1305 0.04 0.6547
H31E H 0.1784 0.0559 0.6643
H32E H 0.111 -0.0111 0.6479
C30E C 0.0769 0.0421 0.6771
H33E H 0.0854 0.0251 0.696
H34E H 0.0899 0.0939 0.6796
C31E C 0.1329 0.0934 0.57514
C32E C 0.1542 0.1689 0.57556
H35E H 0.1563 0.1924 0.5935
C33E C 0.1725 0.2095 0.54917
H36E H 0.1868 0.26 0.5495
C34E C 0.1694 0.1745 0.52235
C35E C 0.1481 0.0989 0.52192
H37E H 0.1461 0.0755 0.504
C36E C 0.1299 0.0584 0.54831
H38E H 0.1156 0.0079 0.548
C37E C 0.1211 0.0475 0.60376
H39E H 0.1015 -0.0041 0.6039
N7E N 0.1928 0.2158 0.49562
C25C C 0.0207 -0.2629 0.49553
C26C C 0.018 -0.3992 0.4952
C27C C 0.0745 -0.3379 0.48028
H29C H 0.1115 -0.3424 0.4702
C28C C 0.0759 -0.2697 0.48045
H30C H 0.1137 -0.2287 0.4705
N6C N -0.0526 -0.1421 0.62849
C29C C -0.0905 -0.1305 0.6547
H31C H -0.1225 -0.1784 0.6643
H32C H -0.1221 -0.111 0.6479
C30C C -0.0348 -0.0769 0.6771
H33C H -0.0603 -0.0854 0.696
H34C H 0.004 -0.0899 0.6796
C31C C -0.0395 -0.1329 0.57514
C32C C 0.0147 -0.1542 0.57556
H35C H 0.0361 -0.1563 0.5935
C33C C 0.037 -0.1725 0.54917
H36C H 0.0732 -0.1868 0.5495
C34C C 0.0051 -0.1694 0.52235
C35C C -0.0492 -0.1481 0.52192
H37C H -0.0706 -0.1461 0.504
C36C C -0.0715 -0.1299 0.54831
H38C H -0.1077 -0.1156 0.548
C37C C -0.0736 -0.1211 0.60376
H39C H -0.1056 -0.1015 0.6039
N7C N 0.023 -0.1928 0.49562
N1 N 0.38453(14) 0.10386(13) 0.53109(5)
C1 C 0.58854(16) 0.28629(16) 0.57249(6)
C2 C 0.41755(16) 0.26720(16) 0.43756(6)
H1 H 0.3962 0.2829 0.4521
C3 C 0.42586(17) 0.18328(16) 0.47486(6)
H2 H 0.4007 0.1976 0.4881
C4 C 0.36859(16) 0.06563(15) 0.55982(6)
H3 H 0.3942 0.0365 0.5609
N2 N 0.42376(14) 0.29276(13) 0.41181(5)
N3 N 0.47911(13) 0.16935(14) 0.58181(5)
C5 C 0.44195(16) 0.21383(16) 0.44634(6)
C6 C 0.3780(2) 0.0880(2) 0.61518(8)
H4 H 0.4041 0.0603 0.6182
H5 H 0.3948 0.1266 0.6303
C7 C 0.39477(15) 0.34348(17) 0.40674(5)
H6 H 0.3737 0.3496 0.4254
C8 C 0.44688(16) 0.13150(15) 0.48395(6)
C9 C 0.61962(17) 0.36292(17) 0.57231(6)
H7 H 0.5882 0.3832 0.5721
C10 C 0.39775(15) 0.12464(16) 0.58452(6)
H8 H 0.3760 0.1571 0.5822
C11 C 0.45583(16) 0.41923(17) 0.39630(5)
H9 H 0.4782 0.4133 0.3780
C12 C 0.42765(16) 0.09656(15) 0.51374(6)
H10 H 0.4486 0.0679 0.5198
C13 C 0.47986(17) 0.19193(17) 0.42663(6)
H11 H 0.4914 0.2121 0.4076
C14 C 0.2949(2) 0.0356(3) 0.61859(9)
H12 H 0.2691 0.0641 0.6179
H13 H 0.2850 0.0109 0.6378
C15 C 0.2651(2) -0.0228(2) 0.59416(10)
H14 H 0.2111 -0.0533 0.5960
H15 H 0.2862 -0.0554 0.5964
N4 N 0.51302(13) 0.45219(14) 0.41934(5)
C16 C 0.48480(16) 0.11102(15) 0.46402(6)
H16 H 0.5000 0.0774 0.4699
C17 C 0.50036(16) 0.14022(16) 0.43537(6)
C18 C 0.28461(18) 0.01330(19) 0.56320(8)
H17 H 0.2675 -0.0256 0.5482
H18 H 0.2588 0.0413 0.5601
C19 C 0.50750(16) 0.23725(16) 0.57521(6)
H19 H 0.4762 0.2570 0.5720
C20 C 0.33240(19) 0.3087(2) 0.38323(7)
H20 H 0.3528 0.3018 0.3648
H21 H 0.2935 0.2599 0.3900
C21 C 0.3588(3) 0.4358(3) 0.36797(9)
H22 H 0.3369 0.4678 0.3663
H23 H 0.3779 0.4331 0.3486
C22 C 0.2990(2) 0.3579(3) 0.37752(9)
H24 H 0.2748 0.3614 0.3955
H25 H 0.2612 0.3357 0.3621
C23 C 0.4235(2) 0.4701(2) 0.39026(9)
H26 H 0.4628 0.5176 0.3826
H27 H 0.4058 0.4798 0.4088
C24 C 0.57706(17) 0.46398(17) 0.41352(6)
H28 H 0.5861 0.4501 0.3950
N1A N 0.89614 0.28067 0.53109
C1A C 0.71371 0.30225 0.57249
C2A C 0.7328 0.15035 0.43756
H1A H 0.7171 0.1133 0.4521
C3A C 0.81672 0.24258 0.47486
H2A H 0.8024 0.2031 0.4881
C4A C 0.93437 0.30296 0.55982
H3A H 0.9635 0.3577 0.5609
N2A N 0.70724 0.131 0.41181
N3A N 0.83065 0.30976 0.58181
C5A C 0.78617 0.22812 0.44634
C6A C 0.912 0.29 0.61518
H4A H 0.9397 0.3438 0.6182
H5A H 0.8734 0.2682 0.6303
C7A C 0.65652 0.05129 0.40674
H6A H 0.6504 0.0241 0.4254
C8A C 0.8685 0.31538 0.48395
C9A C 0.63708 0.2567 0.57231
H7A H 0.6168 0.205 0.5721
C10A C 0.87536 0.27311 0.58452
H8A H 0.8429 0.2189 0.5822
C11A C 0.58077 0.0366 0.3963
H9A H 0.5867 0.0649 0.378
C12A C 0.90344 0.33109 0.51374
H10A H 0.9321 0.3807 0.5198
C13A C 0.80807 0.28793 0.42663
H11A H 0.7879 0.2793 0.4076
C14A C 0.9644 0.2593 0.61859
H12A H 0.9359 0.205 0.6179
H13A H 0.9891 0.2741 0.6378
C15A C 1.0228 0.2879 0.59416
H14A H 1.0533 0.2644 0.596
H15A H 1.0554 0.3416 0.5964
N4A N 0.54781 0.06083 0.41934
C16A C 0.88898 0.37378 0.46402
H16A H 0.9226 0.4226 0.4699
C17A C 0.85978 0.36014 0.43537
C18A C 0.9867 0.27131 0.5632
H17A H 1.0256 0.2931 0.5482
H18A H 0.9587 0.2175 0.5601
C19A C 0.76275 0.27025 0.57521
H19A H 0.743 0.2192 0.572
C20A C 0.6913 0.0237 0.38323
H20A H 0.6982 0.051 0.3648
H21A H 0.7401 0.0336 0.39
C21A C 0.5642 -0.077 0.36797
H22A H 0.5322 -0.1309 0.3663
H23A H 0.5669 -0.0552 0.3486
C22A C 0.6421 -0.0589 0.37752
H24A H 0.6386 -0.0866 0.3955
H25A H 0.6643 -0.0745 0.3621
C23A C 0.5299 -0.0466 0.39026
H26A H 0.4824 -0.0548 0.3826
H27A H 0.5202 -0.074 0.4088
C24A C 0.53602 0.11308 0.41352
H28A H 0.5499 0.136 0.395
N1B N 0.71933 0.61547 0.53109
C1B C 0.69775 0.41146 0.57249
C2B C 0.84965 0.58245 0.43756
H1B H 0.8867 0.6038 0.4521
C3B C 0.75742 0.57414 0.47486
H2B H 0.7969 0.5993 0.4881
C4B C 0.69704 0.63141 0.55982
H3B H 0.6423 0.6058 0.5609
N2B N 0.869 0.57624 0.41181
N3B N 0.69024 0.52089 0.58181
C5B C 0.77188 0.55805 0.44634
C6B C 0.71 0.622 0.61518
H4B H 0.6562 0.5959 0.6182
H5B H 0.7318 0.6052 0.6303
C7B C 0.94871 0.60523 0.40674
H6B H 0.9759 0.6263 0.4254
C8B C 0.68462 0.55312 0.48395
C9B C 0.7433 0.38038 0.57231
H7B H 0.795 0.4118 0.5721
C10B C 0.72689 0.60225 0.58452
H8B H 0.7811 0.624 0.5822
C11B C 0.9634 0.54417 0.3963
H9B H 0.9351 0.5218 0.378
C12B C 0.66891 0.57235 0.51374
H10B H 0.6193 0.5514 0.5198
C13B C 0.71207 0.52014 0.42663
H11B H 0.7207 0.5086 0.4076
C14B C 0.7407 0.7051 0.61859
H12B H 0.795 0.7309 0.6179
H13B H 0.7259 0.715 0.6378
C15B C 0.7121 0.7349 0.59416
H14B H 0.7356 0.7889 0.596
H15B H 0.6584 0.7138 0.5964
N4B N 0.93917 0.48698 0.41934
C16B C 0.62622 0.5152 0.46402
H16B H 0.5774 0.5 0.4699
C17B C 0.63986 0.49964 0.43537
C18B C 0.72869 0.71539 0.5632
H17B H 0.7069 0.7325 0.5482
H18B H 0.7825 0.7412 0.5601
C19B C 0.72975 0.4925 0.57521
H19B H 0.7808 0.5238 0.572
C20B C 0.9763 0.6676 0.38323
H20B H 0.949 0.6472 0.3648
H21B H 0.9664 0.7065 0.39
C21B C 1.077 0.6412 0.36797
H22B H 1.1309 0.6631 0.3663
H23B H 1.0552 0.6221 0.3486
C22B C 1.0589 0.701 0.37752
H24B H 1.0866 0.7252 0.3955
H25B H 1.0745 0.7388 0.3621
C23B C 1.0466 0.5765 0.39026
H26B H 1.0548 0.5372 0.3826
H27B H 1.074 0.5942 0.4088
C24B C 0.88692 0.42294 0.41352
H28B H 0.864 0.4139 0.395

#END

