
#######################################################################
#
#                 Cambridge Crystallographic Data Centre
#                                CCDC 
#
#######################################################################
#
# If this CIF has been generated directly or indirectly from an entry in the 
# Cambridge Structural Database, then it will include bibliographic, chemical, 
# crystal, experimental, refinement or atomic coordinate data resulting from 
# the CCDC's data processing and validation procedures. Files generated from 
# CSD entries are Copyright 2015 Cambridge Crystallographic Data Centre. They 
# may be used in bona fide research applications only, and may not be copied or 
# further disseminated in any form, whether machine-readable or not, except for 
# the purposes of generating routine backup copies on your local computer 
# system.
# 
# Files arising from any other source may also contain material that is the 
# copyright of third parties, including the originator, and you should check 
# with the originator concerning the permitted uses of the information 
# contained in this CIF.
#
# For further information on the CCDC and the free tools enCIFer and Mercury
# for validating and visualising CIF files, please visit www.ccdc.cam.ac.uk
#
#######################################################################

data_MOTWUP
_audit_creation_date             2015-01-26
_database_code_depnum_ccdc_archive 'CCDC 979932'
_chemical_formula_moiety         '2(C72 H84 N12),C72 H69 N11'
_chemical_name_systematic        
'bis(5,12,20,27,35,42,50,57,62,69,74,81-Dodecaazatridecacyclo[29.29.10.10^16,46^.1^3,59^.1^14,18^.1^29,33^.1^44,48^.0^6,11^.0^21,26^.0^36,41^.0^51,56^.0^63,68^.0^75,80^]tetraoctaconta-1,3(71),4,12,14(84),15,17,19,27,29(83),30,32,34,42,44(72),45,47,49,57,59,61,69,73,81-tetracosaene) 10,28,45-triphenyl-1,4,10,16,19,22,28,34,39,45,51-undecaazaoctacyclo[17.17.17.2^6,9^.2^11,14^.2^24,27^.2^29,32^.2^41,44^.2^46,49^]pentahexaconta-4,6,8,11,13,15,22,24,26,29,31,33,39,41,43,46,48,50,54,56,58,60,62,64-tetracosaene'
_journal_coden_Cambridge         1441
_journal_volume                  7
_journal_year                    2015
_journal_page_first              153
_journal_name_full               'Nature Chemistry'
loop_
_publ_author_name
M.A.Little
M.E.Briggs
J.T.A.Jones
M.Schmidtmann
T.Hasell
'Samantha Y.Chong'
K.E.Jelfs
'Linjiang Chen'
A.I.Cooper
_chemical_absolute_configuration unk
_diffrn_ambient_temperature      400
_exptl_crystal_density_meas      0.979
_exptl_crystal_density_diffrn    0.979
#These two values have been output from a single CSD field.
_refine_ls_R_factor_gt           0.0742
_refine_ls_wR_factor_gt          0.0742
_diffrn_radiation_probe          x-ray
_symmetry_cell_setting           rhombohedral
_symmetry_space_group_name_H-M   'R 3 2'
_symmetry_Int_Tables_number      155
loop_
_symmetry_equiv_pos_site_id
_symmetry_equiv_pos_as_xyz
1 x,y,z
2 -y,x-y,z
3 -x+y,-x,z
4 x-y,-y,-z
5 -x,-x+y,-z
6 y,x,-z
7 2/3+x,1/3+y,1/3+z
8 2/3-y,1/3+x-y,1/3+z
9 2/3-x+y,1/3-x,1/3+z
10 2/3+x-y,1/3-y,1/3-z
11 2/3-x,1/3-x+y,1/3-z
12 2/3+y,1/3+x,1/3-z
13 1/3+x,2/3+y,2/3+z
14 1/3-y,2/3+x-y,2/3+z
15 1/3-x+y,2/3-x,2/3+z
16 1/3+x-y,2/3-y,2/3-z
17 1/3-x,2/3-x+y,2/3-z
18 1/3+y,2/3+x,2/3-z
_cell_length_a                   20.792(4)
_cell_length_b                   20.792(4)
_cell_length_c                   45.156(9)
_cell_angle_alpha                90
_cell_angle_beta                 90
_cell_angle_gamma                120
_cell_volume                     16905.9
_exptl_crystal_colour            colorless
_exptl_crystal_description       prism
_cell_formula_units_Z            3
loop_
_atom_site_label
_atom_site_type_symbol
_atom_site_fract_x
_atom_site_fract_y
_atom_site_fract_z
C1 C 0.5597(2) 0.4509(2) 0.72197(11)
N1 N 0.8170(2) 0.6040(2) 0.74878(9)
N2 N 0.6115(2) 0.5590(2) 0.63725(9)
C2 C 0.6612(3) 0.5673(2) 0.65508(11)
H1 H 0.7105 0.5967 0.6493
C3 C 0.6337(2) 0.5972(2) 0.60866(11)
H2 H 0.6879 0.6269 0.6077
C4 C 0.6903(3) 0.5253(3) 0.73312(12)
C5 C 0.3563(3) 0.3539(3) 0.78376(13)
H3 H 0.3836 0.3622 0.8021
H4 H 0.3645 0.4015 0.7767
C6 C 0.4836(3) 0.3985(3) 0.73040(11)
H5 H 0.4472 0.3843 0.7159
N3 N 0.4633(2) 0.3711(2) 0.75546(10)
C7 C 0.5746(3) 0.4824(3) 0.69338(11)
H6 H 0.5356 0.4685 0.6801
C8 C 0.7031(3) 0.5541(3) 0.70491(12)
H7 H 0.7514 0.5883 0.6993
C9 C 0.6460(3) 0.5333(2) 0.68460(11)
C10 C 0.3725(3) 0.2449(3) 0.77160(10)
H8 H 0.4009 0.2515 0.7898
C11 C 0.7529(3) 0.5521(3) 0.75434(11)
H9 H 0.7442 0.5291 0.7727
C12 C 0.2885(3) 0.1931(3) 0.77744(15)
H10 H 0.2616 0.1830 0.7589
H11 H 0.2804 0.1463 0.7854
C13 C 0.6223(4) 0.5761(4) 0.55373(13)
H12 H 0.6757 0.6043 0.5508
H13 H 0.6015 0.5379 0.5386
C14 C 0.2587(4) 0.2286(5) 0.79943(17)
H14 H 0.2056 0.1961 0.8018
H15 H 0.2819 0.2335 0.8186
N4 N 0.6421(2) 0.4961(2) 0.58636(9)
C15 C 0.6057(2) 0.5397(3) 0.58394(10)
H16 H 0.5519 0.5070 0.5860
C16 C 0.6355(3) 0.3793(2) 0.59413(8)
C17 C 0.3847(2) 0.3199(3) 0.76073(10)
H17 H 0.3574 0.3124 0.7422
C18 C 0.6038(3) 0.4285(3) 0.59157(9)
H18 H 0.5528 0.4081 0.5940
C19 C 0.6182(3) 0.4732(3) 0.74161(11)
H19 H 0.6094 0.4533 0.7606
C20 C 0.5918(2) 0.3035(3) 0.59416(8)
H20 H 0.5405 0.2829 0.5942
C21 C 0.2733(4) 0.3023(6) 0.78951(18)
H21 H 0.2566 0.3239 0.8045
H22 H 0.2457 0.2969 0.7715
C22 C 0.5907(4) 0.6269(5) 0.55038(17)
H23 H 0.5368 0.5980 0.5508
H24 H 0.6056 0.6522 0.5314
C23 C 0.6182(4) 0.6841(4) 0.5753(2)
H25 H 0.6715 0.7164 0.5735
H26 H 0.5951 0.7145 0.5735
C24 C 0.6009(3) 0.6479(3) 0.60531(14)
H27 H 0.5475 0.6193 0.6080
H28 H 0.6211 0.6860 0.6205
C1A C 0.5491 0.1088 0.72197
N1A N 0.396 0.213 0.74878
N2A N 0.441 0.0525 0.63725
C2A C 0.4327 0.0939 0.65508
H1A H 0.4033 0.1138 0.6493
C3A C 0.4028 0.0365 0.60866
H2A H 0.3731 0.061 0.6077
C4A C 0.4747 0.165 0.73312
C5A C 0.6461 0.0024 0.78376
H3A H 0.6378 0.0214 0.8021
H4A H 0.5985 -0.037 0.7767
C6A C 0.6015 0.0851 0.7304
H5A H 0.6157 0.0629 0.7159
N3A N 0.6289 0.0922 0.75546
C7A C 0.5176 0.0922 0.69338
H6A H 0.5315 0.0671 0.6801
C8A C 0.4459 0.149 0.70491
H7A H 0.4117 0.1631 0.6993
C9A C 0.4667 0.1127 0.6846
C10A C 0.7551 0.1276 0.7716
H8A H 0.7485 0.1494 0.7898
C11A C 0.4479 0.2008 0.75434
H9A H 0.4709 0.2151 0.7727
C12A C 0.8069 0.0954 0.77744
H10A H 0.817 0.0786 0.7589
H11A H 0.8537 0.1341 0.7854
C13A C 0.4239 0.0462 0.55373
H12A H 0.3957 0.0714 0.5508
H13A H 0.4621 0.0636 0.5386
C14A C 0.7714 0.0301 0.79943
H14A H 0.8039 0.0095 0.8018
H15A H 0.7665 0.0484 0.8186
N4A N 0.5039 0.146 0.58636
C15A C 0.4603 0.066 0.58394
H16A H 0.493 0.0449 0.586
C16A C 0.6207 0.2562 0.59413
C17A C 0.6801 0.0648 0.76073
H17A H 0.6876 0.045 0.7422
C18A C 0.5715 0.1753 0.59157
H18A H 0.5919 0.1447 0.594
C19A C 0.5268 0.145 0.74161
H19A H 0.5467 0.1561 0.7606
C20A C 0.6965 0.2883 0.59416
H20A H 0.7171 0.2576 0.5942
C21A C 0.6977 -0.029 0.78951
H21A H 0.6761 -0.0673 0.8045
H22A H 0.7031 -0.0512 0.7715
C22A C 0.3731 -0.0362 0.55038
H23A H 0.402 -0.0612 0.5508
H24A H 0.3478 -0.0466 0.5314
C23A C 0.3159 -0.0659 0.5753
H25A H 0.2836 -0.0449 0.5735
H26A H 0.2855 -0.1194 0.5735
C24A C 0.3521 -0.047 0.60531
H27A H 0.3807 -0.0718 0.608
H28A H 0.314 -0.0649 0.6205
C1B C 0.8912 0.4403 0.72197
N1B N 0.787 0.183 0.74878
N2B N 0.9475 0.3885 0.63725
C2B C 0.9061 0.3388 0.65508
H1B H 0.8862 0.2895 0.6493
C3B C 0.9635 0.3663 0.60866
H2B H 0.939 0.3121 0.6077
C4B C 0.835 0.3097 0.73312
C5B C 0.9976 0.6437 0.78376
H3B H 0.9786 0.6164 0.8021
H4B H 1.037 0.6355 0.7767
C6B C 0.9149 0.5164 0.7304
H5B H 0.9371 0.5528 0.7159
N3B N 0.9078 0.5367 0.75546
C7B C 0.9078 0.4254 0.69338
H6B H 0.9329 0.4644 0.6801
C8B C 0.851 0.2969 0.70491
H7B H 0.8369 0.2486 0.6993
C9B C 0.8873 0.354 0.6846
C10B C 0.8724 0.6275 0.7716
H8B H 0.8506 0.5991 0.7898
C11B C 0.7992 0.2471 0.75434
H9B H 0.7849 0.2558 0.7727
C12B C 0.9046 0.7115 0.77744
H10B H 0.9214 0.7384 0.7589
H11B H 0.8659 0.7196 0.7854
C13B C 0.9538 0.3777 0.55373
H12B H 0.9286 0.3243 0.5508
H13B H 0.9364 0.3985 0.5386
C14B C 0.9699 0.7413 0.79943
H14B H 0.9905 0.7944 0.8018
H15B H 0.9516 0.7181 0.8186
N4B N 0.854 0.3579 0.58636
C15B C 0.934 0.3943 0.58394
H16B H 0.9551 0.4481 0.586
C16B C 0.7438 0.3645 0.59413
C17B C 0.9352 0.6153 0.76073
H17B H 0.955 0.6426 0.7422
C18B C 0.8247 0.3962 0.59157
H18B H 0.8553 0.4472 0.594
C19B C 0.855 0.3818 0.74161
H19B H 0.8439 0.3906 0.7606
C20B C 0.7117 0.4082 0.59416
H20B H 0.7424 0.4595 0.5942
C21B C 1.029 0.7267 0.78951
H21B H 1.0673 0.7434 0.8045
H22B H 1.0512 0.7543 0.7715
C22B C 1.0362 0.4093 0.55038
H23B H 1.0612 0.4632 0.5508
H24B H 1.0466 0.3944 0.5314
C23B C 1.0659 0.3818 0.5753
H25B H 1.0449 0.3285 0.5735
H26B H 1.1194 0.4049 0.5735
C24B C 1.047 0.3991 0.60531
H27B H 1.0718 0.4525 0.608
H28B H 1.0649 0.3789 0.6205

#END

