
#######################################################################
#
#                 Cambridge Crystallographic Data Centre
#                                CCDC 
#
#######################################################################
#
# If this CIF has been generated directly or indirectly from an entry in the 
# Cambridge Structural Database, then it will include bibliographic, chemical, 
# crystal, experimental, refinement or atomic coordinate data resulting from 
# the CCDC's data processing and validation procedures. Files generated from 
# CSD entries are Copyright 2015 Cambridge Crystallographic Data Centre. They 
# may be used in bona fide research applications only, and may not be copied or 
# further disseminated in any form, whether machine-readable or not, except for 
# the purposes of generating routine backup copies on your local computer 
# system.
# 
# Files arising from any other source may also contain material that is the 
# copyright of third parties, including the originator, and you should check 
# with the originator concerning the permitted uses of the information 
# contained in this CIF.
#
# For further information on the CCDC and the free tools enCIFer and Mercury
# for validating and visualising CIF files, please visit www.ccdc.cam.ac.uk
#
#######################################################################

data_OZECAY03
_audit_creation_date             2014-03-26
_database_code_depnum_ccdc_archive 'CCDC 991218'
_chemical_formula_moiety         'C66 H72 N12'
_chemical_name_systematic        
5,11,19,25,33,39,47,53,58,64,69,75-Dodeca-azatridecacyclo[27.27.9.9^15,43^.1^3,55^.1^13,17^.1^27,31^.1^41,45^.0^6,10^.0^20,24^.0^34,38^.0^48,52^.0^59,63^.0^70,74^]octaheptaconta-1,3(66),4,11,13(78),14,16,18,25,27(77),28,30,32,39,41(67),42,44,46,53,55,57,64,68,75-tetracosaene
_journal_coden_Cambridge         1475
_journal_volume                  5
_journal_year                    2014
_journal_page_first              2235
_journal_name_full               'Chemical Science'
loop_
_publ_author_name
E.O.Pyzer-Knapp
H.P.G.Thompson
F.Schiffmann
K.E.Jelfs
'Samantha Y.Chong'
M.A.Little
A.I.Cooper
G.M.Day
_chemical_absolute_configuration unk
_diffrn_ambient_temperature      350
_exptl_crystal_density_meas      0.964
_exptl_crystal_density_diffrn    0.964
#These two values have been output from a single CSD field.
_refine_ls_R_factor_gt           0.1146
_refine_ls_wR_factor_gt          0.1146
_diffrn_radiation_probe          x-ray
_symmetry_cell_setting           cubic
_symmetry_space_group_name_H-M   'F 41 3 2'
_symmetry_Int_Tables_number      210
loop_
_symmetry_equiv_pos_site_id
_symmetry_equiv_pos_as_xyz
1 x,y,z
2 1/4-y,1/4+x,1/4+z
3 -x,-y,z
4 1/4+y,1/4-x,1/4+z
5 1/4+x,1/4-z,1/4+y
6 x,-y,-z
7 1/4+x,1/4+z,1/4-y
8 1/4+z,1/4+y,1/4-x
9 -x,y,-z
10 1/4-z,1/4+y,1/4+x
11 z,x,y
12 y,z,x
13 -y,-z,x
14 z,-x,-y
15 -y,z,-x
16 -z,-x,y
17 -z,x,-y
18 y,-z,-x
19 1/4+y,1/4+x,1/4-z
20 1/4-y,1/4-x,1/4-z
21 1/4-x,1/4+z,1/4+y
22 1/4-x,1/4-z,1/4-y
23 1/4+z,1/4-y,1/4+x
24 1/4-z,1/4-y,1/4-x
25 x,1/2+y,1/2+z
26 1/4-y,3/4+x,3/4+z
27 -x,1/2-y,1/2+z
28 1/4+y,3/4-x,3/4+z
29 1/4+x,3/4-z,3/4+y
30 x,1/2-y,1/2-z
31 1/4+x,3/4+z,3/4-y
32 1/4+z,3/4+y,3/4-x
33 -x,1/2+y,1/2-z
34 1/4-z,3/4+y,3/4+x
35 z,1/2+x,1/2+y
36 y,1/2+z,1/2+x
37 -y,1/2-z,1/2+x
38 z,1/2-x,1/2-y
39 -y,1/2+z,1/2-x
40 -z,1/2-x,1/2+y
41 -z,1/2+x,1/2-y
42 y,1/2-z,1/2-x
43 1/4+y,3/4+x,3/4-z
44 1/4-y,3/4-x,3/4-z
45 1/4-x,3/4+z,3/4+y
46 1/4-x,3/4-z,3/4-y
47 1/4+z,3/4-y,3/4+x
48 1/4-z,3/4-y,3/4-x
49 1/2+x,y,1/2+z
50 3/4-y,1/4+x,3/4+z
51 1/2-x,-y,1/2+z
52 3/4+y,1/4-x,3/4+z
53 3/4+x,1/4-z,3/4+y
54 1/2+x,-y,1/2-z
55 3/4+x,1/4+z,3/4-y
56 3/4+z,1/4+y,3/4-x
57 1/2-x,y,1/2-z
58 3/4-z,1/4+y,3/4+x
59 1/2+z,x,1/2+y
60 1/2+y,z,1/2+x
61 1/2-y,-z,1/2+x
62 1/2+z,-x,1/2-y
63 1/2-y,z,1/2-x
64 1/2-z,-x,1/2+y
65 1/2-z,x,1/2-y
66 1/2+y,-z,1/2-x
67 3/4+y,1/4+x,3/4-z
68 3/4-y,1/4-x,3/4-z
69 3/4-x,1/4+z,3/4+y
70 3/4-x,1/4-z,3/4-y
71 3/4+z,1/4-y,3/4+x
72 3/4-z,1/4-y,3/4-x
73 1/2+x,1/2+y,z
74 3/4-y,3/4+x,1/4+z
75 1/2-x,1/2-y,z
76 3/4+y,3/4-x,1/4+z
77 3/4+x,3/4-z,1/4+y
78 1/2+x,1/2-y,-z
79 3/4+x,3/4+z,1/4-y
80 3/4+z,3/4+y,1/4-x
81 1/2-x,1/2+y,-z
82 3/4-z,3/4+y,1/4+x
83 1/2+z,1/2+x,y
84 1/2+y,1/2+z,x
85 1/2-y,1/2-z,x
86 1/2+z,1/2-x,-y
87 1/2-y,1/2+z,-x
88 1/2-z,1/2-x,y
89 1/2-z,1/2+x,-y
90 1/2+y,1/2-z,-x
91 3/4+y,3/4+x,1/4-z
92 3/4-y,3/4-x,1/4-z
93 3/4-x,3/4+z,1/4+y
94 3/4-x,3/4-z,1/4-y
95 3/4+z,3/4-y,1/4+x
96 3/4-z,3/4-y,1/4-x
_cell_length_a                   24.242(9)
_cell_length_b                   24.242(9)
_cell_length_c                   24.242(9)
_cell_angle_alpha                90
_cell_angle_beta                 90
_cell_angle_gamma                90
_cell_volume                     14246.4
_exptl_crystal_colour            colorless
_exptl_crystal_description       plate
_cell_formula_units_Z            8
loop_
_atom_site_label
_atom_site_type_symbol
_atom_site_fract_x
_atom_site_fract_y
_atom_site_fract_z
N1 N 0.4507(3) 0.2324(3) 0.5401(3)
C1 C 0.4415(3) 0.1172(4) 0.6356(4)
H1 H 0.4721 0.1261 0.6571
C2 C 0.4901(3) 0.2764(3) 0.5295(3)
H2 H 0.5219 0.2718 0.5541
C3 C 0.4284(3) 0.1494(3) 0.5904(4)
C4 C 0.4631(4) 0.1969(4) 0.5767(4)
H3 H 0.4960 0.2014 0.5958
C5 C 0.4669(4) 0.3331(3) 0.5369(4)
H4 H 0.4283 0.3340 0.5266
H5 H 0.4703 0.3449 0.5751
C6 C 0.5000 0.3697(6) 0.5000
H6 H 0.5242 0.3931 0.5217
N1H N 0.5493 0.2324 0.4599
C1H C 0.5585 0.1172 0.3644
H1H H 0.5279 0.1261 0.3429
C2H C 0.5099 0.2764 0.4705
H2H H 0.4781 0.2718 0.4459
C3H C 0.5716 0.1494 0.4096
C4H C 0.5369 0.1969 0.4233
H3H H 0.504 0.2014 0.4042
C5H C 0.5331 0.3331 0.4631
H4H H 0.5717 0.334 0.4734
H5H H 0.5297 0.3449 0.4249
H6H H 0.4758 0.3931 0.4783
N1MA N 0.4599 0.0493 0.7324
C1MA C 0.3644 0.0585 0.6172
H1MA H 0.3429 0.0279 0.6261
C2MA C 0.4705 0.0099 0.7764
H2MA H 0.4459 -0.0219 0.7718
C3MA C 0.4096 0.0716 0.6494
C4MA C 0.4233 0.0369 0.6969
H3MA H 0.4042 0.004 0.7014
C5MA C 0.4631 0.0331 0.8331
H4MA H 0.4734 0.0717 0.834
H5MA H 0.4249 0.0297 0.8449
C6HA C 0.5 0 0.8697
H6MA H 0.4783 -0.0242 0.8931
N1HC N 0.2676 0.0401 0.5493
C1HC C 0.3828 0.1356 0.5585
H1HC H 0.3739 0.1571 0.5279
C2HC C 0.2236 0.0295 0.5099
H2HC H 0.2282 0.0541 0.4781
C3HC C 0.3506 0.0904 0.5716
C4HC C 0.3031 0.0767 0.5369
H3HC H 0.2986 0.0958 0.504
C5HC C 0.1669 0.0369 0.5331
H4HC H 0.166 0.0266 0.5717
H5HC H 0.1551 0.0751 0.5297
C6FC C 0.1303 0 0.5
H6HC H 0.1069 0.0217 0.4758
N1HA N 0.5401 -0.0493 0.7324
C1HA C 0.6356 -0.0585 0.6172
H1HA H 0.6571 -0.0279 0.6261
C2HA C 0.5295 -0.0099 0.7764
H2HA H 0.5541 0.0219 0.7718
C3HA C 0.5904 -0.0716 0.6494
C4HA C 0.5767 -0.0369 0.6969
H3HA H 0.5958 -0.004 0.7014
C5HA C 0.5369 -0.0331 0.8331
H4HA H 0.5266 -0.0717 0.834
H5HA H 0.5751 -0.0297 0.8449
H6HA H 0.5217 0.0242 0.8931
N1KA N 0.5401 0.0493 0.2676
C1KA C 0.6356 0.0585 0.3828
H1KA H 0.6571 0.0279 0.3739
C2KA C 0.5295 0.0099 0.2236
H2KA H 0.5541 -0.0219 0.2282
C3KA C 0.5904 0.0716 0.3506
C4KA C 0.5767 0.0369 0.3031
H3KA H 0.5958 0.004 0.2986
C5KA C 0.5369 0.0331 0.1669
H4KA H 0.5266 0.0717 0.166
H5KA H 0.5751 0.0297 0.1551
C6KA C 0.5 0 0.1303
H6KA H 0.5217 -0.0242 0.1069
N1NA N 0.4599 -0.0493 0.2676
C1NA C 0.3644 -0.0585 0.3828
H1NA H 0.3429 -0.0279 0.3739
C2NA C 0.4705 -0.0099 0.2236
H2NA H 0.4459 0.0219 0.2282
C3NA C 0.4096 -0.0716 0.3506
C4NA C 0.4233 -0.0369 0.3031
H3NA H 0.4042 -0.004 0.2986
C5NA C 0.4631 -0.0331 0.1669
H4NA H 0.4734 -0.0717 0.166
H5NA H 0.4249 -0.0297 0.1551
H6NA H 0.4783 0.0242 0.1069
N1EC N 0.7324 0.0401 0.4507
C1EC C 0.6172 0.1356 0.4415
H1EC H 0.6261 0.1571 0.4721
C2EC C 0.7764 0.0295 0.4901
H2EC H 0.7718 0.0541 0.5219
C3EC C 0.6494 0.0904 0.4284
C4EC C 0.6969 0.0767 0.4631
H3EC H 0.7014 0.0958 0.496
C5EC C 0.8331 0.0369 0.4669
H4EC H 0.834 0.0266 0.4283
H5EC H 0.8449 0.0751 0.4703
C6EC C 0.8697 0 0.5
H6EC H 0.8931 0.0217 0.5242
N1FC N 0.2676 -0.0401 0.4507
C1FC C 0.3828 -0.1356 0.4415
H1FC H 0.3739 -0.1571 0.4721
C2FC C 0.2236 -0.0295 0.4901
H2FC H 0.2282 -0.0541 0.5219
C3FC C 0.3506 -0.0904 0.4284
C4FC C 0.3031 -0.0767 0.4631
H3FC H 0.2986 -0.0958 0.496
C5FC C 0.1669 -0.0369 0.4669
H4FC H 0.166 -0.0266 0.4283
H5FC H 0.1551 -0.0751 0.4703
H6FC H 0.1069 -0.0217 0.5242
N1B N 0.5493 -0.2324 0.5401
C1B C 0.5585 -0.1172 0.6356
H1B H 0.5279 -0.1261 0.6571
C2B C 0.5099 -0.2764 0.5295
H2B H 0.4781 -0.2718 0.5541
C3B C 0.5716 -0.1494 0.5904
C4B C 0.5369 -0.1969 0.5767
H3B H 0.504 -0.2014 0.5958
C5B C 0.5331 -0.3331 0.5369
H4B H 0.5717 -0.334 0.5266
H5B H 0.5297 -0.3449 0.5751
C6B C 0.5 -0.3697 0.5
H6B H 0.4758 -0.3931 0.5217
N1E N 0.4507 -0.2324 0.4599
C1E C 0.4415 -0.1172 0.3644
H1E H 0.4721 -0.1261 0.3429
C2E C 0.4901 -0.2764 0.4705
H2E H 0.5219 -0.2718 0.4459
C3E C 0.4284 -0.1494 0.4096
C4E C 0.4631 -0.1969 0.4233
H3E H 0.496 -0.2014 0.4042
C5E C 0.4669 -0.3331 0.4631
H4E H 0.4283 -0.334 0.4734
H5E H 0.4703 -0.3449 0.4249
H6E H 0.5242 -0.3931 0.4783
N1KC N 0.7324 -0.0401 0.5493
C1KC C 0.6172 -0.1356 0.5585
H1KC H 0.6261 -0.1571 0.5279
C2KC C 0.7764 -0.0295 0.5099
H2KC H 0.7718 -0.0541 0.4781
C3KC C 0.6494 -0.0904 0.5716
C4KC C 0.6969 -0.0767 0.5369
H3KC H 0.7014 -0.0958 0.504
C5KC C 0.8331 -0.0369 0.5331
H4KC H 0.834 -0.0266 0.5717
H5KC H 0.8449 -0.0751 0.5297
H6KC H 0.8931 -0.0217 0.4758
H7? H 0.5242 0.3931 0.5217

#END

