
#######################################################################
#
#                 Cambridge Crystallographic Data Centre
#                                CCDC 
#
#######################################################################
#
# If this CIF has been generated directly or indirectly from an entry in the 
# Cambridge Structural Database, then it will include bibliographic, chemical, 
# crystal, experimental, refinement or atomic coordinate data resulting from 
# the CCDC's data processing and validation procedures. Files generated from 
# CSD entries are Copyright 2015 Cambridge Crystallographic Data Centre. They 
# may be used in bona fide research applications only, and may not be copied or 
# further disseminated in any form, whether machine-readable or not, except for 
# the purposes of generating routine backup copies on your local computer 
# system.
# 
# Files arising from any other source may also contain material that is the 
# copyright of third parties, including the originator, and you should check 
# with the originator concerning the permitted uses of the information 
# contained in this CIF.
#
# For further information on the CCDC and the free tools enCIFer and Mercury
# for validating and visualising CIF files, please visit www.ccdc.cam.ac.uk
#
#######################################################################

data_NOVNAP
_audit_creation_date             2014-12-13
_database_code_depnum_ccdc_archive 'CCDC 935198'
_chemical_formula_moiety         'C45 H36 O6'
_chemical_name_systematic        
9,11,29,31,41,43-Hexaoxadecacyclo[19.19.3.3^8,35^.3^15,28^.1^12,16^.1^32,36^.0^3,38^.0^5,46^.0^18,23^.0^25,49^]henpentaconta-1(40),2,5,7,12(51),13,15,18,20,22,25,27,32(44),33,35,38,46,48-octadecaene
_journal_coden_Cambridge         179
_journal_volume                  54
_journal_year                    2015
_journal_page_first              1471
_journal_name_full               Angew.Chem.,Int.Ed.
loop_
_publ_author_name
A.I.Joseph
S.H.Lapidus
C.M.Kane
'K.Travis Holman'
_chemical_absolute_configuration unk
_diffrn_ambient_temperature      100
_exptl_crystal_density_meas      1.263
_exptl_crystal_density_diffrn    1.264
#These two values have been output from a single CSD field.
_refine_ls_R_factor_gt           0.0479
_refine_ls_wR_factor_gt          0.0479
_diffrn_radiation_probe          x-ray
_symmetry_cell_setting           monoclinic
_symmetry_space_group_name_H-M   'P 21/c'
_symmetry_Int_Tables_number      14
loop_
_symmetry_equiv_pos_site_id
_symmetry_equiv_pos_as_xyz
1 x,y,z
2 -x,1/2+y,1/2-z
3 -x,-y,-z
4 x,1/2-y,1/2+z
_cell_length_a                   12.0770(3)
_cell_length_b                   19.1603(5)
_cell_length_c                   15.3058(4)
_cell_angle_alpha                90
_cell_angle_beta                 93.076(2)
_cell_angle_gamma                90
_cell_volume                     3536.64
_exptl_crystal_colour            colorless
_exptl_crystal_description       block
_cell_formula_units_Z            4
loop_
_atom_site_label
_atom_site_type_symbol
_atom_site_fract_x
_atom_site_fract_y
_atom_site_fract_z
O1 O -0.00121(10) 0.25128(6) 0.66649(8)
O2 O 0.53958(10) 0.40156(7) 0.59480(7)
O3 O 0.18587(10) 0.49234(6) 1.07825(8)
O4 O 0.27125(10) 0.58987(6) 1.01415(8)
O5 O 0.63547(9) 0.36843(6) 0.72742(7)
O6 O -0.10953(9) 0.35386(6) 0.67070(8)
C1 C 0.40652(13) 0.22541(8) 0.81945(11)
C2 C 0.31970(13) 0.53193(9) 0.59871(10)
C3 C 0.43516(14) 0.39276(9) 1.02337(10)
H1 H 0.5124 0.3989 1.0170
C4 C 0.46247(14) 0.26877(9) 0.97518(10)
H2 H 0.4325 0.2233 0.9935
H3 H 0.5377 0.2739 1.0035
C5 C 0.04607(13) 0.51433(9) 0.63888(11)
C6 C 0.47113(13) 0.26853(9) 0.87622(10)
C7 C 0.54705(13) 0.31435(9) 0.84198(10)
H4 H 0.5911 0.3431 0.8806
C8 C 0.20269(13) 0.21348(8) 0.84454(11)
C9 C 0.04323(14) 0.58732(9) 0.67812(11)
H5 H 0.0764 0.6206 0.6375
H6 H -0.0350 0.6012 0.6840
C10 C 0.14567(13) 0.21732(8) 0.76251(11)
H7 H 0.1780 0.1975 0.7130
C11 C 0.55977(13) 0.31883(9) 0.75245(11)
C12 C 0.28666(14) 0.63472(9) 0.70344(11)
H8 H 0.2375 0.6531 0.6550
H9 H 0.3375 0.6727 0.7233
C13 C 0.27506(14) 0.31803(9) 1.01972(10)
C14 C 0.21642(13) 0.61344(8) 0.77868(11)
C15 C 0.04288(13) 0.24959(8) 0.75216(11)
C16 C -0.03394(13) 0.39806(9) 0.63345(11)
C17 C 0.31549(14) 0.17777(8) 0.84917(11)
H10 H 0.3338 0.1628 0.9101
H11 H 0.3119 0.1356 0.8118
C18 C 0.48516(13) 0.46074(9) 0.62255(11)
C19 C 0.10482(13) 0.59259(8) 0.76699(11)
C20 C 0.03199(13) 0.38000(9) 0.56565(11)
H12 H 0.0255 0.3354 0.5388
C21 C 0.11917(13) 0.49502(8) 0.57466(10)
C22 C 0.26029(14) 0.44065(9) 1.05741(10)
C23 C -0.00770(14) 0.27691(9) 0.82384(11)
H13 H -0.0793 0.2975 0.8177
C24 C 0.15496(14) 0.24337(9) 0.91728(11)
C25 C 0.37314(14) 0.44976(9) 1.04855(11)
H14 H 0.4072 0.4938 1.0594
C26 C 0.10799(13) 0.42871(9) 0.53770(11)
H15 H 0.1540 0.4163 0.4917
C27 C 0.09825(14) 0.57216(9) 0.92437(12)
H16 H 0.0579 0.5583 0.9731
C28 C 0.38643(13) 0.47587(9) 0.57598(11)
H17 H 0.3636 0.4474 0.5274
C29 C 0.45591(14) 0.55930(9) 0.71396(11)
H18 H 0.4809 0.5887 0.7610
C30 C 0.04956(14) 0.27327(9) 0.90528(11)
H19 H 0.0155 0.2919 0.9547
C31 C 0.26637(14) 0.61290(9) 0.86336(11)
H20 H 0.3412 0.6277 0.8721
C32 C 0.38893(14) 0.32685(9) 1.00706(10)
C33 C 0.21493(14) 0.24869(9) 1.00713(10)
H21 H 0.1605 0.2435 1.0528
H22 H 0.2692 0.2101 1.0143
C34 C 0.35434(14) 0.57450(9) 0.66957(11)
C35 C 0.42443(13) 0.22901(9) 0.72999(11)
H23 H 0.3835 0.1987 0.6912
C36 C 0.49949(13) 0.27500(9) 0.69573(11)
H24 H 0.5094 0.2764 0.6346
C37 C 0.04832(14) 0.57398(9) 0.84061(12)
H25 H -0.0279 0.5620 0.8331
C38 C 0.21103(13) 0.54222(9) 0.54458(11)
H26 H 0.1874 0.5915 0.5491
H27 H 0.2234 0.5324 0.4823
C39 C 0.64158(14) 0.38333(10) 0.63701(11)
H28 H 0.6946 0.4221 0.6302
H29 H 0.6713 0.3419 0.6076
C40 C 0.21282(14) 0.37499(9) 1.04448(10)
H30 H 0.1360 0.3690 1.0528
C41 C 0.20945(14) 0.59136(9) 0.93475(11)
C42 C 0.52161(14) 0.50316(9) 0.69210(12)
H31 H 0.5898 0.4939 0.7238
C43 C -0.10626(14) 0.28194(9) 0.64982(12)
H32 H -0.1610 0.2570 0.6842
H33 H -0.1286 0.2759 0.5871
C44 C -0.02878(13) 0.46515(9) 0.66798(11)
H34 H -0.0772 0.4778 0.7123
C45 C 0.22262(15) 0.56193(9) 1.08851(11)
H35 H 0.2775 0.5642 1.1389
H36 H 0.1588 0.5915 1.1026

#END

