
#######################################################################
#
#                 Cambridge Crystallographic Data Centre
#                                CCDC 
#
#######################################################################
#
# If this CIF has been generated directly or indirectly from an entry in the 
# Cambridge Structural Database, then it will include bibliographic, chemical, 
# crystal, experimental, refinement or atomic coordinate data resulting from 
# the CCDC's data processing and validation procedures. Files generated from 
# CSD entries are Copyright 2015 Cambridge Crystallographic Data Centre. They 
# may be used in bona fide research applications only, and may not be copied or 
# further disseminated in any form, whether machine-readable or not, except for 
# the purposes of generating routine backup copies on your local computer 
# system.
# 
# Files arising from any other source may also contain material that is the 
# copyright of third parties, including the originator, and you should check 
# with the originator concerning the permitted uses of the information 
# contained in this CIF.
#
# For further information on the CCDC and the free tools enCIFer and Mercury
# for validating and visualising CIF files, please visit www.ccdc.cam.ac.uk
#
#######################################################################

data_FOQTEM
_audit_creation_date             2014-11-11
_database_code_depnum_ccdc_archive 'CCDC 1027975'
_chemical_name_common            'Xenon trisbromo-cryptophane-111'
_chemical_formula_moiety         'C45 H33 Br3 O6,0.96(Xe1)'
_chemical_name_systematic        
'7,33,40-tribromo-9,11,29,31,41,43-hexaoxadecacyclo[19.19.3.3^8,35^.3^15,28^.1^12,16^.1^32,36^.0^3,38^.0^5,46^.0^18,23^.0^25,49^]henpentaconta-1(40),2,5,7,12(51),13,15,18,20,22,25,27,32(44),33,35,38,46,48-octadecaene xenon'
_journal_coden_Cambridge         182
_journal_volume                  50
_journal_year                    2014
_journal_page_first              15905
_journal_name_full               Chem.Commun.
loop_
_publ_author_name
A.I.Joseph
G.El-Ayle
C.Boutin
E.Leonce
P.Berthault
'K.Travis Holman'
_chemical_absolute_configuration unk
_diffrn_ambient_temperature      100
_exptl_crystal_density_meas      1.887
_exptl_crystal_density_diffrn    1.879
#These two values have been output from a single CSD field.
_refine_ls_R_factor_gt           0.0341
_refine_ls_wR_factor_gt          0.0341
_diffrn_radiation_probe          x-ray
_symmetry_cell_setting           monoclinic
_symmetry_space_group_name_H-M   'P 21/n'
_symmetry_Int_Tables_number      14
loop_
_symmetry_equiv_pos_site_id
_symmetry_equiv_pos_as_xyz
1 x,y,z
2 1/2-x,1/2+y,1/2-z
3 -x,-y,-z
4 1/2+x,1/2-y,1/2+z
_cell_length_a                   10.85910(10)
_cell_length_b                   30.5071(4)
_cell_length_c                   11.08070(10)
_cell_angle_alpha                90
_cell_angle_beta                 94.2160(10)
_cell_angle_gamma                90
_cell_volume                     3660.88
_exptl_crystal_colour            colorless
_exptl_crystal_description       Prism
_cell_formula_units_Z            4
_exptl_crystal_recrystallization_method Nitrobenzene
loop_
_atom_site_label
_atom_site_type_symbol
_atom_site_fract_x
_atom_site_fract_y
_atom_site_fract_z
Br1 Br 0.25120(3) 0.286818(12) 0.21681(3)
Br2 Br 0.04420(4) 0.056055(11) 0.62575(3)
Br3 Br 0.34608(4) 0.040733(12) -0.13688(3)
O1 O 0.3064(2) 0.23860(8) -0.0128(2)
O2 O 0.0186(2) 0.15302(7) 0.6185(2)
O3 O 0.2738(2) -0.00814(8) 0.0725(2)
O4 O 0.4992(2) 0.20851(7) -0.0202(2)
O5 O 0.1944(2) 0.19099(8) 0.6839(2)
O6 O 0.2374(2) -0.02587(8) 0.2744(2)
C1 C 0.1989(3) 0.22312(11) 0.0303(3)
C2 C 0.1247(3) 0.19182(11) -0.0295(3)
H1 H 0.1462 0.1814 -0.1060
C3 C 0.0193(3) 0.17502(10) 0.0189(3)
C4 C -0.0165(3) 0.19180(10) 0.1289(3)
C5 C 0.0549(3) 0.22540(10) 0.1850(3)
H2 H 0.0299 0.2379 0.2578
C6 C 0.1603(3) 0.24078(10) 0.1372(3)
C7 C -0.0127(3) 0.13604(11) 0.5049(3)
C8 C -0.0571(3) 0.16133(11) 0.4072(3)
H3 H -0.0671 0.1920 0.4181
C9 C -0.0874(3) 0.14299(11) 0.2931(3)
C10 C -0.0770(3) 0.09727(11) 0.2781(3)
C11 C -0.0381(3) 0.07198(11) 0.3784(3)
H4 H -0.0334 0.0410 0.3700
C12 C -0.0059(3) 0.09086(11) 0.4905(3)
C13 C 0.1851(3) 0.02372(11) 0.0481(3)
C14 C 0.0812(3) 0.03100(11) 0.1108(3)
H5 H 0.0631 0.0116 0.1741
C15 C 0.0016(3) 0.06681(11) 0.0821(3)
C16 C 0.0273(3) 0.09479(11) -0.0130(3)
C17 C 0.1294(3) 0.08586(11) -0.0777(3)
H6 H 0.1458 0.1040 -0.1444
C18 C 0.2070(3) 0.05144(11) -0.0471(3)
C19 C 0.5226(3) 0.17468(11) 0.0635(3)
C20 C 0.5489(3) 0.18457(11) 0.1844(3)
H7 H 0.5465 0.2143 0.2096
C21 C 0.5790(3) 0.15216(11) 0.2709(3)
C22 C 0.5826(3) 0.10827(11) 0.2329(3)
C23 C 0.5571(3) 0.09892(11) 0.1095(3)
H8 H 0.5601 0.0694 0.0828
C24 C 0.5275(3) 0.13170(11) 0.0252(3)
H9 H 0.5108 0.1246 -0.0579
C25 C 0.2888(3) 0.18374(11) 0.6061(3)
C26 C 0.3574(3) 0.14588(11) 0.6217(3)
H10 H 0.3348 0.1246 0.6786
C27 C 0.4598(3) 0.13831(11) 0.5548(3)
C28 C 0.4938(3) 0.17064(11) 0.4733(3)
C29 C 0.4221(3) 0.20814(11) 0.4595(3)
H11 H 0.4441 0.2298 0.4034
C30 C 0.3192(3) 0.21519(11) 0.5245(3)
H12 H 0.2711 0.2411 0.5129
C31 C 0.3190(3) 0.00251(11) 0.3373(3)
C32 C 0.4240(3) 0.02091(11) 0.2955(3)
H13 H 0.4476 0.0138 0.2170
C33 C 0.4967(3) 0.05033(11) 0.3692(3)
C34 C 0.4599(3) 0.06085(11) 0.4836(3)
C35 C 0.3530(3) 0.04096(11) 0.5220(3)
H14 H 0.3281 0.0476 0.6004
C36 C 0.2834(3) 0.01248(11) 0.4510(3)
H15 H 0.2113 -0.0003 0.4795
C37 C -0.1266(3) 0.17433(11) 0.1912(3)
H16 H -0.1722 0.1992 0.2241
H17 H -0.1831 0.1590 0.1310
C38 C -0.1074(3) 0.07342(11) 0.1590(3)
H18 H -0.1720 0.0902 0.1111
H19 H -0.1423 0.0444 0.1768
C39 C -0.0448(3) 0.13667(11) -0.0466(3)
H20 H -0.0477 0.1414 -0.1352
H21 H -0.1305 0.1340 -0.0227
C40 C 0.6077(3) 0.16636(11) 0.4014(3)
H22 H 0.6509 0.1950 0.4021
H23 H 0.6647 0.1448 0.4422
C41 C 0.5240(3) 0.09415(11) 0.5686(3)
H24 H 0.6114 0.0972 0.5500
H25 H 0.5223 0.0839 0.6532
C42 C 0.6109(3) 0.07005(11) 0.3185(3)
H26 H 0.6679 0.0802 0.3866
H27 H 0.6537 0.0469 0.2749
C43 C 0.3790(3) 0.20922(11) -0.0760(3)
H28 H 0.3427 0.1795 -0.0752
H29 H 0.3810 0.2187 -0.1613
C44 C 0.0720(3) 0.19472(11) 0.6292(3)
H30 H 0.0222 0.2137 0.6792
H31 H 0.0739 0.2083 0.5481
C45 C 0.2597(3) -0.04077(10) 0.1596(3)
H32 H 0.1906 -0.0601 0.1304
H33 H 0.3356 -0.0589 0.1663

#END

