
#######################################################################
#
#                 Cambridge Crystallographic Data Centre
#                                CCDC 
#
#######################################################################
#
# If this CIF has been generated directly or indirectly from an entry in the 
# Cambridge Structural Database, then it will include bibliographic, chemical, 
# crystal, experimental, refinement or atomic coordinate data resulting from 
# the CCDC's data processing and validation procedures. Files generated from 
# CSD entries are Copyright 2015 Cambridge Crystallographic Data Centre. They 
# may be used in bona fide research applications only, and may not be copied or 
# further disseminated in any form, whether machine-readable or not, except for 
# the purposes of generating routine backup copies on your local computer 
# system.
# 
# Files arising from any other source may also contain material that is the 
# copyright of third parties, including the originator, and you should check 
# with the originator concerning the permitted uses of the information 
# contained in this CIF.
#
# For further information on the CCDC and the free tools enCIFer and Mercury
# for validating and visualising CIF files, please visit www.ccdc.cam.ac.uk
#
#######################################################################

data_WOGYUN
_audit_creation_date             2008-12-09
_database_code_depnum_ccdc_archive 'CCDC 697254'
_chemical_formula_moiety         'C44 H56 O4,0.24(Xe1)'
_chemical_name_systematic        
'5,11,17,23-Tetra-t-butyl-25,26,27,28-tetrahydroxycalix(4)arene xenon clathrate'
_journal_coden_Cambridge         1147
_journal_volume                  8
_journal_year                    2008
_journal_page_first              1878
_journal_name_full               'Cryst.Growth Des.'
loop_
_publ_author_name
D.H.Brouwer
I.L.Moudrakovski
K.A.Udachin
G.D.Enright
J.A.Ripmeester
_chemical_absolute_configuration unk
_diffrn_special_details          twin
_diffrn_ambient_temperature      173
_exptl_crystal_density_meas      1.102
_exptl_crystal_density_diffrn    1.102
#These two values have been output from a single CSD field.
_refine_ls_R_factor_gt           0.1329
_refine_ls_wR_factor_gt          0.1329
_diffrn_radiation_probe          x-ray
_symmetry_cell_setting           monoclinic
_symmetry_space_group_name_H-M   'P n'
_symmetry_Int_Tables_number      7
loop_
_symmetry_equiv_pos_site_id
_symmetry_equiv_pos_as_xyz
1 x,y,z
2 1/2+x,-y,1/2+z
_cell_length_a                   12.572(3)
_cell_length_b                   25.726(5)
_cell_length_c                   12.678(3)
_cell_angle_alpha                90
_cell_angle_beta                 90.28(3)
_cell_angle_gamma                90
_cell_volume                     4100.36
_cell_formula_units_Z            4
loop_
_atom_site_label
_atom_site_type_symbol
_atom_site_fract_x
_atom_site_fract_y
_atom_site_fract_z
O1 O 1.0491(4) 1.0210(2) 0.1087(5)
H1 H 1.0093 1.0299 0.1565
C1 C 1.1032(3) 0.97585(15) 0.1381(3)
C2 C 1.1750(3) 0.95358(14) 0.0684(3)
C3 C 1.2284(3) 0.90822(15) 0.0960(3)
H2 H 1.2765 0.8933 0.0494
C4 C 1.2100(3) 0.88514(15) 0.1933(3)
C5 C 1.1381(4) 0.90741(17) 0.2630(3)
H3 H 1.1258 0.8920 0.3282
C6 C 1.0848(3) 0.95276(18) 0.2354(3)
C7 C 1.2737(5) 0.83463(19) 0.2214(5)
C8 C 1.1916(4) 0.9781(2) -0.0415(3)
H4 H 1.1822 1.0154 -0.0364
H5 H 1.2639 0.9715 -0.0642
C9 C 1.2437(9) 0.8126(4) 0.3300(9)
H6 H 1.2825 0.7811 0.3426
H7 H 1.1687 0.8055 0.3314
H8 H 1.2610 0.8376 0.3837
C10 C 1.3941(8) 0.8518(4) 0.2173(10)
H9 H 1.4112 0.8630 0.1471
H10 H 1.4386 0.8229 0.2364
H11 H 1.4058 0.8799 0.2658
C11 C 1.2656(10) 0.7944(4) 0.1361(10)
H12 H 1.2861 0.8095 0.0700
H13 H 1.1936 0.7822 0.1313
H14 H 1.3119 0.7658 0.1525
O2 O 0.8538(5) 1.0232(2) 0.1744(4)
H15 H 0.8077 1.0335 0.1335
C12 C 0.8201(3) 0.97615(14) 0.2219(3)
C13 C 0.8887(2) 0.95307(14) 0.2943(3)
C14 C 0.8565(3) 0.90929(15) 0.3499(3)
H16 H 0.9025 0.8938 0.3984
C15 C 0.7557(3) 0.88859(14) 0.3331(3)
C16 C 0.6871(3) 0.91167(15) 0.2607(3)
H17 H 0.6197 0.8978 0.2495
C17 C 0.7193(3) 0.95545(16) 0.2051(3)
C18 C 0.7132(4) 0.84023(18) 0.3960(5)
C19 C 1.0064(3) 0.9742(2) 0.3119(4)
H18 H 1.0058 1.0118 0.3059
H19 H 1.0294 0.9656 0.3829
C20 C 0.6954(9) 0.7995(4) 0.3113(8)
H20 H 0.7602 0.7942 0.2730
H21 H 0.6407 0.8111 0.2637
H22 H 0.6740 0.7675 0.3435
C21 C 0.6093(7) 0.8527(4) 0.4537(8)
H23 H 0.5589 0.8672 0.4047
H24 H 0.6232 0.8774 0.5089
H25 H 0.5807 0.8214 0.4836
C22 C 0.7975(8) 0.8196(4) 0.4722(8)
H26 H 0.8604 0.8106 0.4336
H27 H 0.7707 0.7894 0.5076
H28 H 0.8145 0.8459 0.5232
O3 O 0.7785(5) 1.0263(2) -0.0236(5)
H29 H 0.8194 1.0371 -0.0687
C23 C 0.7344(3) 0.98161(14) -0.0564(3)
C24 C 0.6626(3) 0.95820(14) 0.0118(3)
C25 C 0.6076(3) 0.91390(14) -0.0196(3)
H30 H 0.5596 0.8982 0.0260
C26 C 0.6245(3) 0.89301(14) -0.1192(3)
C27 C 0.6962(3) 0.91642(16) -0.1874(3)
H31 H 0.7075 0.9024 -0.2541
C28 C 0.7512(3) 0.96072(17) -0.1560(3)
C29 C 0.5663(5) 0.84261(19) -0.1629(4)
C30 C 0.6429(4) 0.9789(2) 0.1215(3)
H32 H 0.5701 0.9712 0.1413
H33 H 0.6512 1.0164 0.1209
C31 C 0.6499(8) 0.7971(3) -0.1902(8)
H34 H 0.6883 0.7876 -0.1274
H35 H 0.6990 0.8093 -0.2424
H36 H 0.6123 0.7674 -0.2169
C32 C 0.5044(7) 0.8547(3) -0.2609(7)
H37 H 0.5520 0.8666 -0.3148
H38 H 0.4531 0.8813 -0.2461
H39 H 0.4684 0.8240 -0.2848
C33 C 0.4832(7) 0.8227(4) -0.0805(8)
H40 H 0.5190 0.8142 -0.0157
H41 H 0.4481 0.7923 -0.1076
H42 H 0.4314 0.8494 -0.0677
O4 O 0.9881(4) 1.0254(2) -0.0910(4)
H43 H 1.0361 1.0338 -0.0505
C34 C 1.0161(3) 0.98002(14) -0.1434(3)
C35 C 0.9458(3) 0.95871(14) -0.2164(3)
C36 C 0.9729(3) 0.91362(15) -0.2704(3)
H44 H 0.9259 0.8994 -0.3192
C37 C 1.0704(3) 0.88983(14) -0.2513(3)
C38 C 1.1407(3) 0.91114(17) -0.1782(4)
H45 H 1.2060 0.8952 -0.1654
C39 C 1.1136(3) 0.95623(17) -0.1243(3)
C40 C 1.0938(5) 0.84254(19) -0.3170(5)
C41 C 0.8375(3) 0.9831(2) -0.2325(4)
H46 H 0.8147 0.9773 -0.3048
H47 H 0.8431 1.0203 -0.2218
C42 C 1.2004(9) 0.8150(4) -0.2829(9)
H48 H 1.2104 0.7842 -0.3245
H49 H 1.1969 0.8057 -0.2097
H50 H 1.2591 0.8383 -0.2939
C43 C 1.0989(9) 0.8565(4) -0.4341(8)
H51 H 1.0322 0.8713 -0.4560
H52 H 1.1128 0.8257 -0.4745
H53 H 1.1548 0.8813 -0.4453
C44 C 1.0177(8) 0.7992(4) -0.2952(9)
H54 H 0.9467 0.8103 -0.3119
H55 H 1.0218 0.7899 -0.2219
H56 H 1.0358 0.7696 -0.3376
O5 O 0.8671(5) 0.4780(2) 0.5983(4)
H57 H 0.9157 0.4678 0.6364
C45 C 0.8969(3) 0.52296(13) 0.5499(3)
C46 C 0.9963(3) 0.54484(13) 0.5687(3)
C47 C 1.0266(3) 0.58958(14) 0.5152(3)
H58 H 1.0931 0.6042 0.5278
C48 C 0.9575(3) 0.61245(14) 0.4430(3)
C49 C 0.8581(3) 0.59057(16) 0.4242(3)
H59 H 0.8118 0.6059 0.3759
C50 C 0.8278(3) 0.54582(16) 0.4777(3)
C51 C 0.9946(5) 0.66101(18) 0.3819(5)
C52 C 1.0715(4) 0.5211(2) 0.6494(4)
H60 H 1.1442 0.5275 0.6275
H61 H 1.0607 0.4838 0.6507
C53 C 0.9071(9) 0.6837(4) 0.3052(9)
H62 H 0.9334 0.7148 0.2726
H63 H 0.8441 0.6917 0.3446
H64 H 0.8905 0.6585 0.2518
C54 C 1.0840(8) 0.6475(4) 0.3160(8)
H65 H 1.1071 0.6776 0.2779
H66 H 1.0629 0.6209 0.2670
H67 H 1.1412 0.6349 0.3593
C55 C 1.0248(9) 0.7065(4) 0.4601(8)
H68 H 1.0448 0.7367 0.4204
H69 H 1.0833 0.6959 0.5040
H70 H 0.9647 0.7146 0.5035
O6 O 0.6592(5) 0.4776(2) 0.6621(5)
H71 H 0.7242(18) 0.474(2) 0.649(4)
C56 C 0.6166(3) 0.52362(15) 0.6351(3)
C57 C 0.6355(3) 0.54711(15) 0.5383(3)
C58 C 0.5817(4) 0.59237(18) 0.5108(3)
H72 H 0.5944 0.6081 0.4461
C60 C 0.4900(4) 0.5907(2) 0.6771(4)
H73 H 0.4413 0.6052 0.7235
C61 C 0.5438(4) 0.54539(19) 0.7045(3)
C62 C 0.7197(4) 0.5239(2) 0.4604(4)
H74 H 0.7224 0.4865 0.4693
H75 H 0.6973 0.5311 0.3885
C63 C 0.5079(13) 0.6167(6) 0.5796(15)
C64 C 0.4494(8) 0.6649(4) 0.5403(8)
C65 C 0.3684(10) 0.6837(5) 0.6222(9)
H76 H 0.3348 0.7149 0.5973
H77 H 0.4042 0.6907 0.6877
H78 H 0.3155 0.6573 0.6328
C66 C 0.3890(10) 0.6505(5) 0.4388(9)
H79 H 0.3524 0.6806 0.4123
H80 H 0.3384 0.6236 0.4538
H81 H 0.4385 0.6384 0.3869
C67 C 0.5312(9) 0.7080(4) 0.5146(11)
H82 H 0.4944 0.7388 0.4922
H83 H 0.5773 0.6963 0.4593
H84 H 0.5728 0.7156 0.5765
O7 O 0.7324(5) 0.4737(2) 0.8631(4)
H94 H 0.6850 0.4642 0.8228
C73 C 0.7009(3) 0.51866(13) 0.9150(3)
C74 C 0.6031(3) 0.54251(13) 0.8975(2)
C75 C 0.5763(3) 0.58712(14) 0.9532(3)
H95 H 0.5109 0.6031 0.9415
C76 C 0.6472(3) 0.60787(14) 1.0264(3)
C77 C 0.7449(3) 0.58402(16) 1.0439(3)
H96 H 0.7923 0.5979 1.0928
C78 C 0.7717(3) 0.53942(16) 0.9881(3)
C79 C 0.6168(5) 0.66073(18) 1.0874(4)
C80 C 0.5261(4) 0.52263(19) 0.8139(4)
H97 H 0.4542 0.5306 0.8358
H98 H 0.5325 0.4851 0.8097
C81 C 0.7161(9) 0.7015(4) 1.0643(8)
H99 H 0.7194 0.7088 0.9901
H100 H 0.7818 0.6861 1.0871
H101 H 0.7044 0.7332 1.1024
C82 C 0.6264(9) 0.6491(4) 1.2102(7)
H102 H 0.5755 0.6230 1.2294
H103 H 0.6127 0.6804 1.2491
H104 H 0.6968 0.6369 1.2261
C83 C 0.5063(9) 0.6759(4) 1.0654(9)
H105 H 0.4989 0.6845 0.9920
H106 H 0.4881 0.7055 1.1075
H107 H 0.4598 0.6475 1.0821
O8 O 0.9295(4) 0.4731(2) 0.7991(4)
H108 H 0.8901 0.4633 0.8464
C84 C 0.9844(3) 0.51933(15) 0.8323(3)
C85 C 0.9652(3) 0.54042(14) 0.9313(3)
C86 C 1.0174(3) 0.58552(16) 0.9626(3)
H109 H 1.0045 0.5996 1.0289
C87 C 1.0889(3) 0.60953(15) 0.8949(3)
C88 C 1.1081(3) 0.58844(17) 0.7959(3)
H110 H 1.1559 0.6045 0.7506
C89 C 1.0559(4) 0.54334(18) 0.7646(3)
C90 C 1.1477(5) 0.6576(2) 0.9304(5)
C91 C 0.8860(4) 0.5157(2) 1.0044(3)
H111 H 0.9086 0.5210 1.0769
H112 H 0.8836 0.4785 0.9914
C92 C 1.2057(10) 0.6855(4) 0.8503(9)
H113 H 1.2345 0.7168 0.8800
H114 H 1.1585 0.6941 0.7931
H115 H 1.2625 0.6641 0.8246
C93 C 1.2260(10) 0.6437(4) 1.0287(8)
H116 H 1.2612 0.6748 1.0522
H117 H 1.2780 0.6188 1.0065
H118 H 1.1850 0.6295 1.0855
C94 C 1.0714(10) 0.6946(4) 0.9582(10)
H119 H 1.1062 0.7263 0.9786
H120 H 1.0300 0.6818 1.0161
H121 H 1.0255 0.7012 0.8989
Xe1 Xe 0.9134(4) 0.85442(19) 0.0636(3)
Xe2 Xe 0.8038(3) 0.64519(16) 0.7552(3)

#END

