
#######################################################################
#
#                 Cambridge Crystallographic Data Centre
#                                CCDC 
#
#######################################################################
#
# If this CIF has been generated directly or indirectly from an entry in the 
# Cambridge Structural Database, then it will include bibliographic, chemical, 
# crystal, experimental, refinement or atomic coordinate data resulting from 
# the CCDC's data processing and validation procedures. Files generated from 
# CSD entries are Copyright 2015 Cambridge Crystallographic Data Centre. They 
# may be used in bona fide research applications only, and may not be copied or 
# further disseminated in any form, whether machine-readable or not, except for 
# the purposes of generating routine backup copies on your local computer 
# system.
# 
# Files arising from any other source may also contain material that is the 
# copyright of third parties, including the originator, and you should check 
# with the originator concerning the permitted uses of the information 
# contained in this CIF.
#
# For further information on the CCDC and the free tools enCIFer and Mercury
# for validating and visualising CIF files, please visit www.ccdc.cam.ac.uk
#
#######################################################################

data_EKUKUR
_audit_creation_date             2011-03-21
_database_code_depnum_ccdc_archive 'CCDC 789520'
_chemical_formula_moiety         'C152 H128 N12 O6'
_chemical_name_systematic        
"2,2':7',2'':7'',2''':7,7''':12,12'':12',12'''-hexakis((5-t-butyl-2-hydroxy-1,3-phenylene)bis(methylylidenenitrilo))-tetrakis(triptycene) unknown solvate"
_journal_coden_Cambridge         179
_journal_volume                  50
_journal_year                    2011
_journal_page_first              1046
_journal_name_full               Angew.Chem.,Int.Ed.
loop_
_publ_author_name
M.Mastalerz
M.W.Schneider
I.M.Oppel
O.Presly
_chemical_absolute_configuration unk
_diffrn_ambient_temperature      120
_exptl_crystal_density_meas      0.513
_exptl_crystal_density_diffrn    0.513
#These two values have been output from a single CSD field.
_refine_ls_R_factor_gt           0.0585
_refine_ls_wR_factor_gt          0.0585
_diffrn_radiation_probe          x-ray
_symmetry_cell_setting           rhombohedral
_symmetry_space_group_name_H-M   'R -3'
_symmetry_Int_Tables_number      148
loop_
_symmetry_equiv_pos_site_id
_symmetry_equiv_pos_as_xyz
1 x,y,z
2 -y,x-y,z
3 -x+y,-x,z
4 2/3+x,1/3+y,1/3+z
5 2/3-y,1/3+x-y,1/3+z
6 2/3-x+y,1/3-x,1/3+z
7 1/3+x,2/3+y,2/3+z
8 1/3-y,2/3+x-y,2/3+z
9 1/3-x+y,2/3-x,2/3+z
10 -x,-y,-z
11 y,-x+y,-z
12 x-y,x,-z
13 1/3-x,2/3-y,2/3-z
14 1/3+y,2/3-x+y,2/3-z
15 1/3+x-y,2/3+x,2/3-z
16 2/3-x,1/3-y,1/3-z
17 2/3+y,1/3-x+y,1/3-z
18 2/3+x-y,1/3+x,1/3-z
_cell_length_a                   29.149(3)
_cell_length_b                   29.149(3)
_cell_length_c                   58.518(5)
_cell_angle_alpha                90
_cell_angle_beta                 90
_cell_angle_gamma                120
_cell_volume                     43059.3
_exptl_crystal_colour            red
_exptl_crystal_description       prism
_cell_formula_units_Z            6
loop_
_atom_site_label
_atom_site_type_symbol
_atom_site_fract_x
_atom_site_fract_y
_atom_site_fract_z
C1 C 0.6667 0.3333 -0.04097(5)
H1 H 0.6667 0.3333 -0.0239
C2 C 0.6667 0.3333 -0.08511(5)
H2 H 0.6667 0.3333 -0.1022
C3 C 0.65757(6) 0.37598(6) -0.05090(3)
C4 C 0.65759(7) 0.37688(7) -0.07498(3)
C5 C 0.65172(7) 0.41391(7) -0.08687(3)
H3 H 0.6526 0.4145 -0.1031
C6 C 0.64451(8) 0.45076(8) -0.07475(3)
H4 H 0.6423 0.4779 -0.0828
C7 C 0.64051(7) 0.44847(7) -0.05118(3)
C8 C 0.64780(7) 0.41207(6) -0.03886(3)
H5 H 0.6462 0.4114 -0.0226
N1 N 0.62968(6) 0.48621(6) -0.04070(3)
C9 C 0.60267(8) 0.47423(8) -0.02206(3)
H6 H 0.5894 0.4398 -0.0158
C10 C 0.59174(8) 0.51214(8) -0.01009(3)
C11 C 0.60777(8) 0.56143(8) -0.01994(3)
H7 H 0.6254 0.5695 -0.0343
C12 C 0.59861(9) 0.60000(8) -0.00930(4)
C13 C 0.61674(11) 0.65429(9) -0.01895(4)
C14 C 0.65186(11) 0.66447(10) -0.04016(4)
H8 H 0.6313 0.6386 -0.0521
H9 H 0.6825 0.6609 -0.0360
H10 H 0.6641 0.7004 -0.0459
C15 C 0.64987(16) 0.69640(10) -0.00077(5)
H11 H 0.6601 0.7317 -0.0067
H12 H 0.6817 0.6945 0.0027
H13 H 0.6287 0.6897 0.0131
C16 C 0.56956(13) 0.65908(11) -0.02545(6)
H14 H 0.5520 0.6614 -0.0116
H15 H 0.5448 0.6279 -0.0343
H16 H 0.5811 0.6911 -0.0347
C17 C 0.56909(9) 0.58405(8) 0.01122(3)
H17 H 0.5598 0.6076 0.0184
C18 C 0.55317(8) 0.53530(8) 0.02126(3)
C19 C 0.56512(8) 0.49930(7) 0.01014(3)
O1 O 0.55019(6) 0.45085(5) 0.01977(2)
H18 H 0.5342 0.4479 0.0321
C20 C 0.52664(8) 0.52375(8) 0.04303(3)
H19 H 0.5174 0.5483 0.0491
N2 N 0.51486(6) 0.48173(5) 0.05469(2)
C21 C 0.49116(8) 0.47631(7) 0.07700(3)
C22 C 0.45352(8) 0.49062(8) 0.08089(3)
H20 H 0.4399 0.5015 0.0686
C23 C 0.43556(7) 0.48907(7) 0.10305(3)
H21 H 0.4091 0.4984 0.1058
C24 C 0.45559(7) 0.47423(7) 0.12117(3)
C25 C 0.49372(7) 0.45838(7) 0.11642(3)
C26 C 0.51045(7) 0.45816(7) 0.09465(3)
H22 H 0.5346 0.4460 0.0915
C27 C 0.51259(7) 0.44368(7) 0.13794(3)
H23 H 0.5393 0.4324 0.1350
C28 C 0.46354(7) 0.40216(7) 0.15090(3)
C29 C 0.45457(7) 0.35416(7) 0.15824(3)
H24 H 0.4798 0.3434 0.1552
C30 C 0.40887(7) 0.32097(7) 0.17020(3)
N3 N 0.40200(6) 0.26967(6) 0.17660(3)
C31 C 0.36532(9) 0.23988(8) 0.19019(3)
H25 H 0.3430 0.2517 0.1965
C32 C 0.37227(8) 0.33663(7) 0.17457(3)
H26 H 0.3408 0.3140 0.1828
C33 C 0.38130(7) 0.38525(7) 0.16700(3)
H27 H 0.3561 0.3960 0.1702
C34 C 0.42645(7) 0.41833(7) 0.15485(3)
C35 C 0.44335(6) 0.47383(7) 0.14588(3)
H28 H 0.4168 0.4853 0.1490
C36 C 0.49728(7) 0.50915(7) 0.15763(3)
C37 C 0.51098(7) 0.55362(7) 0.17084(3)
H29 H 0.4867 0.5660 0.1729
C38 C 0.56059(7) 0.57981(7) 0.18099(3)
H30 H 0.5697 0.6094 0.1906
C39 C 0.59771(7) 0.56301(7) 0.17723(3)
C40 C 0.58397(7) 0.51992(8) 0.16331(3)
H31 H 0.6086 0.5083 0.1605
C41 C 0.53355(7) 0.49327(7) 0.15332(3)
N4 N 0.64672(6) 0.59213(6) 0.18876(2)
C42 C 0.68669(8) 0.59200(8) 0.18125(3)
H32 H 0.6831 0.5716 0.1680
C43 C 0.73959(7) 0.62230(8) 0.19209(3)
C44 C 0.77991(7) 0.61239(8) 0.18608(3)
O2 O 0.76952(5) 0.57321(5) 0.17093(2)
H33 H 0.7970 0.5713 0.1688
C45 C 0.83038(7) 0.64340(8) 0.19643(3)
C46 C 0.83906(8) 0.68203(9) 0.21150(3)
H34 H 0.8733 0.7021 0.2180
C47 C 0.79955(8) 0.69400(9) 0.21795(3)
C48 C 0.81275(10) 0.73809(10) 0.23490(4)
C49 C 0.76363(10) 0.74509(10) 0.23897(4)
H35 H 0.7739 0.7763 0.2485
H36 H 0.7357 0.7136 0.2467
H37 H 0.7504 0.7497 0.2243
C50 C 0.85627(11) 0.78879(11) 0.22668(5)
H38 H 0.8894 0.7878 0.2269
H39 H 0.8598 0.8174 0.2366
H40 H 0.8487 0.7951 0.2110
C51 C 0.82563(13) 0.72234(14) 0.25840(4)
H41 H 0.8516 0.7107 0.2563
H42 H 0.7931 0.6934 0.2651
H43 H 0.8403 0.7530 0.2687
C52 C 0.74982(8) 0.66246(9) 0.20801(3)
H44 H 0.7217 0.6684 0.2122
C3A C 0.62402 0.28159 -0.0509
C3B C 0.71841 0.34243 -0.0509
C4A C 0.62312 0.28071 -0.07498
C4B C 0.71929 0.34241 -0.07498
C5A C 0.58609 0.23781 -0.08687
C5B C 0.76219 0.34828 -0.08687
H3A H 0.5855 0.2381 -0.1031
H3B H 0.7619 0.3474 -0.1031
C6A C 0.54924 0.19375 -0.07475
C6B C 0.80625 0.35549 -0.07475
H4A H 0.5221 0.1644 -0.0828
H4B H 0.8356 0.3577 -0.0828
C7A C 0.55153 0.19204 -0.05118
C7B C 0.80796 0.35949 -0.05118
C8A C 0.58793 0.23573 -0.03886
C8B C 0.76427 0.3522 -0.03886
H5A H 0.5886 0.2348 -0.0226
H5B H 0.7652 0.3538 -0.0226
N1A N 0.51379 0.14347 -0.0407
N1B N 0.85653 0.37032 -0.0407
C9A C 0.52577 0.12844 -0.02206
C9B C 0.87156 0.39733 -0.02206
H6A H 0.5602 0.1496 -0.0158
H6B H 0.8504 0.4106 -0.0158
C10A C 0.48786 0.0796 -0.01009
C10B C 0.9204 0.40826 -0.01009
C11A C 0.43857 0.04634 -0.01994
C11B C 0.95366 0.39223 -0.01994
H7A H 0.4305 0.0559 -0.0343
H7B H 0.9441 0.3746 -0.0343
C12A C 0.4 -0.00139 -0.0093
C12B C 1.00139 0.40139 -0.0093
C13A C 0.34571 -0.03755 -0.01895
C13B C 1.03755 0.38326 -0.01895
C14A C 0.33553 -0.01261 -0.04016
C14B C 1.01261 0.34814 -0.04016
H8A H 0.3614 -0.0073 -0.0521
H8B H 1.0073 0.3687 -0.0521
H9A H 0.3391 0.0216 -0.036
H9B H 0.9784 0.3175 -0.036
H10A H 0.2996 -0.0363 -0.0459
H10B H 1.0363 0.3359 -0.0459
C15A C 0.3036 -0.04653 -0.00077
C15B C 1.04653 0.35013 -0.00077
H11A H 0.2683 -0.0716 -0.0067
H11B H 1.0716 0.3399 -0.0067
H12A H 0.3055 -0.0128 0.0027
H12B H 1.0128 0.3183 0.0027
H13A H 0.3103 -0.061 0.0131
H13B H 1.061 0.3713 0.0131
C16A C 0.34092 -0.08952 -0.02545
C16B C 1.08952 0.43044 -0.02545
H14A H 0.3386 -0.1094 -0.0116
H14B H 1.1094 0.448 -0.0116
H15A H 0.3721 -0.0831 -0.0343
H15B H 1.0831 0.4552 -0.0343
H16A H 0.3089 -0.11 -0.0347
H16B H 1.11 0.4189 -0.0347
C17A C 0.41595 -0.01496 0.01122
C17B C 1.01496 0.43091 0.01122
H17A H 0.3924 -0.0478 0.0184
H17B H 1.0478 0.4402 0.0184
C18A C 0.4647 0.01787 0.02126
C18B C 0.98213 0.44683 0.02126
C19A C 0.5007 0.06582 0.01014
C19B C 0.93418 0.43488 0.01014
O1A O 0.54915 0.09934 0.01977
O1B O 0.90066 0.44981 0.01977
H18A H 0.5521 0.0863 0.0321
H18B H 0.9137 0.4658 0.0321
C20A C 0.47625 0.00289 0.04303
C20B C 0.99711 0.47336 0.04303
H19A H 0.4517 -0.0309 0.0491
H19B H 1.0309 0.4826 0.0491
N2A N 0.51827 0.03313 0.05469
N2B N 0.96687 0.48514 0.05469
C21A C 0.52369 0.01485 0.077
C21B C 0.98515 0.50884 0.077
C22A C 0.50938 -0.0371 0.08089
C22B C 1.0371 0.54648 0.08089
H20A H 0.4985 -0.0616 0.0686
H20B H 1.0616 0.5601 0.0686
C23A C 0.51093 -0.05351 0.10305
C23B C 1.05351 0.56444 0.10305
H21A H 0.5016 -0.0893 0.1058
H21B H 1.0893 0.5909 0.1058
C24A C 0.52577 -0.01864 0.12117
C24B C 1.01864 0.54441 0.12117
C25A C 0.54162 0.03534 0.11642
C25B C 0.96466 0.50628 0.11642
C26A C 0.54184 0.05229 0.09465
C26B C 0.94771 0.48955 0.09465
H22A H 0.554 0.0886 0.0915
H22B H 0.9114 0.4654 0.0915
C27A C 0.55632 0.06891 0.13794
C27B C 0.93109 0.48741 0.13794
H23A H 0.5676 0.1069 0.135
H23B H 0.8931 0.4607 0.135
C28A C 0.59784 0.06138 0.1509
C28B C 0.93862 0.53646 0.1509
C29A C 0.64584 0.10041 0.15824
C29B C 0.89959 0.54543 0.15824
H24A H 0.6566 0.1364 0.1552
H24B H 0.8636 0.5202 0.1552
C30A C 0.67903 0.0879 0.1702
C30B C 0.9121 0.59113 0.1702
N3A N 0.73033 0.13233 0.1766
N3B N 0.86767 0.598 0.1766
C31A C 0.76012 0.12544 0.19019
C31B C 0.87456 0.63468 0.19019
H25A H 0.7483 0.0913 0.1965
H25B H 0.9087 0.657 0.1965
C32A C 0.66337 0.03564 0.17457
C32B C 0.96436 0.62773 0.17457
H26A H 0.686 0.0268 0.1828
H26B H 0.9732 0.6592 0.1828
C33A C 0.61475 -0.00395 0.167
C33B C 1.00395 0.6187 0.167
H27A H 0.604 -0.0399 0.1702
H27B H 1.0399 0.6439 0.1702
C34A C 0.58167 0.00812 0.15485
C34B C 0.99188 0.57355 0.15485
C35A C 0.52617 -0.03048 0.14588
C35B C 1.03048 0.55665 0.14588
H28A H 0.5147 -0.0685 0.149
H28B H 1.0685 0.5832 0.149
C36A C 0.49085 -0.01187 0.15763
C36B C 1.01187 0.50272 0.15763
C37A C 0.44638 -0.04264 0.17084
C37B C 1.04264 0.48902 0.17084
H29A H 0.434 -0.0793 0.1729
H29B H 1.0793 0.5133 0.1729
C38A C 0.42019 -0.01922 0.18099
C38B C 1.01922 0.43941 0.18099
H30A H 0.3906 -0.0397 0.1906
H30B H 1.0397 0.4303 0.1906
C39A C 0.43699 0.0347 0.17723
C39B C 0.9653 0.40229 0.17723
C40A C 0.48008 0.06405 0.16331
C40B C 0.93595 0.41603 0.16331
H31A H 0.4917 0.1003 0.1605
H31B H 0.8997 0.3914 0.1605
C41A C 0.50673 0.04028 0.15332
C41B C 0.95972 0.46645 0.15332
N4A N 0.40787 0.05459 0.18876
N4B N 0.94541 0.35328 0.18876
C42A C 0.408 0.09469 0.18125
C42B C 0.90531 0.31331 0.18125
H32A H 0.4284 0.1115 0.168
H32B H 0.8885 0.3169 0.168
C43A C 0.3777 0.11729 0.19209
C43B C 0.88271 0.26041 0.19209
C44A C 0.38761 0.16752 0.18608
C44B C 0.83248 0.22009 0.18608
O2A O 0.42679 0.19631 0.17093
O2B O 0.80369 0.23048 0.17093
H33A H 0.4287 0.2257 0.1688
H33B H 0.7743 0.203 0.1688
C45A C 0.3566 0.18698 0.19643
C45B C 0.81302 0.16962 0.19643
C46A C 0.31797 0.15703 0.2115
C46B C 0.84297 0.16094 0.2115
H34A H 0.2979 0.1712 0.218
H34B H 0.8288 0.1267 0.218
C47A C 0.306 0.10555 0.21795
C47B C 0.89445 0.20045 0.21795
C48A C 0.26191 0.07466 0.2349
C48B C 0.92534 0.18725 0.2349
C49A C 0.25491 0.01854 0.23897
C49B C 0.98146 0.23637 0.23897
H35A H 0.2237 -0.0024 0.2485
H35B H 1.0024 0.2261 0.2485
H36A H 0.2864 0.0221 0.2467
H36B H 0.9779 0.2643 0.2467
H37A H 0.2503 0.0007 0.2243
H37B H 0.9993 0.2496 0.2243
C50A C 0.21121 0.06748 0.22668
C50B C 0.93252 0.14373 0.22668
H38A H 0.2122 0.1016 0.2269
H38B H 0.8984 0.1106 0.2269
H39A H 0.1826 0.0424 0.2366
H39B H 0.9576 0.1402 0.2366
H40A H 0.2049 0.0536 0.211
H40B H 0.9464 0.1513 0.211
C51A C 0.27766 0.10329 0.2584
C51B C 0.89671 0.17437 0.2584
H41A H 0.2893 0.1409 0.2563
H41B H 0.8591 0.1484 0.2563
H42A H 0.3066 0.0997 0.2651
H42B H 0.9003 0.2069 0.2651
H43A H 0.247 0.0873 0.2687
H43B H 0.9127 0.1597 0.2687
C52A C 0.33754 0.08736 0.20801
C52B C 0.91264 0.25018 0.20801
H44A H 0.3316 0.0533 0.2122
H44B H 0.9467 0.2783 0.2122

#END

