
#######################################################################
#
#                 Cambridge Crystallographic Data Centre
#                                CCDC 
#
#######################################################################
#
# If this CIF has been generated directly or indirectly from an entry in the 
# Cambridge Structural Database, then it will include bibliographic, chemical, 
# crystal, experimental, refinement or atomic coordinate data resulting from 
# the CCDC's data processing and validation procedures. Files generated from 
# CSD entries are Copyright 2016 Cambridge Crystallographic Data Centre. They 
# may be used in bona fide research applications only, and may not be copied or 
# further disseminated in any form, whether machine-readable or not, except for 
# the purposes of generating routine backup copies on your local computer 
# system.
# 
# Files arising from any other source may also contain material that is the 
# copyright of third parties, including the originator, and you should check 
# with the originator concerning the permitted uses of the information 
# contained in this CIF.
#
# For further information on the CCDC and the free tools enCIFer and Mercury
# for validating and visualising CIF files, please visit www.ccdc.cam.ac.uk
#
#######################################################################

data_EQEXOP
_audit_creation_date             2016-06-27
_database_code_depnum_ccdc_archive 'CCDC 1475473'
_chemical_formula_moiety         'C110 H60 N2 O2'
_chemical_name_systematic        
'1,28-bis(4-methoxyphenyl)-83,84-diazatetradecacyclo[26.26.26.2^2,5^.2^24,27^.2^29,32^.2^51,54^.2^55,58^.2^77,80^.1^8,12^.1^17,21^.1^35,39^.1^44,48^.1^61,65^.1^70,74^]octanonaconta-2,4,8(96),9,11,17(95),18,20,24,26,29,31,35(90),36,38,44(89),45,47,51,53,55,57,61(84),62,64,70(83),71,73,77,79,81,85,87,91,93,97-hexatriacontaene-6,13,15,22,33,40,42,49,59,66,68,75-dodecayne unknown solvate'
_journal_coden_Cambridge         182
_journal_volume                  52
_journal_year                    2016
_journal_page_first              8850
_journal_name_full               Chem.Commun.
loop_
_publ_author_name
A.Burgun
P.Valente
J.D.Evans
D.M.Huang
C.J.Sumby
C.J.Doonan
_chemical_absolute_configuration unk
_diffrn_ambient_temperature      100
_exptl_crystal_density_meas      0.826
_exptl_crystal_density_diffrn    0.826
#These two values have been output from a single CSD field.
_refine_ls_R_factor_gt           0.0942
_refine_ls_wR_factor_gt          0.0942
_diffrn_radiation_probe          x-ray
_diffrn_source                   synchrotron
_symmetry_cell_setting           orthorhombic
_symmetry_space_group_name_H-M   'P b c n'
_symmetry_Int_Tables_number      60
loop_
_symmetry_equiv_pos_site_id
_symmetry_equiv_pos_as_xyz
1 x,y,z
2 1/2-x,1/2-y,1/2+z
3 1/2+x,1/2-y,-z
4 -x,y,1/2-z
5 -x,-y,-z
6 1/2+x,1/2+y,1/2-z
7 1/2-x,1/2+y,z
8 x,-y,1/2+z
_cell_length_a                   31.580(6)
_cell_length_b                   18.296(4)
_cell_length_c                   20.075(4)
_cell_angle_alpha                90
_cell_angle_beta                 90
_cell_angle_gamma                90
_cell_volume                     11599.1
_exptl_crystal_colour            colorless
_exptl_crystal_description       plate
_cell_formula_units_Z            4
loop_
_atom_site_label
_atom_site_type_symbol
_atom_site_fract_x
_atom_site_fract_y
_atom_site_fract_z
C1 C 0.75486(17) 0.3434(2) 0.4007(2)
H1 H 0.7743 0.3689 0.3706
H2 H 0.7695 0.3316 0.4423
H3 H 0.7305 0.3750 0.4103
O1 O 0.74073(17) 0.27866(17) 0.37038(17)
C2 C 0.72299(19) 0.2829(2) 0.3084(2)
C3 C 0.7095(3) 0.2173(3) 0.2819(3)
H4 H 0.7121 0.1737 0.3072
C4 C 0.6923(3) 0.2146(2) 0.2190(3)
H5 H 0.6850 0.1685 0.2004
C5 C 0.68544(11) 0.27619(17) 0.18282(16)
C6 C 0.69585(10) 0.34021(17) 0.21329(15)
H6 H 0.6894 0.3845 0.1909
C7 C 0.71525(11) 0.34462(18) 0.27492(16)
H7 H 0.7229 0.3907 0.2931
C8 C 0.66335(10) 0.27599(16) 0.11450(15)
C9 C 0.65375(11) 0.19838(16) 0.08864(15)
C10 C 0.68773(11) 0.15309(18) 0.07256(19)
H8 H 0.7157 0.1693 0.0817
C11 C 0.68188(11) 0.08587(17) 0.04400(18)
H9 H 0.7058 0.0565 0.0338
C12 C 0.64220(12) 0.06036(17) 0.02992(19)
C13 C 0.60838(13) 0.1043(2) 0.0452(3)
H10 H 0.5805 0.0877 0.0362
C14 C 0.61440(12) 0.1732(2) 0.0738(2)
H11 H 0.5905 0.2030 0.0830
C15 C 0.63592(12) -0.0095(2) -0.0014(2)
C16 C 0.63080(12) -0.0676(2) -0.0280(2)
C17 C 0.62136(14) -0.13394(19) -0.0626(2)
C18 C 0.64270(16) -0.1982(2) -0.0505(3)
H12 H 0.6644 -0.1995 -0.0178
C19 C 0.63271(17) -0.2612(2) -0.0856(3)
H13 H 0.6473 -0.3057 -0.0771
C20 C 0.60173(19) -0.2581(2) -0.1325(3)
H14 H 0.5951 -0.3004 -0.1578
C21 C 0.57983(19) -0.1940(2) -0.1436(3)
N1 N 0.59019(14) -0.13090(18) -0.1086(2)
C22 C 0.5459(2) -0.1900(2) -0.1894(3)
C23 C 0.5163(3) -0.1871(2) -0.2276(4)
C24 C 0.62178(11) 0.32064(18) 0.12417(16)
C25 C 0.61196(11) 0.38304(18) 0.0883(2)
H15 H 0.6318 0.4020 0.0573
C26 C 0.57369(12) 0.41788(19) 0.0971(2)
H16 H 0.5678 0.4608 0.0722
C27 C 0.54393(12) 0.3921(2) 0.14105(18)
C28 C 0.55506(14) 0.3326(2) 0.18008(18)
H17 H 0.5358 0.3151 0.2127
C29 C 0.59334(14) 0.2989(2) 0.17227(18)
H18 H 0.6005 0.2594 0.2008
C30 C 0.50211(14) 0.4225(2) 0.14650(19)
C31 C 0.46605(13) 0.4424(2) 0.14775(19)
C32 C 0.42248(12) 0.46247(17) 0.14737(18)
C33 C 0.40207(12) 0.4826(2) 0.20537(19)
H19 H 0.4173 0.4844 0.2461
C34 C 0.35965(12) 0.4999(2) 0.20424(19)
H20 H 0.3456 0.5137 0.2441
C35 C 0.33760(11) 0.4971(2) 0.14454(19)
H21 H 0.3083 0.5088 0.1434
C36 C 0.35838(11) 0.47718(15) 0.08681(16)
C37 C 0.40048(10) 0.46017(15) 0.08685(16)
H22 H 0.4145 0.4471 0.0467
C38 C 0.33512(11) 0.47429(16) 0.02449(18)
C39 C 0.31438(10) 0.47438(16) -0.02500(18)
C40 C 0.69127(10) 0.31003(15) 0.05981(15)
C41 C 0.73144(11) 0.33640(19) 0.07023(16)
H23 H 0.7437 0.3329 0.1133
C42 C 0.75443(11) 0.36805(19) 0.01907(16)
H24 H 0.7822 0.3859 0.0276
C43 C 0.73765(11) 0.37402(17) -0.04396(15)
C44 C 0.69811(12) 0.34437(17) -0.05573(17)
H25 H 0.6864 0.3461 -0.0993
C45 C 0.67551(12) 0.31243(17) -0.00512(16)
H26 H 0.6486 0.2915 -0.0145
C46 C 0.75845(11) 0.4118(2) -0.09637(18)
C47 C 0.77190(12) 0.4441(2) -0.14392(19)
C48 C 0.78300(12) 0.47644(19) -0.20628(17)
C49 C 0.81964(15) 0.5161(3) -0.2156(2)
H27 H 0.8389 0.5228 -0.1798
C50 C 0.82823(16) 0.5461(3) -0.2775(2)
H28 H 0.8534 0.5735 -0.2841
C51 C 0.80082(13) 0.5364(2) -0.3284(2)
H29 H 0.8068 0.5571 -0.3708
C52 C 0.76382(10) 0.49606(18) -0.31901(17)
C53 C 0.75557(9) 0.46630(15) -0.25810(15)
H30 H 0.7306 0.4383 -0.2517
C54 C 0.73447(11) 0.48519(17) -0.37259(18)
C55 C 0.71066(11) 0.47837(16) -0.41925(18)
C1C C 0.24514 0.3434 -0.9007
H1C H 0.2257 0.3689 -0.8706
H2C H 0.2305 0.3316 -0.9423
H3C H 0.2695 0.375 -0.9103
O1C O 0.25927 0.27866 -0.87038
C2C C 0.27701 0.2829 -0.8084
C3C C 0.2905 0.2173 -0.7819
H4C H 0.2879 0.1737 -0.8072
C4C C 0.3077 0.2146 -0.719
H5C H 0.315 0.1685 -0.7004
C5C C 0.31456 0.27619 -0.68282
C6C C 0.30415 0.34021 -0.71329
H6C H 0.3106 0.3845 -0.6909
C7C C 0.28475 0.34462 -0.77492
H7C H 0.2771 0.3907 -0.7931
C8C C 0.33665 0.27599 -0.6145
C9C C 0.34625 0.19838 -0.58864
C10C C 0.31227 0.15309 -0.57256
H8C H 0.2843 0.1693 -0.5817
C11C C 0.31812 0.08587 -0.544
H9C H 0.2942 0.0565 -0.5338
C12C C 0.3578 0.06036 -0.52992
C13C C 0.39162 0.1043 -0.5452
H10C H 0.4195 0.0877 -0.5362
C14C C 0.3856 0.1732 -0.5738
H11C H 0.4095 0.203 -0.583
C15C C 0.36408 -0.0095 -0.4986
C16C C 0.3692 -0.0676 -0.472
C17C C 0.37864 -0.13394 -0.4374
C18C C 0.3573 -0.1982 -0.4495
H12C H 0.3356 -0.1995 -0.4822
C19C C 0.36729 -0.2612 -0.4144
H13C H 0.3527 -0.3057 -0.4229
C20C C 0.39827 -0.2581 -0.3675
H14C H 0.4049 -0.3004 -0.3422
C21C C 0.42017 -0.194 -0.3564
N1C N 0.40981 -0.1309 -0.3914
C22C C 0.4541 -0.19 -0.3106
C23C C 0.4837 -0.1871 -0.2724
C24C C 0.37822 0.32064 -0.62417
C25C C 0.38804 0.38304 -0.5883
H15C H 0.3682 0.402 -0.5573
C26C C 0.42631 0.41788 -0.5971
H16C H 0.4322 0.4608 -0.5722
C27C C 0.45607 0.3921 -0.64105
C28C C 0.44494 0.3326 -0.68008
H17C H 0.4642 0.3151 -0.7127
C29C C 0.40666 0.2989 -0.67227
H18C H 0.3995 0.2594 -0.7008
C30C C 0.49789 0.4225 -0.6465
C31C C 0.53395 0.4424 -0.64775
C32C C 0.57752 0.46247 -0.64737
C33C C 0.59793 0.4826 -0.70537
H19C H 0.5827 0.4844 -0.7461
C34C C 0.64035 0.4999 -0.70424
H20C H 0.6544 0.5137 -0.7441
C35C C 0.6624 0.4971 -0.64454
H21C H 0.6917 0.5088 -0.6434
C36C C 0.64162 0.47718 -0.58681
C37C C 0.59952 0.46017 -0.58685
H22C H 0.5855 0.4471 -0.5467
C38C C 0.66488 0.47429 -0.52449
C39C C 0.68562 0.47438 -0.475
C40C C 0.30873 0.31003 -0.55981
C41C C 0.26856 0.3364 -0.57023
H23C H 0.2563 0.3329 -0.6133
C42C C 0.24557 0.36805 -0.51907
H24C H 0.2178 0.3859 -0.5276
C43C C 0.26235 0.37402 -0.45604
C44C C 0.30189 0.34437 -0.44427
H25C H 0.3136 0.3461 -0.4007
C45C C 0.32449 0.31243 -0.49488
H26C H 0.3514 0.2915 -0.4855
C46C C 0.24155 0.4118 -0.40363
C47C C 0.2281 0.4441 -0.35608
C48C C 0.217 0.47644 -0.29372
C49C C 0.18036 0.5161 -0.2844
H27C H 0.1611 0.5228 -0.3202
C50C C 0.17177 0.5461 -0.2225
H28C H 0.1466 0.5735 -0.2159
C51C C 0.19918 0.5364 -0.1716
H29C H 0.1932 0.5571 -0.1292
C52C C 0.23618 0.49606 -0.18099
C53C C 0.24443 0.4663 -0.2419
H30C H 0.2694 0.4383 -0.2483
C54C C 0.26553 0.48519 -0.12741
C55C C 0.28934 0.47837 -0.08075
N2? N 0.40048(10) 0.46017(15) 0.08685(16)
N3? N 0.75557(9) 0.46630(15) -0.25810(15)
C56? C 0.59019(14) -0.13090(18) -0.1086(2)
H31? H 0.5756 -0.0864 -0.1169

#END

