
#######################################################################
#
#                 Cambridge Crystallographic Data Centre
#                                CCDC 
#
#######################################################################
#
# If this CIF has been generated directly or indirectly from an entry in the 
# Cambridge Structural Database, then it will include bibliographic, chemical, 
# crystal, experimental, refinement or atomic coordinate data resulting from 
# the CCDC's data processing and validation procedures. Files generated from 
# CSD entries are Copyright 2016 Cambridge Crystallographic Data Centre. They 
# may be used in bona fide research applications only, and may not be copied or 
# further disseminated in any form, whether machine-readable or not, except for 
# the purposes of generating routine backup copies on your local computer 
# system.
# 
# Files arising from any other source may also contain material that is the 
# copyright of third parties, including the originator, and you should check 
# with the originator concerning the permitted uses of the information 
# contained in this CIF.
#
# For further information on the CCDC and the free tools enCIFer and Mercury
# for validating and visualising CIF files, please visit www.ccdc.cam.ac.uk
#
#######################################################################

data_EQEMEU
_audit_creation_date             2016-06-27
_database_code_depnum_ccdc_archive 'CCDC 1471615'
_chemical_formula_moiety         'C60 H60 N6 O8 P2'
_chemical_name_systematic        
'2,21,23,42,43,62-hexaoxa-8,15,29,36,49,56-hexaaza-1,22-diphosphaundecacyclo[20.20.20.2^3,6^.2^17,20^.2^24,27^.2^38,41^.2^44,47^.2^58,61^.0^9,14^.0^30,35^.0^50,55^]tetraheptaconta-3,5,7,15,17,19,24,26,28,36,38,40,44,46,48,56,58,60,63,65,67,69,71,73-tetracosaene 1,22-dioxide unknown solvate'
_journal_coden_Cambridge         182
_journal_volume                  52
_journal_year                    2016
_journal_page_first              9267
_journal_name_full               Chem.Commun.
loop_
_publ_author_name
'Genfeng Feng'
'Wei Liu'
'Yuxin Peng'
'Bo Zhao'
'Wei Huang'
'Yafei Dai'
_chemical_absolute_configuration unk
_diffrn_ambient_temperature      291
_exptl_crystal_density_meas      1.001
_exptl_crystal_density_diffrn    1.001
#These two values have been output from a single CSD field.
_refine_ls_R_factor_gt           0.0989
_refine_ls_wR_factor_gt          0.0989
_diffrn_radiation_probe          x-ray
_symmetry_cell_setting           cubic
_symmetry_space_group_name_H-M   'P 21 3'
_symmetry_Int_Tables_number      198
loop_
_symmetry_equiv_pos_site_id
_symmetry_equiv_pos_as_xyz
1 x,y,z
2 1/2-x,-y,1/2+z
3 -x,1/2+y,1/2-z
4 1/2+x,1/2-y,-z
5 z,x,y
6 1/2+z,1/2-x,-y
7 1/2-z,-x,1/2+y
8 -z,1/2+x,1/2-y
9 y,z,x
10 -y,1/2+z,1/2-x
11 1/2+y,1/2-z,-x
12 1/2-y,-z,1/2+x
_cell_length_a                   19.1327(11)
_cell_length_b                   19.1327(11)
_cell_length_c                   19.1327(11)
_cell_angle_alpha                90
_cell_angle_beta                 90
_cell_angle_gamma                90
_cell_volume                     7003.72
_exptl_crystal_colour            colorless
_exptl_crystal_description       block
_cell_formula_units_Z            4
loop_
_atom_site_label
_atom_site_type_symbol
_atom_site_fract_x
_atom_site_fract_y
_atom_site_fract_z
C1 C 0.1920(4) 0.3988(4) 0.4095(4)
H1 H 0.1654 0.4364 0.4319
C2 C 0.1638(4) 0.3305(4) 0.4393(4)
H2 H 0.1905 0.2924 0.4177
C3 C 0.1757(4) 0.3260(5) 0.5171(4)
H3 H 0.1629 0.2798 0.5336
H4 H 0.1462 0.3599 0.5407
C4 C 0.2548(4) 0.3408(6) 0.5356(5)
H5 H 0.2599 0.3436 0.5859
H6 H 0.2832 0.3020 0.5193
C5 C 0.2798(5) 0.4030(6) 0.5056(4)
H7 H 0.3297 0.4059 0.5141
H8 H 0.2580 0.4421 0.5294
C6 C 0.2673(3) 0.4114(4) 0.4273(4)
H9 H 0.2805 0.4582 0.4130
H10 H 0.2964 0.3785 0.4020
C7 C 0.1476(4) 0.4523(4) 0.3135(4)
H11 H 0.1337 0.4871 0.3445
C8 C 0.1281(4) 0.4613(4) 0.2363(4)
C9 C 0.1319(4) 0.4060(4) 0.1946(4)
H12 H 0.1484 0.3632 0.2104
C10 C 0.1084(4) 0.4162(5) 0.1214(4)
H13 H 0.1077 0.3792 0.0899
C11 C 0.0886(4) 0.4787(5) 0.1028(4)
C12 C 0.0843(5) 0.5321(5) 0.1464(5)
H14 H 0.0680 0.5751 0.1307
C13 C 0.1036(5) 0.5242(6) 0.2141(6)
H15 H 0.1002 0.5615 0.2451
C14 C 0.0798(4) 0.2779(4) 0.3717(4)
H16 H 0.1172 0.2576 0.3481
C15 C 0.0073(4) 0.2600(3) 0.3488(4)
C16 C -0.0014(4) 0.2261(4) 0.2861(5)
H17 H 0.0374 0.2131 0.2598
C17 C -0.0661(5) 0.2119(5) 0.2627(5)
H18 H -0.0720 0.1891 0.2202
C18 C -0.1219(4) 0.2302(4) 0.3002(4)
C19 C -0.1152(5) 0.2624(4) 0.3605(4)
H19 H -0.1546 0.2751 0.3860
C20 C -0.0489(4) 0.2773(5) 0.3857(4)
H20 H -0.0438 0.2995 0.4286
N1 N 0.1789(3) 0.4044(3) 0.3364(3)
N2 N 0.0929(3) 0.3198(3) 0.4221(3)
O1 O -0.0578(2) 0.4422(2) 0.0578(2)
O2 O 0.0654(2) 0.4866(3) 0.0308(2)
O3 O -0.1900(2) 0.2143(2) 0.2733(3)
O4 O -0.1865(2) 0.3135(2) 0.1865(2)
P1 P -0.01313(9) 0.48687(9) 0.01313(9)
P2 P -0.22984(8) 0.27016(8) 0.22984(8)
C1G C -0.4095 0.692 0.1012
H1G H -0.4319 0.6654 0.0636
C2G C -0.4393 0.6638 0.1695
H2G H -0.4177 0.6905 0.2076
C3G C -0.5171 0.6757 0.174
H3G H -0.5336 0.6629 0.2202
H4G H -0.5407 0.6462 0.1401
C4G C -0.5356 0.7548 0.1592
H5G H -0.5859 0.7599 0.1564
H6G H -0.5193 0.7832 0.198
C5G C -0.5056 0.7798 0.097
H7G H -0.5141 0.8297 0.0941
H8G H -0.5294 0.758 0.0579
C6G C -0.4273 0.7673 0.0886
H9G H -0.413 0.7805 0.0418
H10G H -0.402 0.7964 0.1215
C7G C -0.3135 0.6476 0.0477
H11G H -0.3445 0.6337 0.0129
C8G C -0.2363 0.6281 0.0387
C9G C -0.1946 0.6319 0.094
H12G H -0.2104 0.6484 0.1368
C10G C -0.1214 0.6084 0.0838
H13G H -0.0899 0.6077 0.1208
C11G C -0.1028 0.5886 0.0213
C12G C -0.1464 0.5843 -0.0321
H14G H -0.1307 0.568 -0.0751
C13G C -0.2141 0.6036 -0.0242
H15G H -0.2451 0.6002 -0.0615
C14G C -0.3717 0.5798 0.2221
H16G H -0.3481 0.6172 0.2424
C15G C -0.3488 0.5073 0.24
C16G C -0.2861 0.4986 0.2739
H17G H -0.2598 0.5374 0.2869
C17G C -0.2627 0.4339 0.2881
H18G H -0.2202 0.428 0.3109
C18G C -0.3002 0.3781 0.2698
C19G C -0.3605 0.3848 0.2376
H19G H -0.386 0.3454 0.2249
C20G C -0.3857 0.4511 0.2227
H20G H -0.4286 0.4562 0.2005
N1G N -0.3364 0.6789 0.0956
N2G N -0.4221 0.5929 0.1802
O2G O -0.0308 0.5654 0.0134
O3G O -0.2733 0.31 0.2857
C1J C -0.1012 0.0905 -0.192
H1J H -0.0636 0.0681 -0.1654
C2J C -0.1695 0.0607 -0.1638
H2J H -0.2076 0.0823 -0.1905
C3J C -0.174 -0.0171 -0.1757
H3J H -0.2202 -0.0336 -0.1629
H4J H -0.1401 -0.0407 -0.1462
C4J C -0.1592 -0.0356 -0.2548
H5J H -0.1564 -0.0859 -0.2599
H6J H -0.198 -0.0193 -0.2832
C5J C -0.097 -0.0056 -0.2798
H7J H -0.0941 -0.0141 -0.3297
H8J H -0.0579 -0.0294 -0.258
C6J C -0.0886 0.0727 -0.2673
H9J H -0.0418 0.087 -0.2805
H10J H -0.1215 0.098 -0.2964
C7J C -0.0477 0.1865 -0.1476
H11J H -0.0129 0.1555 -0.1337
C8J C -0.0387 0.2637 -0.1281
C9J C -0.094 0.3054 -0.1319
H12J H -0.1368 0.2896 -0.1484
C10J C -0.0838 0.3786 -0.1084
H13J H -0.1208 0.4101 -0.1077
C11J C -0.0213 0.3972 -0.0886
C12J C 0.0321 0.3536 -0.0843
H14J H 0.0751 0.3693 -0.068
C13J C 0.0242 0.2859 -0.1036
H15J H 0.0615 0.2549 -0.1002
C14J C -0.2221 0.1283 -0.0798
H16J H -0.2424 0.1519 -0.1172
C15J C -0.24 0.1512 -0.0073
C16J C -0.2739 0.2139 0.0014
H17J H -0.2869 0.2402 -0.0374
C17J C -0.2881 0.2373 0.0661
H18J H -0.3109 0.2798 0.072
C18J C -0.2698 0.1998 0.1219
C19J C -0.2376 0.1395 0.1152
H19J H -0.2249 0.114 0.1546
C20J C -0.2227 0.1143 0.0489
H20J H -0.2005 0.0714 0.0438
N1J N -0.0956 0.1636 -0.1789
N2J N -0.1802 0.0779 -0.0929
O2J O -0.0134 0.4692 -0.0654
O3J O -0.2857 0.2267 0.19

#END

