
#######################################################################
#
#                 Cambridge Crystallographic Data Centre
#                                CCDC 
#
#######################################################################
#
# If this CIF has been generated directly or indirectly from an entry in the 
# Cambridge Structural Database, then it will include bibliographic, chemical, 
# crystal, experimental, refinement or atomic coordinate data resulting from 
# the CCDC's data processing and validation procedures. Files generated from 
# CSD entries are Copyright 2016 Cambridge Crystallographic Data Centre. They 
# may be used in bona fide research applications only, and may not be copied or 
# further disseminated in any form, whether machine-readable or not, except for 
# the purposes of generating routine backup copies on your local computer 
# system.
# 
# Files arising from any other source may also contain material that is the 
# copyright of third parties, including the originator, and you should check 
# with the originator concerning the permitted uses of the information 
# contained in this CIF.
#
# For further information on the CCDC and the free tools enCIFer and Mercury
# for validating and visualising CIF files, please visit www.ccdc.cam.ac.uk
#
#######################################################################

data_IFOLUM
_audit_creation_date             2013-08-07
_database_code_depnum_ccdc_archive 'CCDC 954664'
_chemical_formula_moiety         'C69 H66 N6,3.75(C1 H1 Cl3)'
_chemical_name_systematic        
'2,20,22,40,60,65-Hexamethyl-5,17,25,37,42,54-hexaazadecacyclo[19.19.15.2^7,10^.2^12,15^.2^27,30^.2^32,35^.2^44,47^.2^49,52^.1^3,39^.1^19,23^]nonahexaconta-1,3(60),5,7,9,12,14,16,19(65),20,22,25,27,29,32,34,36,39,42,44,46,49,51,53,56,58,61,63,66,68-triacontaene chloroform solvate'
_journal_coden_Cambridge         4
_journal_volume                  135
_journal_year                    2013
_journal_page_first              554
_journal_name_full               J.Am.Chem.Soc.
loop_
_publ_author_name
K.Acharyya
S.Mukherjee
P.S.Mukherjee
_chemical_absolute_configuration unk
_diffrn_ambient_temperature      150
_exptl_crystal_density_meas      1.348
_exptl_crystal_density_diffrn    1.351
#These two values have been output from a single CSD field.
_refine_ls_R_factor_gt           0.1434
_refine_ls_wR_factor_gt          0.1434
_diffrn_radiation_probe          x-ray
_symmetry_cell_setting           triclinic
_symmetry_space_group_name_H-M   'P -1'
_symmetry_Int_Tables_number      2
loop_
_symmetry_equiv_pos_site_id
_symmetry_equiv_pos_as_xyz
1 x,y,z
2 -x,-y,-z
_cell_length_a                   17.939(4)
_cell_length_b                   20.419(4)
_cell_length_c                   21.475(4)
_cell_angle_alpha                65.46(3)
_cell_angle_beta                 81.08(3)
_cell_angle_gamma                79.92(3)
_cell_volume                     7015.37
_exptl_crystal_colour            colorless
_exptl_crystal_description       rod
_cell_formula_units_Z            4
loop_
_atom_site_label
_atom_site_type_symbol
_atom_site_fract_x
_atom_site_fract_y
_atom_site_fract_z
C1 C 0.7721(6) 0.3017(5) 0.7712(5)
H1 H 0.817(4) 0.2955(8) 0.735(4)
C2 C 0.7423(6) 0.1997(4) 0.6849(4)
H2 H 0.688(5) 0.231(3) 0.6883(5)
C3 C 0.8449(5) 0.3563(4) 0.2553(4)
C4 C 0.6660(5) 0.6374(4) 0.7463(4)
C5 C 1.0878(7) 0.5467(5) 0.3597(6)
H3 H 1.129(4) 0.527(2) 0.397(4)
C6 C 0.4978(5) 0.7083(4) 0.4483(4)
H4 H 0.536(5) 0.727(2) 0.4482(4)
C7 C 0.8615(5) 0.2293(4) 0.3742(4)
C8 C 0.5144(6) 0.5421(5) 0.3573(5)
H5 H 0.5050(12) 0.5343(10) 0.404(5)
C9 C 0.7251(5) 0.2109(4) 0.3811(5)
H6 H 0.717(2) 0.205(3) 0.4291(13)
H7 H 0.7365(15) 0.1630(16) 0.379(3)
H8 H 0.6793(13) 0.2367(17) 0.358(2)
C10 C 0.8887(5) 0.7172(4) 0.5084(4)
C11 C 1.0029(5) 0.6853(5) 0.4164(5)
C12 C 0.9851(5) 0.3683(5) 0.2497(5)
H9 H 1.029(3) 0.332(2) 0.2485(5)
H10 H 0.9763(8) 0.401(2) 0.202(3)
C13 C 0.6331(6) 0.4538(5) 0.2450(5)
H11 H 0.6484(17) 0.4683(17) 0.194(6)
C14 C 0.6790(6) 0.5692(4) 0.8097(4)
H12 H 0.720(2) 0.5765(6) 0.8382(18)
H13 H 0.626(3) 0.5602(7) 0.842(2)
C15 C 0.7532(5) 0.3692(5) 0.7765(4)
H14 H 0.783(3) 0.413(4) 0.743(3)
C16 C 0.9994(9) 0.6369(6) 0.2940(7)
H15 H 0.970(4) 0.687(7) 0.280(2)
C17 C 0.4536(5) 0.7033(4) 0.5666(4)
H16 H 0.415(3) 0.6818(19) 0.612(4)
C18 C 0.6279(5) 0.8373(4) 0.5661(4)
H17 H 0.676(3) 0.8475(19) 0.537(2)
H18 H 0.608(3) 0.878(2) 0.5800(9)
H19 H 0.591(3) 0.8317(13) 0.540(2)
C19 C 0.3797(5) 0.6635(4) 0.5041(4)
H20 H 0.3418(10) 0.6523(5) 0.5430(9)
C20 C 0.8796(6) 0.1167(4) 0.6758(4)
H21 H 0.921(5) 0.090(3) 0.6739(5)
C21 C 0.8699(6) 0.1419(4) 0.5541(4)
H22 H 0.920(5) 0.112(3) 0.5525(5)
C22 C 1.0008(7) 0.4745(6) 0.2556(5)
H23 H 0.9858 0.4954 0.2112
C23 C 0.4241(5) 0.6653(4) 0.3909(4)
C24 C 0.9572(5) 0.6339(5) 0.4605(5)
H24 H 0.9645(9) 0.587(5) 0.4596(5)
C25 C 0.9010(5) 0.6495(4) 0.5060(4)
H25 H 0.8704(8) 0.6131(9) 0.5360(8)
C26 C 0.8322(5) 0.7314(4) 0.5608(4)
H26 H 0.808(3) 0.704(4) 0.582(3)
C27 C 0.7524(6) 0.1700(4) 0.8104(4)
H27 H 0.7069(11) 0.1462(7) 0.8260(6)
H28 H 0.7889(9) 0.1423(7) 0.8434(8)
C28 C 0.9159(5) 0.3304(4) 0.2840(4)
C29 C 0.7332(6) 0.2433(4) 0.8122(4)
C30 C 0.9967(5) 0.2441(5) 0.3774(5)
H29 H 1.024(2) 0.290(3) 0.367(3)
H30 H 1.032(2) 0.210(3) 0.356(3)
H31 H 0.9866(8) 0.216(3) 0.431(3)
C31 C 0.9880(6) 0.7533(5) 0.4190(5)
H32 H 1.021(3) 0.795(4) 0.384(4)
C32 C 0.5075(5) 0.7481(4) 0.6321(4)
H33 H 0.472(3) 0.7230(17) 0.665(2)
H34 H 0.4948(11) 0.796(3) 0.6236(7)
C33 C 0.4137(6) 0.6498(5) 0.3290(5)
H35 H 0.3665(12) 0.6284(7) 0.3385(5)
H36 H 0.4077(6) 0.6960(11) 0.2893(10)
C34 C 1.0690(6) 0.6675(6) 0.3694(6)
H37 H 1.0817(12) 0.712(3) 0.333(3)
H38 H 1.112(3) 0.6456(17) 0.3949(19)
C35 C 0.8389(5) 0.1514(4) 0.6173(4)
C36 C 0.5798(6) 0.5066(4) 0.2673(4)
C37 C 0.7254(5) 0.6812(4) 0.7147(4)
C38 C 1.0522(6) 0.6176(5) 0.3392(5)
C39 C 0.9228(5) 0.2677(4) 0.3457(4)
C40 C 0.9843(8) 0.5923(6) 0.2665(7)
H39 H 0.9487 0.6087 0.2343
C41 C 0.6580(6) 0.3199(5) 0.8649(5)
H40 H 0.626(5) 0.3248(8) 0.891(4)
C42 C 0.8024(5) 0.6564(5) 0.7418(5)
H41 H 0.814(2) 0.610(3) 0.751(3)
H42 H 0.8013(12) 0.664(3) 0.779(3)
H43 H 0.836(2) 0.681(3) 0.711(2)
C43 C 0.3695(5) 0.6513(4) 0.4460(4)
H44 H 0.315(5) 0.6295(18) 0.4447(4)
C44 C 0.6746(6) 0.2533(5) 0.8602(4)
H45 H 0.644(3) 0.211(4) 0.892(3)
C45 C 0.4930(6) 0.6145(6) 0.2401(5)
H46 H 0.465(3) 0.662(5) 0.202(4)
C46 C 0.7086(5) 0.3446(5) 0.2544(4)
H47 H 0.7172(7) 0.3711(17) 0.205(3)
H48 H 0.6825(18) 0.303(3) 0.2632(7)
N1 N 0.8259(4) 0.7892(3) 0.5695(3)
N2 N 0.8322(4) 0.1724(3) 0.4999(3)
N3 N 0.5051(4) 0.7376(3) 0.5685(3)
N4 N 0.6595(4) 0.3935(4) 0.2852(4)
N5 N 0.7073(4) 0.5048(4) 0.7950(3)
N6 N 1.0033(5) 0.4103(5) 0.2858(4)
C47 C 0.7721(5) 0.7979(4) 0.6262(4)
H49 H 0.7443(16) 0.852(3) 0.6076(11)
H50 H 0.8045(19) 0.7915(5) 0.667(2)
C48 C 0.5362(5) 0.6065(4) 0.7446(4)
H51 H 0.508(3) 0.611(2) 0.704(2)
H52 H 0.498(3) 0.620(2) 0.780(3)
H53 H 0.5617(14) 0.554(3) 0.768(3)
C49 C 0.7700(5) 0.1937(4) 0.6229(4)
H54 H 0.739(3) 0.221(3) 0.580(4)
C50 C 0.5680(6) 0.4925(5) 0.3376(5)
H55 H 0.596(3) 0.449(5) 0.373(4)
C51 C 0.4888(5) 0.6948(5) 0.3917(4)
H56 H 0.523(4) 0.7046(13) 0.357(4)
C52 C 0.4444(5) 0.6917(4) 0.5051(4)
C53 C 0.6745(6) 0.4487(4) 0.8313(4)
H57 H 0.630(4) 0.4520(5) 0.867(3)
C54 C 0.7125(5) 0.7480(4) 0.6564(4)
C55 C 1.0716(7) 0.5006(6) 0.3328(5)
H58 H 1.094(3) 0.457(6) 0.346(2)
C56 C 0.5964(5) 0.6578(4) 0.7174(4)
C57 C 1.0208(6) 0.5239(4) 0.2857(4)
C58 C 0.8358(6) 0.4288(5) 0.1937(4)
H59 H 0.882(3) 0.441(2) 0.173(3)
H60 H 0.812(4) 0.463(2) 0.2080(11)
H61 H 0.808(4) 0.4252(12) 0.164(3)
C59 C 0.8681(5) 0.1596(4) 0.4392(4)
H62 H 0.8437(16) 0.123(2) 0.4344(5)
H63 H 0.921(3) 0.1411(13) 0.4450(5)
C60 C 0.4765(6) 0.6008(5) 0.3098(4)
C61 C 0.6975(5) 0.3783(4) 0.8238(4)
C62 C 0.8533(5) 0.1252(4) 0.7368(5)
H64 H 0.882(3) 0.104(2) 0.773(4)
C63 C 0.7837(5) 0.1655(4) 0.7432(4)
C64 C 0.6413(5) 0.7678(4) 0.6297(4)
C65 C 0.9342(5) 0.7696(5) 0.4631(4)
H65 H 0.9277(9) 0.813(5) 0.4634(4)
C66 C 0.5448(6) 0.5678(5) 0.2196(5)
H66 H 0.5564(15) 0.5780(13) 0.172(5)
C67 C 0.7912(5) 0.2538(4) 0.3456(4)
C68 C 0.7838(5) 0.3186(4) 0.2851(4)
C69 C 0.5836(5) 0.7233(4) 0.6590(4)
C70 C 0.4066(5) -0.1800(5) 0.7769(4)
C71 C 0.4743(6) -0.1375(5) 1.2189(4)
H67 H 0.4679 -0.1865 1.2384
C72 C 0.3311(6) -0.3454(5) 0.9266(5)
H68 H 0.280(3) -0.3428(16) 0.956(3)
H69 H 0.376(4) -0.353(2) 0.955(3)
H70 H 0.335(4) -0.389(3) 0.9122(9)
C73 C 0.5306(5) -0.1131(4) 1.1646(4)
C74 C -0.0480(5) -0.0234(5) 1.2271(4)
H71 H -0.072(2) -0.0132(11) 1.267(4)
C75 C 0.5362(6) -0.0386(5) 1.1365(5)
H72 H 0.579(4) -0.017(2) 1.096(4)
C76 C 0.4793(5) -0.1493(5) 0.7512(5)
H73 H 0.517(3) -0.173(3) 0.790(2)
H74 H 0.4697(8) -0.093(3) 0.737(3)
H75 H 0.503(2) -0.160(3) 0.708(3)
C77 C 0.3293(6) 0.1322(4) 0.7088(4)
H76 H 0.358(5) 0.108(4) 0.723(2)
C78 C 0.2420(5) 0.1735(5) 1.2090(4)
C79 C 0.0309(7) -0.1909(6) 0.9906(5)
H77 H 0.0159(8) -0.1813(6) 0.9464(11)
C80 C 0.2413(6) 0.3276(4) 0.7563(4)
C81 C 0.4765(5) -0.2926(5) 0.8620(4)
H78 H 0.4715(6) -0.343(3) 0.8757(10)
H79 H 0.517(3) -0.2805(9) 0.825(2)
C82 C 0.3421(5) -0.0734(4) 0.6834(4)
H80 H 0.383(3) -0.0779(5) 0.659(2)
H81 H 0.305(3) -0.0676(6) 0.6607(18)
C83 C 0.0232(6) 0.2708(5) 1.1305(5)
H82 H 0.0292(10) 0.285(4) 1.083(3)
H83 H 0.004(2) 0.312(4) 1.141(3)
H84 H -0.011(3) 0.236(3) 1.150(3)
C84 C -0.0018(6) -0.1830(5) 1.1004(5)
C85 C 0.1525(11) -0.2443(9) 0.9556(7)
H85 H 0.2039(16) -0.2581(9) 0.9674(8)
C86 C 0.2373(5) 0.2375(5) 1.1492(4)
C87 C -0.0198(8) -0.1676(6) 1.0362(5)
H86 H -0.069(7) -0.140(4) 1.022(2)
C88 C 0.4034(5) -0.2483(4) 0.8337(4)
C89 C 0.0332(6) 0.1441(5) 1.2624(5)
H87 H 0.0412(8) 0.1272(13) 1.304(3)
H88 H -0.002(3) 0.179(3) 1.2561(6)
C90 C 0.3341(5) -0.2739(5) 0.8614(4)
C91 C 0.1652(6) 0.2705(4) 1.1232(4)
C92 C 0.0693(11) -0.2191(9) 1.1161(7)
H89 H 0.081(3) -0.227(2) 1.150(9)
C93 C 0.3097(6) 0.2719(5) 1.1105(5)
H90 H 0.352(3) 0.237(2) 1.122(3)
H91 H 0.315(2) 0.310(3) 1.122(3)
H92 H 0.3064(18) 0.290(3) 1.064(3)
C94 C 0.0968(10) -0.2247(7) 1.0068(6)
C95 C 0.1191(14) -0.2403(13) 1.0710(8)
H93 H 0.176(14) -0.269(7) 1.085(4)
C96 C 0.0306(5) 0.0766(4) 1.1962(4)
H94 H 0.068(4) 0.107(3) 1.163(3)
C97 C 0.2694(5) -0.1679(4) 0.7751(4)
C98 C 0.4339(5) -0.0174(4) 1.2143(4)
C99 C 0.2577(6) 0.2501(5) 0.6854(4)
C100 C -0.0548(7) -0.1589(5) 1.1500(5)
H95 H -0.0568(7) -0.201(3) 1.197(3)
H96 H -0.108(4) -0.1458(10) 1.1339(12)
C101 C 0.2073(6) 0.2325(5) 0.6536(5)
H97 H 0.175(5) 0.259(4) 0.639(2)
C102 C 0.0383(6) 0.0064(5) 1.1244(5)
H98 H 0.069(4) 0.031(3) 1.098(4)
C103 C 0.2484(6) 0.3261(5) 0.6845(4)
H99 H 0.202(3) 0.355(2) 0.6610(17)
H100 H 0.293(3) 0.3510(18) 0.657(2)
C104 C 0.1048(5) 0.1748(4) 1.2198(4)
C105 C 0.3177(5) 0.1433(5) 1.2396(4)
C106 C 0.4628(5) -0.1538(4) 0.9992(4)
H101 H 0.420(4) -0.121(3) 0.972(3)
C107 C 0.1834(5) 0.0668(4) 1.3019(4)
H102 H 0.140(3) 0.047(2) 1.310(2)
H103 H 0.193(4) 0.0714(6) 1.339(2)
H104 H 0.222(3) 0.038(2) 1.2909(16)
C108 C 0.3840(5) 0.0312(4) 1.2420(4)
H105 H 0.3617(19) 0.0094(18) 1.296(4)
C109 C 0.2669(5) -0.2362(4) 0.8323(4)
C110 C 0.2178(6) 0.1655(5) 0.6486(4)
H106 H 0.179(4) 0.1535(12) 0.624(2)
C111 C 0.4282(6) -0.0912(5) 1.2442(5)
H107 H 0.393(4) -0.109(2) 1.281(4)
C112 C 0.2093(6) 0.3524(5) 0.9467(5)
H108 H 0.243(3) 0.389(4) 0.9508(6)
C113 C 0.2703(5) 0.3797(4) 0.8302(4)
H109 H 0.300(3) 0.413(3) 0.8370(8)
N7 N 0.1435(5) -0.2451(7) 0.9081(5)
N8 N 0.1638(5) 0.3209(4) 0.9982(4)
N9 N 0.3659(4) 0.0984(4) 1.2050(3)
N10 N 0.3400(4) -0.0082(4) 0.6975(3)
N11 N 0.5006(4) -0.2843(4) 0.9208(4)
N12 N 0.0050(4) 0.0875(4) 1.2502(3)
C114 C 0.4874(5) 0.0070(4) 1.1604(4)
H110 H 0.4899(6) 0.043(5) 1.145(2)
C115 C 0.2806(5) 0.1137(4) 0.6762(4)
C116 C 0.5803(6) -0.1637(5) 1.1383(5)
H111 H 0.5930(12) -0.208(3) 1.176(3)
H112 H 0.626(4) -0.1434(15) 1.1171(16)
C117 C 0.4691(5) -0.2314(4) 0.9359(4)
H113 H 0.417(4) -0.192(3) 0.905(2)
C118 C 0.2895(5) 0.0442(4) 0.6694(4)
H114 H 0.255(3) 0.0378(8) 0.642(3)
C119 C 0.0052(5) 0.0197(4) 1.1818(4)
C120 C 0.1782(6) 0.2971(5) 0.8701(5)
H115 H 0.149(4) 0.276(3) 0.898(4)
C121 C 0.0169(5) -0.0498(5) 1.1131(4)
H116 H 0.038(2) -0.0573(9) 1.072(4)
C122 C 0.2191(5) 0.3425(4) 0.8826(4)
C123 C -0.0340(5) -0.0952(4) 1.1588(4)
C124 C -0.0669(6) -0.0808(5) 1.2163(5)
H117 H -0.102(4) -0.110(3) 1.248(4)
C125 C 0.3382(5) -0.1424(4) 0.7479(4)
C126 C 0.5515(6) -0.2621(5) 1.0304(4)
H118 H 0.572(2) -0.303(5) 1.0245(8)
C127 C 0.1928(6) -0.2675(6) 0.8581(5)
H119 H 0.166(2) -0.2556(10) 0.821(3)
H120 H 0.2035(9) -0.318(4) 0.8776(14)
C128 C 0.1947(5) -0.1265(5) 0.7474(4)
H121 H 0.155(2) -0.141(3) 0.782(2)
H122 H 0.1865(19) -0.136(3) 0.710(3)
H123 H 0.1965(14) -0.077(3) 0.733(3)
C129 C 0.4914(6) -0.1375(5) 1.0482(4)
H124 H 0.471(2) -0.094(5) 1.0541(7)
C130 C 0.1905(6) 0.2901(5) 0.8079(5)
H125 H 0.158(3) 0.253(4) 0.7995(9)
C131 C 0.3198(7) 0.1984(5) 0.7119(5)
H126 H 0.359(4) 0.2106(14) 0.734(2)
C132 C 0.5776(6) -0.2465(5) 1.0792(4)
H127 H 0.619(4) -0.282(4) 1.110(3)
C133 C 0.1598(6) 0.3381(5) 1.0587(5)
H128 H 0.112(3) 0.368(2) 1.0620(5)
H129 H 0.201(3) 0.366(2) 1.0535(6)
C134 C 0.1760(5) 0.1415(4) 1.2424(4)
C135 C 0.4944(5) -0.2163(4) 0.9899(4)
C136 C 0.2809(6) 0.3718(4) 0.7685(5)
H130 H 0.320(4) 0.400(3) 0.730(4)
C137 C 0.5474(5) -0.1815(5) 1.0870(4)
C138 C 0.0996(5) 0.2383(5) 1.1594(4)
C139 C 0.0803(12) 0.563(3) 0.0485(15)
H131 H 0.0933 0.6118 0.0193
Cl1 Cl 0.1112(3) 0.53678(18) -0.01176(19)
Cl2 Cl -0.0056(2) 0.5958(2) 0.06424(19)
Cl3 Cl 0.1462(2) 0.5527(4) 0.1070(2)
C140 C 0.2944(6) 0.0737(4) 0.0857(4)
H132 H 0.334(4) 0.0925(17) 0.108(2)
Cl4 Cl 0.34919(18) 0.02560(17) 0.03939(14)
Cl5 Cl 0.23708(14) 0.01723(12) 0.15218(12)
Cl6 Cl 0.2389(2) 0.15049(14) 0.03069(16)
C141 C 0.8632(5) 0.9508(4) 0.4865(4)
H133 H 0.8604(5) 0.890(5) 0.5022(13)
Cl7 Cl 0.77120(13) 0.99341(11) 0.49159(11)
Cl8 Cl 0.92017(14) 0.95953(13) 0.54100(11)
Cl9 Cl 0.90721(15) 0.98713(13) 0.40059(11)
C142 C 0.3517(6) 0.4052(5) 0.4492(4)
H134 H 0.396(6) 0.388(2) 0.4398(12)
Cl10 Cl 0.30669(19) 0.45079(16) 0.37284(13)
Cl11 Cl 0.30123(15) 0.33336(14) 0.50583(13)
Cl12 Cl 0.35679(19) 0.46254(15) 0.49034(16)
C143 C 0.4457(5) 0.8966(4) 0.4552(4)
H135 H 0.477(2) 0.838(4) 0.486(2)
Cl13 Cl 0.36031(13) 0.88683(12) 0.43015(11)
Cl14 Cl 0.50727(15) 0.94221(14) 0.38523(12)
Cl15 Cl 0.42303(15) 0.94286(13) 0.51106(12)
C144 C 0.8639(6) 0.4293(5) 0.4114(5)
H136 H 0.925(6) 0.4209(9) 0.382(3)
Cl16 Cl 0.8000(3) 0.47121(19) 0.35095(19)
Cl17 Cl 0.87054(19) 0.48565(14) 0.45289(15)
Cl18 Cl 0.84103(16) 0.34410(12) 0.46882(14)
C145 C 0.7907(13) 0.0185(12) 0.0898(11)
Cl19 Cl 0.8218(5) 0.0392(4) 0.0213(4)
Cl20 Cl 0.7267(3) 0.0563(2) 0.13646(19)
Cl21 Cl 0.7576(4) -0.0678(4) 0.1264(4)
C146? C 0.774(3) 0.0965(11) 0.0726(11)
Cl22? Cl 0.7390(4) 0.1659(3) 0.0072(3)
C147? C 0.4306(15) 0.4536(14) -0.0002(12)
Cl23? Cl 0.4647(5) 0.4750(4) -0.0829(3)
Cl24? Cl 0.3299(4) 0.4678(3) 0.0132(3)
Cl25? Cl 0.4727(4) 0.5007(3) 0.0340(4)

#END

