
#######################################################################
#
#                 Cambridge Crystallographic Data Centre
#                                CCDC 
#
#######################################################################
#
# If this CIF has been generated directly or indirectly from an entry in the 
# Cambridge Structural Database, then it will include bibliographic, chemical, 
# crystal, experimental, refinement or atomic coordinate data resulting from 
# the CCDC's data processing and validation procedures. Files generated from 
# CSD entries are Copyright 2016 Cambridge Crystallographic Data Centre. They 
# may be used in bona fide research applications only, and may not be copied or 
# further disseminated in any form, whether machine-readable or not, except for 
# the purposes of generating routine backup copies on your local computer 
# system.
# 
# Files arising from any other source may also contain material that is the 
# copyright of third parties, including the originator, and you should check 
# with the originator concerning the permitted uses of the information 
# contained in this CIF.
#
# For further information on the CCDC and the free tools enCIFer and Mercury
# for validating and visualising CIF files, please visit www.ccdc.cam.ac.uk
#
#######################################################################

data_IYEMIK00
_audit_creation_date             2016-10-13
_database_code_depnum_ccdc_archive 'CCDC 1481846'
_chemical_formula_moiety         'C264 H192 N24'
_chemical_name_systematic        CC18-S
_journal_coden_Cambridge         1220
_journal_year                    2016
_journal_name_full               Chem.-Eur.J.
loop_
_publ_author_name
P.S.Reiss
M.A.Little
V.Santolini
'Samantha Y.Chong'
T.Hasell
K.E.Jelfs
M.E.Briggs
A.I.Cooper
_chemical_absolute_configuration unk
_diffrn_ambient_temperature      100
_exptl_crystal_density_meas      0.862
_exptl_crystal_density_diffrn    0.558
#These two values have been output from a single CSD field.
_refine_ls_R_factor_gt           0.0698
_refine_ls_wR_factor_gt          0.0698
_diffrn_radiation_probe          x-ray
_symmetry_cell_setting           trigonal
_symmetry_space_group_name_H-M   'P 3 2 1'
_symmetry_Int_Tables_number      150
loop_
_symmetry_equiv_pos_site_id
_symmetry_equiv_pos_as_xyz
1 x,y,z
2 -y,x-y,z
3 -x+y,-x,z
4 x-y,-y,-z
5 -x,-x+y,-z
6 y,x,-z
_cell_length_a                   31.0991(13)
_cell_length_b                   31.0991(13)
_cell_length_c                   26.2844(13)
_cell_angle_alpha                90
_cell_angle_beta                 90
_cell_angle_gamma                120
_cell_volume                     22015.3
_exptl_crystal_colour            colorless
_exptl_crystal_description       block
_cell_formula_units_Z            2
loop_
_atom_site_label
_atom_site_type_symbol
_atom_site_fract_x
_atom_site_fract_y
_atom_site_fract_z
N1 N 0.4887(2) 0.5852(2) 0.4806(2)
N2 N 0.42807(17) 0.62868(18) 0.55048(16)
N3 N 0.5890(3) 0.6056(2) 0.2644(2)
N4 N 0.6302(3) 0.7048(2) 0.1905(2)
N5 N 0.3755(3) 0.4189(3) 0.3113(2)
N6 N 0.2742(2) 0.3752(2) 0.2346(2)
N7 N 0.2399(2) 0.4423(2) 0.0172(2)
N8 N 0.2900(3) 0.5335(3) -0.0713(2)
C1 C 0.44700(19) 0.50075(17) 0.32129(18)
C2 C 0.4919(2) 0.5358(2) 0.29998(13)
H1 H 0.5001 0.5314 0.2663
C3 C 0.52491(16) 0.57724(18) 0.3280(2)
C4 C 0.51292(18) 0.58364(16) 0.37727(19)
H2 H 0.5355 0.6120 0.3964
C5 C 0.4680(2) 0.5486(2) 0.39859(13)
C6 C 0.43501(16) 0.50715(18) 0.37060(19)
H3 H 0.4043 0.4832 0.3852
C7 C 0.5736(3) 0.6152(3) 0.3072(3)
H4 H 0.5933 0.6457 0.3245
C8 C 0.4131(3) 0.4560(3) 0.2918(3)
H5 H 0.4197 0.4550 0.2566
C9 C 0.4561(3) 0.5527(3) 0.4521(2)
H6 H 0.4238 0.5308 0.4651
C10 C 0.2204(2) 0.3972(2) 0.19305(16)
C11 C 0.24801(16) 0.4141(2) 0.14850(19)
H7 H 0.2802 0.4177 0.1467
C12 C 0.22853(19) 0.42572(18) 0.10655(15)
C13 C 0.1815(2) 0.4204(2) 0.10915(16)
H8 H 0.1682 0.4284 0.0805
C14 C 0.15390(16) 0.4035(2) 0.1537(2)
C15 C 0.17339(19) 0.3919(2) 0.19565(16)
H9 H 0.1545 0.3803 0.2261
C16 C 0.2560(3) 0.4416(3) 0.0596(3)
H10 H 0.2905 0.4527 0.0617
C17 C 0.2404(3) 0.3849(3) 0.2375(3)
H11 H 0.2268 0.3844 0.2700
C18 C 0.1054(3) 0.3968(3) 0.1558(3)
H12 H 0.0956 0.4125 0.1311
C19 C 0.3326(2) 0.62198(19) 0.5387(2)
H13 H 0.3321 0.5912 0.5377
C20 C 0.3783(2) 0.6662(2) 0.5395(2)
C21 C 0.4250(2) 0.6666(2) 0.5396(2)
H14 H 0.4545 0.6965 0.5311
C22 C 0.3547(5) 0.6379(5) -0.0721(3)
H15 H 0.3692 0.6173 -0.0729
C23 C 0.3038(5) 0.6171(3) -0.0715(3)
C24 C 0.2710(4) 0.5600(4) -0.0692(3)
H16 H 0.2360 0.5452 -0.0662
C25 C 0.4718(2) 0.5833(2) 0.5338(2)
H17 H 0.4360 0.5571 0.5362
C26 C 0.4769(2) 0.6327(2) 0.5484(2)
H18 H 0.4979 0.6583 0.5226
C27 C 0.5021(2) 0.5699(2) 0.5707(2)
H19 H 0.5033 0.5396 0.5600
C28 C 0.5028(2) 0.6489(3) 0.6032(2)
H20 H 0.5029 0.6790 0.6166
C29 C 0.5534(3) 0.6156(3) 0.5755(2)
C30 C 0.5967(3) 0.6152(3) 0.5638(2)
H21 H 0.5963 0.5860 0.5527
C31 C 0.6409(3) 0.6605(4) 0.5693(3)
H22 H 0.6711 0.6621 0.5596
C32 C 0.6429(3) 0.7016(4) 0.5874(3)
H23 H 0.6739 0.7313 0.5919
C33 C 0.5980(3) 0.6999(3) 0.5997(3)
H24 H 0.5985 0.7289 0.6117
C34 C 0.5549(3) 0.6578(3) 0.5946(2)
C35 C 0.4745(3) 0.5628(3) 0.6230(3)
C36 C 0.4506(3) 0.5198(3) 0.6485(3)
H25 H 0.4510 0.4912 0.6363
C37 C 0.4244(3) 0.5170(4) 0.6944(3)
H26 H 0.4074 0.4873 0.7137
C38 C 0.4256(3) 0.5614(4) 0.7094(3)
H27 H 0.4095 0.5615 0.7400
C39 C 0.4488(2) 0.6038(3) 0.6816(3)
H28 H 0.4482 0.6328 0.6920
C40 C 0.4737(2) 0.6037(3) 0.6371(3)
C41 C 0.6316(3) 0.6580(3) 0.1927(3)
H29 H 0.6005 0.6300 0.1781
C42 C 0.6383(3) 0.6468(3) 0.2482(3)
H30 H 0.6468 0.6767 0.2694
C43 C 0.6798(4) 0.6642(3) 0.1625(3)
H31 H 0.6800 0.6753 0.1267
C44 C 0.6810(3) 0.6357(3) 0.2518(3)
H32 H 0.6839 0.6245 0.2867
C45 C 0.7259(3) 0.6824(3) 0.2373(4)
C46 C 0.7662(4) 0.7106(4) 0.2690(3)
H33 H 0.7672 0.6990 0.3021
C47 C 0.8049(3) 0.7559(4) 0.2522(4)
H34 H 0.8324 0.7752 0.2739
C48 C 0.8033(3) 0.7730(3) 0.2038(4)
H35 H 0.8298 0.8040 0.1923
C49 C 0.7631(4) 0.7448(3) 0.1721(3)
H36 H 0.7620 0.7565 0.1390
C50 C 0.7244(3) 0.6995(3) 0.1889(3)
C51 C 0.6720(2) 0.5976(3) 0.2126(3)
C52 C 0.6644(2) 0.5502(3) 0.2213(3)
H37 H 0.6650 0.5396 0.2551
C53 C 0.6561(3) 0.5184(2) 0.1807(4)
H38 H 0.6510 0.4860 0.1867
C54 C 0.6554(3) 0.5339(3) 0.1313(3)
H39 H 0.6497 0.5122 0.1035
C55 C 0.6629(3) 0.5813(3) 0.1225(2)
H40 H 0.6624 0.5919 0.0888
C56 C 0.6712(3) 0.6131(2) 0.1632(3)
C57 C 0.2550(3) 0.4795(3) -0.0693(3)
H41 H 0.2209 0.4732 -0.0614
C58 C 0.2725(3) 0.4578(3) -0.0263(3)
H42 H 0.3062 0.4842 -0.0149
C59 C 0.2541(3) 0.4536(3) -0.1197(2)
H43 H 0.2452 0.4683 -0.1489
C60 C 0.2771(3) 0.4145(3) -0.0478(3)
H44 H 0.2863 0.3978 -0.0210
C61 C 0.3149(2) 0.4358(2) -0.08856(18)
C62 C 0.3608(2) 0.4383(3) -0.0887(2)
H45 H 0.3689 0.4226 -0.0624
C63 C 0.3948(2) 0.4639(3) -0.1271(2)
H46 H 0.4262 0.4657 -0.1272
C64 C 0.3829(2) 0.4869(2) -0.16550(19)
H47 H 0.4061 0.5044 -0.1918
C65 C 0.3369(3) 0.4843(2) -0.16541(19)
H48 H 0.3288 0.5001 -0.1916
C66 C 0.30294(19) 0.4588(2) -0.1269(2)
C67 C 0.2285(2) 0.3794(3) -0.0723(2)
C68 C 0.1970(3) 0.3300(3) -0.0594(2)
H49 H 0.2055 0.3154 -0.0323
C69 C 0.1530(3) 0.3019(2) -0.0860(3)
H50 H 0.1314 0.2681 -0.0772
C70 C 0.1404(2) 0.3233(3) -0.1256(3)
H51 H 0.1104 0.3041 -0.1438
C71 C 0.1719(3) 0.3727(3) -0.1385(2)
H52 H 0.1634 0.3873 -0.1655
C72 C 0.2159(2) 0.4008(2) -0.1118(3)
C73 C 0.3462(3) 0.3772(4) 0.2789(3)
H53 H 0.3575 0.3863 0.2429
C74 C 0.2914(3) 0.3627(3) 0.2831(3)
H54 H 0.2868 0.3806 0.3123
C75 C 0.3516(3) 0.3332(4) 0.2948(3)
H55 H 0.3873 0.3425 0.2975
C76 C 0.2591(3) 0.3062(4) 0.2909(2)
H56 H 0.2228 0.2944 0.2893
C77 C 0.3252(3) 0.3135(2) 0.3433(2)
C78 C 0.3460(2) 0.3075(3) 0.3876(3)
H57 H 0.3803 0.3174 0.3886
C79 C 0.3167(3) 0.2872(3) 0.4306(2)
H58 H 0.3309 0.2831 0.4610
C80 C 0.2666(3) 0.2727(3) 0.4292(2)
H59 H 0.2466 0.2588 0.4586
C81 C 0.2458(2) 0.2786(3) 0.3849(3)
H60 H 0.2115 0.2687 0.3839
C82 C 0.2751(3) 0.2990(3) 0.3419(2)
C83 C 0.3256(3) 0.2959(2) 0.2530(2)
C84 C 0.3456(2) 0.2772(3) 0.2180(3)
H61 H 0.3800 0.2876 0.2190
C85 C 0.3152(3) 0.2433(3) 0.1814(3)
H62 H 0.3289 0.2305 0.1575
C86 C 0.2649(3) 0.2280(3) 0.1799(3)
H63 H 0.2442 0.2048 0.1549
C87 C 0.2450(2) 0.2468(3) 0.2149(3)
H64 H 0.2106 0.2364 0.2138
C88 C 0.2753(3) 0.2807(3) 0.2514(2)
N1A N 0.4148 0.9035 0.4806
N2A N 0.37132 0.79939 0.55048
N3A N 0.3944 0.9834 0.2644
N4A N 0.2952 0.9254 0.1905
N5A N 0.5811 0.9566 0.3113
N6A N 0.6248 0.899 0.2346
N7A N 0.5577 0.7976 0.0172
N8A N 0.4665 0.7565 -0.0713
C1A C 0.49925 0.94625 0.32129
C2A C 0.4642 0.9561 0.29998
H1A H 0.4686 0.9687 0.2663
C3A C 0.42276 0.94767 0.328
C4A C 0.41636 0.92928 0.37727
H2A H 0.388 0.9235 0.3964
C5A C 0.4514 0.9194 0.39859
C6A C 0.49285 0.92786 0.3706
H3A H 0.5168 0.9211 0.3852
C7A C 0.3848 0.9584 0.3072
H4A H 0.3543 0.9476 0.3245
C8A C 0.544 0.9571 0.2918
H5A H 0.545 0.9647 0.2566
C9A C 0.4473 0.9034 0.4521
H6A H 0.4692 0.893 0.4651
C10A C 0.6028 0.8232 0.19305
C11A C 0.5859 0.83391 0.1485
H7A H 0.5823 0.8625 0.1467
C12A C 0.57428 0.80281 0.10655
C13A C 0.5796 0.7611 0.10915
H8A H 0.5716 0.7398 0.0805
C14A C 0.5965 0.7504 0.1537
C15A C 0.6081 0.78149 0.19565
H9A H 0.6197 0.7742 0.2261
C16A C 0.5584 0.8144 0.0596
H10A H 0.5473 0.8378 0.0617
C17A C 0.6151 0.8555 0.2375
H11A H 0.6156 0.8424 0.27
C18A C 0.6032 0.7086 0.1558
H12A H 0.5875 0.6831 0.1311
C19A C 0.37802 0.71062 0.5387
H13A H 0.4088 0.7409 0.5377
C20A C 0.3338 0.7121 0.5395
C21A C 0.3334 0.7584 0.5396
H14A H 0.3035 0.758 0.5311
C22A C 0.3621 0.7168 -0.0721
H15A H 0.3827 0.7519 -0.0729
C23A C 0.3829 0.6867 -0.0715
C24A C 0.44 0.711 -0.0692
H16A H 0.4548 0.6908 -0.0662
C25A C 0.4167 0.8885 0.5338
H17A H 0.4429 0.8789 0.5362
C26A C 0.3673 0.8442 0.5484
H18A H 0.3417 0.8396 0.5226
C27A C 0.4301 0.9322 0.5707
H19A H 0.4604 0.9637 0.56
C28A C 0.3511 0.8539 0.6032
H20A H 0.321 0.8239 0.6166
C29A C 0.3844 0.9378 0.5755
C30A C 0.3848 0.9815 0.5638
H21A H 0.414 1.0103 0.5527
C31A C 0.3395 0.9804 0.5693
H22A H 0.3379 1.009 0.5596
C32A C 0.2984 0.9413 0.5874
H23A H 0.2687 0.9426 0.5919
C33A C 0.3001 0.8981 0.5997
H24A H 0.2711 0.8696 0.6117
C34A C 0.3422 0.8971 0.5946
C35A C 0.4372 0.9117 0.623
C36A C 0.4802 0.9308 0.6485
H25A H 0.5088 0.9598 0.6363
C37A C 0.483 0.9074 0.6944
H26A H 0.5127 0.9201 0.7137
C38A C 0.4386 0.8642 0.7094
H27A H 0.4385 0.848 0.74
C39A C 0.3962 0.845 0.6816
H28A H 0.3672 0.8154 0.692
C40A C 0.3963 0.87 0.6371
C41A C 0.342 0.9736 0.1927
H29A H 0.37 0.9705 0.1781
C42A C 0.3532 0.9915 0.2482
H30A H 0.3233 0.9701 0.2694
C43A C 0.3358 1.0156 0.1625
H31A H 0.3247 1.0047 0.1267
C44A C 0.3643 1.0453 0.2518
H32A H 0.3755 1.0594 0.2867
C45A C 0.3176 1.0435 0.2373
C46A C 0.2894 1.0556 0.269
H33A H 0.301 1.0682 0.3021
C47A C 0.2441 1.049 0.2522
H34A H 0.2248 1.0572 0.2739
C48A C 0.227 1.0303 0.2038
H35A H 0.196 1.0258 0.1923
C49A C 0.2552 1.0183 0.1721
H36A H 0.2435 1.0055 0.139
C50A C 0.3005 1.0249 0.1889
C51A C 0.4024 1.0744 0.2126
C52A C 0.4498 1.1142 0.2213
H37A H 0.4604 1.1254 0.2551
C53A C 0.4816 1.1377 0.1807
H38A H 0.514 1.165 0.1867
C54A C 0.4661 1.1215 0.1313
H39A H 0.4878 1.1375 0.1035
C55A C 0.4187 1.0816 0.1225
H40A H 0.4081 1.0705 0.0888
C56A C 0.3869 1.0581 0.1632
C57A C 0.5205 0.7755 -0.0693
H41A H 0.5268 0.7477 -0.0614
C58A C 0.5422 0.8147 -0.0263
H42A H 0.5158 0.822 -0.0149
C59A C 0.5464 0.8005 -0.1197
H43A H 0.5317 0.7769 -0.1489
C60A C 0.5855 0.8626 -0.0478
H44A H 0.6022 0.8885 -0.021
C61A C 0.5642 0.8791 -0.08856
C62A C 0.5617 0.9225 -0.0887
H45A H 0.5774 0.9463 -0.0624
C63A C 0.5361 0.9309 -0.1271
H46A H 0.5343 0.9605 -0.1272
C64A C 0.5131 0.896 -0.1655
H47A H 0.4956 0.9017 -0.1918
C65A C 0.5157 0.8526 -0.16541
H48A H 0.4999 0.8287 -0.1916
C66A C 0.5412 0.84414 -0.1269
C67A C 0.6206 0.8491 -0.0723
C68A C 0.67 0.867 -0.0594
H49A H 0.6846 0.8901 -0.0323
C69A C 0.6981 0.8511 -0.086
H50A H 0.7319 0.8633 -0.0772
C70A C 0.6767 0.8171 -0.1256
H51A H 0.6959 0.8063 -0.1438
C71A C 0.6273 0.7992 -0.1385
H52A H 0.6127 0.7761 -0.1655
C72A C 0.5992 0.8151 -0.1118
C73A C 0.6228 0.969 0.2789
H53A H 0.6137 0.9712 0.2429
C74A C 0.6373 0.9287 0.2831
H54A H 0.6194 0.9062 0.3123
C75A C 0.6668 1.0184 0.2948
H55A H 0.6575 1.0448 0.2975
C76A C 0.6938 0.9529 0.2909
H56A H 0.7056 0.9284 0.2893
C77A C 0.6865 1.0117 0.3433
C78A C 0.6925 1.0385 0.3876
H57A H 0.6826 1.0629 0.3886
C79A C 0.7128 1.0295 0.4306
H58A H 0.7169 1.0478 0.461
C80A C 0.7273 0.9939 0.4292
H59A H 0.7412 0.9878 0.4586
C81A C 0.7214 0.9672 0.3849
H60A H 0.7313 0.9428 0.3839
C82A C 0.701 0.9761 0.3419
C83A C 0.7041 1.0297 0.253
C84A C 0.7228 1.0684 0.218
H61A H 0.7124 1.0924 0.219
C85A C 0.7567 1.0719 0.1814
H62A H 0.7695 1.0984 0.1575
C86A C 0.772 1.0369 0.1799
H63A H 0.7952 1.0394 0.1549
C87A C 0.7532 0.9982 0.2149
H64A H 0.7636 0.9742 0.2138
C88A C 0.7193 0.9946 0.2514
N1B N 0.0965 0.5113 0.4806
N2B N 0.20061 0.57193 0.55048
N3B N 0.0166 0.411 0.2644
N4B N 0.0746 0.3698 0.1905
N5B N 0.0434 0.6245 0.3113
N6B N 0.101 0.7258 0.2346
N7B N 0.2024 0.7601 0.0172
N8B N 0.2435 0.71 -0.0713
C1B C 0.05375 0.553 0.32129
C2B C 0.0439 0.5081 0.29998
H1B H 0.0313 0.4999 0.2663
C3B C 0.05233 0.47509 0.328
C4B C 0.07072 0.48708 0.37727
H2B H 0.0765 0.4645 0.3964
C5B C 0.0806 0.532 0.39859
C6B C 0.07214 0.56499 0.3706
H3B H 0.0789 0.5957 0.3852
C7B C 0.0416 0.4264 0.3072
H4B H 0.0524 0.4067 0.3245
C8B C 0.0429 0.5869 0.2918
H5B H 0.0353 0.5803 0.2566
C9B C 0.0966 0.5439 0.4521
H6B H 0.107 0.5762 0.4651
C10B C 0.1768 0.7796 0.19305
C11B C 0.16609 0.75199 0.1485
H7B H 0.1375 0.7198 0.1467
C12B C 0.19719 0.77147 0.10655
C13B C 0.2389 0.8185 0.10915
H8B H 0.2602 0.8318 0.0805
C14B C 0.2496 0.8461 0.1537
C15B C 0.21851 0.82661 0.19565
H9B H 0.2258 0.8455 0.2261
C16B C 0.1856 0.744 0.0596
H10B H 0.1622 0.7095 0.0617
C17B C 0.1445 0.7596 0.2375
H11B H 0.1576 0.7732 0.27
C18B C 0.2914 0.8946 0.1558
H12B H 0.3169 0.9044 0.1311
C19B C 0.28938 0.6674 0.5387
H13B H 0.2591 0.6679 0.5377
C20B C 0.2879 0.6217 0.5395
C21B C 0.2416 0.575 0.5396
H14B H 0.242 0.5455 0.5311
C22B C 0.2832 0.6453 -0.0721
H15B H 0.2481 0.6308 -0.0729
C23B C 0.3133 0.6962 -0.0715
C24B C 0.289 0.729 -0.0692
H16B H 0.3092 0.764 -0.0662
C25B C 0.1115 0.5282 0.5338
H17B H 0.1211 0.564 0.5362
C26B C 0.1558 0.5231 0.5484
H18B H 0.1604 0.5021 0.5226
C27B C 0.0678 0.4979 0.5707
H19B H 0.0363 0.4967 0.56
C28B C 0.1461 0.4972 0.6032
H20B H 0.1761 0.4971 0.6166
C29B C 0.0622 0.4466 0.5755
C30B C 0.0185 0.4033 0.5638
H21B H -0.0103 0.4037 0.5527
C31B C 0.0196 0.3591 0.5693
H22B H -0.009 0.3289 0.5596
C32B C 0.0587 0.3571 0.5874
H23B H 0.0574 0.3261 0.5919
C33B C 0.1019 0.402 0.5997
H24B H 0.1304 0.4015 0.6117
C34B C 0.1029 0.4451 0.5946
C35B C 0.0883 0.5255 0.623
C36B C 0.0692 0.5494 0.6485
H25B H 0.0402 0.549 0.6363
C37B C 0.0926 0.5756 0.6944
H26B H 0.0799 0.5926 0.7137
C38B C 0.1358 0.5744 0.7094
H27B H 0.152 0.5905 0.74
C39B C 0.155 0.5512 0.6816
H28B H 0.1846 0.5518 0.692
C40B C 0.13 0.5263 0.6371
C41B C 0.0264 0.3684 0.1927
H29B H 0.0295 0.3995 0.1781
C42B C 0.0085 0.3617 0.2482
H30B H 0.0299 0.3532 0.2694
C43B C -0.0156 0.3202 0.1625
H31B H -0.0047 0.32 0.1267
C44B C -0.0453 0.319 0.2518
H32B H -0.0594 0.3161 0.2867
C45B C -0.0435 0.2741 0.2373
C46B C -0.0556 0.2338 0.269
H33B H -0.0682 0.2328 0.3021
C47B C -0.049 0.1951 0.2522
H34B H -0.0572 0.1676 0.2739
C48B C -0.0303 0.1967 0.2038
H35B H -0.0258 0.1702 0.1923
C49B C -0.0183 0.2369 0.1721
H36B H -0.0055 0.238 0.139
C50B C -0.0249 0.2756 0.1889
C51B C -0.0744 0.328 0.2126
C52B C -0.1142 0.3356 0.2213
H37B H -0.1254 0.335 0.2551
C53B C -0.1377 0.3439 0.1807
H38B H -0.165 0.349 0.1867
C54B C -0.1215 0.3446 0.1313
H39B H -0.1375 0.3503 0.1035
C55B C -0.0816 0.3371 0.1225
H40B H -0.0705 0.3376 0.0888
C56B C -0.0581 0.3288 0.1632
C57B C 0.2245 0.745 -0.0693
H41B H 0.2523 0.7791 -0.0614
C58B C 0.1853 0.7275 -0.0263
H42B H 0.178 0.6938 -0.0149
C59B C 0.1995 0.7459 -0.1197
H43B H 0.2231 0.7548 -0.1489
C60B C 0.1374 0.7229 -0.0478
H44B H 0.1115 0.7137 -0.021
C61B C 0.1209 0.6851 -0.08856
C62B C 0.0775 0.6392 -0.0887
H45B H 0.0537 0.6311 -0.0624
C63B C 0.0691 0.6052 -0.1271
H46B H 0.0395 0.5738 -0.1272
C64B C 0.104 0.6171 -0.1655
H47B H 0.0983 0.5939 -0.1918
C65B C 0.1474 0.6631 -0.16541
H48B H 0.1713 0.6712 -0.1916
C66B C 0.15586 0.69706 -0.1269
C67B C 0.1509 0.7715 -0.0723
C68B C 0.133 0.803 -0.0594
H49B H 0.1099 0.7945 -0.0323
C69B C 0.1489 0.847 -0.086
H50B H 0.1367 0.8686 -0.0772
C70B C 0.1829 0.8596 -0.1256
H51B H 0.1937 0.8896 -0.1438
C71B C 0.2008 0.8281 -0.1385
H52B H 0.2239 0.8366 -0.1655
C72B C 0.1849 0.7841 -0.1118
C73B C 0.031 0.6538 0.2789
H53B H 0.0288 0.6425 0.2429
C74B C 0.0713 0.7086 0.2831
H54B H 0.0938 0.7132 0.3123
C75B C -0.0184 0.6484 0.2948
H55B H -0.0448 0.6127 0.2975
C76B C 0.0471 0.7409 0.2909
H56B H 0.0716 0.7772 0.2893
C77B C -0.0117 0.6748 0.3433
C78B C -0.0385 0.654 0.3876
H57B H -0.0629 0.6197 0.3886
C79B C -0.0295 0.6833 0.4306
H58B H -0.0478 0.6691 0.461
C80B C 0.0061 0.7334 0.4292
H59B H 0.0122 0.7534 0.4586
C81B C 0.0328 0.7542 0.3849
H60B H 0.0572 0.7885 0.3839
C82B C 0.0239 0.7249 0.3419
C83B C -0.0297 0.6744 0.253
C84B C -0.0684 0.6544 0.218
H61B H -0.0924 0.62 0.219
C85B C -0.0719 0.6848 0.1814
H62B H -0.0984 0.6711 0.1575
C86B C -0.0369 0.7351 0.1799
H63B H -0.0394 0.7558 0.1549
C87B C 0.0018 0.755 0.2149
H64B H 0.0258 0.7894 0.2138
C88B C 0.0054 0.7247 0.2514

#END

