
#######################################################################
#
#                 Cambridge Crystallographic Data Centre
#                                CCDC 
#
#######################################################################
#
# If this CIF has been generated directly or indirectly from an entry in the 
# Cambridge Structural Database, then it will include bibliographic, chemical, 
# crystal, experimental, refinement or atomic coordinate data resulting from 
# the CCDC's data processing and validation procedures. Files generated from 
# CSD entries are Copyright 2015 Cambridge Crystallographic Data Centre. They 
# may be used in bona fide research applications only, and may not be copied or 
# further disseminated in any form, whether machine-readable or not, except for 
# the purposes of generating routine backup copies on your local computer 
# system.
# 
# Files arising from any other source may also contain material that is the 
# copyright of third parties, including the originator, and you should check 
# with the originator concerning the permitted uses of the information 
# contained in this CIF.
#
# For further information on the CCDC and the free tools enCIFer and Mercury
# for validating and visualising CIF files, please visit www.ccdc.cam.ac.uk
#
#######################################################################

data_LEJPAT01
_audit_creation_date             2012-11-29
_database_code_depnum_ccdc_archive 'CCDC 876255'
_chemical_formula_moiety         
'C48 H48 N12,0.8(C66 H72 N12),0.2(C72 H84 N12),1.5(N2)'
_chemical_name_systematic        
'3,6,10,13,17,20,24,27,30,33,36,39-Dodeca-aza-1,8,15,22(1,3,5)-tetrabenzenatricyclo[13.13.6.6^8,22^]tetracontaphane-2,6,9,13,16,20,24,27,29,33,35,39-dodecaene (((R)-3,5,9,11,15,17,21,23,26,28,31,33-dodeca-aza-1,7,13,19(1,3,5)-tetrabenzena-4,10,16,22,27,32(1,2)-hexacyclopentanatricyclo[11.11.5.5^7,19^]tetratriacontaphane-2,5,8,11,14,17 20,23,25,28,30,33-dodecaene) ((R)-3,5,9,11,15,17,21,23,26,28,31,33-dodeca-aza-1,7,13,19(1,3,5)-tetrabenzena-4,10,16,22,27,32(1,2)-hexacyclohexanatricyclo[11.11.5.5^7,19^]tetratriacontaphane-2,5,8,11,14,17 20,23,25,28,30,33-dodecaene)) dinitrogen'
_journal_coden_Cambridge         179
_journal_volume                  51
_journal_year                    2012
_journal_page_first              7154
_journal_name_full               Angew.Chem.,Int.Ed.
loop_
_publ_author_name
T.Hasell
S.Y.Chong
M.Schmidtmann
D.J.Adams
A.I.Cooper
_chemical_absolute_configuration unk
_diffrn_ambient_temperature      100
_exptl_crystal_density_meas      0.933
_exptl_crystal_density_diffrn    0.934
#These two values have been output from a single CSD field.
_refine_ls_R_factor_gt           0.039
_refine_ls_wR_factor_gt          0.039
_diffrn_radiation_probe          x-ray
_symmetry_cell_setting           cubic
_symmetry_space_group_name_H-M   'F 2 3'
_symmetry_Int_Tables_number      196
loop_
_symmetry_equiv_pos_site_id
_symmetry_equiv_pos_as_xyz
1 x,y,z
2 -x,-y,z
3 -x,y,-z
4 x,-y,-z
5 z,x,y
6 z,-x,-y
7 -z,-x,y
8 -z,x,-y
9 y,z,x
10 -y,z,-x
11 y,-z,-x
12 -y,-z,x
13 x,1/2+y,1/2+z
14 -x,1/2-y,1/2+z
15 -x,1/2+y,1/2-z
16 x,1/2-y,1/2-z
17 z,1/2+x,1/2+y
18 z,1/2-x,1/2-y
19 -z,1/2-x,1/2+y
20 -z,1/2+x,1/2-y
21 y,1/2+z,1/2+x
22 -y,1/2+z,1/2-x
23 y,1/2-z,1/2-x
24 -y,1/2-z,1/2+x
25 1/2+x,y,1/2+z
26 1/2-x,-y,1/2+z
27 1/2-x,y,1/2-z
28 1/2+x,-y,1/2-z
29 1/2+z,x,1/2+y
30 1/2+z,-x,1/2-y
31 1/2-z,-x,1/2+y
32 1/2-z,x,1/2-y
33 1/2+y,z,1/2+x
34 1/2-y,z,1/2-x
35 1/2+y,-z,1/2-x
36 1/2-y,-z,1/2+x
37 1/2+x,1/2+y,z
38 1/2-x,1/2-y,z
39 1/2-x,1/2+y,-z
40 1/2+x,1/2-y,-z
41 1/2+z,1/2+x,y
42 1/2+z,1/2-x,-y
43 1/2-z,1/2-x,y
44 1/2-z,1/2+x,-y
45 1/2+y,1/2+z,x
46 1/2-y,1/2+z,-x
47 1/2+y,1/2-z,-x
48 1/2-y,1/2-z,x
_cell_length_a                   23.7603(7)
_cell_length_b                   23.7603(7)
_cell_length_c                   23.7603(7)
_cell_angle_alpha                90
_cell_angle_beta                 90
_cell_angle_gamma                90
_cell_volume                     13413.9
_exptl_crystal_colour            colorless
_exptl_crystal_description       tetrahedron
_cell_formula_units_Z            4
loop_
_atom_site_label
_atom_site_type_symbol
_atom_site_fract_x
_atom_site_fract_y
_atom_site_fract_z
N2 N 0.55033(6) 0.23401(6) 0.03519(7)
C8 C 0.51415(9) 0.28338(7) 0.02894(9)
H9 H 0.5369 0.3180 0.0333
H10 H 0.4850 0.2832 0.0587
C9 C 0.53732(8) 0.20049(7) 0.07489(8)
H11 H 0.5051 0.2087 0.0971
C10 C 0.57020(8) 0.14955(7) 0.08781(7)
C11 C 0.61726(7) 0.13414(7) 0.05560(8)
H12 H 0.6271 0.1557 0.0234
N2B N 0.44967 0.23401 -0.03519
N2FA N 0.73401 0.03519 0.05033
N2NA N 0.53519 0.05033 0.23401
N2GA N 0.26599 0.03519 -0.05033
N2HA N 0.73401 -0.03519 -0.05033
N2IA N 0.26599 -0.03519 0.05033
N2OA N 0.53519 -0.05033 -0.23401
N2PA N 0.46481 -0.05033 0.23401
N2QA N 0.46481 0.05033 -0.23401
N2A N 0.44967 -0.23401 0.03519
N2C N 0.55033 -0.23401 -0.03519
C8B C 0.48585 0.28338 -0.02894
C8FA C 0.78338 0.02894 0.01415
C8NA C 0.52894 0.01415 0.28338
C8GA C 0.21662 0.02894 -0.01415
C8HA C 0.78338 -0.02894 -0.01415
C8IA C 0.21662 -0.02894 0.01415
C8OA C 0.52894 -0.01415 -0.28338
C8PA C 0.47106 -0.01415 0.28338
C8QA C 0.47106 0.01415 -0.28338
C8A C 0.48585 -0.28338 0.02894
C8C C 0.51415 -0.28338 -0.02894
H9B H 0.4631 0.318 -0.0333
H9FA H 0.818 0.0333 0.0369
H9NA H 0.5333 0.0369 0.318
H9GA H 0.182 0.0333 -0.0369
H9HA H 0.818 -0.0333 -0.0369
H9IA H 0.182 -0.0333 0.0369
H9OA H 0.5333 -0.0369 -0.318
H9PA H 0.4667 -0.0369 0.318
H9QA H 0.4667 0.0369 -0.318
H9A H 0.4631 -0.318 0.0333
H9C H 0.5369 -0.318 -0.0333
H10B H 0.515 0.2832 -0.0587
H10FA H 0.7832 0.0587 -0.015
H10NA H 0.5587 -0.015 0.2832
H10GA H 0.2168 0.0587 0.015
H10HA H 0.7832 -0.0587 0.015
H10IA H 0.2168 -0.0587 -0.015
H10OA H 0.5587 0.015 -0.2832
H10PA H 0.4413 0.015 0.2832
H10QA H 0.4413 -0.015 -0.2832
H10A H 0.515 -0.2832 0.0587
H10C H 0.485 -0.2832 -0.0587
C9B C 0.46268 0.20049 -0.07489
C9FA C 0.70049 0.07489 0.03732
C9NA C 0.57489 0.03732 0.20049
C9GA C 0.29951 0.07489 -0.03732
C9HA C 0.70049 -0.07489 -0.03732
C9IA C 0.29951 -0.07489 0.03732
C9OA C 0.57489 -0.03732 -0.20049
C9PA C 0.42511 -0.03732 0.20049
C9QA C 0.42511 0.03732 -0.20049
C9A C 0.46268 -0.20049 0.07489
C9C C 0.53732 -0.20049 -0.07489
H11B H 0.4949 0.2087 -0.0971
H11FA H 0.7087 0.0971 0.0051
H11NA H 0.5971 0.0051 0.2087
H11GA H 0.2913 0.0971 -0.0051
H11HA H 0.7087 -0.0971 -0.0051
H11IA H 0.2913 -0.0971 0.0051
H11OA H 0.5971 -0.0051 -0.2087
H11PA H 0.4029 -0.0051 0.2087
H11QA H 0.4029 0.0051 -0.2087
H11A H 0.4949 -0.2087 0.0971
H11C H 0.5051 -0.2087 -0.0971
C10B C 0.4298 0.14955 -0.08781
C10FA C 0.64955 0.08781 0.0702
C10NA C 0.58781 0.0702 0.14955
C10GA C 0.35045 0.08781 -0.0702
C10HA C 0.64955 -0.08781 -0.0702
C10IA C 0.35045 -0.08781 0.0702
C10OA C 0.58781 -0.0702 -0.14955
C10PA C 0.41219 -0.0702 0.14955
C10QA C 0.41219 0.0702 -0.14955
C10A C 0.4298 -0.14955 0.08781
C10C C 0.5702 -0.14955 -0.08781
C11B C 0.38274 0.13414 -0.0556
C11FA C 0.63414 0.0556 0.11726
C11NA C 0.5556 0.11726 0.13414
C11GA C 0.36586 0.0556 -0.11726
C11HA C 0.63414 -0.0556 -0.11726
C11IA C 0.36586 -0.0556 0.11726
C11OA C 0.5556 -0.11726 -0.13414
C11PA C 0.4444 -0.11726 0.13414
C11QA C 0.4444 0.11726 -0.13414
C11A C 0.38274 -0.13414 0.0556
C11C C 0.61726 -0.13414 -0.0556
H12B H 0.3729 0.1557 -0.0234
H12FA H 0.6557 0.0234 0.1271
H12NA H 0.5234 0.1271 0.1557
H12GA H 0.3443 0.0234 -0.1271
H12HA H 0.6557 -0.0234 -0.1271
H12IA H 0.3443 -0.0234 0.1271
H12OA H 0.5234 -0.1271 -0.1557
H12PA H 0.4766 -0.1271 0.1557
H12QA H 0.4766 0.1271 -0.1557
H12A H 0.3729 -0.1557 0.0234
H12C H 0.6271 -0.1557 -0.0234
N3 N 0.2500 0.2500 0.2500
N4 N 0.5000 0.0000 0.0000
N5 N 0.3713(13) 0.1287(13) 0.1287(13)
N1 N 0.01437(5) 0.21093(5) 0.20015(5)
C1 C -0.03224(6) 0.22011(7) 0.23860(7)
H1 H -0.0293 0.1930 0.2707
C2 C -0.08967(7) 0.21343(8) 0.21039(8)
H2 H -0.1016 0.1735 0.2096
H3 H -0.0892 0.2283 0.1715
C4 C -0.12948(16) 0.2500 0.2500
H6 H -0.1538 0.2251 0.2729
C5 C 0.04909(6) 0.17285(7) 0.21296(7)
H7 H 0.0427 0.1517 0.2463
C6 C 0.09897(7) 0.15962(7) 0.17871(7)
C7 C 0.13191(7) 0.11344(7) 0.19229(7)
H8 H 0.1226 0.0913 0.2242
N1D N 0.20015 0.01437 0.21093
N1H N 0.21093 0.20015 0.01437
N1O N 0.01437 0.28907 0.29985
N1Q N 0.20015 0.48563 0.28907
N1V N 0.21093 0.29985 0.48563
N1EA N 0.29985 0.01437 0.28907
N1GA N 0.28907 0.20015 0.48563
N1PA N 0.29985 0.48563 0.21093
N1UA N 0.28907 0.29985 0.01437
N1Z N 0.48563 0.21093 0.29985
N1KA N 0.48563 0.28907 0.20015
C1D C 0.2386 -0.03224 0.22011
C1H C 0.22011 0.2386 -0.03224
C1O C -0.03224 0.27989 0.2614
C1Q C 0.2386 0.53224 0.27989
C1V C 0.22011 0.2614 0.53224
C1EA C 0.2614 -0.03224 0.27989
C1GA C 0.27989 0.2386 0.53224
C1PA C 0.2614 0.53224 0.22011
C1UA C 0.27989 0.2614 -0.03224
C1Z C 0.53224 0.22011 0.2614
C1KA C 0.53224 0.27989 0.2386
H1D H 0.2707 -0.0293 0.193
H1H H 0.193 0.2707 -0.0293
H1O H -0.0293 0.307 0.2293
H1Q H 0.2707 0.5293 0.307
H1V H 0.193 0.2293 0.5293
H1EA H 0.2293 -0.0293 0.307
H1GA H 0.307 0.2707 0.5293
H1PA H 0.2293 0.5293 0.193
H1UA H 0.307 0.2293 -0.0293
H1Z H 0.5293 0.193 0.2293
H1KA H 0.5293 0.307 0.2707
C2D C 0.21039 -0.08967 0.21343
C2H C 0.21343 0.21039 -0.08967
C2O C -0.08967 0.28657 0.28961
C2Q C 0.21039 0.58967 0.28657
C2V C 0.21343 0.28961 0.58967
C2EA C 0.28961 -0.08967 0.28657
C2GA C 0.28657 0.21039 0.58967
C2PA C 0.28961 0.58967 0.21343
C2UA C 0.28657 0.28961 -0.08967
C2Z C 0.58967 0.21343 0.28961
C2KA C 0.58967 0.28657 0.21039
H2D H 0.2096 -0.1016 0.1735
H2H H 0.1735 0.2096 -0.1016
H2O H -0.1016 0.3265 0.2904
H2Q H 0.2096 0.6016 0.3265
H2V H 0.1735 0.2904 0.6016
H2EA H 0.2904 -0.1016 0.3265
H2GA H 0.3265 0.2096 0.6016
H2PA H 0.2904 0.6016 0.1735
H2UA H 0.3265 0.2904 -0.1016
H2Z H 0.6016 0.1735 0.2904
H2KA H 0.6016 0.3265 0.2096
H3D H 0.1715 -0.0892 0.2283
H3H H 0.2283 0.1715 -0.0892
H3O H -0.0892 0.2717 0.3285
H3Q H 0.1715 0.5892 0.2717
H3V H 0.2283 0.3285 0.5892
H3EA H 0.3285 -0.0892 0.2717
H3GA H 0.2717 0.1715 0.5892
H3PA H 0.3285 0.5892 0.2283
H3UA H 0.2717 0.3285 -0.0892
H3Z H 0.5892 0.2283 0.3285
H3KA H 0.5892 0.2717 0.1715
C4D C 0.25 -0.12948 0.25
C4H C 0.25 0.25 -0.12948
C4Q C 0.25 0.62948 0.25
C4V C 0.25 0.25 0.62948
C4Z C 0.62948 0.25 0.25
H6D H 0.2729 -0.1538 0.2251
H6H H 0.2251 0.2729 -0.1538
H6O H -0.1538 0.2749 0.2271
H6Q H 0.2729 0.6538 0.2749
H6V H 0.2251 0.2271 0.6538
H6EA H 0.2271 -0.1538 0.2749
H6GA H 0.2749 0.2729 0.6538
H6PA H 0.2271 0.6538 0.2251
H6UA H 0.2749 0.2271 -0.1538
H6Z H 0.6538 0.2251 0.2271
H6KA H 0.6538 0.2749 0.2729
C5D C 0.21296 0.04909 0.17285
C5H C 0.17285 0.21296 0.04909
C5O C 0.04909 0.32715 0.28704
C5Q C 0.21296 0.45091 0.32715
C5V C 0.17285 0.28704 0.45091
C5EA C 0.28704 0.04909 0.32715
C5GA C 0.32715 0.21296 0.45091
C5PA C 0.28704 0.45091 0.17285
C5UA C 0.32715 0.28704 0.04909
C5Z C 0.45091 0.17285 0.28704
C5KA C 0.45091 0.32715 0.21296
H7D H 0.2463 0.0427 0.1517
H7H H 0.1517 0.2463 0.0427
H7O H 0.0427 0.3483 0.2537
H7Q H 0.2463 0.4573 0.3483
H7V H 0.1517 0.2537 0.4573
H7EA H 0.2537 0.0427 0.3483
H7GA H 0.3483 0.2463 0.4573
H7PA H 0.2537 0.4573 0.1517
H7UA H 0.3483 0.2537 0.0427
H7Z H 0.4573 0.1517 0.2537
H7KA H 0.4573 0.3483 0.2463
C6D C 0.17871 0.09897 0.15962
C6H C 0.15962 0.17871 0.09897
C6O C 0.09897 0.34038 0.32129
C6Q C 0.17871 0.40103 0.34038
C6V C 0.15962 0.32129 0.40103
C6EA C 0.32129 0.09897 0.34038
C6GA C 0.34038 0.17871 0.40103
C6PA C 0.32129 0.40103 0.15962
C6UA C 0.34038 0.32129 0.09897
C6Z C 0.40103 0.15962 0.32129
C6KA C 0.40103 0.34038 0.17871
C7D C 0.19229 0.13191 0.11344
C7H C 0.11344 0.19229 0.13191
C7O C 0.13191 0.38656 0.30771
C7Q C 0.19229 0.36809 0.38656
C7V C 0.11344 0.30771 0.36809
C7EA C 0.30771 0.13191 0.38656
C7GA C 0.38656 0.19229 0.36809
C7PA C 0.30771 0.36809 0.11344
C7UA C 0.38656 0.30771 0.13191
C7Z C 0.36809 0.11344 0.30771
C7KA C 0.36809 0.38656 0.19229
H8D H 0.2242 0.1226 0.0913
H8H H 0.0913 0.2242 0.1226
H8O H 0.1226 0.4087 0.2758
H8Q H 0.2242 0.3774 0.4087
H8V H 0.0913 0.2758 0.3774
H8EA H 0.2758 0.1226 0.4087
H8GA H 0.4087 0.2242 0.3774
H8PA H 0.2758 0.3774 0.0913
H8UA H 0.4087 0.2758 0.1226
H8Z H 0.3774 0.0913 0.2758
H8KA H 0.3774 0.4087 0.2242
C3? C -0.1366(4) 0.2805(4) 0.2608(4)
H4? H -0.1378 0.3073 0.2289
H5? H -0.1697 0.2873 0.2852

#END

