
#######################################################################
#
#                 Cambridge Crystallographic Data Centre
#                                CCDC 
#
#######################################################################
#
# If this CIF has been generated directly or indirectly from an entry in the 
# Cambridge Structural Database, then it will include bibliographic, chemical, 
# crystal, experimental, refinement or atomic coordinate data resulting from 
# the CCDC's data processing and validation procedures. Files generated from 
# CSD entries are Copyright 2016 Cambridge Crystallographic Data Centre. They 
# may be used in bona fide research applications only, and may not be copied or 
# further disseminated in any form, whether machine-readable or not, except for 
# the purposes of generating routine backup copies on your local computer 
# system.
# 
# Files arising from any other source may also contain material that is the 
# copyright of third parties, including the originator, and you should check 
# with the originator concerning the permitted uses of the information 
# contained in this CIF.
#
# For further information on the CCDC and the free tools enCIFer and Mercury
# for validating and visualising CIF files, please visit www.ccdc.cam.ac.uk
#
#######################################################################

data_MAVVAI
_audit_creation_date             2012-05-09
_database_code_depnum_ccdc_archive 'CCDC 848479'
_chemical_formula_moiety         'C66 H72 N6 S6,I2'
_chemical_name_systematic        
'2,23,25,46,65,66-Hexaethyl-12,13,35,36,55,56-hexathia-5,20,28,43,48,63-hexa-azadecacyclo[22.22.18.1^3,45^.1^22,26^.0^6,11^.0^14,19^.0^29,34^.0^37,42^.0^49,54^.0^57,62^]hexahexaconta-1,3(65),6,8,10,14,16,18,22(66),23,25,29,31,33,37,39,41,45,49,51,53,57,59,61-tetracosaene iodine'
_journal_coden_Cambridge         182
_journal_volume                  48
_journal_year                    2012
_journal_page_first              3227
_journal_name_full               Chem.Commun.
loop_
_publ_author_name
'Pin-Shen Huang'
'Chih-Hong Kuo'
'Chang-Chih Hsieh'
'Yih-Chern Horng'
_chemical_absolute_configuration unk
_diffrn_ambient_temperature      200
_exptl_crystal_density_meas      1.074
_exptl_crystal_density_diffrn    1.074
#These two values have been output from a single CSD field.
_refine_ls_R_factor_gt           0.0924
_refine_ls_wR_factor_gt          0.0924
_diffrn_radiation_probe          x-ray
_symmetry_cell_setting           rhombohedral
_symmetry_space_group_name_H-M   'R -3 c'
_symmetry_Int_Tables_number      167
loop_
_symmetry_equiv_pos_site_id
_symmetry_equiv_pos_as_xyz
1 x,y,z
2 -y,x-y,z
3 -x+y,-x,z
4 y,x,1/2-z
5 x-y,-y,1/2-z
6 -x,-x+y,1/2-z
7 2/3+x,1/3+y,1/3+z
8 2/3-y,1/3+x-y,1/3+z
9 2/3-x+y,1/3-x,1/3+z
10 2/3+y,1/3+x,5/6-z
11 2/3+x-y,1/3-y,5/6-z
12 2/3-x,1/3-x+y,5/6-z
13 1/3+x,2/3+y,2/3+z
14 1/3-y,2/3+x-y,2/3+z
15 1/3-x+y,2/3-x,2/3+z
16 1/3+y,2/3+x,1/6-z
17 1/3+x-y,2/3-y,1/6-z
18 1/3-x,2/3-x+y,1/6-z
19 -x,-y,-z
20 y,-x+y,-z
21 x-y,x,-z
22 -y,-x,1/2+z
23 -x+y,y,1/2+z
24 x,x-y,1/2+z
25 1/3-x,2/3-y,2/3-z
26 1/3+y,2/3-x+y,2/3-z
27 1/3+x-y,2/3+x,2/3-z
28 1/3-y,2/3-x,1/6+z
29 1/3-x+y,2/3+y,1/6+z
30 1/3+x,2/3+x-y,1/6+z
31 2/3-x,1/3-y,1/3-z
32 2/3+y,1/3-x+y,1/3-z
33 2/3+x-y,1/3+x,1/3-z
34 2/3-y,1/3-x,5/6+z
35 2/3-x+y,1/3+y,5/6+z
36 2/3+x,1/3+x-y,5/6+z
_cell_length_a                   17.583(3)
_cell_length_b                   17.583(3)
_cell_length_c                   48.345(10)
_cell_angle_alpha                90
_cell_angle_beta                 90
_cell_angle_gamma                120
_cell_volume                     12944
_cell_formula_units_Z            6
loop_
_atom_site_label
_atom_site_type_symbol
_atom_site_fract_x
_atom_site_fract_y
_atom_site_fract_z
C1 C 0.6758(5) 0.9299(6) 0.2157(2)
C2 C 0.5999(11) 0.9287(17) 0.2212(5)
H1 H 0.5822 0.9255 0.2399
C3 C 0.5424(11) 0.9322(9) 0.1989(5)
H2 H 0.4936 0.9400 0.2025
C4 C 0.5670(7) 0.9231(7) 0.1736(2)
H3 H 0.5265 0.9082 0.1588
C5 C 0.6464(5) 0.9342(5) 0.16844(18)
H4 H 0.6644 0.9388 0.1497
C6 C 0.7050(5) 0.9394(5) 0.18917(18)
C7 C 0.8186(5) 0.9610(5) 0.15680(16)
H5 H 0.8137 1.0077 0.1469
H6 H 0.7827 0.9052 0.1467
C8 C 0.9131(5) 0.9830(5) 0.15680(14)
C9 C 0.9328(5) 0.9112(5) 0.15583(16)
C10 C 0.8577(5) 0.8193(5) 0.15820(18)
H7 H 0.8762 0.7845 0.1695
H8 H 0.8087 0.8202 0.1680
C11 C 0.8270(8) 0.7772(9) 0.1322(3)
H9 H 0.7760 0.7186 0.1350
H10 H 0.8738 0.7717 0.1230
H11 H 0.8102 0.8121 0.1206
N1 N 0.7852(4) 0.9526(4) 0.18383(13)
H12 H 0.8188 0.9562 0.1978
S1 S 0.74430(18) 0.9360(2) 0.24422(5)
C1A C 1.0701 0.7459 0.2157
C1B C 1.2541 1.3242 0.2157
C1C C 0.9299 0.6758 0.2843
C1D C 0.7459 1.0701 0.2843
C1E C 1.3242 1.2541 0.2843
C2A C 1.0713 0.6712 0.2212
C2B C 1.3288 1.4001 0.2212
C2C C 0.9287 0.5999 0.2788
C2D C 0.6712 1.0713 0.2788
C2E C 1.4001 1.3288 0.2788
H1A H 1.0745 0.6567 0.2399
H1B H 1.3433 1.4178 0.2399
H1C H 0.9255 0.5822 0.2601
H1D H 0.6567 1.0745 0.2601
H1E H 1.4178 1.3433 0.2601
C3A C 1.0678 0.6102 0.1989
C3B C 1.3898 1.4576 0.1989
C3C C 0.9322 0.5424 0.3011
C3D C 0.6102 1.0678 0.3011
C3E C 1.4576 1.3898 0.3011
H2A H 1.06 0.5536 0.2025
H2B H 1.4464 1.5064 0.2025
H2C H 0.94 0.4936 0.2975
H2D H 0.5536 1.06 0.2975
H2E H 1.5064 1.4464 0.2975
C4A C 1.0769 0.6439 0.1736
C4B C 1.3561 1.433 0.1736
C4C C 0.9231 0.567 0.3264
C4D C 0.6439 1.0769 0.3264
C4E C 1.433 1.3561 0.3264
H3A H 1.0918 0.6183 0.1588
H3B H 1.3817 1.4735 0.1588
H3C H 0.9082 0.5265 0.3412
H3D H 0.6183 1.0918 0.3412
H3E H 1.4735 1.3817 0.3412
C5A C 1.0658 0.7122 0.16844
C5B C 1.2878 1.3536 0.16844
C5C C 0.9342 0.6464 0.33156
C5D C 0.7122 1.0658 0.33156
C5E C 1.3536 1.2878 0.33156
H4A H 1.0612 0.7256 0.1497
H4B H 1.2744 1.3356 0.1497
H4C H 0.9388 0.6644 0.3503
H4D H 0.7256 1.0612 0.3503
H4E H 1.3356 1.2744 0.3503
C6A C 1.0606 0.7656 0.18917
C6B C 1.2344 1.295 0.18917
C6C C 0.9394 0.705 0.31083
C6D C 0.7656 1.0606 0.31083
C6E C 1.295 1.2344 0.31083
C7A C 1.039 0.8576 0.1568
C7B C 1.1424 1.1814 0.1568
C7C C 0.961 0.8186 0.3432
C7D C 0.8576 1.039 0.3432
C7E C 1.1814 1.1424 0.3432
H5A H 0.9923 0.806 0.1469
H5B H 1.194 1.1863 0.1469
H5C H 1.0077 0.8137 0.3531
H5D H 0.806 0.9923 0.3531
H5E H 1.1863 1.194 0.3531
H6A H 1.0948 0.8775 0.1467
H6B H 1.1225 1.2173 0.1467
H6C H 0.9052 0.7827 0.3533
H6D H 0.8775 1.0948 0.3533
H6E H 1.2173 1.1225 0.3533
C8A C 1.017 0.9301 0.1568
C8B C 1.0699 1.0869 0.1568
C8C C 0.983 0.9131 0.3432
C8D C 0.9301 1.017 0.3432
C8E C 1.0869 1.0699 0.3432
C9A C 1.0888 1.0216 0.15583
C9B C 0.9784 1.0672 0.15583
C9C C 0.9112 0.9328 0.34417
C9D C 1.0216 1.0888 0.34417
C9E C 1.0672 0.9784 0.34417
C10A C 1.1807 1.0384 0.1582
C10B C 0.9616 1.1423 0.1582
C10C C 0.8193 0.8577 0.3418
C10D C 1.0384 1.1807 0.3418
C10E C 1.1423 0.9616 0.3418
H7A H 1.2155 1.0917 0.1695
H7B H 0.9083 1.1238 0.1695
H7C H 0.7845 0.8762 0.3305
H7D H 1.0917 1.2155 0.3305
H7E H 1.1238 0.9083 0.3305
H8A H 1.1798 0.9885 0.168
H8B H 1.0115 1.1913 0.168
H8C H 0.8202 0.8087 0.332
H8D H 0.9885 1.1798 0.332
H8E H 1.1913 1.0115 0.332
C11A C 1.2228 1.0498 0.1322
C11B C 0.9502 1.173 0.1322
C11C C 0.7772 0.827 0.3678
C11D C 1.0498 1.2228 0.3678
C11E C 1.173 0.9502 0.3678
H9A H 1.2814 1.0574 0.135
H9B H 0.9426 1.224 0.135
H9C H 0.7186 0.776 0.365
H9D H 1.0574 1.2814 0.365
H9E H 1.224 0.9426 0.365
H10A H 1.2283 1.1021 0.123
H10B H 0.8979 1.1262 0.123
H10C H 0.7717 0.8738 0.377
H10D H 1.1021 1.2283 0.377
H10E H 1.1262 0.8979 0.377
H11A H 1.1879 0.9981 0.1206
H11B H 1.0019 1.1898 0.1206
H11C H 0.8121 0.8102 0.3794
H11D H 0.9981 1.1879 0.3794
H11E H 1.1898 1.0019 0.3794
N1A N 1.0474 0.8326 0.18383
N1B N 1.1674 1.2148 0.18383
N1C N 0.9526 0.7852 0.31617
N1D N 0.8326 1.0474 0.31617
N1E N 1.2148 1.1674 0.31617
H12A H 1.0438 0.8626 0.1978
H12B H 1.1374 1.1812 0.1978
H12C H 0.9562 0.8188 0.3022
H12D H 0.8626 1.0438 0.3022
H12E H 1.1812 1.1374 0.3022
S1A S 1.064 0.8083 0.24422
S1B S 1.1917 1.2557 0.24422
S1C S 0.936 0.7443 0.25578
S1D S 0.8083 1.064 0.25578
S1E S 1.2557 1.1917 0.25578
I1 I 0.0000 0.0000 0.22287(2)
I1C I 0 0 0.27713
C12? C 0.5740(19) 0.885(3) 0.2240(7)
C13? C 0.5237(19) 0.8838(15) 0.1989(7)
H13? H 0.5499 0.8629 0.2418
H14? H 0.4615 0.8563 0.1998

#END

