
#######################################################################
#
#                 Cambridge Crystallographic Data Centre
#                                CCDC 
#
#######################################################################
#
# If this CIF has been generated directly or indirectly from an entry in the 
# Cambridge Structural Database, then it will include bibliographic, chemical, 
# crystal, experimental, refinement or atomic coordinate data resulting from 
# the CCDC's data processing and validation procedures. Files generated from 
# CSD entries are Copyright 2015 Cambridge Crystallographic Data Centre. They 
# may be used in bona fide research applications only, and may not be copied or 
# further disseminated in any form, whether machine-readable or not, except for 
# the purposes of generating routine backup copies on your local computer 
# system.
# 
# Files arising from any other source may also contain material that is the 
# copyright of third parties, including the originator, and you should check 
# with the originator concerning the permitted uses of the information 
# contained in this CIF.
#
# For further information on the CCDC and the free tools enCIFer and Mercury
# for validating and visualising CIF files, please visit www.ccdc.cam.ac.uk
#
#######################################################################

data_TATVER
_audit_creation_date             2012-05-22
_database_code_depnum_ccdc_archive 'CCDC 847448'
_chemical_formula_moiety         'C134 H92 N12 O6,18.5(C4 H8 O1)'
_chemical_name_systematic        
"2,2':7',2'':7'',2''':7,7''':12,12'':12',12'''-hexakis((5-methyl-2-hydroxy-1,3-phenylene)bis(methylylidenenitrilo))-tetrakis(triptycene) tetrahydrofuran solvate"
_journal_coden_Cambridge         1220
_journal_volume                  18
_journal_year                    2012
_journal_page_first              836
_journal_name_full               Chem.-Eur.J.
loop_
_publ_author_name
M.W.Schneider
I.M.Oppel
H.Ott
L.G.Lechner
H.-J.S.Hauswald
R.Stoll
M.Mastalerz
_chemical_absolute_configuration unk
_diffrn_ambient_temperature      100
_exptl_crystal_density_meas      1.196
_exptl_crystal_density_diffrn    1.196
#These two values have been output from a single CSD field.
_refine_ls_R_factor_gt           0.0842
_refine_ls_wR_factor_gt          0.0842
_diffrn_radiation_probe          x-ray
_symmetry_cell_setting           triclinic
_symmetry_space_group_name_H-M   'P -1'
_symmetry_Int_Tables_number      2
loop_
_symmetry_equiv_pos_site_id
_symmetry_equiv_pos_as_xyz
1 x,y,z
2 -x,-y,-z
_cell_length_a                   19.6680(10)
_cell_length_b                   21.6239(11)
_cell_length_c                   22.8285(13)
_cell_angle_alpha                89.766(3)
_cell_angle_beta                 71.390(2)
_cell_angle_gamma                84.828(2)
_cell_volume                     9160.68
_exptl_crystal_colour            orange
_exptl_crystal_description       prism
_cell_formula_units_Z            2
loop_
_atom_site_label
_atom_site_type_symbol
_atom_site_fract_x
_atom_site_fract_y
_atom_site_fract_z
O1 O 0.56959(12) 0.46918(10) 0.38639(10)
H1 H 0.5737 0.4370 0.4062
C1 C 0.50230(18) 0.49720(14) 0.40988(14)
C2 C 0.45019(17) 0.47221(14) 0.45955(15)
C3 C 0.38144(19) 0.50372(15) 0.48299(16)
H2 H 0.3468 0.4868 0.5168
C4 C 0.36196(19) 0.55914(15) 0.45847(17)
C5 C 0.41381(18) 0.58246(15) 0.40871(15)
H3 H 0.4016 0.6200 0.3911
C6 C 0.48316(17) 0.55263(14) 0.38372(14)
C7 C 0.2887(2) 0.59361(18) 0.4861(2)
H4 H 0.2558 0.5658 0.5125
H5 H 0.2701 0.6082 0.4529
H6 H 0.2923 0.6293 0.5109
C8 C 0.46656(18) 0.41355(14) 0.48595(15)
H7 H 0.4300 0.3971 0.5187
C9 C 0.53814(18) 0.57849(14) 0.33231(14)
H8 H 0.5858 0.5586 0.3192
N1 N 0.52915(15) 0.38355(11) 0.46597(12)
N2 N 0.52382(15) 0.62699(12) 0.30472(12)
O2 O 0.98565(11) 0.06273(9) 0.39219(9)
H9 H 0.9405 0.0679 0.4029
C10 C 1.00594(16) 0.00832(13) 0.41334(13)
C11 C 1.07946(16) -0.01045(14) 0.39937(12)
C12 C 1.10091(17) -0.06733(13) 0.42073(13)
H10 H 1.1509 -0.0800 0.4107
C13 C 1.05147(17) -0.10566(13) 0.45608(13)
C14 C 0.97871(17) -0.08588(13) 0.47065(13)
H11 H 0.9442 -0.1111 0.4957
C15 C 0.95469(16) -0.03002(13) 0.44958(12)
C16 C 1.07571(19) -0.16653(15) 0.47967(17)
H12 H 1.0395 -0.1761 0.5186
H13 H 1.1218 -0.1630 0.4867
H14 H 1.0815 -0.1998 0.4490
C17 C 1.13107(16) 0.03263(14) 0.36642(13)
H15 H 1.1133 0.0712 0.3543
C18 C 0.87880(16) -0.00993(13) 0.46802(13)
H16 H 0.8452 -0.0364 0.4923
N3 N 1.19964(14) 0.02027(12) 0.35323(11)
N4 N 0.85538(13) 0.04323(11) 0.45229(10)
O3 O 1.06222(14) 0.48957(11) 0.19801(11)
H17 H 1.0322 0.5088 0.1838
C19 C 1.07215(18) 0.52446(14) 0.24261(14)
C20 C 1.03471(18) 0.58386(14) 0.26000(15)
C21 C 1.04664(18) 0.61823(15) 0.30693(15)
H18 H 1.0210 0.6580 0.3186
C22 C 1.09442(19) 0.59634(15) 0.33681(15)
C23 C 1.13142(18) 0.53783(14) 0.31861(14)
H19 H 1.1650 0.5222 0.3384
C24 C 1.12105(18) 0.50159(14) 0.27263(14)
C25 C 1.1090(2) 0.63496(16) 0.38580(18)
H20 H 1.0808 0.6754 0.3907
H21 H 1.1604 0.6410 0.3733
H22 H 1.0953 0.6135 0.4252
C26 C 0.98494(18) 0.61133(15) 0.22997(15)
H23 H 0.9608 0.6511 0.2441
C27 C 1.16414(17) 0.44153(14) 0.25402(14)
H24 H 1.1633 0.4197 0.2182
N5 N 0.97191(15) 0.58437(13) 0.18502(12)
N6 N 1.20228(15) 0.41880(12) 0.28565(12)
O4 O 0.80132(13) 0.40705(11) -0.13519(10)
H25 H 0.8191 0.3711 -0.1489
C28 C 0.75167(18) 0.42720(15) -0.16178(14)
C29 C 0.73582(19) 0.39015(15) -0.20597(15)
C30 C 0.68399(19) 0.41300(16) -0.23194(16)
H26 H 0.6737 0.3880 -0.2616
C31 C 0.64652(19) 0.47181(16) -0.21569(17)
C32 C 0.66304(19) 0.50732(16) -0.17270(15)
H27 H 0.6384 0.5475 -0.1615
C33 C 0.71450(18) 0.48628(15) -0.14527(14)
C34 C 0.5902(2) 0.49472(18) -0.2454(2)
H28 H 0.6120 0.4930 -0.2905
H29 H 0.5720 0.5376 -0.2315
H30 H 0.5503 0.4683 -0.2334
C35 C 0.77298(18) 0.32908(15) -0.22423(15)
H31 H 0.7598 0.3045 -0.2525
C36 C 0.73276(19) 0.52484(15) -0.10062(14)
H32 H 0.7681 0.5084 -0.0830
N7 N 0.82360(15) 0.30694(12) -0.20321(12)
N8 N 0.70294(16) 0.57936(13) -0.08480(12)
O5 O 1.27155(11) 0.11351(9) -0.07473(9)
H33 H 1.2864 0.1227 -0.0455
C37 C 1.32658(16) 0.11137(13) -0.12843(13)
C38 C 1.31345(16) 0.09724(13) -0.18370(13)
C39 C 1.37090(16) 0.09380(13) -0.23915(13)
H34 H 1.3622 0.0837 -0.2764
C40 C 1.44042(16) 0.10465(13) -0.24151(13)
C41 C 1.45237(16) 0.11995(13) -0.18674(13)
H35 H 1.4994 0.1281 -0.1877
C42 C 1.39622(16) 0.12361(13) -0.13007(13)
C43 C 1.50208(17) 0.09823(15) -0.30148(13)
H36 H 1.5314 0.1332 -0.3050
H37 H 1.4830 0.0980 -0.3362
H38 H 1.5319 0.0592 -0.3022
C44 C 1.24044(16) 0.08638(13) -0.18195(13)
H39 H 1.2029 0.0878 -0.1434
C45 C 1.41154(17) 0.13925(13) -0.07375(13)
H40 H 1.4581 0.1501 -0.0764
N9 N 1.22642(13) 0.07502(12) -0.23150(11)
N10 N 1.36293(13) 0.13851(11) -0.02079(10)
O6 O 0.70114(11) 0.04503(10) 0.12364(9)
H41 H 0.7315 0.0412 0.0881
C46 C 0.63546(16) 0.03553(13) 0.12061(13)
C47 C 0.57637(16) 0.03970(13) 0.17512(13)
C48 C 0.50886(16) 0.02862(13) 0.17208(13)
H42 H 0.4691 0.0311 0.2092
C49 C 0.49717(16) 0.01412(13) 0.11713(13)
C50 C 0.55612(16) 0.01133(14) 0.06336(13)
H43 H 0.5494 0.0021 0.0250
C51 C 0.62491(16) 0.02167(13) 0.06412(13)
C52 C 0.42321(17) 0.00151(17) 0.11705(14)
H44 H 0.3974 0.0401 0.1096
H45 H 0.3965 -0.0146 0.1572
H46 H 0.4275 -0.0292 0.0843
C53 C 0.58544(16) 0.05380(13) 0.23489(13)
H47 H 0.6319 0.0596 0.2370
C54 C 0.68431(16) 0.01746(13) 0.00646(13)
H48 H 0.6746 0.0085 -0.0307
N11 N 0.53119(13) 0.05825(11) 0.28389(11)
N12 N 0.74955(14) 0.02536(12) 0.00325(11)
C55 C 0.68369(16) 0.12667(13) 0.45408(12)
C56 C 0.75656(16) 0.10669(13) 0.43678(12)
H49 H 0.7892 0.1211 0.4001
C57 C 0.78123(16) 0.06512(14) 0.47411(13)
C58 C 0.73426(16) 0.04729(14) 0.53035(13)
H50 H 0.7521 0.0215 0.5570
C59 C 0.66161(16) 0.06746(13) 0.54704(12)
H51 H 0.6295 0.0550 0.5850
C60 C 0.63562(16) 0.10564(13) 0.50859(12)
C61 C 0.55737(16) 0.12735(13) 0.51674(12)
H52 H 0.5229 0.1116 0.5550
C62 C 0.54538(16) 0.10555(13) 0.45741(12)
C63 C 0.49322(15) 0.06914(12) 0.45268(13)
H53 H 0.4598 0.0544 0.4888
C64 C 0.49016(16) 0.05418(13) 0.39445(13)
H54 H 0.4537 0.0297 0.3911
C65 C 0.53968(16) 0.07448(13) 0.34077(13)
C66 C 0.59178(15) 0.11238(12) 0.34587(12)
H55 H 0.6251 0.1274 0.3099
C67 C 0.59392(15) 0.12751(12) 0.40372(12)
C68 C 0.64641(16) 0.16841(13) 0.41703(12)
H56 H 0.6808 0.1843 0.3788
C69 C 0.59878(16) 0.21997(13) 0.46013(13)
C70 C 0.59376(16) 0.28233(13) 0.44664(13)
H57 H 0.6263 0.2975 0.4102
C71 C 0.54012(17) 0.32275(13) 0.48738(14)
C72 C 0.49763(17) 0.30154(14) 0.54394(14)
H58 H 0.4649 0.3300 0.5734
C73 C 0.50315(16) 0.23890(13) 0.55722(13)
H59 H 0.4738 0.2243 0.5954
C74 C 0.55180(16) 0.19782(13) 0.51427(13)
C75 C 1.32225(16) 0.18002(13) 0.14263(13)
C76 C 1.31484(16) 0.16583(12) 0.08668(13)
H60 H 1.2682 0.1652 0.0830
C77 C 1.37605(16) 0.15230(13) 0.03499(13)
C78 C 1.44430(17) 0.15182(14) 0.04120(13)
H61 H 1.4860 0.1420 0.0064
C79 C 1.45145(17) 0.16572(14) 0.09854(13)
H62 H 1.4980 0.1657 0.1026
C80 C 1.39091(16) 0.17955(13) 0.14927(13)
C81 C 1.38821(16) 0.19391(13) 0.21510(13)
H63 H 1.4371 0.1933 0.2199
C82 C 1.34211(16) 0.14691(13) 0.25520(13)
C83 C 1.36118(16) 0.10553(14) 0.29475(13)
H64 H 1.4071 0.1053 0.3002
C84 C 1.31298(16) 0.06421(14) 0.32655(13)
H65 H 1.3266 0.0354 0.3533
C85 C 1.24475(16) 0.06435(14) 0.31976(13)
C86 C 1.22572(16) 0.10641(13) 0.27923(13)
H66 H 1.1801 0.1065 0.2732
C87 C 1.27364(16) 0.14748(13) 0.24833(12)
C88 C 1.26083(16) 0.19581(13) 0.20293(13)
H67 H 1.2120 0.1964 0.1982
C89 C 1.27515(17) 0.25773(14) 0.22667(13)
C90 C 1.22745(17) 0.31057(14) 0.24221(13)
H68 H 1.1815 0.3114 0.2367
C91 C 1.24761(18) 0.36287(14) 0.26624(14)
C92 C 1.31527(18) 0.36062(14) 0.27446(14)
H69 H 1.3282 0.3956 0.2922
C93 C 1.36372(18) 0.30811(14) 0.25703(14)
H70 H 1.4103 0.3075 0.2613
C94 C 1.34350(17) 0.25656(14) 0.23338(13)
C95 C 0.68792(18) 0.63327(14) 0.16785(14)
C96 C 0.63391(18) 0.60863(14) 0.21416(14)
H71 H 0.6329 0.5649 0.2175
C97 C 0.58064(17) 0.64845(14) 0.25614(14)
C98 C 0.58225(19) 0.71266(14) 0.24992(14)
H72 H 0.5452 0.7398 0.2774
C99 C 0.63745(18) 0.73725(14) 0.20393(14)
H73 H 0.6393 0.7810 0.2012
C100 C 0.68956(18) 0.69792(14) 0.16231(14)
C101 C 0.75248(18) 0.71646(14) 0.10818(14)
H74 H 0.7531 0.7625 0.1040
C102 C 0.74614(18) 0.68404(14) 0.05165(14)
C103 C 0.73588(18) 0.71244(15) 0.00008(14)
H75 H 0.7380 0.7560 -0.0045
C104 C 0.7225(2) 0.67660(15) -0.04487(15)
H76 H 0.7142 0.6960 -0.0797
C105 C 0.72109(19) 0.61251(15) -0.03924(15)
C106 C 0.73228(18) 0.58353(15) 0.01274(14)
H77 H 0.7314 0.5399 0.0169
C107 C 0.74455(18) 0.61971(14) 0.05761(14)
C108 C 0.75073(18) 0.59688(14) 0.11942(14)
H78 H 0.7501 0.5509 0.1235
C109 C 0.81830(18) 0.62117(14) 0.12741(13)
C110 C 0.87061(18) 0.58741(15) 0.14599(14)
H79 H 0.8706 0.5436 0.1496
C111 C 0.92315(19) 0.61815(15) 0.15931(14)
C112 C 0.92667(19) 0.68216(16) 0.14859(15)
H80 H 0.9649 0.7025 0.1546
C113 C 0.87443(19) 0.71556(15) 0.12930(15)
H81 H 0.8766 0.7588 0.1221
C114 C 0.81924(18) 0.68557(14) 0.12063(14)
C115 C 0.92076(16) 0.15828(14) -0.18951(13)
C116 C 0.89224(17) 0.21908(15) -0.17972(14)
H82 H 0.8956 0.2425 -0.1458
C117 C 0.85822(17) 0.24643(14) -0.21987(14)
C118 C 0.85831(17) 0.21277(15) -0.27248(14)
H83 H 0.8388 0.2323 -0.3017
C119 C 0.88687(17) 0.15098(15) -0.28175(13)
H84 H 0.8864 0.1282 -0.3171
C120 C 0.91578(16) 0.12295(15) -0.23957(13)
C121 C 0.94206(16) 0.05428(14) -0.23793(13)
H85 H 0.9375 0.0290 -0.2728
C122 C 1.01896(16) 0.05312(14) -0.23763(13)
C123 C 1.07935(17) 0.02427(14) -0.28140(13)
H86 H 1.0747 -0.0007 -0.3138
C124 C 1.14712(17) 0.03239(15) -0.27710(13)
H87 H 1.1889 0.0135 -0.3076
C125 C 1.15484(16) 0.06739(14) -0.22936(13)
C126 C 1.09329(16) 0.09622(14) -0.18475(13)
H88 H 1.0978 0.1205 -0.1519
C127 C 1.02579(17) 0.08878(14) -0.18929(13)
C128 C 0.95350(16) 0.12021(14) -0.14705(13)
H89 H 0.9584 0.1453 -0.1122
C129 C 0.90155(16) 0.07033(14) -0.12575(13)
C130 C 0.85521(16) 0.06496(14) -0.06674(13)
H90 H 0.8587 0.0896 -0.0337
C131 C 0.80287(17) 0.02282(14) -0.05591(13)
C132 C 0.80215(17) -0.01755(14) -0.10318(14)
H91 H 0.7695 -0.0487 -0.0948
C133 C 0.84967(17) -0.01193(15) -0.16279(14)
H92 H 0.8496 -0.0395 -0.1951
C134 C 0.89666(16) 0.03356(14) -0.17478(14)

#END

