####################################################################### 
# 
# This file contains crystal structure data downloaded from the 
# Cambridge Structural Database (CSD) hosted by the Cambridge 
# Crystallographic Data Centre (CCDC).
# 
# Full information about CCDC data access policies and citation 
# guidelines are available at http://www.ccdc.cam.ac.uk/access/V1 
# 
# Audit and citation data items may have been added by the CCDC. 
# Please retain this information to preserve the provenance of 
# this file and to allow appropriate attribution of the data. 
# 
#######################################################################

data_exp_1097
_audit_block_doi                 10.5517/cc11xmxh
_database_code_depnum_ccdc_archive 'CCDC 980837'
loop_
_citation_id
_citation_doi
_citation_year
1 10.1002/anie.201400285 2014
_audit_update_record             
;
2014-01-09 deposited with the CCDC.
2015-03-02 downloaded from the CCDC.
;

_audit_creation_method           SHELXL-97
_chemical_name_systematic        
; 
 ? 
;
_chemical_name_common            ?
_chemical_melting_point          ?
_chemical_formula_moiety         ?
_chemical_formula_sum            'C216 H216 B12 O24'
_chemical_formula_weight         3325.61

loop_
_atom_type_symbol
_atom_type_description
_atom_type_scat_dispersion_real
_atom_type_scat_dispersion_imag
_atom_type_scat_source
C C 0.0181 0.0091 'International Tables Vol C Tables 4.2.6.8 and 6.1.1.4'
H H 0.0000 0.0000 'International Tables Vol C Tables 4.2.6.8 and 6.1.1.4'
B B 0.0090 0.0039 'International Tables Vol C Tables 4.2.6.8 and 6.1.1.4'
O O 0.0492 0.0322 'International Tables Vol C Tables 4.2.6.8 and 6.1.1.4'

_symmetry_cell_setting           tetragonal
_symmetry_space_group_name_H-M   'P 4/n'

loop_
_symmetry_equiv_pos_as_xyz
'x, y, z'
'-y+1/2, x, z'
'-x+1/2, -y+1/2, z'
'y, -x+1/2, z'
'-x, -y, -z'
'y-1/2, -x, -z'
'x-1/2, y-1/2, -z'
'-y, x-1/2, -z'

_cell_length_a                   37.7346(7)
_cell_length_b                   37.7346(7)
_cell_length_c                   47.0521(17)
_cell_angle_alpha                90.00
_cell_angle_beta                 90.00
_cell_angle_gamma                90.00
_cell_volume                     66997(3)
_cell_formula_units_Z            8
_cell_measurement_temperature    100(2)
_cell_measurement_reflns_used    11324
_cell_measurement_theta_min      3.6200
_cell_measurement_theta_max      40.3420

_exptl_crystal_description       ?
_exptl_crystal_colour            ?
_exptl_crystal_size_max          ?
_exptl_crystal_size_mid          ?
_exptl_crystal_size_min          ?
_exptl_crystal_density_meas      ?
_exptl_crystal_density_diffrn    0.659
_exptl_crystal_density_method    'not measured'
_exptl_crystal_F_000             14112
_exptl_absorpt_coefficient_mu    0.327
_exptl_absorpt_correction_T_min  0.70661
_exptl_absorpt_correction_T_max  1.00000
_exptl_absorpt_correction_type   multi-scan
_exptl_absorpt_process_details   
;
CrysAlisPro, Agilent Technologies,
Version 1.171.36.28 (release 01-02-2013 CrysAlis171 .NET)
(compiled Feb  1 2013,16:14:44)
Empirical absorption correction using spherical harmonics,
 implemented in SCALE3 ABSPACK scaling algorithm.
;

_exptl_special_details           
; 
 ? 
;

_diffrn_ambient_temperature      100(2)
_diffrn_radiation_wavelength     1.54184
_diffrn_radiation_type           CuK\a
_diffrn_radiation_source         'SuperNova (Cu) X-ray Source'
_diffrn_radiation_monochromator  mirror
_diffrn_measurement_device_type  'SuperNova, Dual, Cu at zero, Atlas'
_diffrn_measurement_method       ?
_diffrn_detector_area_resol_mean 5.1734
_diffrn_standards_number         ?
_diffrn_standards_interval_count ?
_diffrn_standards_interval_time  ?
_diffrn_standards_decay_%        ?
_diffrn_reflns_number            33601
_diffrn_reflns_av_R_equivalents  0.0489
_diffrn_reflns_av_sigmaI/netI    0.0684
_diffrn_reflns_limit_h_min       -32
_diffrn_reflns_limit_h_max       20
_diffrn_reflns_limit_k_min       -30
_diffrn_reflns_limit_k_max       27
_diffrn_reflns_limit_l_min       -32
_diffrn_reflns_limit_l_max       28
_diffrn_reflns_theta_min         3.44
_diffrn_reflns_theta_max         40.95
_reflns_number_total             19063
_reflns_number_gt                9562
_reflns_threshold_expression     >2sigma(I)
_diffrn_measurement_details      
;
#__ type_ start__ end____ width___ exp.time_
  1 omega -106.00  -12.00   0.5000  240.0000
omega____ theta____ kappa____ phi______ frames
    -      -37.0543  -57.0000   90.0000 188

#__ type_ start__ end____ width___ exp.time_
  2 omega  -63.00  -34.50   0.5000  240.0000
omega____ theta____ kappa____ phi______ frames
    -      -37.0543   77.0000 -150.0000 57

;

_computing_data_collection       
;
CrysAlisPro, Agilent Technologies,
Version 1.171.36.28 (release 01-02-2013 CrysAlis171 .NET)
(compiled Feb  1 2013,16:14:44)
;
_computing_cell_refinement       
;
CrysAlisPro, Agilent Technologies,
Version 1.171.36.28 (release 01-02-2013 CrysAlis171 .NET)
(compiled Feb  1 2013,16:14:44)
;
_computing_data_reduction        
;
CrysAlisPro, Agilent Technologies,
Version 1.171.36.28 (release 01-02-2013 CrysAlis171 .NET)
(compiled Feb  1 2013,16:14:44)
;
_computing_structure_solution    'SHELXS-97 (Sheldrick, 1990)'
_computing_structure_refinement  'SHELXL-97 (Sheldrick, 1997)'
_computing_molecular_graphics    ?
_computing_publication_material  ?

_refine_special_details          
; 
 Refinement of F^2^ against ALL reflections.  The weighted R-factor wR and 
 goodness of fit S are based on F^2^, conventional R-factors R are based 
 on F, with F set to zero for negative F^2^. The threshold expression of 
 F^2^ > 2sigma(F^2^) is used only for calculating R-factors(gt) etc. and is 
 not relevant to the choice of reflections for refinement.  R-factors based 
 on F^2^ are statistically about twice as large as those based on F, and R- 
 factors based on ALL data will be even larger. 
;

_refine_ls_structure_factor_coef Fsqd
_refine_ls_matrix_type           full
_refine_ls_weighting_scheme      calc
_refine_ls_weighting_details     
'calc w=1/[\s^2^(Fo^2^)+(0.2000P)^2^+0.0000P] where P=(Fo^2^+2Fc^2^)/3'
_atom_sites_solution_primary     direct
_atom_sites_solution_secondary   difmap
_atom_sites_solution_hydrogens   geom
_refine_ls_hydrogen_treatment    constr
_refine_ls_extinction_method     none
_refine_ls_extinction_coef       ?
_refine_ls_number_reflns         19063
_refine_ls_number_parameters     736
_refine_ls_number_restraints     701
_refine_ls_R_factor_all          0.2099
_refine_ls_R_factor_gt           0.1732
_refine_ls_wR_factor_ref         0.4856
_refine_ls_wR_factor_gt          0.4347
_refine_ls_goodness_of_fit_ref   1.492
_refine_ls_restrained_S_all      1.480
_refine_ls_shift/su_max          0.001
_refine_ls_shift/su_mean         0.000

loop_
_atom_site_label
_atom_site_type_symbol
_atom_site_fract_x
_atom_site_fract_y
_atom_site_fract_z
_atom_site_U_iso_or_equiv
_atom_site_adp_type
_atom_site_occupancy
_atom_site_symmetry_multiplicity
_atom_site_calc_flag
_atom_site_refinement_flags
_atom_site_disorder_assembly
_atom_site_disorder_group
C1A C 0.62226(15) 0.50007(16) -0.63168(14) 0.120(3) Uiso 1 1 d GD . .
C2A C 0.61393(12) 0.48067(17) -0.65589(14) 0.122(3) Uiso 1 1 d GD . .
H2A H 0.5909 0.4808 -0.6629 0.146 Uiso 1 1 calc R . .
C3A C 0.64002(17) 0.46102(15) -0.66955(11) 0.108(3) Uiso 1 1 d GD . .
C4A C 0.67443(15) 0.46077(16) -0.65901(14) 0.122(3) Uiso 1 1 d GD . .
H4A H 0.6919 0.4476 -0.6681 0.147 Uiso 1 1 calc R . .
C5A C 0.68275(13) 0.48017(17) -0.63480(14) 0.121(3) Uiso 1 1 d GD . .
C6A C 0.65667(17) 0.49982(16) -0.62114(11) 0.116(3) Uiso 1 1 d GD . .
H6A H 0.6622 0.5128 -0.6049 0.139 Uiso 1 1 calc R . .
B11A B 0.5928(2) 0.5240(3) -0.6189(2) 0.115(4) Uiso 1 1 d D . .
O12A O 0.59681(15) 0.54589(16) -0.59543(14) 0.120(2) Uiso 1 1 d D . .
C13A C 0.56535(13) 0.56623(16) -0.59508(14) 0.112(3) Uiso 1 1 d GD . .
C14A C 0.55439(15) 0.59370(16) -0.57746(11) 0.118(3) Uiso 1 1 d GD . .
H14A H 0.5685 0.6006 -0.5622 0.141 Uiso 1 1 calc R . .
C15A C 0.52242(16) 0.61081(14) -0.58264(13) 0.105(3) Uiso 1 1 d GD . .
C16A C 0.50140(12) 0.60046(15) -0.60543(14) 0.099(3) Uiso 1 1 d GD . .
C17A C 0.51235(15) 0.57300(16) -0.62305(11) 0.106(3) Uiso 1 1 d GD . .
H17A H 0.4983 0.5661 -0.6383 0.127 Uiso 1 1 calc R . .
C18A C 0.54433(16) 0.55588(14) -0.61788(13) 0.106(3) Uiso 1 1 d GD . .
O19A O 0.56102(15) 0.52928(14) -0.63285(12) 0.1104(19) Uiso 1 1 d D . .
B31A B 0.6307(3) 0.4424(3) -0.6965(2) 0.107(4) Uiso 1 1 d D . .
O32A O 0.65070(15) 0.42139(15) -0.71499(12) 0.112(2) Uiso 1 1 d D . .
C33A C 0.62967(16) 0.41285(18) -0.73746(13) 0.115(3) Uiso 1 1 d GD . .
C34A C 0.63640(15) 0.39244(17) -0.76145(16) 0.119(3) Uiso 1 1 d GD . .
H34A H 0.6583 0.3816 -0.7637 0.142 Uiso 1 1 calc R . .
C35A C 0.6103(2) 0.38826(17) -0.78206(13) 0.149(4) Uiso 1 1 d GD . .
C36A C 0.57755(18) 0.40450(19) -0.77868(14) 0.127(3) Uiso 1 1 d GD . .
C37A C 0.57081(14) 0.42491(18) -0.75469(16) 0.130(4) Uiso 1 1 d GD . .
H37A H 0.5489 0.4358 -0.7524 0.156 Uiso 1 1 calc R . .
C38A C 0.59687(18) 0.42909(16) -0.73408(12) 0.118(3) Uiso 1 1 d GD . .
O39A O 0.59565(16) 0.44776(16) -0.70905(13) 0.122(2) Uiso 1 1 d D . .
B51A B 0.7219(3) 0.4824(3) -0.6247(3) 0.123(4) Uiso 1 1 d D . .
O52A O 0.73354(16) 0.50151(17) -0.60050(14) 0.131(2) Uiso 1 1 d D . .
C53A C 0.76934(12) 0.49593(17) -0.59987(14) 0.112(3) Uiso 1 1 d GD . .
C54A C 0.79502(17) 0.50828(15) -0.58115(12) 0.121(3) Uiso 1 1 d GD . .
H54A H 0.7886 0.5228 -0.5660 0.145 Uiso 1 1 calc R . .
C55A C 0.83032(15) 0.49890(16) -0.58500(13) 0.098(3) Uiso 1 1 d GD . .
C56A C 0.83994(12) 0.47717(16) -0.60757(14) 0.108(3) Uiso 1 1 d GD . .
C57A C 0.81426(17) 0.46482(15) -0.62630(12) 0.110(3) Uiso 1 1 d GD . .
H57A H 0.8207 0.4503 -0.6414 0.132 Uiso 1 1 calc R . .
C58A C 0.77896(15) 0.47420(16) -0.62245(13) 0.110(3) Uiso 1 1 d GD . .
O59A O 0.75016(15) 0.46473(16) -0.63791(13) 0.119(2) Uiso 1 1 d D . .
C1B C 0.6228(3) 0.4931(2) -0.93304(15) 0.186(5) Uiso 1 1 d GD . .
C2B C 0.6546(2) 0.4865(2) -0.9469(2) 0.182(5) Uiso 1 1 d GD . .
H2B H 0.6702 0.4697 -0.9398 0.219 Uiso 1 1 calc R . .
C3B C 0.66304(18) 0.5051(2) -0.97155(19) 0.177(5) Uiso 1 1 d GD . .
C4B C 0.6397(2) 0.5302(2) -0.98224(15) 0.166(5) Uiso 1 1 d GD . .
H4B H 0.6453 0.5426 -0.9987 0.199 Uiso 1 1 calc R . .
C5B C 0.6078(2) 0.5368(2) -0.96834(19) 0.176(5) Uiso 1 1 d GD . .
C6B C 0.59939(19) 0.5182(2) -0.94374(19) 0.182(5) Uiso 1 1 d GD . .
H6B H 0.5781 0.5226 -0.9344 0.219 Uiso 1 1 calc R . .
B11B B 0.6157(3) 0.4731(3) -0.9047(3) 0.146(5) Uiso 1 1 d D . .
O12B O 0.5852(2) 0.4776(2) -0.88910(18) 0.183(3) Uiso 1 1 d D . .
C13B C 0.5884(2) 0.45188(18) -0.86785(16) 0.155(4) Uiso 1 1 d GD . .
C14B C 0.56555(17) 0.4420(2) -0.84609(18) 0.157(4) Uiso 1 1 d GD . .
H14B H 0.5441 0.4538 -0.8438 0.188 Uiso 1 1 calc R . .
C15B C 0.5747(2) 0.4146(2) -0.82782(15) 0.154(4) Uiso 1 1 d GD . .
C16B C 0.6068(2) 0.39700(18) -0.83130(16) 0.151(4) Uiso 1 1 d GD . .
C17B C 0.62970(17) 0.4069(2) -0.85306(18) 0.146(4) Uiso 1 1 d GD . .
H17B H 0.6512 0.3951 -0.8554 0.176 Uiso 1 1 calc R . .
C18B C 0.6205(2) 0.4343(2) -0.87133(15) 0.154(4) Uiso 1 1 d GD . .
O19B O 0.6383(2) 0.4475(2) -0.89505(16) 0.163(3) Uiso 1 1 d D . .
B31B B 0.6962(4) 0.4966(5) -0.9874(3) 0.202(7) Uiso 1 1 d D . .
O32B O 0.7232(2) 0.4742(3) -0.9783(2) 0.204(4) Uiso 1 1 d D . .
C33B C 0.7514(2) 0.4774(3) -0.99583(18) 0.194(5) Uiso 1 1 d GD . .
C34B C 0.7844(3) 0.4611(2) -0.99611(19) 0.200(6) Uiso 1 1 d GD . .
H34B H 0.7898 0.4440 -0.9826 0.240 Uiso 1 1 calc R . .
C35B C 0.8093(2) 0.4704(3) -1.0166(2) 0.196(5) Uiso 1 1 d GD . .
C36B C 0.8011(2) 0.4960(3) -1.03677(19) 0.177(5) Uiso 1 1 d GD . .
C37B C 0.7681(3) 0.5123(2) -1.03650(18) 0.180(5) Uiso 1 1 d GD . .
H37B H 0.7627 0.5295 -1.0500 0.216 Uiso 1 1 calc R . .
C38B C 0.7432(2) 0.5031(2) -1.0160(2) 0.190(5) Uiso 1 1 d GD . .
O39B O 0.7098(2) 0.5171(2) -1.0114(2) 0.202(4) Uiso 1 1 d D . .
B51B B 0.5803(4) 0.5607(4) -0.9840(3) 0.174(6) Uiso 1 1 d D . .
O52B O 0.5880(2) 0.5820(2) -1.00856(19) 0.185(3) Uiso 1 1 d D . .
C53B C 0.55828(19) 0.6003(2) -1.0131(2) 0.190(5) Uiso 1 1 d GD . .
C54B C 0.5508(3) 0.6245(3) -1.03463(18) 0.190(5) Uiso 1 1 d GD . .
H54B H 0.5678 0.6297 -1.0483 0.227 Uiso 1 1 calc R . .
C55B C 0.5178(3) 0.6409(2) -1.03568(19) 0.189(5) Uiso 1 1 d GD . .
C56B C 0.4923(2) 0.6331(2) -1.0152(2) 0.192(5) Uiso 1 1 d GD . .
C57B C 0.4999(2) 0.6089(3) -0.99377(19) 0.186(5) Uiso 1 1 d GD . .
H57B H 0.4828 0.6037 -0.9801 0.223 Uiso 1 1 calc R . .
C58B C 0.5328(3) 0.5926(2) -0.99272(17) 0.170(5) Uiso 1 1 d GD . .
O59B O 0.5472(2) 0.5694(2) -0.97315(18) 0.182(3) Uiso 1 1 d D . .
C1C C 0.5428(2) 0.97282(19) -0.76460(13) 0.148(4) Uiso 1 1 d GD . .
C2C C 0.52612(16) 0.9440(2) -0.77720(16) 0.147(4) Uiso 1 1 d GD . .
H2C H 0.5051 0.9353 -0.7697 0.177 Uiso 1 1 calc R . .
C3C C 0.5410(2) 0.92808(16) -0.80105(16) 0.143(4) Uiso 1 1 d GD . .
C4C C 0.5725(2) 0.9411(2) -0.81230(14) 0.161(4) Uiso 1 1 d GD . .
H4C H 0.5824 0.9305 -0.8283 0.193 Uiso 1 1 calc R . .
C5C C 0.58909(16) 0.9699(2) -0.79970(17) 0.148(4) Uiso 1 1 d GD . .
C6C C 0.5742(2) 0.98581(17) -0.77585(17) 0.157(4) Uiso 1 1 d GD . .
H6C H 0.5854 1.0051 -0.7674 0.188 Uiso 1 1 calc R . .
B11C B 0.5258(3) 0.9888(3) -0.7371(2) 0.122(4) Uiso 1 1 d D . .
O12C O 0.53875(16) 1.01710(17) -0.72155(13) 0.126(2) Uiso 1 1 d D . .
C13C C 0.51451(14) 1.02044(17) -0.69909(13) 0.120(3) Uiso 1 1 d GD . .
C14C C 0.51273(15) 1.04451(15) -0.67678(14) 0.117(3) Uiso 1 1 d GD . .
H14C H 0.5299 1.0620 -0.6750 0.140 Uiso 1 1 calc R . .
C15C C 0.48525(17) 1.04243(15) -0.65718(12) 0.109(3) Uiso 1 1 d GD . .
C16C C 0.45954(14) 1.01627(17) -0.65990(12) 0.110(3) Uiso 1 1 d GD . .
C17C C 0.46131(15) 0.99220(15) -0.68221(14) 0.118(3) Uiso 1 1 d GD . .
H17C H 0.4441 0.9747 -0.6840 0.141 Uiso 1 1 calc R . .
C18C C 0.48879(17) 0.99428(15) -0.70181(12) 0.112(3) Uiso 1 1 d GD . .
O19C O 0.49511(18) 0.97412(18) -0.72588(14) 0.141(2) Uiso 1 1 d D . .
B31C B 0.5243(3) 0.8948(3) -0.8132(3) 0.154(5) Uiso 1 1 d D . .
O32C O 0.53435(18) 0.87551(18) -0.83758(16) 0.145(2) Uiso 1 1 d D . .
C33C C 0.51265(17) 0.84651(16) -0.83901(16) 0.127(3) Uiso 1 1 d GD . .
C34C C 0.51238(17) 0.8180(2) -0.85775(13) 0.140(4) Uiso 1 1 d GD . .
H34C H 0.5284 0.8173 -0.8728 0.168 Uiso 1 1 calc R . .
C35C C 0.4882(2) 0.79066(16) -0.85407(15) 0.138(4) Uiso 1 1 d GD . .
C36C C 0.46422(18) 0.79175(17) -0.83164(18) 0.134(4) Uiso 1 1 d GD . .
C37C C 0.46448(17) 0.8202(2) -0.81290(14) 0.146(4) Uiso 1 1 d GD . .
H37C H 0.4485 0.8210 -0.7979 0.176 Uiso 1 1 calc R . .
C38C C 0.4887(2) 0.84761(17) -0.81658(14) 0.137(4) Uiso 1 1 d GD . .
O39C O 0.49491(19) 0.87728(18) -0.80028(15) 0.147(2) Uiso 1 1 d D . .
B51C B 0.6253(3) 0.9840(4) -0.8104(3) 0.163(6) Uiso 1 1 d D . .
O52C O 0.64359(19) 0.96981(19) -0.83403(17) 0.158(3) Uiso 1 1 d D . .
C53C C 0.67285(17) 0.99085(19) -0.83618(18) 0.149(4) Uiso 1 1 d GD . .
C54C C 0.7006(2) 0.98933(18) -0.85557(14) 0.145(4) Uiso 1 1 d GD . .
H54C H 0.7004 0.9725 -0.8700 0.174 Uiso 1 1 calc R . .
C55C C 0.72873(17) 1.0130(2) -0.85337(16) 0.142(4) Uiso 1 1 d GD . .
C56C C 0.72910(18) 1.03811(19) -0.83179(18) 0.149(4) Uiso 1 1 d GD . .
C57C C 0.7013(2) 1.03963(18) -0.81240(15) 0.147(4) Uiso 1 1 d GD . .
H57C H 0.7016 1.0565 -0.7980 0.177 Uiso 1 1 calc R . .
C58C C 0.67322(18) 1.0160(2) -0.81460(15) 0.169(5) Uiso 1 1 d GD . .
O59C O 0.6432(2) 1.0125(2) -0.79850(16) 0.162(3) Uiso 1 1 d D . .
C1D C 0.52853(15) 0.90832(13) -0.46911(13) 0.113(3) Uiso 1 1 d GD . .
C2D C 0.55770(15) 0.92422(15) -0.45635(11) 0.103(3) Uiso 1 1 d GD . .
H2D H 0.5680 0.9140 -0.4404 0.124 Uiso 1 1 calc R . .
C3D C 0.57154(13) 0.95540(15) -0.46749(13) 0.106(3) Uiso 1 1 d GD . .
C4D C 0.55621(16) 0.97068(13) -0.49140(13) 0.114(3) Uiso 1 1 d GD . .
H4D H 0.5655 0.9915 -0.4989 0.136 Uiso 1 1 calc R . .
C5D C 0.52704(15) 0.95477(16) -0.50416(11) 0.116(3) Uiso 1 1 d GD . .
C6D C 0.51320(13) 0.92359(16) -0.49301(13) 0.113(3) Uiso 1 1 d GD . .
H6D H 0.4937 0.9129 -0.5015 0.135 Uiso 1 1 calc R . .
B11D B 0.5135(2) 0.8736(3) -0.4562(2) 0.111(4) Uiso 1 1 d D . .
O12D O 0.48502(16) 0.85465(16) -0.46675(13) 0.120(2) Uiso 1 1 d D . .
C13D C 0.4827(2) 0.82469(17) -0.44895(14) 0.131(4) Uiso 1 1 d GD . .
C14D C 0.45959(17) 0.7960(2) -0.44909(15) 0.147(4) Uiso 1 1 d GD . .
H14D H 0.4410 0.7952 -0.4620 0.177 Uiso 1 1 calc R . .
C15D C 0.4644(2) 0.76838(17) -0.42989(19) 0.153(4) Uiso 1 1 d GD . .
C16D C 0.4922(2) 0.76952(18) -0.41056(16) 0.162(4) Uiso 1 1 d GD . .
C17D C 0.51524(18) 0.7982(2) -0.41042(14) 0.157(4) Uiso 1 1 d GD . .
H17D H 0.5339 0.7990 -0.3975 0.189 Uiso 1 1 calc R . .
C18D C 0.51048(18) 0.82583(17) -0.42962(17) 0.131(4) Uiso 1 1 d GD . .
O19D O 0.53076(18) 0.85569(17) -0.43432(15) 0.140(2) Uiso 1 1 d D . .
B31D B 0.6039(3) 0.9711(3) -0.4543(3) 0.122(4) Uiso 1 1 d D . .
O32D O 0.62457(17) 0.95633(17) -0.43230(14) 0.136(2) Uiso 1 1 d D . .
C33D C 0.65273(18) 0.97917(17) -0.42778(17) 0.136(4) Uiso 1 1 d GD . .
C34D C 0.6818(2) 0.97695(19) -0.40968(15) 0.164(4) Uiso 1 1 d GD . .
H34D H 0.6840 0.9578 -0.3974 0.197 Uiso 1 1 calc R . .
C35D C 0.70745(18) 1.0033(2) -0.40999(16) 0.166(5) Uiso 1 1 d GD . .
C36D C 0.70411(18) 1.0320(2) -0.42841(19) 0.169(5) Uiso 1 1 d GD . .
C37D C 0.6751(2) 1.03417(16) -0.44651(15) 0.137(4) Uiso 1 1 d GD . .
H37D H 0.6729 1.0533 -0.4588 0.165 Uiso 1 1 calc R . .
C38D C 0.64939(16) 1.0078(2) -0.44619(15) 0.132(4) Uiso 1 1 d GD . .
O39D O 0.61982(16) 1.00387(17) -0.46362(14) 0.131(2) Uiso 1 1 d D . .
B51D B 0.5112(3) 0.9727(3) -0.5310(2) 0.107(4) Uiso 1 1 d D . .
O52D O 0.52492(14) 1.00331(14) -0.54297(12) 0.1055(19) Uiso 1 1 d D . .
C53D C 0.50422(14) 1.01031(16) -0.56607(11) 0.100(3) Uiso 1 1 d GD . .
C54D C 0.50594(14) 1.03767(14) -0.58580(13) 0.103(3) Uiso 1 1 d GD . .
H54D H 0.5231 1.0552 -0.5840 0.124 Uiso 1 1 calc R . .
C55D C 0.48196(17) 1.03885(14) -0.60821(12) 0.105(3) Uiso 1 1 d GD . .
C56D C 0.45627(15) 1.01266(17) -0.61089(11) 0.113(3) Uiso 1 1 d GD . .
C57D C 0.45456(14) 0.98530(15) -0.59116(14) 0.120(3) Uiso 1 1 d GD . .
H57D H 0.4374 0.9678 -0.5929 0.144 Uiso 1 1 calc R . .
C58D C 0.47853(16) 0.98413(14) -0.56875(12) 0.109(3) Uiso 1 1 d GD . .
O59D O 0.48261(16) 0.96004(16) -0.54675(13) 0.124(2) Uiso 1 1 d D . .
C1E C 0.6148(6) 0.3678(7) -0.8092(5) 0.335(5) Uiso 1 1 d DU . .
C2E C 0.6497(6) 0.3485(6) -0.8139(5) 0.335(5) Uiso 1 1 d DU . .
H2EA H 0.6686 0.3659 -0.8140 0.402 Uiso 1 1 calc R . .
H2EB H 0.6491 0.3377 -0.8326 0.402 Uiso 1 1 calc R . .
C3E C 0.6590(5) 0.3198(6) -0.7922(4) 0.335(5) Uiso 1 1 d DU . .
H3EA H 0.6397 0.3029 -0.7908 0.402 Uiso 1 1 calc R . .
H3EB H 0.6625 0.3305 -0.7737 0.402 Uiso 1 1 calc R . .
C4E C 0.6933(6) 0.3005(6) -0.8017(4) 0.335(5) Uiso 1 1 d DU . .
H4EA H 0.6874 0.2814 -0.8146 0.402 Uiso 1 1 calc R . .
H4EB H 0.7087 0.3170 -0.8116 0.402 Uiso 1 1 calc R . .
C5E C 0.7127(5) 0.2854(6) -0.7755(4) 0.335(5) Uiso 1 1 d DU . .
H5EA H 0.7238 0.2631 -0.7806 0.402 Uiso 1 1 calc R . .
H5EB H 0.7314 0.3017 -0.7699 0.402 Uiso 1 1 calc R . .
C6E C 0.6879(6) 0.2794(6) -0.7500(4) 0.335(5) Uiso 1 1 d DU . .
H6EA H 0.6913 0.2557 -0.7424 0.402 Uiso 1 1 calc R . .
H6EB H 0.6634 0.2817 -0.7560 0.402 Uiso 1 1 calc R . .
C7E C 0.6966(7) 0.3075(7) -0.7270(4) 0.335(5) Uiso 1 1 d DU . .
H7EA H 0.6787 0.3070 -0.7125 0.503 Uiso 1 1 calc R . .
H7EB H 0.6973 0.3306 -0.7355 0.503 Uiso 1 1 calc R . .
H7EC H 0.7193 0.3022 -0.7187 0.503 Uiso 1 1 calc R . .
C1F C 0.5514(3) 0.4010(3) -0.8036(2) 0.146(4) Uiso 1 1 d DU . .
C2F C 0.5170(3) 0.4217(3) -0.7995(3) 0.165(5) Uiso 1 1 d DU . .
H2FA H 0.5037 0.4214 -0.8171 0.198 Uiso 1 1 calc R . .
H2FB H 0.5227 0.4462 -0.7953 0.198 Uiso 1 1 calc R . .
C3F C 0.4936(4) 0.4068(4) -0.7756(3) 0.225(7) Uiso 1 1 d DU . .
H3FA H 0.5085 0.3990 -0.7599 0.270 Uiso 1 1 calc R . .
H3FB H 0.4806 0.3865 -0.7825 0.270 Uiso 1 1 calc R . .
C4F C 0.4674(4) 0.4352(4) -0.7648(4) 0.266(8) Uiso 1 1 d DU . .
H4FA H 0.4805 0.4553 -0.7574 0.319 Uiso 1 1 calc R . .
H4FB H 0.4529 0.4434 -0.7805 0.319 Uiso 1 1 calc R . .
C5F C 0.4436(5) 0.4198(5) -0.7413(4) 0.318(11) Uiso 1 1 d DU . .
H5FA H 0.4327 0.3981 -0.7481 0.382 Uiso 1 1 calc R . .
H5FB H 0.4580 0.4140 -0.7249 0.382 Uiso 1 1 calc R . .
C6F C 0.4145(5) 0.4459(5) -0.7324(5) 0.329(12) Uiso 1 1 d DU . .
H6FA H 0.4006 0.4530 -0.7488 0.395 Uiso 1 1 calc R . .
H6FB H 0.4249 0.4669 -0.7240 0.395 Uiso 1 1 calc R . .
C7F C 0.3908(6) 0.4265(7) -0.7105(5) 0.383(15) Uiso 1 1 d DU . .
H7FA H 0.3730 0.4425 -0.7036 0.575 Uiso 1 1 calc R . .
H7FB H 0.4051 0.4184 -0.6950 0.575 Uiso 1 1 calc R . .
H7FC H 0.3796 0.4066 -0.7195 0.575 Uiso 1 1 calc R . .
C1G C 0.5069(2) 0.6393(2) -0.56407(19) 0.108(3) Uiso 1 1 d DU . .
C2G C 0.5305(2) 0.6501(2) -0.5392(2) 0.125(3) Uiso 1 1 d DU . .
H2GA H 0.5342 0.6294 -0.5274 0.150 Uiso 1 1 calc R . .
H2GB H 0.5534 0.6568 -0.5468 0.150 Uiso 1 1 calc R . .
C3G C 0.5179(4) 0.6801(4) -0.5200(3) 0.247(7) Uiso 1 1 d DU . .
H3GA H 0.5029 0.6703 -0.5052 0.296 Uiso 1 1 calc R . .
H3GB H 0.5038 0.6965 -0.5311 0.296 Uiso 1 1 calc R . .
C4G C 0.5489(5) 0.7006(5) -0.5060(5) 0.324(11) Uiso 1 1 d DU . .
H4GA H 0.5627 0.6846 -0.4942 0.389 Uiso 1 1 calc R . .
H4GB H 0.5643 0.7102 -0.5206 0.389 Uiso 1 1 calc R . .
C5G C 0.5337(6) 0.7308(6) -0.4877(5) 0.348(12) Uiso 1 1 d DU . .
H5GA H 0.5169 0.7444 -0.4989 0.418 Uiso 1 1 calc R . .
H5GB H 0.5211 0.7208 -0.4716 0.418 Uiso 1 1 calc R . .
C6G C 0.5631(8) 0.7554(6) -0.4769(6) 0.438(18) Uiso 1 1 d DU . .
H6GA H 0.5532 0.7730 -0.4641 0.526 Uiso 1 1 calc R . .
H6GB H 0.5740 0.7677 -0.4928 0.526 Uiso 1 1 calc R . .
C7G C 0.5912(8) 0.7333(11) -0.4612(8) 0.50(2) Uiso 1 1 d DU . .
H7GA H 0.6093 0.7487 -0.4539 0.743 Uiso 1 1 calc R . .
H7GB H 0.6016 0.7166 -0.4741 0.743 Uiso 1 1 calc R . .
H7GC H 0.5802 0.7208 -0.4457 0.743 Uiso 1 1 calc R . .
C1H C 0.4678(2) 0.6208(2) -0.60903(16) 0.093(3) Uiso 1 1 d DU . .
C2H C 0.4440(2) 0.6109(2) -0.63410(16) 0.108(3) Uiso 1 1 d DU . .
H2HA H 0.4372 0.5863 -0.6322 0.130 Uiso 1 1 calc R . .
H2HB H 0.4226 0.6251 -0.6331 0.130 Uiso 1 1 calc R . .
C3H C 0.4608(2) 0.6162(3) -0.66331(16) 0.119(3) Uiso 1 1 d DU . .
H3HA H 0.4742 0.5952 -0.6684 0.142 Uiso 1 1 calc R . .
H3HB H 0.4770 0.6360 -0.6626 0.142 Uiso 1 1 calc R . .
C4H C 0.4323(3) 0.6232(3) -0.6862(2) 0.156(4) Uiso 1 1 d DU . .
H4HA H 0.4168 0.6027 -0.6879 0.187 Uiso 1 1 calc R . .
H4HB H 0.4180 0.6435 -0.6808 0.187 Uiso 1 1 calc R . .
C5H C 0.4506(4) 0.6302(4) -0.7144(2) 0.207(6) Uiso 1 1 d DU . .
H5HA H 0.4594 0.6080 -0.7220 0.248 Uiso 1 1 calc R . .
H5HB H 0.4708 0.6457 -0.7112 0.248 Uiso 1 1 calc R . .
C6H C 0.4255(9) 0.6474(8) -0.7361(5) 0.65(4) Uiso 1 1 d DU . .
H6HA H 0.4087 0.6628 -0.7264 0.785 Uiso 1 1 calc R . .
H6HB H 0.4389 0.6616 -0.7495 0.785 Uiso 1 1 calc R . .
C7H C 0.4059(8) 0.6174(10) -0.7515(6) 0.452(19) Uiso 1 1 d DU . .
H7HA H 0.3899 0.6274 -0.7652 0.677 Uiso 1 1 calc R . .
H7HB H 0.3929 0.6036 -0.7379 0.677 Uiso 1 1 calc R . .
H7HC H 0.4228 0.6026 -0.7610 0.677 Uiso 1 1 calc R . .
C1J C 0.47082(14) 0.62345(16) -0.55608(17) 0.111(3) Uiso 1 1 d G . .
C2J C 0.45873(18) 0.61700(18) -0.52866(14) 0.140(4) Uiso 1 1 d G . .
H2J H 0.4727 0.6231 -0.5131 0.168 Uiso 1 1 calc R . .
C3J C 0.4257(2) 0.60149(18) -0.52446(12) 0.144(4) Uiso 1 1 d G . .
H3J H 0.4176 0.5972 -0.5061 0.173 Uiso 1 1 calc R . .
C4J C 0.40482(14) 0.59243(17) -0.54767(17) 0.134(4) Uiso 1 1 d G . .
H4J H 0.3827 0.5821 -0.5449 0.161 Uiso 1 1 calc R . .
C5J C 0.41692(17) 0.59888(17) -0.57509(14) 0.123(3) Uiso 1 1 d G . .
H5J H 0.4029 0.5928 -0.5906 0.148 Uiso 1 1 calc R . .
C6J C 0.44992(18) 0.61439(17) -0.57930(12) 0.111(3) Uiso 1 1 d G . .
C1K C 0.5068(3) 0.6687(3) -1.0574(3) 0.176(5) Uiso 1 1 d DU . .
C2K C 0.5363(4) 0.6774(4) -1.0786(3) 0.209(6) Uiso 1 1 d DU . .
H2KA H 0.5575 0.6839 -1.0682 0.251 Uiso 1 1 calc R . .
H2KB H 0.5291 0.6976 -1.0900 0.251 Uiso 1 1 calc R . .
C3K C 0.5446(8) 0.6457(6) -1.0984(5) 0.419(17) Uiso 1 1 d DU . .
H3KA H 0.5596 0.6288 -1.0886 0.503 Uiso 1 1 calc R . .
H3KB H 0.5227 0.6338 -1.1037 0.503 Uiso 1 1 calc R . .
C4K C 0.5635(10) 0.6591(7) -1.1252(5) 0.46(2) Uiso 1 1 d DU . .
H4KA H 0.5834 0.6738 -1.1197 0.546 Uiso 1 1 calc R . .
H4KB H 0.5473 0.6736 -1.1361 0.546 Uiso 1 1 calc R . .
C5K C 0.5770(10) 0.6281(7) -1.1441(6) 0.48(2) Uiso 1 1 d DU . .
H5KA H 0.5947 0.6143 -1.1341 0.571 Uiso 1 1 calc R . .
H5KB H 0.5576 0.6127 -1.1494 0.571 Uiso 1 1 calc R . .
C6K C 0.5934(12) 0.6457(9) -1.1709(6) 0.55(3) Uiso 1 1 d DU . .
H6KA H 0.5747 0.6525 -1.1839 0.658 Uiso 1 1 calc R . .
H6KB H 0.6063 0.6669 -1.1654 0.658 Uiso 1 1 calc R . .
C7K C 0.6189(13) 0.6196(13) -1.1857(9) 0.65(4) Uiso 1 1 d DU . .
H7KA H 0.6280 0.6303 -1.2027 0.975 Uiso 1 1 calc R . .
H7KB H 0.6063 0.5983 -1.1904 0.975 Uiso 1 1 calc R . .
H7KC H 0.6382 0.6141 -1.1732 0.975 Uiso 1 1 calc R . .
C1L C 0.4598(4) 0.6536(4) -1.0166(3) 0.184(5) Uiso 1 1 d DU . .
C2L C 0.4304(4) 0.6421(4) -0.9958(3) 0.201(6) Uiso 1 1 d DU . .
H2LA H 0.4093 0.6562 -0.9992 0.241 Uiso 1 1 calc R . .
H2LB H 0.4381 0.6466 -0.9765 0.241 Uiso 1 1 calc R . .
C3L C 0.4211(9) 0.6023(5) -0.9990(6) 0.450(19) Uiso 1 1 d DU . .
H3LA H 0.4045 0.5992 -1.0146 0.540 Uiso 1 1 calc R . .
H3LB H 0.4424 0.5890 -1.0035 0.540 Uiso 1 1 calc R . .
C4L C 0.4046(13) 0.5880(6) -0.9713(7) 0.57(3) Uiso 1 1 d DU . .
H4LA H 0.3820 0.5996 -0.9681 0.689 Uiso 1 1 calc R . .
H4LB H 0.4201 0.5940 -0.9555 0.689 Uiso 1 1 calc R . .
C5L C 0.3989(9) 0.5473(6) -0.9717(6) 0.411(16) Uiso 1 1 d DU . .
H5LA H 0.3822 0.5410 -0.9865 0.493 Uiso 1 1 calc R . .
H5LB H 0.4212 0.5354 -0.9755 0.493 Uiso 1 1 calc R . .
C6L C 0.3844(11) 0.5358(7) -0.9424(6) 0.49(2) Uiso 1 1 d DU . .
H6LA H 0.4006 0.5433 -0.9276 0.584 Uiso 1 1 calc R . .
H6LB H 0.3618 0.5473 -0.9390 0.584 Uiso 1 1 calc R . .
C7L C 0.3794(14) 0.4954(8) -0.9407(9) 0.59(3) Uiso 1 1 d DU . .
H7LA H 0.3692 0.4892 -0.9226 0.887 Uiso 1 1 calc R . .
H7LB H 0.4019 0.4839 -0.9427 0.887 Uiso 1 1 calc R . .
H7LC H 0.3638 0.4878 -0.9557 0.887 Uiso 1 1 calc R . .
C1M C 0.4317(2) 1.0158(2) -0.6368(2) 0.112(3) Uiso 1 1 d DU . .
C2M C 0.4049(3) 0.9858(3) -0.6403(2) 0.141(4) Uiso 1 1 d DU . .
H2MA H 0.3906 0.9842 -0.6232 0.169 Uiso 1 1 calc R . .
H2MB H 0.4174 0.9636 -0.6426 0.169 Uiso 1 1 calc R . .
C3M C 0.3804(4) 0.9919(3) -0.6662(3) 0.209(6) Uiso 1 1 d DU . .
H3MA H 0.3608 1.0071 -0.6608 0.251 Uiso 1 1 calc R . .
H3MB H 0.3936 1.0036 -0.6813 0.251 Uiso 1 1 calc R . .
C4M C 0.3663(4) 0.9560(4) -0.6769(3) 0.247(8) Uiso 1 1 d DU . .
H4MA H 0.3527 0.9446 -0.6620 0.296 Uiso 1 1 calc R . .
H4MB H 0.3860 0.9407 -0.6818 0.296 Uiso 1 1 calc R . .
C5M C 0.3425(4) 0.9614(4) -0.7034(3) 0.249(8) Uiso 1 1 d DU . .
H5MA H 0.3222 0.9759 -0.6984 0.299 Uiso 1 1 calc R . .
H5MB H 0.3557 0.9736 -0.7181 0.299 Uiso 1 1 calc R . .
C6M C 0.3297(5) 0.9250(4) -0.7145(4) 0.253(8) Uiso 1 1 d DU . .
H6MA H 0.3498 0.9115 -0.7215 0.303 Uiso 1 1 calc R . .
H6MB H 0.3188 0.9117 -0.6992 0.303 Uiso 1 1 calc R . .
C7M C 0.3026(6) 0.9305(6) -0.7387(4) 0.324(11) Uiso 1 1 d DU . .
H7MA H 0.2943 0.9079 -0.7453 0.485 Uiso 1 1 calc R . .
H7MB H 0.3138 0.9429 -0.7541 0.485 Uiso 1 1 calc R . .
H7MC H 0.2830 0.9442 -0.7318 0.485 Uiso 1 1 calc R . .
C1N C 0.4823(2) 1.0662(2) -0.63224(19) 0.110(3) Uiso 1 1 d DU . .
C2N C 0.5097(2) 1.0953(2) -0.62804(18) 0.107(3) Uiso 1 1 d DU . .
H2NA H 0.5330 1.0846 -0.6271 0.128 Uiso 1 1 calc R . .
H2NB H 0.5053 1.1069 -0.6100 0.128 Uiso 1 1 calc R . .
C3N C 0.5095(3) 1.1232(3) -0.6517(2) 0.143(4) Uiso 1 1 d DU . .
H3NA H 0.5038 1.1116 -0.6694 0.171 Uiso 1 1 calc R . .
H3NB H 0.4907 1.1401 -0.6477 0.171 Uiso 1 1 calc R . .
C4N C 0.5432(4) 1.1434(4) -0.6556(3) 0.253(8) Uiso 1 1 d DU . .
H4NA H 0.5375 1.1650 -0.6657 0.303 Uiso 1 1 calc R . .
H4NB H 0.5583 1.1295 -0.6680 0.303 Uiso 1 1 calc R . .
C5N C 0.5650(4) 1.1534(5) -0.6300(4) 0.277(9) Uiso 1 1 d DU . .
H5NA H 0.5642 1.1347 -0.6159 0.332 Uiso 1 1 calc R . .
H5NB H 0.5557 1.1749 -0.6215 0.332 Uiso 1 1 calc R . .
C6N C 0.6037(5) 1.1594(9) -0.6403(5) 0.427(18) Uiso 1 1 d DU . .
H6NA H 0.6134 1.1373 -0.6474 0.513 Uiso 1 1 calc R . .
H6NB H 0.6039 1.1765 -0.6556 0.513 Uiso 1 1 calc R . .
C7N C 0.6263(6) 1.1730(10) -0.6153(7) 0.452(19) Uiso 1 1 d DU . .
H7NA H 0.6505 1.1753 -0.6213 0.678 Uiso 1 1 calc R . .
H7NB H 0.6249 1.1565 -0.5998 0.678 Uiso 1 1 calc R . .
H7NC H 0.6176 1.1957 -0.6093 0.678 Uiso 1 1 calc R . .
C1P C 0.44370(15) 1.0796(2) -0.63166(14) 0.126(3) Uiso 1 1 d G . .
C2P C 0.43382(19) 1.11467(18) -0.62754(15) 0.145(4) Uiso 1 1 d G . .
H2P H 0.4511 1.1320 -0.6249 0.173 Uiso 1 1 calc R . .
C3P C 0.3982(2) 1.12393(16) -0.62741(16) 0.174(5) Uiso 1 1 d G . .
H3P H 0.3916 1.1474 -0.6247 0.209 Uiso 1 1 calc R . .
C4P C 0.37239(15) 1.0981(2) -0.63139(15) 0.145(4) Uiso 1 1 d G . .
H4P H 0.3485 1.1043 -0.6313 0.175 Uiso 1 1 calc R . .
C5P C 0.38227(18) 1.06297(19) -0.63551(15) 0.157(4) Uiso 1 1 d G . .
H5P H 0.3650 1.0457 -0.6382 0.188 Uiso 1 1 calc R . .
C6P C 0.4179(2) 1.05371(15) -0.63564(15) 0.124(3) Uiso 1 1 d G . .
C1Q C 0.7599(3) 1.0155(3) -0.8754(2) 0.135(4) Uiso 1 1 d DU . .
C2Q C 0.7603(3) 0.9883(3) -0.8990(2) 0.154(4) Uiso 1 1 d DU . .
H2QA H 0.7605 0.9648 -0.8906 0.185 Uiso 1 1 calc R . .
H2QB H 0.7820 0.9910 -0.9098 0.185 Uiso 1 1 calc R . .
C3Q C 0.7285(4) 0.9912(4) -0.9195(3) 0.267(8) Uiso 1 1 d DU . .
H3QA H 0.7326 1.0099 -0.9332 0.321 Uiso 1 1 calc R . .
H3QB H 0.7071 0.9968 -0.9089 0.321 Uiso 1 1 calc R . .
C4Q C 0.7239(5) 0.9552(5) -0.9349(4) 0.299(10) Uiso 1 1 d DU . .
H4QA H 0.7462 0.9487 -0.9437 0.358 Uiso 1 1 calc R . .
H4QB H 0.7181 0.9371 -0.9211 0.358 Uiso 1 1 calc R . .
C5Q C 0.6949(6) 0.9562(6) -0.9578(4) 0.350(13) Uiso 1 1 d DU . .
H5QA H 0.6731 0.9648 -0.9494 0.420 Uiso 1 1 calc R . .
H5QB H 0.7018 0.9728 -0.9726 0.420 Uiso 1 1 calc R . .
C6Q C 0.6881(7) 0.9199(6) -0.9713(5) 0.387(15) Uiso 1 1 d DU . .
H6QA H 0.6855 0.9023 -0.9564 0.465 Uiso 1 1 calc R . .
H6QB H 0.6661 0.9207 -0.9819 0.465 Uiso 1 1 calc R . .
C7Q C 0.7182(10) 0.9089(8) -0.9912(7) 0.48(2) Uiso 1 1 d DU . .
H7QA H 0.7130 0.8861 -0.9991 0.716 Uiso 1 1 calc R . .
H7QB H 0.7399 0.9078 -0.9807 0.716 Uiso 1 1 calc R . .
H7QC H 0.7204 0.9260 -1.0062 0.716 Uiso 1 1 calc R . .
C1R C 0.7615(3) 1.0617(3) -0.8303(3) 0.154(4) Uiso 1 1 d U . .
C2R C 0.7636(3) 1.0871(3) -0.8052(3) 0.167(5) Uiso 1 1 d U . .
H2RA H 0.7854 1.1006 -0.8070 0.201 Uiso 1 1 calc R . .
H2RB H 0.7441 1.1037 -0.8068 0.201 Uiso 1 1 calc R . .
C3R C 0.7627(5) 1.0723(5) -0.7782(4) 0.235(7) Uiso 1 1 d U . .
H3RA H 0.7865 1.0665 -0.7718 0.281 Uiso 1 1 calc R . .
H3RB H 0.7486 1.0509 -0.7781 0.281 Uiso 1 1 calc R . .
C4R C 0.7438(6) 1.1045(6) -0.7559(5) 0.303(10) Uiso 1 1 d U . .
H4RA H 0.7569 1.1266 -0.7568 0.364 Uiso 1 1 calc R . .
H4RB H 0.7193 1.1089 -0.7610 0.364 Uiso 1 1 calc R . .
C5R C 0.7465(6) 1.0866(7) -0.7234(5) 0.287(9) Uiso 1 1 d U . .
H5RA H 0.7314 1.0659 -0.7215 0.345 Uiso 1 1 calc R . .
H5RB H 0.7707 1.0801 -0.7187 0.345 Uiso 1 1 calc R . .
C6R C 0.7333(9) 1.1173(10) -0.7049(8) 0.406(16) Uiso 1 1 d U . .
H6RA H 0.7478 1.1380 -0.7089 0.487 Uiso 1 1 calc R . .
H6RB H 0.7092 1.1229 -0.7105 0.487 Uiso 1 1 calc R . .
C7R C 0.7339(9) 1.1107(9) -0.6741(8) 0.417(17) Uiso 1 1 d U . .
H7RA H 0.7243 1.1309 -0.6643 0.625 Uiso 1 1 calc R . .
H7RB H 0.7578 1.1068 -0.6680 0.625 Uiso 1 1 calc R . .
H7RC H 0.7198 1.0902 -0.6699 0.625 Uiso 1 1 calc R . .
C1S C 0.7625(2) 1.0554(2) -0.8825(3) 0.157(4) Uiso 1 1 d G . .
C2S C 0.7661(2) 1.0680(3) -0.9101(2) 0.196(6) Uiso 1 1 d G . .
H2S H 0.7661 1.0523 -0.9253 0.235 Uiso 1 1 calc R . .
C3S C 0.7698(3) 1.1041(3) -0.91497(19) 0.221(7) Uiso 1 1 d G . .
H3S H 0.7723 1.1126 -0.9334 0.265 Uiso 1 1 calc R . .
C4S C 0.7699(3) 1.1277(2) -0.8923(3) 0.251(8) Uiso 1 1 d G . .
H4S H 0.7724 1.1519 -0.8955 0.301 Uiso 1 1 calc R . .
C5S C 0.7663(3) 1.1151(3) -0.8646(2) 0.222(7) Uiso 1 1 d G . .
H5S H 0.7663 1.1309 -0.8494 0.266 Uiso 1 1 calc R . .
C6S C 0.7625(2) 1.0790(3) -0.85975(17) 0.166(5) Uiso 1 1 d G . .
C1T C 0.4411(4) 0.7361(4) -0.4304(3) 0.183(5) Uiso 1 1 d DU . .
C2T C 0.4131(3) 0.7336(3) -0.4531(2) 0.169(5) Uiso 1 1 d DU . .
H2TA H 0.3977 0.7541 -0.4515 0.202 Uiso 1 1 calc R . .
H2TB H 0.3988 0.7127 -0.4495 0.202 Uiso 1 1 calc R . .
C3T C 0.4270(4) 0.7316(4) -0.4834(2) 0.210(6) Uiso 1 1 d DU . .
H3TA H 0.4508 0.7220 -0.4830 0.252 Uiso 1 1 calc R . .
H3TB H 0.4283 0.7554 -0.4911 0.252 Uiso 1 1 calc R . .
C4T C 0.4041(5) 0.7089(5) -0.5030(3) 0.284(9) Uiso 1 1 d DU . .
H4TA H 0.3793 0.7117 -0.4981 0.341 Uiso 1 1 calc R . .
H4TB H 0.4104 0.6841 -0.5008 0.341 Uiso 1 1 calc R . .
C5T C 0.4103(6) 0.7204(6) -0.5343(3) 0.325(11) Uiso 1 1 d DU . .
H5TA H 0.4052 0.7455 -0.5364 0.390 Uiso 1 1 calc R . .
H5TB H 0.4348 0.7164 -0.5396 0.390 Uiso 1 1 calc R . .
C6T C 0.3857(11) 0.6986(10) -0.5535(5) 0.52(2) Uiso 1 1 d DU . .
H6TA H 0.3935 0.6741 -0.5537 0.628 Uiso 1 1 calc R . .
H6TB H 0.3618 0.6993 -0.5460 0.628 Uiso 1 1 calc R . .
C7T C 0.3857(11) 0.7132(10) -0.5839(5) 0.50(2) Uiso 1 1 d DU . .
H7TA H 0.3690 0.7002 -0.5953 0.751 Uiso 1 1 calc R . .
H7TB H 0.4090 0.7108 -0.5919 0.751 Uiso 1 1 calc R . .
H7TC H 0.3792 0.7378 -0.5836 0.751 Uiso 1 1 calc R . .
C1U C 0.4926(3) 0.7381(3) -0.3882(3) 0.158(4) Uiso 1 1 d DU . .
C2U C 0.5262(4) 0.7404(4) -0.3697(3) 0.211(6) Uiso 1 1 d DU . .
H2UA H 0.5468 0.7345 -0.3811 0.253 Uiso 1 1 calc R . .
H2UB H 0.5291 0.7644 -0.3627 0.253 Uiso 1 1 calc R . .
C3U C 0.5236(7) 0.7146(7) -0.3445(5) 0.394(15) Uiso 1 1 d DU . .
H3UA H 0.5266 0.6906 -0.3513 0.473 Uiso 1 1 calc R . .
H3UB H 0.5002 0.7165 -0.3361 0.473 Uiso 1 1 calc R . .
C4U C 0.552(2) 0.7223(16) -0.3216(11) 0.89(3) Uiso 1 1 d DU . .
H4UA H 0.5444 0.7424 -0.3102 1.063 Uiso 1 1 calc R . .
H4UB H 0.5742 0.7280 -0.3306 1.063 Uiso 1 1 calc R . .
C5U C 0.556(2) 0.6893(12) -0.3025(10) 0.89(3) Uiso 1 1 d DU . .
H5UA H 0.5331 0.6790 -0.2986 1.063 Uiso 1 1 calc R . .
H5UB H 0.5703 0.6717 -0.3123 1.063 Uiso 1 1 calc R . .
C6U C 0.5742(15) 0.699(2) -0.2742(8) 0.89(3) Uiso 1 1 d DU . .
H6UA H 0.5894 0.7197 -0.2771 1.063 Uiso 1 1 calc R . .
H6UB H 0.5888 0.6797 -0.2678 1.063 Uiso 1 1 calc R . .
C7U C 0.546(2) 0.708(3) -0.2515(14) 0.89(3) Uiso 1 1 d DU . .
H7UA H 0.5576 0.7161 -0.2345 1.329 Uiso 1 1 calc R . .
H7UB H 0.5326 0.6869 -0.2473 1.329 Uiso 1 1 calc R . .
H7UC H 0.5305 0.7260 -0.2585 1.329 Uiso 1 1 calc R . .
C1V C 0.4304(4) 0.7347(2) -0.39863(18) 0.170(5) Uiso 1 1 d G . .
C2V C 0.3951(3) 0.7335(3) -0.3901(3) 0.234(7) Uiso 1 1 d G . .
H2V H 0.3772 0.7319 -0.4037 0.281 Uiso 1 1 calc R . .
C3V C 0.3866(3) 0.7345(3) -0.3614(3) 0.253(8) Uiso 1 1 d G . .
H3V H 0.3630 0.7336 -0.3557 0.304 Uiso 1 1 calc R . .
C4V C 0.4134(4) 0.7367(3) -0.34117(19) 0.236(7) Uiso 1 1 d G . .
H4V H 0.4077 0.7374 -0.3219 0.283 Uiso 1 1 calc R . .
C5V C 0.4486(3) 0.7380(3) -0.3497(3) 0.262(8) Uiso 1 1 d G . .
H5V H 0.4665 0.7395 -0.3361 0.314 Uiso 1 1 calc R . .
C6V C 0.4571(2) 0.7370(3) -0.3784(3) 0.186(5) Uiso 1 1 d G . .
C1W C 0.5494(3) 0.3627(2) -0.8109(2) 0.177(5) Uiso 1 1 d G . .
C2W C 0.5176(2) 0.3451(3) -0.8156(2) 0.224(7) Uiso 1 1 d G . .
H2W H 0.4963 0.3573 -0.8144 0.269 Uiso 1 1 calc R . .
C3W C 0.5177(3) 0.3091(3) -0.8221(2) 0.263(8) Uiso 1 1 d G . .
H3W H 0.4964 0.2973 -0.8253 0.315 Uiso 1 1 calc R . .
C4W C 0.5496(4) 0.2909(2) -0.8239(2) 0.247(7) Uiso 1 1 d G . .
H4W H 0.5497 0.2668 -0.8282 0.297 Uiso 1 1 calc R . .
C5W C 0.5814(3) 0.3085(3) -0.8192(2) 0.224(7) Uiso 1 1 d G . .
H5W H 0.6028 0.2963 -0.8204 0.269 Uiso 1 1 calc R . .
C6W C 0.5813(2) 0.3444(3) -0.8127(2) 0.177(5) Uiso 1 1 d G . .
C1X C 0.4461(3) 0.6472(3) -1.04765(18) 0.186(5) Uiso 1 1 d G . .
C2X C 0.4126(3) 0.6356(3) -1.0558(2) 0.210(6) Uiso 1 1 d G . .
H2X H 0.3958 0.6301 -1.0421 0.252 Uiso 1 1 calc R . .
C3X C 0.4044(2) 0.6323(3) -1.0845(3) 0.213(6) Uiso 1 1 d G . .
H3X H 0.3820 0.6246 -1.0900 0.256 Uiso 1 1 calc R . .
C4X C 0.4296(3) 0.6406(3) -1.10500(17) 0.202(6) Uiso 1 1 d G . .
H4X H 0.4241 0.6384 -1.1242 0.243 Uiso 1 1 calc R . .
C5X C 0.4631(3) 0.6522(3) -1.0968(2) 0.213(6) Uiso 1 1 d G . .
H5X H 0.4800 0.6577 -1.1105 0.256 Uiso 1 1 calc R . .
C6X C 0.4713(2) 0.6554(2) -1.0681(3) 0.185(5) Uiso 1 1 d G . .

#END
