data_ags
_audit_creation_date              2015-11-12
_audit_creation_method
;
Olex2 1.2-beta
(compiled 2015.09.30 svn.r3233 for OlexSys, GUI svn.r5103)
;
_shelxl_version_number            2014/6
_publ_contact_author_address      ?
_publ_contact_author_email        ?
_publ_contact_author_name         ''
_publ_contact_author_phone        ?
_publ_section_references
;
Dolomanov, O.V., Bourhis, L.J., Gildea, R.J, Howard, J.A.K. & Puschmann, H.
 (2009), J. Appl. Cryst. 42, 339-341.

Sheldrick, G.M. (2015). Acta Cryst. A71, 3-8.

Sheldrick, G.M. (2015). Acta Cryst. C71, 3-8.
;
_chemical_name_common             ?
_chemical_name_systematic         ?
_chemical_formula_moiety
'12(C Cl2), 4(C1 Cl3), 34(O), 12(C Cl), C216 H204 N24'
_chemical_formula_sum             'C244 H204 Cl48 N24 O34'
_chemical_formula_weight          5717.90
_chemical_absolute_configuration  ?
_chemical_melting_point           ?
loop_
  _atom_type_symbol
  _atom_type_description
  _atom_type_scat_dispersion_real
  _atom_type_scat_dispersion_imag
  _atom_type_scat_source
 'C' 'C' 0.0033 0.0016 'International Tables Vol C Tables 4.2.6.8 and 6.1.1.4'
 'H' 'H' 0.0000 0.0000 'International Tables Vol C Tables 4.2.6.8 and 6.1.1.4'
 'Cl' 'Cl' 0.1484 0.1585 'International Tables Vol C Tables 4.2.6.8 and 6.1.1.4'
 'N' 'N' 0.0061 0.0033 'International Tables Vol C Tables 4.2.6.8 and 6.1.1.4'
 'O' 'O' 0.0106 0.0060 'International Tables Vol C Tables 4.2.6.8 and 6.1.1.4'

_shelx_space_group_comment
;
The symmetry employed for this shelxl refinement is uniquely defined
by the following loop, which should always be used as a source of
symmetry information in preference to the above space-group names.
They are only intended as comments.
;
_space_group_crystal_system       'cubic'
_space_group_IT_number            197
_space_group_name_H-M_alt         'I 2 3'
_space_group_name_Hall            'I 2 2 3'
loop_
  _space_group_symop_operation_xyz
 'x, y, z'
 '-x, -y, z'
 '-x, y, -z'
 'x, -y, -z'
 'z, x, y'
 'z, -x, -y'
 '-z, -x, y'
 '-z, x, -y'
 'y, z, x'
 '-y, z, -x'
 'y, -z, -x'
 '-y, -z, x'
 'x+1/2, y+1/2, z+1/2'
 '-x+1/2, -y+1/2, z+1/2'
 '-x+1/2, y+1/2, -z+1/2'
 'x+1/2, -y+1/2, -z+1/2'
 'z+1/2, x+1/2, y+1/2'
 'z+1/2, -x+1/2, -y+1/2'
 '-z+1/2, -x+1/2, y+1/2'
 '-z+1/2, x+1/2, -y+1/2'
 'y+1/2, z+1/2, x+1/2'
 '-y+1/2, z+1/2, -x+1/2'
 'y+1/2, -z+1/2, -x+1/2'
 '-y+1/2, -z+1/2, x+1/2'

_cell_length_a                    24.933(5)
_cell_length_b                    24.933(5)
_cell_length_c                    24.933(5)
_cell_angle_alpha                 90
_cell_angle_beta                  90
_cell_angle_gamma                 90
_cell_volume                      15499(8)
_cell_formula_units_Z             2
_cell_measurement_reflns_used     1980
_cell_measurement_temperature     100
_cell_measurement_theta_max       ?
_cell_measurement_theta_min       ?
_shelx_estimated_absorpt_T_max    ?
_shelx_estimated_absorpt_T_min    ?
_exptl_absorpt_coefficient_mu     0.478
_exptl_absorpt_correction_T_max   0.7446
_exptl_absorpt_correction_T_min   0.5259
_exptl_absorpt_correction_type    ?
_exptl_absorpt_process_details
;
SADABS-2014/5 (Bruker,2014/5) was used for absorption correction.
wR2(int) was 0.1184 before and 0.0660 after correction.
The Ratio of minimum to maximum transmission is 0.7063.
The \l/2 correction factor is Not present.
;
_exptl_absorpt_special_details    ?
_exptl_crystal_colour             colourless
_exptl_crystal_colour_primary     colourless
_exptl_crystal_density_diffrn     1.225
_exptl_crystal_density_meas       ?
_exptl_crystal_density_method     ?
_exptl_crystal_description        cube
_exptl_crystal_F_000              5848
_exptl_crystal_size_max           0.05
_exptl_crystal_size_mid           0.05
_exptl_crystal_size_min           0.05
_exptl_transmission_factor_max    ?
_exptl_transmission_factor_min    ?
_diffrn_reflns_av_R_equivalents   0.1051
_diffrn_reflns_av_unetI/netI      0.0653
_diffrn_reflns_Laue_measured_fraction_full 0.543
_diffrn_reflns_Laue_measured_fraction_max 0.999
_diffrn_reflns_limit_h_max        24
_diffrn_reflns_limit_h_min        -24
_diffrn_reflns_limit_k_max        23
_diffrn_reflns_limit_k_min        -24
_diffrn_reflns_limit_l_max        18
_diffrn_reflns_limit_l_min        -24
_diffrn_reflns_number             18935
_diffrn_reflns_point_group_measured_fraction_full 0.535
_diffrn_reflns_point_group_measured_fraction_max 1.000
_diffrn_reflns_theta_full         26.000
_diffrn_reflns_theta_max          20.787
_diffrn_reflns_theta_min          1.155
_diffrn_ambient_temperature       100
_diffrn_detector                  CCD
_diffrn_detector_area_resol_mean  28.5714
_diffrn_detector_type             'Rigaku Saturn724+'
_diffrn_measured_fraction_theta_full 0.543
_diffrn_measured_fraction_theta_max 0.999
_diffrn_measurement_device        'AFC12 (Right): Kappa 3 circle'
_diffrn_measurement_device_type   'Rigaku Saturn724+ (2x2 bin mode)'
_diffrn_measurement_method        'profile data from \w-scans'
_diffrn_measurement_specimen_support 'Mitegen 50um'
_diffrn_radiation_collimation     0.3
_diffrn_radiation_monochromator   Confocal
_diffrn_radiation_probe           x-ray
_diffrn_radiation_type            MoK\a
_diffrn_radiation_wavelength      0.71073
_diffrn_source                    'Rotating Anode'
_diffrn_source_current            24.0
_diffrn_source_power              1.2
_diffrn_source_target             Mo
_diffrn_source_type               'Rotating Anode'
_diffrn_source_voltage            50.0
_diffrn_standards_number          0
_reflns_Friedel_coverage          0.836
_reflns_Friedel_fraction_full     0.525
_reflns_Friedel_fraction_max      1.000
_reflns_number_gt                 1790
_reflns_number_total              2716
_reflns_special_details
;
 Reflections were merged by SHELXL according to the crystal
 class for the calculation of statistics and refinement.
 
 _reflns_Friedel_fraction is defined as the number of unique
 Friedel pairs measured divided by the number that would be
 possible theoretically, ignoring centric projections and
 systematic absences.
;
_reflns_threshold_expression      'I > 2\s(I)'
_computing_cell_refinement        'SAINT v8.34A (Bruker, 2013)'
_computing_data_collection        'CrystalClear-SM Expert 2.0 r7 (Rigaku, 2011)'
_computing_data_reduction         'SAINT v8.34A (Bruker, 2013)'
_computing_molecular_graphics     'Olex2 (Dolomanov et al., 2009)'
_computing_publication_material   'Olex2 (Dolomanov et al., 2009)'
_computing_structure_refinement   'ShelXL (Sheldrick, 2015)'
_computing_structure_solution     'ShelXT (Sheldrick, 2015)'
_refine_diff_density_max          1.118
_refine_diff_density_min          -0.814
_refine_diff_density_rms          0.195
_refine_ls_abs_structure_details
;
 Flack x determined using 587 quotients [(I+)-(I-)]/[(I+)+(I-)]
 (Parsons, Flack and Wagner, Acta Cryst. B69 (2013) 249-259).
;
_refine_ls_abs_structure_Flack    0.32(7)
_refine_ls_extinction_coef        .
_refine_ls_extinction_method      none
_refine_ls_goodness_of_fit_ref    1.899
_refine_ls_hydrogen_treatment     constr
_refine_ls_matrix_type            full
_refine_ls_number_parameters      223
_refine_ls_number_reflns          2716
_refine_ls_number_restraints      141
_refine_ls_R_factor_all           0.2411
_refine_ls_R_factor_gt            0.1919
_refine_ls_restrained_S_all       1.858
_refine_ls_shift/su_max           0.000
_refine_ls_shift/su_mean          0.000
_refine_ls_structure_factor_coef  Fsqd
_refine_ls_weighting_details
'w=1/[\s^2^(Fo^2^)+(0.2000P)^2^] where P=(Fo^2^+2Fc^2^)/3'
_refine_ls_weighting_scheme       calc
_refine_ls_wR_factor_gt           0.4588
_refine_ls_wR_factor_ref          0.4925
_refine_special_details           ?
_olex2_refinement_description
;
1. Fixed Uiso
 At 1.2 times of:
  All C(H) groups, All C(H,H) groups, All N(H) groups
2. Rigid body (RIGU) restrains
 All non-hydrogen atoms
 with sigma for 1-2 distances of 0.004 and sigma for 1-3 distances of 0.004
3. Others
 Fixed Sof: Cl3(0.5) Cl4(0.5)
4.a Ternary CH refined with riding coordinates:
 C12(H12), C17(H17)
4.b Secondary CH2 refined with riding coordinates:
 C14(H14A,H14B), C16(H16A,H16B), C13(H13A,H13B), C15(H15A,H15B)
4.c Aromatic/amide H refined with riding coordinates:
 C18(H18), N1(H1), C8(H8), C10(H10), C6(H6), C11(H11), C1(H1A)
;
_atom_sites_solution_hydrogens    geom
_atom_sites_solution_primary      ?
_atom_sites_solution_secondary    ?
loop_
  _atom_site_label
  _atom_site_type_symbol
  _atom_site_fract_x
  _atom_site_fract_y
  _atom_site_fract_z
  _atom_site_U_iso_or_equiv
  _atom_site_adp_type
  _atom_site_occupancy
  _atom_site_site_symmetry_order
  _atom_site_calc_flag
  _atom_site_refinement_flags_posn
  _atom_site_refinement_flags_adp
  _atom_site_refinement_flags_occupancy
  _atom_site_disorder_assembly
  _atom_site_disorder_group
 N2 N 0.4172(9) 0.7557(11) 0.8508(10) 0.072(6) Uani 1 1 d . U . . .
 C18 C 0.3895(10) 0.7848(12) 0.8143(11) 0.060(6) Uani 1 1 d . U . . .
 H18 H 0.3585 0.8039 0.8256 0.072 Uiso 1 1 calc R . . . .
 C9 C 0.3303(11) 0.6047(11) 0.8265(10) 0.055(6) Uani 1 1 d . U . . .
 N1 N 0.3511(10) 0.6706(10) 0.8941(9) 0.073(6) Uani 1 1 d . U . . .
 H1 H 0.3170 0.6783 0.8990 0.088 Uiso 1 1 calc R . . . .
 C12 C 0.3914(13) 0.7002(14) 0.9234(12) 0.076(7) Uani 1 1 d . U . . .
 H12 H 0.4266 0.6820 0.9172 0.091 Uiso 1 1 calc R . . . .
 C8 C 0.2757(10) 0.6198(11) 0.8223(10) 0.054(6) Uani 1 1 d . U . . .
 H8 H 0.2618 0.6481 0.8437 0.065 Uiso 1 1 calc R . . . .
 C7 C 0.2441(10) 0.5937(11) 0.7880(11) 0.056(6) Uani 1 1 d . U . . .
 C10 C 0.3489(11) 0.5640(11) 0.7962(11) 0.061(6) Uani 1 1 d . U . . .
 H10 H 0.3851 0.5527 0.7997 0.073 Uiso 1 1 calc R . . . .
 C6 C 0.2629(11) 0.5529(11) 0.7541(11) 0.060(6) Uani 1 1 d . U . . .
 H6 H 0.2398 0.5364 0.7287 0.072 Uiso 1 1 calc R . . . .
 C5 C 0.3144(11) 0.5376(11) 0.7586(11) 0.061(6) Uani 1 1 d . U . . .
 C11 C 0.3641(11) 0.6334(12) 0.8612(11) 0.066(7) Uani 1 1 d . U . . .
 H11 H 0.4011 0.6241 0.8601 0.079 Uiso 1 1 calc R . . . .
 C14 C 0.4191(14) 0.7304(17) 1.0206(14) 0.097(9) Uani 1 1 d . U . . .
 H14A H 0.4075 0.7303 1.0586 0.116 Uiso 1 1 calc R . . . .
 H14B H 0.4554 0.7143 1.0189 0.116 Uiso 1 1 calc R . . . .
 C17 C 0.3972(13) 0.7561(13) 0.9059(12) 0.077(6) Uani 1 1 d . U . . .
 H17 H 0.3612 0.7738 0.9066 0.092 Uiso 1 1 calc R . . . .
 C4 C 0.3364(11) 0.4929(12) 0.7254(12) 0.066(7) Uani 1 1 d . U . . .
 C3 C 0.3487(10) 0.4591(11) 0.6984(12) 0.057(7) Uani 1 1 d . U . . .
 C2 C 0.3620(11) 0.4133(11) 0.6628(11) 0.062(7) Uani 1 1 d . U . . .
 C16 C 0.4359(14) 0.7887(16) 0.9390(13) 0.088(8) Uani 1 1 d . U . . .
 H16A H 0.4353 0.8264 0.9264 0.105 Uiso 1 1 calc R . . . .
 H16B H 0.4727 0.7747 0.9336 0.105 Uiso 1 1 calc R . . . .
 C1 C 0.4061(12) 0.3837(12) 0.6730(12) 0.069(8) Uani 1 1 d . U . . .
 H1A H 0.4306 0.3923 0.7009 0.083 Uiso 1 1 calc R . . . .
 C13 C 0.3766(12) 0.6925(16) 0.9847(12) 0.085(8) Uani 1 1 d . U . . .
 H13A H 0.3802 0.6543 0.9950 0.102 Uiso 1 1 calc R . . . .
 H13B H 0.3392 0.7039 0.9913 0.102 Uiso 1 1 calc R . . . .
 C15 C 0.4219(14) 0.7871(16) 1.0010(15) 0.097(8) Uani 1 1 d . U . . .
 H15A H 0.4496 0.8069 1.0214 0.116 Uiso 1 1 calc R . . . .
 H15B H 0.3869 0.8050 1.0072 0.116 Uiso 1 1 calc R . . . .
