
#######################################################################
#
#                 Cambridge Crystallographic Data Centre
#                                CCDC 
#
#######################################################################
#
# If this CIF has been generated directly or indirectly from an entry in the 
# Cambridge Structural Database, then it will include bibliographic, chemical, 
# crystal, experimental, refinement or atomic coordinate data resulting from 
# the CCDC's data processing and validation procedures. Files generated from 
# CSD entries are Copyright 2014 Cambridge Crystallographic Data Centre. They 
# may be used in bona fide research applications only, and may not be copied or 
# further disseminated in any form, whether machine-readable or not, except for 
# the purposes of generating routine backup copies on your local computer 
# system.
# 
# Files arising from any other source may also contain material that is the 
# copyright of third parties, including the originator, and you should check 
# with the originator concerning the permitted uses of the information 
# contained in this CIF.
#
# For further information on the CCDC and the free tools enCIFer and Mercury
# for validating and visualising CIF files, please visit www.ccdc.cam.ac.uk
#
#######################################################################

data_MESTUA
_audit_creation_date             2007-02-13
_database_code_depnum_ccdc_archive 'CCDC 279300'
_chemical_name_common            
'2,56:8,26:14,68:20,38:32:50:44,62-hexakis(Propylene)-4,6,10,12,16,18,22,24,28,30,34,36,40,42,46,48,52,54,58,60,64,66,70,72-tetracosakis(t-butoxycarbonyl)calix[12]resorcinarene; t-Butoxycarbonyl-noria chlorofom hexane solvate monohydrate'
_chemical_formula_moiety         'C222 H288 O72,C1 H1 Cl3,C6 H14,H2 O1'
_chemical_name_systematic        
'2,56:8,26:14,68:20,38:32:50:44,62-hexakis(Propylene)-4,6,10,12,16,18,22,24,28,30,34,36,40,42,46,48,52,54,58,60,64,66,70,72-tetracosakis(t-butoxycarbonyloxy)calix[12]arene chloroform hexane solvate monohydrate'
_journal_coden_Cambridge         179
_journal_volume                  45
_journal_year                    2006
_journal_page_first              7948
_journal_name_full               Angew.Chem.,Int.Ed.
loop_
_publ_author_name
H.Kudo
R.Hayashi
K.Mitani
T.Yokozawa
N.C.Kasuga
T.Nishikubo
_chemical_absolute_configuration unk
_diffrn_ambient_temperature      93
_exptl_crystal_density_meas      1.18
_exptl_crystal_density_diffrn    1.179
#These two values have been output from a single CSD field.
_refine_ls_R_factor_gt           0.1097
_refine_ls_wR_factor_gt          0.1097
_diffrn_radiation_probe          x-ray
_symmetry_cell_setting           triclinic
_symmetry_space_group_name_H-M   'P -1'
_symmetry_Int_Tables_number      2
loop_
_symmetry_equiv_pos_site_id
_symmetry_equiv_pos_as_xyz
1 x,y,z
2 -x,-y,-z
_cell_length_a                   17.4163(8)
_cell_length_b                   19.5893(11)
_cell_length_c                   20.0063(9)
_cell_angle_alpha                107.992(3)
_cell_angle_beta                 106.857(3)
_cell_angle_gamma                94.700(3)
_cell_volume                     6101.61
_exptl_crystal_colour            colorless
_exptl_crystal_description       platelet
_cell_formula_units_Z            1
loop_
_atom_site_label
_atom_site_type_symbol
_atom_site_fract_x
_atom_site_fract_y
_atom_site_fract_z
C1 C 0.4151(3) 0.7756(3) 0.5189(2)
H1 H 0.3818 0.8020 0.4908
C2 C 0.5049(3) 0.8115(3) 0.5396(2)
C3 C 0.5256(3) 0.8850(3) 0.5547(3)
C4 C 0.6045(4) 0.9188(3) 0.5759(3)
H2 H 0.6169 0.9687 0.5853
C5 C 0.6663(3) 0.8787(3) 0.5832(3)
C6 C 0.6495(3) 0.8039(3) 0.5645(2)
C7 C 0.7187(3) 0.7611(3) 0.5713(2)
H3 H 0.7673 0.7959 0.6084
C8 C 0.7401(3) 0.7314(3) 0.5001(2)
C9 C 0.8169(3) 0.7517(3) 0.4982(2)
C10 C 0.8404(3) 0.7202(3) 0.4368(3)
H4 H 0.8919 0.7361 0.4361
C11 C 0.7857(3) 0.6653(3) 0.3772(2)
C12 C 0.7076(3) 0.6405(3) 0.3745(2)
C13 C 0.6520(3) 0.5744(3) 0.3100(2)
H5 H 0.6813 0.5597 0.2743
C14 C 0.5736(2) 0.5935(3) 0.2692(2)
C15 C 0.5734(3) 0.6231(3) 0.2151(2)
C16 C 0.5041(3) 0.6395(3) 0.1739(3)
H6 H 0.5056 0.6596 0.1378
C17 C 0.4328(3) 0.6256(3) 0.1875(2)
C18 C 0.4280(2) 0.5993(3) 0.2430(2)
C19 C 0.3478(2) 0.5911(3) 0.2575(2)
H7 H 0.3191 0.6281 0.2432
C20 C 0.2904(2) 0.5166(3) 0.2113(2)
C21 C 0.2082(3) 0.5136(3) 0.1716(2)
C22 C 0.1519(3) 0.4495(3) 0.1429(2)
H8 H 0.0978 0.4478 0.1164
C23 C 0.1770(2) 0.3883(3) 0.1542(2)
C24 C 0.2582(3) 0.3859(3) 0.1894(2)
C25 C 0.2822(3) 0.3208(3) 0.2099(2)
H9 H 0.2345 0.2810 0.1840
C26 C 0.3516(3) 0.2938(3) 0.1840(2)
C27 C 0.3362(3) 0.2527(3) 0.1089(2)
C28 C 0.3960(3) 0.2236(3) 0.0833(2)
H10 H 0.3840 0.1963 0.0332
C29 C 0.4726(3) 0.2353(3) 0.1320(2)
C30 C 0.4947(3) 0.2788(3) 0.2069(2)
C31 C 0.5844(3) 0.2977(3) 0.2578(2)
H11 H 0.6177 0.2921 0.2252
C32 C 0.6078(3) 0.2475(3) 0.3026(2)
C33 C 0.6696(3) 0.2083(3) 0.2956(2)
C34 C 0.7027(3) 0.1741(3) 0.3442(3)
H12 H 0.7434 0.1476 0.3374
C35 C 0.6752(3) 0.1792(3) 0.4034(3)
C36 C 0.3896(3) 0.7850(3) 0.5880(2)
C37 C 0.5677(3) 0.7721(3) 0.5435(2)
H13 H 0.5545 0.7218 0.5316
C38 C 0.6868(2) 0.6752(3) 0.4365(2)
H14 H 0.6344 0.6606 0.4360
C39 C 0.4999(2) 0.5822(3) 0.2825(2)
H15 H 0.4986 0.5626 0.3190
C40 C 0.3133(3) 0.4524(3) 0.2167(2)
H16 H 0.3682 0.4531 0.2397
C41 C 0.4321(3) 0.3059(3) 0.2305(2)
H17 H 0.4448 0.3340 0.2805
C42 C 0.5781(3) 0.2470(3) 0.3605(2)
H18 H 0.5339 0.2696 0.3643
C43 C 0.3925(3) 0.6962(3) 0.4693(2)
H19 H 0.3371 0.6772 0.4643
H20 H 0.4284 0.6690 0.4931
C44 C 0.3980(3) 0.6830(3) 0.3913(2)
H21 H 0.3719 0.7175 0.3711
H22 H 0.4549 0.6908 0.3946
C45 C 0.3566(3) 0.6056(3) 0.3399(2)
H23 H 0.3028 0.5958 0.3435
H24 H 0.3879 0.5718 0.3568
C46 C 0.6421(3) 0.5110(3) 0.3377(2)
H25 H 0.6073 0.5213 0.3683
H26 H 0.6952 0.5091 0.3694
C47 C 0.6059(3) 0.4354(3) 0.2769(2)
H27 H 0.5495 0.4340 0.2494
H28 H 0.6362 0.4265 0.2423
C48 C 0.6098(3) 0.3766(3) 0.3113(2)
H29 H 0.5753 0.3841 0.3423
H30 H 0.6654 0.3831 0.3438
C49 C 0.2973(3) 0.3405(3) 0.2934(2)
H31 H 0.3493 0.3739 0.3205
H32 H 0.2552 0.3662 0.3057
C50 C 0.2982(3) 0.2756(3) 0.3204(2)
H33 H 0.3481 0.2567 0.3205
H34 H 0.2522 0.2368 0.2871
C51 C 0.7067(3) 0.6999(3) 0.6006(2)
H35 H 0.7516 0.6737 0.6000
H36 H 0.6568 0.6659 0.5670
C52 C 0.4603(5) 0.9829(4) 0.5975(5)
C53 C 0.3775(8) 1.0767(7) 0.6214(6)
C54 C 0.4333(11) 1.1423(6) 0.6351(8)
H37 H 0.4340 1.1457 0.5884
H38 H 0.4872 1.1405 0.6640
H39 H 0.4157 1.1843 0.6618
C55 C 0.2955(8) 1.0840(8) 0.5740(6)
H40 H 0.2552 1.0423 0.5638
H41 H 0.2994 1.0867 0.5279
H42 H 0.2800 1.1277 0.6002
C56 C 0.3652(8) 1.0601(6) 0.6877(5)
H43 H 0.3247 1.0165 0.6699
H44 H 0.3474 1.1002 0.7171
H45 H 0.4159 1.0530 0.7177
C57 C 0.7872(4) 0.9483(4) 0.6813(4)
C58 C 0.7651(4) 0.9755(4) 0.8006(3)
C59 C 0.7791(7) 1.0563(4) 0.8176(5)
H46 H 0.8270 1.0710 0.8072
H47 H 0.7866 1.0809 0.8693
H48 H 0.7327 1.0688 0.7873
C60 C 0.8405(4) 0.9466(5) 0.8375(4)
H49 H 0.8267 0.8945 0.8237
H50 H 0.8568 0.9689 0.8907
H51 H 0.8848 0.9584 0.8210
C61 C 0.6891(4) 0.9474(4) 0.8159(3)
H52 H 0.6831 0.8955 0.8044
H53 H 0.6416 0.9583 0.7853
H54 H 0.6954 0.9709 0.8675
C62 C 0.9210(3) 0.8563(3) 0.5544(3)
C63 C 1.0439(4) 0.9469(4) 0.6260(3)
C64 C 1.0023(5) 1.0100(5) 0.6176(5)
H55 H 0.9671 0.9972 0.5670
H56 H 1.0428 1.0523 0.6301
H57 H 0.9705 1.0204 0.6503
C65 C 1.0879(4) 0.9213(5) 0.5701(4)
H58 H 1.0515 0.9128 0.5208
H59 H 1.1058 0.8768 0.5725
H60 H 1.1344 0.9581 0.5816
C66 C 1.1027(5) 0.9601(5) 0.7049(4)
H61 H 1.0752 0.9770 0.7405
H62 H 1.1496 0.9963 0.7161
H63 H 1.1197 0.9153 0.7073
C67 C 0.8532(3) 0.5846(4) 0.3125(3)
C68 C 0.9355(5) 0.5243(5) 0.2396(4)
C69 C 0.8779(7) 0.4519(5) 0.2023(5)
H64 H 0.8345 0.4538 0.1608
H65 H 0.8555 0.4412 0.2373
H66 H 0.9069 0.4144 0.1849
C70 C 1.0056(5) 0.5256(6) 0.3067(5)
H67 H 0.9841 0.5117 0.3406
H68 H 1.0379 0.5740 0.3314
H69 H 1.0391 0.4920 0.2904
C71 C 0.9652(5) 0.5452(5) 0.1831(4)
H70 H 0.9191 0.5426 0.1414
H71 H 0.9990 0.5121 0.1663
H72 H 0.9963 0.5941 0.2058
C72 C 0.6809(3) 0.7052(4) 0.2149(3)
C73 C 0.8011(4) 0.7695(4) 0.2082(4)
C74 C 0.8346(5) 0.8081(4) 0.2909(5)
H73 H 0.7920 0.8266 0.3085
H74 H 0.8779 0.8480 0.3026
H75 H 0.8554 0.7745 0.3147
C75 C 0.8660(4) 0.7391(4) 0.1771(5)
H76 H 0.8423 0.7148 0.1241
H77 H 0.8872 0.7048 0.1997
H78 H 0.9095 0.7783 0.1877
C76 C 0.7540(4) 0.8122(4) 0.1619(5)
H79 H 0.7351 0.7825 0.1101
H80 H 0.7895 0.8562 0.1697
H81 H 0.7081 0.8246 0.1773
C77 C 0.3198(3) 0.5919(4) 0.0775(3)
C78 C 0.3215(4) 0.4739(4) -0.0099(3)
C79 C 0.3267(7) 0.5033(6) -0.0697(4)
H82 H 0.3824 0.5249 -0.0591
H83 H 0.2931 0.5396 -0.0712
H84 H 0.3081 0.4642 -0.1170
C80 C 0.2374(4) 0.4372(6) -0.0166(5)
H85 H 0.1992 0.4691 -0.0237
H86 H 0.2407 0.4273 0.0282
H87 H 0.2195 0.3922 -0.0584
C81 C 0.3837(4) 0.4248(4) 0.0007(4)
H88 H 0.4361 0.4494 0.0055
H89 H 0.3669 0.3803 -0.0416
H90 H 0.3875 0.4137 0.0449
C82 C 0.1302(3) 0.5819(4) 0.1062(3)
C83 C 0.0743(3) 0.6752(3) 0.0606(3)
C84 C 0.1117(4) 0.7574(4) 0.0893(4)
H91 H 0.1086 0.7805 0.1381
H92 H 0.0820 0.7797 0.0559
H93 H 0.1679 0.7632 0.0918
C85 C 0.0787(3) 0.6397(4) -0.0162(3)
H94 H 0.1338 0.6509 -0.0153
H95 H 0.0431 0.6579 -0.0504
H96 H 0.0619 0.5877 -0.0318
C86 C -0.0109(3) 0.6601(3) 0.0625(3)
H97 H -0.0113 0.6837 0.1122
H98 H -0.0288 0.6083 0.0477
H99 H -0.0470 0.6786 0.0289
C87 C 0.0830(3) 0.3168(3) 0.1788(3)
C88 C -0.0100(4) 0.2284(4) 0.1936(4)
C89 C -0.0672(4) 0.2787(4) 0.2146(4)
H100 H -0.0359 0.3254 0.2493
H101 H -0.1000 0.2579 0.2372
H102 H -0.1020 0.2849 0.1708
C90 C -0.0596(5) 0.1551(5) 0.1388(5)
H103 H -0.0235 0.1229 0.1256
H104 H -0.0941 0.1614 0.0949
H105 H -0.0927 0.1344 0.1611
C91 C 0.0542(5) 0.2220(5) 0.2633(5)
H106 H 0.0887 0.1892 0.2475
H107 H 0.0265 0.2036 0.2911
H108 H 0.0870 0.2693 0.2943
C92 C 0.2086(3) 0.1796(4) 0.0365(3)
C93 C 0.0835(3) 0.1054(4) -0.0583(3)
C94 C 0.0347(4) 0.1136(4) -0.1308(3)
H109 H 0.0682 0.1110 -0.1618
H110 H 0.0175 0.1599 -0.1204
H111 H -0.0123 0.0750 -0.1562
C95 C 0.0363(4) 0.1081(4) -0.0063(3)
H112 H 0.0131 0.1516 0.0014
H113 H 0.0720 0.1086 0.0406
H114 H -0.0067 0.0659 -0.0274
C96 C 0.1237(5) 0.0387(4) -0.0742(4)
H115 H 0.1532 0.0409 -0.1075
H116 H 0.0825 -0.0049 -0.0968
H117 H 0.1608 0.0380 -0.0284
C97 C 0.5657(3) 0.2353(4) 0.0677(3)
C98 C 0.6625(4) 0.2173(4) 0.0028(4)
C99 C 0.6109(5) 0.2310(5) -0.0644(4)
H118 H 0.5735 0.1868 -0.0982
H119 H 0.6453 0.2465 -0.0887
H120 H 0.5808 0.2684 -0.0492
C100 C 0.7259(4) 0.2824(5) 0.0623(5)
H121 H 0.7554 0.2678 0.1026
H122 H 0.6989 0.3212 0.0806
H123 H 0.7632 0.2989 0.0410
C101 C 0.7048(5) 0.1541(5) -0.0195(5)
H124 H 0.7378 0.1466 0.0244
H125 H 0.7390 0.1648 -0.0464
H126 H 0.6647 0.1108 -0.0506
C102 C 0.6995(3) 0.1419(3) 0.1879(3)
C103 C 0.6192(4) 0.0188(3) 0.1263(3)
C104 C 0.6875(5) -0.0182(4) 0.1556(4)
H127 H 0.7369 0.0022 0.1510
H128 H 0.6734 -0.0696 0.1274
H129 H 0.6955 -0.0107 0.2071
C105 C 0.6107(4) 0.0172(4) 0.0481(3)
H130 H 0.5670 0.0413 0.0315
H131 H 0.5991 -0.0325 0.0150
H132 H 0.6608 0.0420 0.0484
C106 C 0.5390(4) -0.0110(4) 0.1320(4)
H133 H 0.4974 0.0140 0.1128
H134 H 0.5454 -0.0034 0.1832
H135 H 0.5233 -0.0623 0.1035
C107 C 0.7760(4) 0.2001(5) 0.5172(3)
C108 C 0.8623(6) 0.2051(6) 0.6383(4)
C109 C 0.8666(8) 0.1450(7) 0.6754(5)
H136 H 0.8149 0.1326 0.6809
H137 H 0.9083 0.1635 0.7235
H138 H 0.8793 0.1023 0.6445
C110 C 0.9407(6) 0.2273(7) 0.6273(4)
H139 H 0.9348 0.2641 0.6047
H140 H 0.9539 0.1855 0.5955
H141 H 0.9836 0.2465 0.6747
C111 C 0.8271(6) 0.2676(6) 0.6793(4)
H142 H 0.8256 0.3046 0.6570
H143 H 0.8610 0.2882 0.7308
H144 H 0.7728 0.2493 0.6759
O1 O 0.4621(2) 0.9250(2) 0.5423(2)
O2 O 0.5081(4) 1.0036(3) 0.6589(3)
O3 O 0.3983(4) 1.0125(3) 0.5731(3)
O4 O 0.7475(2) 0.9141(2) 0.6066(2)
O5 O 0.7396(2) 0.9370(2) 0.71892(19)
O6 O 0.8551(3) 0.9811(2) 0.7034(3)
O7 O 0.87490(19) 0.8030(2) 0.56337(17)
O8 O 0.98192(19) 0.8859(2) 0.61779(18)
O9 O 0.9071(2) 0.8729(2) 0.5003(2)
O10 O 0.81234(18) 0.6388(2) 0.31491(17)
O11 O 0.8878(2) 0.5809(2) 0.26040(19)
O12 O 0.8557(3) 0.5469(3) 0.3493(3)
O13 O 0.64539(18) 0.6339(2) 0.19917(17)
O14 O 0.74379(19) 0.7004(2) 0.1910(2)
O15 O 0.6581(2) 0.7561(2) 0.2460(3)
O16 O 0.36137(18) 0.6426(2) 0.14532(18)
O17 O 0.3546(2) 0.5350(2) 0.06272(18)
O18 O 0.2597(2) 0.6045(3) 0.0397(2)
O19 O 0.18626(17) 0.58010(19) 0.16878(16)
O20 O 0.12977(19) 0.6528(2) 0.11834(17)
O21 O 0.0909(2) 0.5308(2) 0.05328(19)
O22 O 0.11759(17) 0.32414(19) 0.12769(16)
O23 O 0.0335(2) 0.2531(2) 0.1483(2)
O24 O 0.0964(2) 0.3622(2) 0.2388(2)
O25 O 0.25883(19) 0.2447(2) 0.05644(16)
O26 O 0.14984(19) 0.1725(2) -0.02462(18)
O27 O 0.2195(2) 0.1412(3) 0.0736(2)
O28 O 0.53108(19) 0.20166(19) 0.10506(16)
O29 O 0.6093(2) 0.1915(2) 0.03897(19)
O30 O 0.5556(3) 0.2943(3) 0.0661(2)
O31 O 0.70486(18) 0.2072(2) 0.24009(17)
O32 O 0.6362(2) 0.0955(2) 0.17845(17)
O33 O 0.7488(2) 0.1338(2) 0.15565(19)
O34 O 0.7142(2) 0.1487(2) 0.45581(19)
O35 O 0.8002(3) 0.1642(3) 0.5645(2)
O36 O 0.7996(3) 0.2594(3) 0.5228(2)
C1A C 0.5849 0.2244 0.4811
H1A H 0.6182 0.198 0.5092
C2A C 0.4951 0.1885 0.4604
C3A C 0.4744 0.115 0.4453
C4A C 0.3955 0.0812 0.4241
H2A H 0.3831 0.0313 0.4147
C5A C 0.3337 0.1213 0.4168
C6A C 0.3505 0.1961 0.4355
C7A C 0.2813 0.2389 0.4287
H3A H 0.2327 0.2041 0.3916
C8A C 0.2599 0.2686 0.4999
C9A C 0.1831 0.2483 0.5018
C10A C 0.1596 0.2798 0.5632
H4A H 0.1081 0.2639 0.5639
C11A C 0.2143 0.3347 0.6228
C12A C 0.2924 0.3595 0.6255
C13A C 0.348 0.4256 0.69
H5A H 0.3187 0.4403 0.7257
C14A C 0.4264 0.4065 0.7308
C15A C 0.4266 0.3769 0.7849
C16A C 0.4959 0.3605 0.8261
H6A H 0.4944 0.3404 0.8622
C17A C 0.5672 0.3744 0.8125
C18A C 0.572 0.4007 0.757
C19A C 0.6522 0.4089 0.7425
H7A H 0.6809 0.3719 0.7568
C20A C 0.7096 0.4834 0.7887
C21A C 0.7918 0.4864 0.8284
C22A C 0.8481 0.5505 0.8571
H8A H 0.9022 0.5522 0.8836
C23A C 0.823 0.6117 0.8458
C24A C 0.7418 0.6141 0.8106
C25A C 0.7178 0.6792 0.7901
H9A H 0.7655 0.719 0.816
C26A C 0.6484 0.7062 0.816
C27A C 0.6638 0.7473 0.8911
C28A C 0.604 0.7764 0.9167
H10A H 0.616 0.8037 0.9668
C29A C 0.5274 0.7647 0.868
C30A C 0.5053 0.7212 0.7931
C31A C 0.4156 0.7023 0.7422
H11A H 0.3823 0.7079 0.7748
C32A C 0.3922 0.7525 0.6974
C33A C 0.3304 0.7917 0.7044
C34A C 0.2973 0.8259 0.6558
H12A H 0.2566 0.8524 0.6626
C35A C 0.3248 0.8208 0.5966
C36A C 0.6104 0.215 0.412
C37A C 0.4323 0.2279 0.4565
H13A H 0.4455 0.2782 0.4684
C38A C 0.3132 0.3248 0.5635
H14A H 0.3656 0.3394 0.564
C39A C 0.5001 0.4178 0.7175
H15A H 0.5014 0.4374 0.681
C40A C 0.6867 0.5476 0.7833
H16A H 0.6318 0.5469 0.7603
C41A C 0.5679 0.6941 0.7695
H17A H 0.5552 0.666 0.7195
C42A C 0.4219 0.753 0.6395
H18A H 0.4661 0.7304 0.6357
C43A C 0.6075 0.3038 0.5307
H19A H 0.6629 0.3228 0.5357
H20A H 0.5716 0.331 0.5069
C44A C 0.602 0.317 0.6087
H21A H 0.6281 0.2825 0.6289
H22A H 0.5451 0.3092 0.6054
C45A C 0.6434 0.3944 0.6601
H23A H 0.6972 0.4042 0.6565
H24A H 0.6121 0.4282 0.6432
C46A C 0.3579 0.489 0.6623
H25A H 0.3927 0.4787 0.6317
H26A H 0.3048 0.4909 0.6306
C47A C 0.3941 0.5646 0.7231
H27A H 0.4505 0.566 0.7506
H28A H 0.3638 0.5735 0.7577
C48A C 0.3902 0.6234 0.6887
H29A H 0.4247 0.6159 0.6577
H30A H 0.3346 0.6169 0.6562
C49A C 0.7027 0.6595 0.7066
H31A H 0.6507 0.6261 0.6795
H32A H 0.7448 0.6338 0.6943
C50A C 0.7018 0.7244 0.6796
H33A H 0.6519 0.7433 0.6795
H34A H 0.7478 0.7632 0.7129
C51A C 0.2933 0.3001 0.3994
H35A H 0.2484 0.3263 0.4
H36A H 0.3432 0.3341 0.433
C52A C 0.5397 0.0171 0.4025
C53A C 0.6225 -0.0767 0.3786
C54A C 0.5667 -0.1423 0.3649
H37A H 0.566 -0.1457 0.4116
H38A H 0.5128 -0.1405 0.336
H39A H 0.5843 -0.1843 0.3382
C55A C 0.7045 -0.084 0.426
H40A H 0.7448 -0.0423 0.4362
H41A H 0.7006 -0.0867 0.4721
H42A H 0.72 -0.1277 0.3998
C56A C 0.6348 -0.0601 0.3123
H43A H 0.6753 -0.0165 0.3301
H44A H 0.6526 -0.1002 0.2829
H45A H 0.5841 -0.053 0.2823
C57A C 0.2128 0.0517 0.3187
C58A C 0.2349 0.0245 0.1994
C59A C 0.2209 -0.0563 0.1824
H46A H 0.173 -0.071 0.1928
H47A H 0.2134 -0.0809 0.1307
H48A H 0.2673 -0.0688 0.2127
C60A C 0.1595 0.0534 0.1625
H49A H 0.1733 0.1055 0.1763
H50A H 0.1432 0.0311 0.1093
H51A H 0.1152 0.0416 0.179
C61A C 0.3109 0.0526 0.1841
H52A H 0.3169 0.1045 0.1956
H53A H 0.3584 0.0417 0.2147
H54A H 0.3046 0.0291 0.1325
C62A C 0.079 0.1437 0.4456
C63A C -0.0439 0.0531 0.374
C64A C -0.0023 -0.01 0.3824
H55A H 0.0329 0.0028 0.433
H56A H -0.0428 -0.0523 0.3699
H57A H 0.0295 -0.0204 0.3497
C65A C -0.0879 0.0787 0.4299
H58A H -0.0515 0.0872 0.4792
H59A H -0.1058 0.1232 0.4275
H60A H -0.1344 0.0419 0.4184
C66A C -0.1027 0.0399 0.2951
H61A H -0.0752 0.023 0.2595
H62A H -0.1496 0.0037 0.2839
H63A H -0.1197 0.0847 0.2927
C67A C 0.1468 0.4154 0.6875
C68A C 0.0645 0.4757 0.7604
C69A C 0.1221 0.5481 0.7977
H64A H 0.1655 0.5462 0.8392
H65A H 0.1445 0.5588 0.7627
H66A H 0.0931 0.5856 0.8151
C70A C -0.0056 0.4744 0.6933
H67A H 0.0159 0.4883 0.6594
H68A H -0.0379 0.426 0.6686
H69A H -0.0391 0.508 0.7096
C71A C 0.0348 0.4548 0.8169
H70A H 0.0809 0.4574 0.8586
H71A H 0.001 0.4879 0.8337
H72A H 0.0037 0.4059 0.7942
C72A C 0.3191 0.2948 0.7851
C73A C 0.1989 0.2305 0.7918
C74A C 0.1654 0.1919 0.7091
H73A H 0.208 0.1734 0.6915
H74A H 0.1221 0.152 0.6974
H75A H 0.1446 0.2255 0.6853
C75A C 0.134 0.2609 0.8229
H76A H 0.1577 0.2852 0.8759
H77A H 0.1128 0.2952 0.8003
H78A H 0.0905 0.2217 0.8123
C76A C 0.246 0.1878 0.8381
H79A H 0.2649 0.2175 0.8899
H80A H 0.2105 0.1438 0.8303
H81A H 0.2919 0.1754 0.8227
C77A C 0.6802 0.4081 0.9225
C78A C 0.6785 0.5261 1.0099
C79A C 0.6733 0.4967 1.0697
H82A H 0.6176 0.4751 1.0591
H83A H 0.7069 0.4604 1.0712
H84A H 0.6919 0.5358 1.117
C80A C 0.7626 0.5628 1.0166
H85A H 0.8008 0.5309 1.0237
H86A H 0.7593 0.5727 0.9718
H87A H 0.7805 0.6078 1.0584
C81A C 0.6163 0.5752 0.9993
H88A H 0.5639 0.5506 0.9945
H89A H 0.6331 0.6197 1.0416
H90A H 0.6125 0.5863 0.9551
C82A C 0.8698 0.4181 0.8938
C83A C 0.9257 0.3248 0.9394
C84A C 0.8883 0.2426 0.9107
H91A H 0.8914 0.2195 0.8619
H92A H 0.918 0.2203 0.9441
H93A H 0.8321 0.2368 0.9082
C85A C 0.9213 0.3603 1.0162
H94A H 0.8662 0.3491 1.0153
H95A H 0.9569 0.3421 1.0504
H96A H 0.9381 0.4123 1.0318
C86A C 1.0109 0.3399 0.9375
H97A H 1.0113 0.3163 0.8878
H98A H 1.0288 0.3917 0.9523
H99A H 1.047 0.3214 0.9711
C87A C 0.917 0.6832 0.8212
C88A C 1.01 0.7716 0.8064
C89A C 1.0672 0.7213 0.7854
H100A H 1.0359 0.6746 0.7507
H101A H 1.1 0.7421 0.7628
H102A H 1.102 0.7151 0.8292
C90A C 1.0596 0.8449 0.8612
H103A H 1.0235 0.8771 0.8744
H104A H 1.0941 0.8386 0.9051
H105A H 1.0927 0.8656 0.8389
C91A C 0.9458 0.778 0.7367
H106A H 0.9113 0.8108 0.7525
H107A H 0.9735 0.7964 0.7089
H108A H 0.913 0.7307 0.7057
C92A C 0.7914 0.8204 0.9635
C93A C 0.9165 0.8946 1.0583
C94A C 0.9653 0.8864 1.1308
H109A H 0.9318 0.889 1.1618
H110A H 0.9825 0.8401 1.1204
H111A H 1.0123 0.925 1.1562
C95A C 0.9637 0.8919 1.0063
H112A H 0.9869 0.8484 0.9986
H113A H 0.928 0.8914 0.9594
H114A H 1.0067 0.9341 1.0274
C96A C 0.8763 0.9613 1.0742
H115A H 0.8468 0.9591 1.1075
H116A H 0.9175 1.0049 1.0968
H117A H 0.8392 0.962 1.0284
C97A C 0.4343 0.7647 0.9323
C98A C 0.3375 0.7827 0.9972
C99A C 0.3891 0.769 1.0644
H118A H 0.4265 0.8132 1.0982
H119A H 0.3547 0.7535 1.0887
H120A H 0.4192 0.7316 1.0492
C100A C 0.2741 0.7176 0.9377
H121A H 0.2446 0.7322 0.8974
H122A H 0.3011 0.6788 0.9194
H123A H 0.2368 0.7011 0.959
C101A C 0.2952 0.8459 1.0195
H124A H 0.2622 0.8534 0.9756
H125A H 0.261 0.8352 1.0464
H126A H 0.3353 0.8892 1.0506
C102A C 0.3005 0.8581 0.8121
C103A C 0.3808 0.9812 0.8737
C104A C 0.3125 1.0182 0.8444
H127A H 0.2631 0.9978 0.849
H128A H 0.3266 1.0696 0.8726
H129A H 0.3045 1.0107 0.7929
C105A C 0.3893 0.9828 0.9519
H130A H 0.433 0.9587 0.9685
H131A H 0.4009 1.0325 0.985
H132A H 0.3392 0.958 0.9516
C106A C 0.461 1.011 0.868
H133A H 0.5026 0.986 0.8872
H134A H 0.4546 1.0034 0.8168
H135A H 0.4767 1.0623 0.8965
C107A C 0.224 0.7999 0.4828
C108A C 0.1377 0.7949 0.3617
C109A C 0.1334 0.855 0.3246
H136A H 0.1851 0.8674 0.3191
H137A H 0.0917 0.8365 0.2765
H138A H 0.1207 0.8977 0.3555
C110A C 0.0593 0.7727 0.3727
H139A H 0.0652 0.7359 0.3953
H140A H 0.0461 0.8145 0.4045
H141A H 0.0164 0.7535 0.3253
C111A C 0.1729 0.7324 0.3207
H142A H 0.1744 0.6954 0.343
H143A H 0.139 0.7118 0.2692
H144A H 0.2272 0.7507 0.3241
O1A O 0.5379 0.075 0.4577
O2A O 0.4919 -0.0036 0.3411
O3A O 0.6017 -0.0125 0.4269
O4A O 0.2525 0.0859 0.3934
O5A O 0.2604 0.063 0.28108
O6A O 0.1449 0.0189 0.2966
O7A O 0.1251 0.197 0.43663
O8A O 0.01808 0.1141 0.38221
O9A O 0.0929 0.1271 0.4997
O10A O 0.18766 0.3612 0.68509
O11A O 0.1122 0.4191 0.7396
O12A O 0.1443 0.4531 0.6507
O13A O 0.35461 0.3661 0.80083
O14A O 0.25621 0.2996 0.809
O15A O 0.3419 0.2439 0.754
O16A O 0.63863 0.3574 0.85468
O17A O 0.6454 0.465 0.93728
O18A O 0.7403 0.3955 0.9603
O19A O 0.81374 0.4199 0.83122
O20A O 0.87023 0.3472 0.88166
O21A O 0.9091 0.4692 0.94672
O22A O 0.88241 0.67586 0.87231
O23A O 0.9665 0.7469 0.8517
O24A O 0.9036 0.6378 0.7612
O25A O 0.74117 0.7553 0.94356
O26A O 0.85016 0.8275 1.02462
O27A O 0.7805 0.8588 0.9264
O28A O 0.46892 0.79834 0.89494
O29A O 0.3907 0.8085 0.96103
O30A O 0.4444 0.7057 0.9339
O31A O 0.29514 0.7928 0.75991
O32A O 0.3638 0.9045 0.82155
O33A O 0.2512 0.8662 0.84435
O34A O 0.2858 0.8513 0.54419
O35A O 0.1998 0.8358 0.4355
O36A O 0.2004 0.7406 0.4772

#END

