####################################################################### 
# 
# This file contains crystal structure data downloaded from the 
# Cambridge Structural Database (CSD) hosted by the Cambridge 
# Crystallographic Data Centre (CCDC).
# 
# Full information about CCDC data access policies and citation 
# guidelines are available at http://www.ccdc.cam.ac.uk/access/V1 
# 
# Audit and citation data items may have been added by the CCDC. 
# Please retain this information to preserve the provenance of 
# this file and to allow appropriate attribution of the data. 
# 
#######################################################################

data_dbornbcd
_audit_block_doi                 10.5517/cc138v8h
_database_code_depnum_ccdc_archive 'CCDC 1021396'
loop_
_citation_id
_citation_doi
_citation_year
1 10.1007/s10847-014-0448-9 2015
#Added by publCIF



_audit_update_record             
;
2014-08-27 deposited with the CCDC.
2015-07-24 downloaded from the CCDC.
;


_symmetry_space_group_name_hall  'C 2c 2'
#Added by publCIF




_cell_special_details            orthorhombic

_audit_creation_method           SHELXL-97
_chemical_name_systematic        
;
  'endo-1,7,7-Trimethyl-bicyclo[2.2.1]heptan-2-ol/Cycloheptaamylose complex'
;
_chemical_name_common            '(+)-borneol/beta-cyclodextrin complex'
_chemical_melting_point          ?
_chemical_formula_moiety         '(C42 H46 O35), 1.5 (C10 H18 O), 10.8 (H2 O1)'
_chemical_formula_sum            'C57 H46 O47.30'
_chemical_formula_weight         1487.74

loop_
_atom_type_symbol
_atom_type_description
_atom_type_scat_dispersion_real
_atom_type_scat_dispersion_imag
_atom_type_scat_source
C C 0.0033 0.0016 'International Tables Vol C Tables 4.2.6.8 and 6.1.1.4'
H H 0.0000 0.0000 'International Tables Vol C Tables 4.2.6.8 and 6.1.1.4'
O O 0.0106 0.0060 'International Tables Vol C Tables 4.2.6.8 and 6.1.1.4'

_symmetry_cell_setting           orthorhombic
_symmetry_space_group_name_H-M   'C 2 2 21'

loop_
_symmetry_equiv_pos_as_xyz
'x, y, z'
'x, -y, -z'
'-x, -y, z+1/2'
'-x, y, -z+1/2'
'x+1/2, y+1/2, z'
'x+1/2, -y+1/2, -z'
'-x+1/2, -y+1/2, z+1/2'
'-x+1/2, y+1/2, -z+1/2'

_cell_length_a                   19.0550(10)
_cell_length_b                   23.6960(10)
_cell_length_c                   32.3570(10)
_cell_angle_alpha                90.00
_cell_angle_beta                 90.00
_cell_angle_gamma                90.00
_cell_volume                     14610.1(11)
_cell_formula_units_Z            8
_cell_measurement_temperature    100(2)
_cell_measurement_reflns_used    31226
_cell_measurement_theta_min      1.70
_cell_measurement_theta_max      23.61

_exptl_crystal_description       prism
_exptl_crystal_colour            colourless
_exptl_crystal_size_max          0.30
_exptl_crystal_size_mid          0.30
_exptl_crystal_size_min          0.30
_exptl_crystal_density_meas      ?
_exptl_crystal_density_diffrn    1.353
_exptl_crystal_density_method    'not measured'
_exptl_crystal_F_000             6131
_exptl_absorpt_coefficient_mu    0.122
_exptl_absorpt_correction_type   none
_exptl_absorpt_correction_T_min  ?
_exptl_absorpt_correction_T_max  ?
_exptl_absorpt_process_details   ?

_exptl_special_details           
;
  'endo-1,7,7-Trimethyl-bicyclo[2.2.1]heptan-2-ol/Cycloheptaamylose complex'
;

_diffrn_ambient_temperature      100(2)
_diffrn_radiation_wavelength     0.80150
_diffrn_radiation_type           synchrotron
_diffrn_radiation_source         synchrotron
_diffrn_radiation_monochromator  'Si (111), horizontally focussing'
_diffrn_measurement_device_type  'MARCCD 165mm'
_diffrn_measurement_method       '\w scans'
_diffrn_detector_area_resol_mean ?
_diffrn_standards_number         ?
_diffrn_standards_interval_count ?
_diffrn_standards_interval_time  ?
_diffrn_standards_decay_%        ?
_diffrn_reflns_number            4093
_diffrn_reflns_av_R_equivalents  0.036
_diffrn_reflns_av_sigmaI/netI    0.0165
_diffrn_reflns_limit_h_min       0
_diffrn_reflns_limit_h_max       19
_diffrn_reflns_limit_k_min       0
_diffrn_reflns_limit_k_max       23
_diffrn_reflns_limit_l_min       0
_diffrn_reflns_limit_l_max       32
_diffrn_reflns_theta_min         1.70
_diffrn_reflns_theta_max         23.61
_reflns_number_total             4093
_reflns_number_gt                4027
_reflns_threshold_expression     >2sigma(I)

_computing_data_collection       ?
_computing_cell_refinement       'HKL-2000 (Otwinowski and Minor, 1997)'
_computing_data_reduction        'HKL-2000 (Otwinowski and Minor, 1997)'
_computing_structure_solution    'DIRDIF (Beurskens, 1996)'
_computing_structure_refinement  'SHELXL-97 (Sheldrick, 1997)'
_computing_molecular_graphics    'Ortep-3 for Windows (Farrugia, 1997)'
_computing_publication_material  'WinGX publication routines (Farrugia, 1999)'

_refine_special_details          
;
 Refinement of F^2^ against ALL reflections.  The weighted R-factor wR and
 goodness of fit S are based on F^2^, conventional R-factors R are based
 on F, with F set to zero for negative F^2^. The threshold expression of
 F^2^ > 2sigma(F^2^) is used only for calculating R-factors(gt) etc. and is
 not relevant to the choice of reflections for refinement.  R-factors based
 on F^2^ are statistically about twice as large as those based on F, and R-
 factors based on ALL data will be even larger.
;

_refine_ls_structure_factor_coef Fsqd
_refine_ls_matrix_type           full
_refine_ls_weighting_scheme      calc
_refine_ls_weighting_details     
'calc w=1/[\s^2^(Fo^2^)+(0.2800P)^2^+0.0000P] where P=(Fo^2^+2Fc^2^)/3'
_atom_sites_solution_primary     direct
_atom_sites_solution_secondary   difmap
_atom_sites_solution_hydrogens   geom
_refine_ls_hydrogen_treatment    constr
_refine_ls_extinction_method     SHELXL
_refine_ls_extinction_coef       0.0062(12)
_refine_ls_extinction_expression Fc^*^=kFc[1+0.001xFc^2^\l^3^/sin(2\q)]^-1/4^
_refine_ls_number_reflns         4093
_refine_ls_number_parameters     561
_refine_ls_number_restraints     44
_refine_ls_R_factor_all          0.1000
_refine_ls_R_factor_gt           0.0996
_refine_ls_wR_factor_ref         0.3003
_refine_ls_wR_factor_gt          0.2983
_refine_ls_goodness_of_fit_ref   1.179
_refine_ls_restrained_S_all      1.178
_refine_ls_shift/su_max          0.020
_refine_ls_shift/su_mean         0.003

loop_
_atom_site_label
_atom_site_type_symbol
_atom_site_fract_x
_atom_site_fract_y
_atom_site_fract_z
_atom_site_U_iso_or_equiv
_atom_site_adp_type
_atom_site_occupancy
_atom_site_symmetry_multiplicity
_atom_site_calc_flag
_atom_site_refinement_flags
_atom_site_disorder_assembly
_atom_site_disorder_group
C11 C 0.2744(4) 0.0454(4) 0.3925(3) 0.030(2) Uiso 1 1 d . . .
H11 H 0.2586 0.0059 0.3982 0.037 Uiso 1 1 calc R . .
C21 C 0.2291(5) 0.0705(4) 0.3612(3) 0.042(2) Uiso 1 1 d . . .
O21 O 0.2324(3) 0.0391(3) 0.32377(17) 0.0387(16) Uani 1 1 d . . .
C31 C 0.2499(5) 0.1331(4) 0.3533(3) 0.038(2) Uiso 1 1 d . . .
H31 H 0.2994 0.1346 0.3429 0.045 Uiso 1 1 calc R . .
O31 O 0.2044(4) 0.1555(3) 0.3227(2) 0.0458(18) Uani 1 1 d . . .
C41 C 0.2457(4) 0.1625(3) 0.3928(3) 0.030(2) Uiso 1 1 d . . .
H41 H 0.1957 0.1651 0.4019 0.036 Uiso 1 1 calc R . .
C51 C 0.2885(5) 0.1355(4) 0.4256(3) 0.035(2) Uiso 1 1 d . . .
H51 H 0.3392 0.1387 0.4178 0.042 Uiso 1 1 calc R . .
C61 C 0.2789(5) 0.1601(4) 0.4683(3) 0.036(2) Uiso 1 1 d . . .
H61A H 0.3147 0.1440 0.4870 0.043 Uiso 1 1 calc R . .
H61B H 0.2866 0.2014 0.4670 0.043 Uiso 1 1 calc R . .
O61 O 0.2132(3) 0.1497(3) 0.48416(18) 0.0435(17) Uani 1 1 d . . .
O51 O 0.2711(3) 0.0770(3) 0.42922(19) 0.0386(15) Uiso 1 1 d . . .
O41 O 0.2741(3) 0.2184(2) 0.38647(19) 0.0380(15) Uani 1 1 d . . .
C12 C 0.2320(5) 0.2658(4) 0.3950(3) 0.039(2) Uiso 1 1 d . . .
H12 H 0.1840 0.2528 0.4030 0.047 Uiso 1 1 calc R . .
C22 C 0.2271(5) 0.3011(4) 0.3571(3) 0.038(2) Uiso 1 1 d . . .
H22 H 0.1982 0.3354 0.3630 0.045 Uiso 1 1 calc R . .
O22 O 0.1964(4) 0.2704(2) 0.32350(18) 0.0397(17) Uani 1 1 d . . .
C32 C 0.3010(5) 0.3191(4) 0.3446(3) 0.037(2) Uiso 1 1 d . . .
H32 H 0.3307 0.2850 0.3396 0.045 Uiso 1 1 calc R . .
O32 O 0.2986(4) 0.3534(3) 0.30808(19) 0.0433(16) Uani 1 1 d . . .
C42 C 0.3304(5) 0.3526(4) 0.3803(3) 0.038(2) Uiso 1 1 d . . .
H42 H 0.3026 0.3881 0.3838 0.046 Uiso 1 1 calc R . .
C52 C 0.3293(5) 0.3199(4) 0.4195(3) 0.038(2) Uiso 1 1 d . . .
H52 H 0.3634 0.2880 0.4171 0.046 Uiso 1 1 calc R . .
C62 C 0.3473(5) 0.3539(4) 0.4562(3) 0.041(2) Uiso 1 1 d . . .
H62A H 0.3420 0.3306 0.4814 0.050 Uiso 1 1 calc R . .
H62B H 0.3969 0.3662 0.4544 0.050 Uiso 1 1 calc R . .
O62 O 0.3022(4) 0.4027(3) 0.4589(2) 0.0508(18) Uani 1 1 d . . .
O52 O 0.2610(3) 0.2974(3) 0.42737(19) 0.0404(16) Uiso 1 1 d . . .
O42 O 0.4005(3) 0.3664(3) 0.36913(17) 0.0371(16) Uani 1 1 d . . .
C13 C 0.4255(5) 0.4222(4) 0.3752(3) 0.035(2) Uiso 1 1 d . . .
H13 H 0.3851 0.4464 0.3839 0.042 Uiso 1 1 calc R . .
C23 C 0.4513(5) 0.4431(4) 0.3342(3) 0.042(2) Uiso 1 1 d . . .
H23 H 0.4662 0.4833 0.3378 0.050 Uiso 1 1 calc R . .
O23 O 0.3970(3) 0.4422(3) 0.3044(2) 0.0419(16) Uani 1 1 d . . .
C33 C 0.5138(5) 0.4105(4) 0.3213(3) 0.038(2) Uiso 1 1 d . . .
H33 H 0.5003 0.3703 0.3162 0.045 Uiso 1 1 calc R . .
O33 O 0.5432(3) 0.4340(3) 0.28469(17) 0.0387(16) Uani 1 1 d . . .
C43 C 0.5694(5) 0.4132(4) 0.3561(3) 0.037(2) Uiso 1 1 d . . .
H43 H 0.5852 0.4532 0.3593 0.044 Uiso 1 1 calc R . .
C53 C 0.5381(5) 0.3943(4) 0.3954(3) 0.037(2) Uiso 1 1 d . . .
H53 H 0.5255 0.3535 0.3928 0.044 Uiso 1 1 calc R . .
C63 C 0.5862(6) 0.4014(4) 0.4315(3) 0.051(3) Uiso 1 1 d . . .
H63A H 0.5601 0.3949 0.4575 0.061 Uiso 1 1 calc R . .
H63B H 0.6248 0.3735 0.4300 0.061 Uiso 1 1 calc R . .
O63 O 0.6146(4) 0.4576(3) 0.4312(2) 0.062(2) Uani 1 1 d . . .
O53 O 0.4768(3) 0.4252(3) 0.4055(2) 0.0399(16) Uiso 1 1 d . . .
O43 O 0.6264(3) 0.3806(2) 0.34507(16) 0.0367(16) Uani 1 1 d . . .
C14 C 0.6915(5) 0.4058(4) 0.3453(3) 0.039(2) Uiso 1 1 d . . .
H14 H 0.6851 0.4473 0.3492 0.047 Uiso 1 1 calc R . .
C24 C 0.7261(5) 0.3956(4) 0.3026(3) 0.038(2) Uiso 1 1 d . . .
H24 H 0.7727 0.4148 0.3015 0.046 Uiso 1 1 calc R . .
O24 O 0.6831(3) 0.4159(3) 0.27083(18) 0.0419(16) Uani 1 1 d . . .
C34 C 0.7360(5) 0.3321(4) 0.2979(3) 0.040(2) Uiso 1 1 d . . .
H34 H 0.6891 0.3131 0.2982 0.048 Uiso 1 1 calc R . .
O34 O 0.7711(3) 0.3196(3) 0.25995(17) 0.0441(17) Uani 1 1 d . . .
C44 C 0.7793(5) 0.3109(4) 0.3333(3) 0.038(2) Uiso 1 1 d . . .
H44 H 0.8280 0.3264 0.3314 0.046 Uiso 1 1 calc R . .
C54 C 0.7485(5) 0.3243(4) 0.3741(3) 0.039(2) Uiso 1 1 d . . .
H54 H 0.7035 0.3032 0.3778 0.046 Uiso 1 1 calc R . .
O54 O 0.7353(3) 0.3856(2) 0.37691(18) 0.0345(15) Uiso 1 1 d . . .
C64 C 0.7957(5) 0.3129(4) 0.4096(3) 0.039(2) Uiso 1 1 d . . .
H64A H 0.7727 0.3257 0.4354 0.046 Uiso 1 1 calc R . .
H64B H 0.8034 0.2717 0.4119 0.046 Uiso 1 1 calc R . .
O64 O 0.8621(3) 0.3405(3) 0.40567(19) 0.0441(16) Uani 1 1 d . . .
O44 O 0.7810(3) 0.2503(2) 0.32920(17) 0.0336(15) Uani 1 1 d . . .
C15 C 0.8444(5) 0.2230(4) 0.3301(3) 0.039(2) Uiso 1 1 d . . .
H15 H 0.8830 0.2516 0.3292 0.047 Uiso 1 1 calc R . .
C25 C 0.8487(5) 0.1864(4) 0.2920(3) 0.039(2) Uiso 1 1 d . . .
H25 H 0.8952 0.1669 0.2927 0.047 Uiso 1 1 calc R . .
O25 O 0.8462(4) 0.2182(2) 0.2551(2) 0.0465(17) Uani 1 1 d . . .
C35 C 0.7944(5) 0.1424(4) 0.2940(3) 0.039(2) Uiso 1 1 d . . .
H35 H 0.7469 0.1605 0.2936 0.046 Uiso 1 1 calc R . .
O35 O 0.8016(4) 0.1056(3) 0.25820(17) 0.0452(17) Uani 1 1 d . . .
C45 C 0.8025(5) 0.1084(4) 0.3328(3) 0.033(2) Uiso 1 1 d . . .
H45 H 0.8477 0.0869 0.3323 0.040 Uiso 1 1 calc R . .
C55 C 0.7997(5) 0.1473(4) 0.3705(3) 0.044(2) Uiso 1 1 d . . .
H55 H 0.7522 0.1652 0.3715 0.053 Uiso 1 1 calc R . .
O55 O 0.8512(3) 0.1911(3) 0.3656(2) 0.0436(16) Uiso 1 1 d . . .
C65 C 0.8130(6) 0.1193(5) 0.4107(4) 0.057(3) Uiso 1 1 d . . .
H65A H 0.8132 0.1479 0.4330 0.069 Uiso 1 1 calc R . .
H65B H 0.7751 0.0919 0.4165 0.069 Uiso 1 1 calc R . .
O65 O 0.8750(5) 0.0925(3) 0.4099(2) 0.073(3) Uani 1 1 d . . .
O45 O 0.7448(3) 0.0708(2) 0.33634(17) 0.0305(14) Uani 1 1 d . . .
C16 C 0.7615(5) 0.0120(3) 0.3392(2) 0.028(2) Uiso 1 1 d . . .
H16 H 0.8134 0.0072 0.3365 0.034 Uiso 1 1 calc R . .
C26 C 0.7258(5) -0.0191(4) 0.3045(3) 0.033(2) Uiso 1 1 d . . .
H26 H 0.7368 -0.0602 0.3067 0.040 Uiso 1 1 calc R . .
O26 O 0.7500(3) 0.0012(3) 0.26630(17) 0.0345(15) Uani 1 1 d . . .
C36 C 0.6467(5) -0.0104(4) 0.3088(3) 0.034(2) Uiso 1 1 d . . .
H36 H 0.6345 0.0305 0.3067 0.041 Uiso 1 1 calc R . .
O36 O 0.6126(3) -0.0421(3) 0.27686(18) 0.0424(16) Uani 1 1 d . . .
C46 C 0.6258(5) -0.0336(4) 0.3502(3) 0.032(2) Uiso 1 1 d . . .
H46 H 0.6340 -0.0753 0.3508 0.038 Uiso 1 1 calc R . .
C56 C 0.6651(5) -0.0061(4) 0.3846(3) 0.037(2) Uiso 1 1 d . . .
H56 H 0.6509 0.0345 0.3859 0.045 Uiso 1 1 calc R . .
O56 O 0.7399(3) -0.0089(2) 0.37763(18) 0.0341(15) Uiso 1 1 d . . .
C66 C 0.6521(5) -0.0324(4) 0.4256(3) 0.038(2) Uiso 1 1 d . . .
H66A H 0.6801 -0.0124 0.4468 0.045 Uiso 1 1 calc R . .
H66B H 0.6019 -0.0283 0.4328 0.045 Uiso 1 1 calc R . .
O66 O 0.6707(4) -0.0917(2) 0.42566(19) 0.0446(17) Uani 1 1 d . . .
O46 O 0.5525(3) -0.0221(2) 0.35578(18) 0.0314(15) Uani 1 1 d . . .
C17 C 0.5071(5) -0.0675(4) 0.3635(3) 0.034(2) Uiso 1 1 d . . .
H17 H 0.5345 -0.1035 0.3622 0.040 Uiso 1 1 calc R . .
C27 C 0.4518(5) -0.0683(4) 0.3300(3) 0.033(2) Uiso 1 1 d . . .
H27 H 0.4191 -0.1003 0.3360 0.039 Uiso 1 1 calc R . .
O27 O 0.4802(3) -0.0770(3) 0.29123(17) 0.0359(16) Uani 1 1 d . . .
C37 C 0.4098(5) -0.0132(4) 0.3335(3) 0.034(2) Uiso 1 1 d . . .
H37 H 0.4421 0.0194 0.3288 0.041 Uiso 1 1 calc R . .
O37 O 0.3572(3) -0.0133(3) 0.30229(18) 0.0387(16) Uani 1 1 d . . .
C47 C 0.3784(4) -0.0080(4) 0.3746(3) 0.029(2) Uiso 1 1 d . . .
H47 H 0.3431 -0.0387 0.3785 0.035 Uiso 1 1 calc R . .
C57 C 0.4343(4) -0.0128(3) 0.4079(2) 0.0273(19) Uiso 1 1 d . . .
H57 H 0.4651 0.0213 0.4069 0.033 Uiso 1 1 calc R . .
O57 O 0.4770(3) -0.0625(2) 0.40274(18) 0.0326(15) Uiso 1 1 d . . .
C67 C 0.4044(5) -0.0183(4) 0.4500(3) 0.041(2) Uiso 1 1 d . . .
O67 O 0.3610(3) -0.0670(2) 0.45324(18) 0.0401(16) Uani 1 1 d . . .
O47 O 0.3447(3) 0.0444(2) 0.37729(16) 0.0347(15) Uani 1 1 d . . .

loop_
_atom_site_aniso_label
_atom_site_aniso_U_11
_atom_site_aniso_U_22
_atom_site_aniso_U_33
_atom_site_aniso_U_23
_atom_site_aniso_U_13
_atom_site_aniso_U_12
O21 0.048(4) 0.041(4) 0.027(3) 0.000(3) 0.000(3) 0.004(3)
O31 0.051(4) 0.045(4) 0.041(4) 0.004(3) -0.004(3) 0.015(3)
O61 0.047(4) 0.054(4) 0.030(3) -0.004(3) -0.002(3) 0.009(3)
O41 0.045(4) 0.033(3) 0.036(3) 0.008(3) 0.003(3) 0.005(3)
O22 0.057(4) 0.028(3) 0.034(3) 0.002(3) -0.006(3) 0.000(3)
O32 0.058(4) 0.042(4) 0.029(3) 0.007(3) -0.013(3) 0.000(3)
O62 0.055(4) 0.058(4) 0.039(4) -0.005(3) -0.008(3) 0.011(3)
O42 0.043(4) 0.042(4) 0.027(3) 0.006(3) -0.004(3) 0.002(3)
O23 0.040(4) 0.044(4) 0.041(4) 0.005(3) -0.006(3) -0.001(3)
O33 0.030(3) 0.058(4) 0.027(3) 0.010(3) -0.010(3) 0.009(3)
O63 0.065(5) 0.066(5) 0.054(4) -0.002(4) -0.027(4) -0.007(4)
O43 0.044(4) 0.038(3) 0.028(3) 0.009(3) -0.003(3) -0.006(3)
O24 0.055(4) 0.050(4) 0.021(3) -0.002(3) -0.010(3) 0.005(3)
O34 0.054(4) 0.053(4) 0.025(3) -0.002(3) 0.006(3) 0.006(3)
O64 0.032(3) 0.065(4) 0.036(3) 0.006(3) -0.003(3) -0.002(3)
O44 0.038(3) 0.030(3) 0.032(3) -0.003(3) -0.001(3) -0.008(3)
O25 0.062(4) 0.037(3) 0.041(4) 0.003(3) 0.006(3) -0.003(3)
O35 0.055(4) 0.052(4) 0.028(3) -0.005(3) 0.004(3) -0.005(3)
O65 0.107(7) 0.066(5) 0.046(4) 0.003(4) -0.032(5) -0.025(5)
O45 0.029(3) 0.031(3) 0.032(3) 0.001(2) 0.002(3) -0.001(3)
O26 0.042(3) 0.037(3) 0.024(3) -0.001(2) 0.010(3) -0.008(3)
O36 0.047(4) 0.058(4) 0.022(3) -0.007(3) -0.005(3) -0.018(3)
O66 0.058(4) 0.036(3) 0.040(3) 0.008(3) 0.004(3) 0.010(3)
O46 0.022(3) 0.039(3) 0.032(3) -0.002(3) 0.005(3) 0.003(2)
O27 0.041(4) 0.046(3) 0.021(3) -0.003(3) 0.005(3) 0.001(3)
O37 0.036(3) 0.054(4) 0.026(3) -0.006(3) 0.003(3) -0.001(3)
O67 0.052(4) 0.036(3) 0.032(3) 0.007(3) 0.001(3) 0.003(3)
O47 0.040(3) 0.038(3) 0.026(3) -0.003(3) 0.006(3) 0.001(3)

_geom_special_details            
;
 All esds (except the esd in the dihedral angle between two l.s. planes)
 are estimated using the full covariance matrix.  The cell esds are taken
 into account individually in the estimation of esds in distances, angles
 and torsion angles; correlations between esds in cell parameters are only
 used when they are defined by crystal symmetry.  An approximate (isotropic)
 treatment of cell esds is used for estimating esds involving l.s. planes.
;

loop_
_geom_bond_atom_site_label_1
_geom_bond_atom_site_label_2
_geom_bond_distance
_geom_bond_site_symmetry_2
_geom_bond_publ_flag
C11 O51 1.404(11) . ?
C11 O47 1.427(11) . ?
C11 C21 1.458(14) . ?
C11 H11 1.0000 . ?
C21 O21 1.424(12) 1 ?
C21 O21 1.424(12) . ?
C21 C31 1.557(14) . ?
O21 O21 0.00(2) 1 ?
C31 O31 1.419(12) . ?
C31 C41 1.458(13) . ?
C31 H31 1.0000 . ?
C41 O41 1.446(11) . ?
C41 C51 1.483(13) . ?
C41 H41 1.0000 . ?
C51 O51 1.431(12) . ?
C51 C61 1.510(12) . ?
C51 H51 1.0000 . ?
C61 O61 1.377(12) . ?
C61 H61A 0.9900 . ?
C61 H61B 0.9900 . ?
O41 C12 1.406(11) . ?
C12 O52 1.402(12) . ?
C12 C22 1.489(14) . ?
C12 H12 1.0000 . ?
C22 O22 1.432(12) . ?
C22 C32 1.524(14) . ?
C22 H22 1.0000 . ?
C32 O32 1.436(12) . ?
C32 C42 1.509(14) . ?
C32 H32 1.0000 . ?
C42 O42 1.422(12) . ?
C42 C52 1.486(14) . ?
C42 H42 1.0000 . ?
C52 O52 1.430(12) . ?
C52 C62 1.475(14) . ?
C52 H52 1.0000 . ?
C62 O62 1.444(12) . ?
C62 H62A 0.9900 . ?
C62 H62B 0.9900 . ?
O42 C13 1.419(11) . ?
C13 O53 1.386(11) . ?
C13 C23 1.499(14) . ?
C13 H13 1.0000 . ?
C23 O23 1.414(12) . ?
C23 C33 1.480(14) . ?
C23 H23 1.0000 . ?
C33 O33 1.424(11) . ?
C33 C43 1.549(13) . ?
C33 H33 1.0000 . ?
C43 O43 1.380(12) . ?
C43 C53 1.473(14) . ?
C43 H43 1.0000 . ?
C53 O53 1.416(11) . ?
C53 C63 1.497(14) . ?
C53 H53 1.0000 . ?
C63 O63 1.437(14) . ?
C63 H63A 0.9900 . ?
C63 H63B 0.9900 . ?
O43 C14 1.378(11) . ?
C14 O54 1.403(12) . ?
C14 C24 1.550(14) . ?
C14 H14 1.0000 . ?
C24 O24 1.399(11) . ?
C24 C34 1.522(14) . ?
C24 H24 1.0000 . ?
C34 O34 1.430(12) . ?
C34 C44 1.499(14) . ?
C34 H34 1.0000 . ?
C44 O44 1.442(12) . ?
C44 C54 1.481(14) . ?
C44 H44 1.0000 . ?
C54 C64 1.484(14) . ?
C54 O54 1.477(11) . ?
C54 H54 1.0000 . ?
C64 O64 1.430(12) . ?
C64 H64A 0.9900 . ?
C64 H64B 0.9900 . ?
O44 C15 1.371(12) . ?
C15 O55 1.382(12) . ?
C15 C25 1.508(13) . ?
C15 H15 1.0000 . ?
C25 O25 1.413(11) . ?
C25 C35 1.470(14) . ?
C25 H25 1.0000 . ?
C35 O35 1.457(12) . ?
C35 C45 1.501(13) . ?
C35 H35 1.0000 . ?
C45 O45 1.419(11) . ?
C45 C55 1.529(14) . ?
C45 H45 1.0000 . ?
C55 O55 1.439(12) . ?
C55 C65 1.482(16) . ?
C55 H55 1.0000 . ?
C65 O65 1.341(15) . ?
C65 H65A 0.9900 . ?
C65 H65B 0.9900 . ?
O45 C16 1.431(11) . ?
C16 O56 1.401(10) . ?
C16 C26 1.504(13) . ?
C16 H16 1.0000 . ?
C26 O26 1.403(11) . ?
C26 C36 1.528(13) . ?
C26 H26 1.0000 . ?
C36 O36 1.433(11) . ?
C36 C46 1.502(13) . ?
C36 H36 1.0000 . ?
C46 O46 1.434(11) . ?
C46 C56 1.491(13) . ?
C46 H46 1.0000 . ?
C56 O56 1.445(12) . ?
C56 C66 1.486(14) . ?
C56 H56 1.0000 . ?
C66 O66 1.449(11) . ?
C66 H66A 0.9900 . ?
C66 H66B 0.9900 . ?
O46 C17 1.405(11) . ?
C17 O57 1.400(11) . ?
C17 C27 1.510(13) . ?
C17 H17 1.0000 . ?
C27 O27 1.383(11) . ?
C27 C37 1.534(12) . ?
C27 H27 1.0000 . ?
C37 O37 1.423(12) . ?
C37 C47 1.462(13) . ?
C37 H37 1.0000 . ?
C47 O47 1.402(11) . ?
C47 C57 1.520(12) . ?
C47 H47 1.0000 . ?
C57 O57 1.441(10) . ?
C57 C67 1.480(14) . ?
C57 H57 1.0000 . ?
C67 O67 1.425(11) 1 ?
C67 O67 1.425(11) . ?
O67 O67 0.00(2) 1 ?
OW12 OW13 0.73(4) . ?
C1A C2A 1.42(2) . ?
C1A C7A 1.56(2) . ?
C1A C6A 1.57(3) . ?
C1A C10A 1.579(10) . ?
C2A OA 1.435(14) . ?
C2A C3A 1.62(2) . ?
C3A C4A 1.56(3) . ?
C4A C7A 1.43(2) . ?
C4A C5A 1.43(3) . ?
C5A C6A 1.44(3) . ?
C7A C8A 1.51(2) . ?
C7A C9A 1.50(3) . ?
C1B C1B 0.45(11) 4_655 ?
C1B C6B 1.44(7) 4_655 ?
C1B C2B 1.49(8) 4_655 ?
C1B C2B 1.4005 . ?
C1B C6B 1.4487 . ?
C1B C7B 1.5223 . ?
C1B C7B 1.22(11) 4_655 ?
C1B C4B 1.49(11) 4_655 ?
C1B C10B 1.572(11) . ?
C1B C4B 1.9386 . ?
C1B C5B 1.87(12) 4_655 ?
C2B C2B 1.62(14) 4_655 ?
C2B C1B 1.49(7) 4_655 ?
C2B OB 1.4012 . ?
C2B C3B 1.6348 . ?
C2B C3B 1.97(17) 4_655 ?
C2B C7B 1.24(6) 4_655 ?
C2B C8B 1.34(14) 4_655 ?
C3B C4B 1.6023 . ?
C3B C2B 1.97(15) 4_655 ?
C3B C10B 1.84(14) 4_655 ?
C4B C10B 1.08(15) 4_655 ?
C4B C7B 1.3584 . ?
C4B C5B 1.5729 . ?
C4B C1B 1.49(11) 4_655 ?
C5B C10B 0.76(15) 4_655 ?
C5B C6B 1.3671 . ?
C5B C1B 1.87(9) 4_655 ?
C6B C1B 1.44(6) 4_655 ?
C6B C6B 1.43(15) 4_655 ?
C6B C7B 1.69(6) 4_655 ?
C6B C10B 1.63(15) 4_655 ?
C6B C9B 1.69(13) 4_655 ?
C7B OB 1.30(10) 4_655 ?
C7B C8B 1.4349 . ?
C7B C9B 1.6139 . ?
C7B C1B 1.22(11) 4_655 ?
C7B C2B 1.24(8) 4_655 ?
C7B C6B 1.69(8) 4_655 ?
C8B OB 0.22(9) 4_655 ?
C8B C2B 1.34(14) 4_655 ?
C9B C6B 1.69(14) 4_655 ?
OB C8B 0.22(8) 4_655 ?
OB C7B 1.30(10) 4_655 ?
C10B C5B 0.76(18) 4_655 ?
C10B C4B 1.08(17) 4_655 ?
C10B C3B 1.84(17) 4_655 ?
C10B C6B 1.63(15) 4_655 ?
C1C C1C 0.58(6) 4_655 ?
C1C C6C 1.22(4) 4_655 ?
C1C C2C 1.319(3) 4_655 ?
C1C C2C 1.4290 . ?
C1C C6C 1.5430 . ?
C1C C7C 1.5866 . ?
C1C C10C 1.5883 . ?
C1C OC 1.95(4) 4_655 ?
C1C C10C 1.90(6) 4_655 ?
C2C C2C 0.53(6) 4_655 ?
C2C C1C 1.319(9) 4_655 ?
C2C OC 1.4192 . ?
C2C C3C 1.6711 . ?
C2C OC 1.87(6) 4_655 ?
C2C C3C 1.86(7) 4_655 ?
C3C C4C 1.5090 . ?
C3C C2C 1.86(6) 4_655 ?
C3C C10C 1.99(2) 4_655 ?
C4C C10C 1.38(6) 4_655 ?
C4C C7C 1.4479 . ?
C4C C5C 1.5561 . ?
C5C C10C 0.67(4) 4_655 ?
C5C C6C 1.3812 . ?
C6C C10C 1.23(5) 4_655 ?
C6C C1C 1.22(3) 4_655 ?
C6C C6C 1.83(8) 4_655 ?
C7C C8C 1.4588 . ?
C7C C9C 1.6036 . ?
C7C OC 1.64(4) 4_655 ?
C8C OC 1.20(5) 4_655 ?
C10C C5C 0.67(4) 4_655 ?
C10C C6C 1.23(6) 4_655 ?
C10C C4C 1.38(7) 4_655 ?
C10C C1C 1.90(6) 4_655 ?
C10C C3C 1.99(3) 4_655 ?
OC C8C 1.20(4) 4_655 ?
OC C7C 1.64(4) 4_655 ?
OC C2C 1.87(6) 4_655 ?
OC C1C 1.95(4) 4_655 ?

loop_
_geom_angle_atom_site_label_1
_geom_angle_atom_site_label_2
_geom_angle_atom_site_label_3
_geom_angle
_geom_angle_site_symmetry_1
_geom_angle_site_symmetry_3
_geom_angle_publ_flag
O51 C11 O47 110.0(7) . . ?
O51 C11 C21 110.1(7) . . ?
O47 C11 C21 108.8(7) . . ?
O51 C11 H11 109.3 . . ?
O47 C11 H11 109.3 . . ?
C21 C11 H11 109.3 . . ?
O21 C21 O21 0.0(5) 1 . ?
O21 C21 C11 110.6(8) 1 . ?
O21 C21 C11 110.6(8) . . ?
O21 C21 C31 110.3(8) 1 . ?
O21 C21 C31 110.3(8) . . ?
C11 C21 C31 110.6(8) . . ?
O21 O21 C21 0(10) 1 . ?
O31 C31 C41 113.6(7) . . ?
O31 C31 C21 108.3(8) . . ?
C41 C31 C21 107.2(8) . . ?
O31 C31 H31 109.2 . . ?
C41 C31 H31 109.2 . . ?
C21 C31 H31 109.2 . . ?
O41 C41 C31 106.9(7) . . ?
O41 C41 C51 106.9(7) . . ?
C31 C41 C51 113.1(7) . . ?
O41 C41 H41 109.9 . . ?
C31 C41 H41 109.9 . . ?
C51 C41 H41 109.9 . . ?
O51 C51 C41 110.4(7) . . ?
O51 C51 C61 105.8(7) . . ?
C41 C51 C61 114.9(7) . . ?
O51 C51 H51 108.5 . . ?
C41 C51 H51 108.5 . . ?
C61 C51 H51 108.5 . . ?
O61 C61 C51 112.5(8) . . ?
O61 C61 H61A 109.1 . . ?
C51 C61 H61A 109.1 . . ?
O61 C61 H61B 109.1 . . ?
C51 C61 H61B 109.1 . . ?
H61A C61 H61B 107.8 . . ?
C11 O51 C51 115.9(6) . . ?
C12 O41 C41 119.4(6) . . ?
O52 C12 O41 110.4(7) . . ?
O52 C12 C22 109.9(8) . . ?
O41 C12 C22 108.9(7) . . ?
O52 C12 H12 109.2 . . ?
O41 C12 H12 109.2 . . ?
C22 C12 H12 109.2 . . ?
O22 C22 C12 111.4(7) . . ?
O22 C22 C32 108.6(7) . . ?
C12 C22 C32 108.4(8) . . ?
O22 C22 H22 109.5 . . ?
C12 C22 H22 109.5 . . ?
C32 C22 H22 109.5 . . ?
O32 C32 C42 110.0(7) . . ?
O32 C32 C22 110.2(7) . . ?
C42 C32 C22 106.8(8) . . ?
O32 C32 H32 109.9 . . ?
C42 C32 H32 109.9 . . ?
C22 C32 H32 109.9 . . ?
O42 C42 C52 110.4(7) . . ?
O42 C42 C32 106.1(7) . . ?
C52 C42 C32 111.8(7) . . ?
O42 C42 H42 109.5 . . ?
C52 C42 H42 109.5 . . ?
C32 C42 H42 109.5 . . ?
O52 C52 C62 105.8(8) . . ?
O52 C52 C42 111.1(7) . . ?
C62 C52 C42 113.5(7) . . ?
O52 C52 H52 108.8 . . ?
C62 C52 H52 108.8 . . ?
C42 C52 H52 108.8 . . ?
O62 C62 C52 110.3(8) . . ?
O62 C62 H62A 109.6 . . ?
C52 C62 H62A 109.6 . . ?
O62 C62 H62B 109.6 . . ?
C52 C62 H62B 109.6 . . ?
H62A C62 H62B 108.1 . . ?
C12 O52 C52 115.1(7) . . ?
C42 O42 C13 119.6(7) . . ?
O53 C13 O42 112.4(7) . . ?
O53 C13 C23 112.2(8) . . ?
O42 C13 C23 107.2(7) . . ?
O53 C13 H13 108.3 . . ?
O42 C13 H13 108.3 . . ?
C23 C13 H13 108.3 . . ?
O23 C23 C33 112.9(8) . . ?
O23 C23 C13 111.0(8) . . ?
C33 C23 C13 109.9(8) . . ?
O23 C23 H23 107.6 . . ?
C33 C23 H23 107.6 . . ?
C13 C23 H23 107.6 . . ?
O33 C33 C23 110.3(7) . . ?
O33 C33 C43 108.6(7) . . ?
C23 C33 C43 108.9(8) . . ?
O33 C33 H33 109.7 . . ?
C23 C33 H33 109.7 . . ?
C43 C33 H33 109.7 . . ?
O43 C43 C53 111.8(7) . . ?
O43 C43 C33 109.0(7) . . ?
C53 C43 C33 109.7(7) . . ?
O43 C43 H43 108.8 . . ?
C53 C43 H43 108.8 . . ?
C33 C43 H43 108.8 . . ?
O53 C53 C43 112.1(7) . . ?
O53 C53 C63 105.5(7) . . ?
C43 C53 C63 113.0(8) . . ?
O53 C53 H53 108.7 . . ?
C43 C53 H53 108.7 . . ?
C63 C53 H53 108.7 . . ?
O63 C63 C53 109.2(8) . . ?
O63 C63 H63A 109.8 . . ?
C53 C63 H63A 109.8 . . ?
O63 C63 H63B 109.8 . . ?
C53 C63 H63B 109.8 . . ?
H63A C63 H63B 108.3 . . ?
C13 O53 C53 113.1(7) . . ?
C43 O43 C14 117.7(7) . . ?
O43 C14 O54 113.1(7) . . ?
O43 C14 C24 108.1(7) . . ?
O54 C14 C24 110.1(7) . . ?
O43 C14 H14 108.5 . . ?
O54 C14 H14 108.5 . . ?
C24 C14 H14 108.5 . . ?
O24 C24 C34 109.8(8) . . ?
O24 C24 C14 110.7(7) . . ?
C34 C24 C14 107.2(8) . . ?
O24 C24 H24 109.7 . . ?
C34 C24 H24 109.7 . . ?
C14 C24 H24 109.7 . . ?
O34 C34 C44 109.1(7) . . ?
O34 C34 C24 110.4(8) . . ?
C44 C34 C24 108.9(8) . . ?
O34 C34 H34 109.5 . . ?
C44 C34 H34 109.5 . . ?
C24 C34 H34 109.5 . . ?
O44 C44 C54 107.8(8) . . ?
O44 C44 C34 106.1(8) . . ?
C54 C44 C34 113.0(8) . . ?
O44 C44 H44 110.0 . . ?
C54 C44 H44 110.0 . . ?
C34 C44 H44 110.0 . . ?
C64 C54 O54 103.6(7) . . ?
C64 C54 C44 114.3(8) . . ?
O54 C54 C44 109.5(7) . . ?
C64 C54 H54 109.8 . . ?
O54 C54 H54 109.8 . . ?
C44 C54 H54 109.7 . . ?
C14 O54 C54 113.0(7) . . ?
O64 C64 C54 112.5(8) . . ?
O64 C64 H64A 109.1 . . ?
C54 C64 H64A 109.1 . . ?
O64 C64 H64B 109.1 . . ?
C54 C64 H64B 109.1 . . ?
H64A C64 H64B 107.8 . . ?
C15 O44 C44 119.2(7) . . ?
O55 C15 O44 110.9(8) . . ?
O55 C15 C25 111.1(7) . . ?
O44 C15 C25 107.6(8) . . ?
O55 C15 H15 109.1 . . ?
O44 C15 H15 109.1 . . ?
C25 C15 H15 109.1 . . ?
O25 C25 C35 113.0(8) . . ?
O25 C25 C15 112.4(7) . . ?
C35 C25 C15 109.5(8) . . ?
O25 C25 H25 107.2 . . ?
C35 C25 H25 107.2 . . ?
C15 C25 H25 107.2 . . ?
O35 C35 C25 108.8(7) . . ?
O35 C35 C45 109.5(7) . . ?
C25 C35 C45 110.2(8) . . ?
O35 C35 H35 109.4 . . ?
C25 C35 H35 109.4 . . ?
C45 C35 H35 109.4 . . ?
O45 C45 C35 109.0(7) . . ?
O45 C45 C55 106.7(7) . . ?
C35 C45 C55 109.9(7) . . ?
O45 C45 H45 110.4 . . ?
C35 C45 H45 110.4 . . ?
C55 C45 H45 110.4 . . ?
O55 C55 C65 107.6(8) . . ?
O55 C55 C45 108.9(8) . . ?
C65 C55 C45 115.1(8) . . ?
O55 C55 H55 108.4 . . ?
C65 C55 H55 108.4 . . ?
C45 C55 H55 108.4 . . ?
C15 O55 C55 115.1(7) . . ?
O65 C65 C55 110.2(10) . . ?
O65 C65 H65A 109.6 . . ?
C55 C65 H65A 109.6 . . ?
O65 C65 H65B 109.6 . . ?
C55 C65 H65B 109.6 . . ?
H65A C65 H65B 108.1 . . ?
C16 O45 C45 116.4(6) . . ?
O56 C16 O45 109.6(6) . . ?
O56 C16 C26 110.9(7) . . ?
O45 C16 C26 109.2(7) . . ?
O56 C16 H16 109.0 . . ?
O45 C16 H16 109.0 . . ?
C26 C16 H16 109.0 . . ?
O26 C26 C16 109.9(7) . . ?
O26 C26 C36 111.0(7) . . ?
C16 C26 C36 108.1(7) . . ?
O26 C26 H26 109.3 . . ?
C16 C26 H26 109.3 . . ?
C36 C26 H26 109.3 . . ?
O36 C36 C46 109.3(7) . . ?
O36 C36 C26 108.2(7) . . ?
C46 C36 C26 107.1(8) . . ?
O36 C36 H36 110.7 . . ?
C46 C36 H36 110.7 . . ?
C26 C36 H36 110.7 . . ?
O46 C46 C56 108.1(7) . . ?
O46 C46 C36 107.5(7) . . ?
C56 C46 C36 111.8(7) . . ?
O46 C46 H46 109.8 . . ?
C56 C46 H46 109.8 . . ?
C36 C46 H46 109.8 . . ?
O56 C56 C66 106.4(7) . . ?
O56 C56 C46 111.1(7) . . ?
C66 C56 C46 113.5(7) . . ?
O56 C56 H56 108.6 . . ?
C66 C56 H56 108.6 . . ?
C46 C56 H56 108.6 . . ?
C16 O56 C56 114.2(7) . . ?
O66 C66 C56 111.6(7) . . ?
O66 C66 H66A 109.3 . . ?
C56 C66 H66A 109.3 . . ?
O66 C66 H66B 109.3 . . ?
C56 C66 H66B 109.3 . . ?
H66A C66 H66B 108.0 . . ?
C17 O46 C46 118.4(6) . . ?
O57 C17 O46 110.4(7) . . ?
O57 C17 C27 111.5(7) . . ?
O46 C17 C27 108.2(7) . . ?
O57 C17 H17 108.9 . . ?
O46 C17 H17 108.9 . . ?
C27 C17 H17 108.9 . . ?
O27 C27 C17 112.3(7) . . ?
O27 C27 C37 113.5(7) . . ?
C17 C27 C37 107.6(7) . . ?
O27 C27 H27 107.8 . . ?
C17 C27 H27 107.8 . . ?
C37 C27 H27 107.8 . . ?
O37 C37 C47 110.9(7) . . ?
O37 C37 C27 108.3(7) . . ?
C47 C37 C27 110.6(7) . . ?
O37 C37 H37 109.0 . . ?
C47 C37 H37 109.0 . . ?
C27 C37 H37 109.0 . . ?
O47 C47 C37 108.7(7) . . ?
O47 C47 C57 110.1(7) . . ?
C37 C47 C57 110.7(7) . . ?
O47 C47 H47 109.1 . . ?
C37 C47 H47 109.1 . . ?
C57 C47 H47 109.1 . . ?
O57 C57 C67 104.7(7) . . ?
O57 C57 C47 112.0(6) . . ?
C67 C57 C47 112.9(7) . . ?
O57 C57 H57 109.0 . . ?
C67 C57 H57 109.0 . . ?
C47 C57 H57 109.0 . . ?
C17 O57 C57 114.0(6) . . ?
O67 C67 O67 0.0(6) 1 . ?
O67 C67 C57 111.3(7) 1 . ?
O67 C67 C57 111.3(7) . . ?
O67 O67 C67 0(10) 1 . ?
C47 O47 C11 117.8(7) . . ?
C2A C1A C7A 106.5(11) . . ?
C2A C1A C6A 108.4(14) . . ?
C7A C1A C6A 98.3(13) . . ?
C2A C1A C10A 108.6(12) . . ?
C7A C1A C10A 121.7(14) . . ?
C6A C1A C10A 112.4(15) . . ?
C1A C2A OA 115.0(11) . . ?
C1A C2A C3A 104.0(10) . . ?
OA C2A C3A 110.7(10) . . ?
C4A C3A C2A 95.3(13) . . ?
C7A C4A C5A 107.7(16) . . ?
C7A C4A C3A 108.1(14) . . ?
C5A C4A C3A 102.2(15) . . ?
C6A C5A C4A 106.3(18) . . ?
C5A C6A C1A 99.0(17) . . ?
C4A C7A C8A 121.4(14) . . ?
C4A C7A C9A 115.1(14) . . ?
C8A C7A C9A 104.9(14) . . ?
C4A C7A C1A 90.3(11) . . ?
C8A C7A C1A 110.4(11) . . ?
C9A C7A C1A 114.6(14) . . ?
C1B C1B C6B 82(8) 4_655 4_655 ?
C1B C1B C2B 70(9) 4_655 4_655 ?
C6B C1B C2B 112(7) 4_655 4_655 ?
C1B C1B C2B 93(8) 4_655 . ?
C6B C1B C2B 175(6) 4_655 . ?
C2B C1B C2B 68(4) 4_655 . ?
C1B C1B C6B 80(7) 4_655 . ?
C6B C1B C6B 59(5) 4_655 . ?
C2B C1B C6B 149(6) 4_655 . ?
C2B C1B C6B 117.4 . . ?
C1B C1B C7B 42(10) 4_655 . ?
C6B C1B C7B 69(5) 4_655 . ?
C2B C1B C7B 49(5) 4_655 . ?
C2B C1B C7B 108.7 . . ?
C6B C1B C7B 105.3 . . ?
C1B C1B C7B 124(10) 4_655 4_655 ?
C6B C1B C7B 125(5) 4_655 4_655 ?
C2B C1B C7B 122(4) 4_655 4_655 ?
C2B C1B C7B 55.9(19) . 4_655 ?
C6B C1B C7B 78(3) . 4_655 ?
C7B C1B C7B 162(5) . 4_655 ?
C1B C1B C4B 173(10) 4_655 4_655 ?
C6B C1B C4B 101(7) 4_655 4_655 ?
C2B C1B C4B 103(6) 4_655 4_655 ?
C2B C1B C4B 84(3) . 4_655 ?
C6B C1B C4B 107(3) . 4_655 ?
C7B C1B C4B 134(6) . 4_655 ?
C7B C1B C4B 59(5) 4_655 4_655 ?
C1B C1B C10B 138(10) 4_655 . ?
C6B C1B C10B 66(7) 4_655 . ?
C2B C1B C10B 97(7) 4_655 . ?
C2B C1B C10B 120(6) . . ?
C6B C1B C10B 104(7) . . ?
C7B C1B C10B 99(6) . . ?
C7B C1B C10B 97(7) 4_655 . ?
C4B C1B C10B 41(7) 4_655 . ?
C1B C1B C4B 5(9) 4_655 . ?
C6B C1B C4B 88(6) 4_655 . ?
C2B C1B C4B 68(6) 4_655 . ?
C2B C1B C4B 87.5 . . ?
C6B C1B C4B 82.1 . . ?
C7B C1B C4B 44.2 . . ?
C7B C1B C4B 121(6) 4_655 . ?
C4B C1B C4B 169.7(8) 4_655 . ?
C10B C1B C4B 142(6) . . ?
C1B C1B C5B 128(10) 4_655 4_655 ?
C6B C1B C5B 47(4) 4_655 4_655 ?
C2B C1B C5B 115(7) 4_655 4_655 ?
C2B C1B C5B 139(4) . 4_655 ?
C6B C1B C5B 82(3) . 4_655 ?
C7B C1B C5B 100(5) . 4_655 ?
C7B C1B C5B 98(6) 4_655 4_655 ?
C4B C1B C5B 54(4) 4_655 4_655 ?
C10B C1B C5B 23(6) . 4_655 ?
C4B C1B C5B 133(4) . 4_655 ?
C2B C2B C1B 53(3) 4_655 4_655 ?
C2B C2B C1B 58.6(10) 4_655 . ?
C1B C2B C1B 17(4) 4_655 . ?
C2B C2B OB 169(4) 4_655 . ?
C1B C2B OB 120(3) 4_655 . ?
C1B C2B OB 112.2 . . ?
C2B C2B C3B 75(6) 4_655 . ?
C1B C2B C3B 81(4) 4_655 . ?
C1B C2B C3B 98.9 . . ?
OB C2B C3B 113.7 . . ?
C2B C2B C3B 53(4) 4_655 4_655 ?
C1B C2B C3B 82(6) 4_655 4_655 ?
C1B C2B C3B 72(2) . 4_655 ?
OB C2B C3B 121(5) . 4_655 ?
C3B C2B C3B 124(5) . 4_655 ?
C2B C2B C7B 111(6) 4_655 4_655 ?
C1B C2B C7B 67.0(16) 4_655 4_655 ?
C1B C2B C7B 55(5) . 4_655 ?
OB C2B C7B 58(5) . 4_655 ?
C3B C2B C7B 129(5) . 4_655 ?
C3B C2B C7B 92(6) 4_655 4_655 ?
C2B C2B C8B 177(10) 4_655 4_655 ?
C1B C2B C8B 127(4) 4_655 4_655 ?
C1B C2B C8B 121.0(15) . 4_655 ?
OB C2B C8B 9(3) . 4_655 ?
C3B C2B C8B 108(7) . 4_655 ?
C3B C2B C8B 124(9) 4_655 4_655 ?
C7B C2B C8B 67(5) 4_655 4_655 ?
C4B C3B C2B 92.7 . . ?
C4B C3B C2B 65(2) . 4_655 ?
C2B C3B C2B 52(4) . 4_655 ?
C4B C3B C10B 36(5) . 4_655 ?
C2B C3B C10B 82(4) . 4_655 ?
C2B C3B C10B 85(4) 4_655 4_655 ?
C10B C4B C7B 119(7) 4_655 . ?
C10B C4B C5B 25(9) 4_655 . ?
C7B C4B C5B 108.2 . . ?
C10B C4B C3B 84(8) 4_655 . ?
C7B C4B C3B 106.1 . . ?
C5B C4B C3B 109.6 . . ?
C10B C4B C1B 73(6) 4_655 4_655 ?
C7B C4B C1B 51(4) . 4_655 ?
C5B C4B C1B 75(3) . 4_655 ?
C3B C4B C1B 83(2) . 4_655 ?
C10B C4B C1B 73(7) 4_655 . ?
C7B C4B C1B 51.4 . . ?
C5B C4B C1B 75.8 . . ?
C3B C4B C1B 80.9 . . ?
C1B C4B C1B 2(3) 4_655 . ?
C10B C5B C6B 96(10) 4_655 . ?
C10B C5B C4B 37(10) 4_655 . ?
C6B C5B C4B 100.0 . . ?
C10B C5B C1B 55(7) 4_655 4_655 ?
C6B C5B C1B 50(3) . 4_655 ?
C4B C5B C1B 50(3) . 4_655 ?
C1B C6B C5B 84(4) 4_655 . ?
C1B C6B C1B 18(4) 4_655 . ?
C5B C6B C1B 101.2 . . ?
C1B C6B C6B 61(4) 4_655 4_655 ?
C5B C6B C6B 104(6) . 4_655 ?
C1B C6B C6B 60.0(10) . 4_655 ?
C1B C6B C7B 57.6(14) 4_655 4_655 ?
C5B C6B C7B 117(4) . 4_655 ?
C1B C6B C7B 45(4) . 4_655 ?
C6B C6B C7B 98(6) 4_655 4_655 ?
C1B C6B C10B 61(4) 4_655 4_655 ?
C5B C6B C10B 27(5) . 4_655 ?
C1B C6B C10B 77(4) . 4_655 ?
C6B C6B C10B 102(7) 4_655 4_655 ?
C7B C6B C10B 90(5) 4_655 4_655 ?
C1B C6B C9B 114(4) 4_655 4_655 ?
C5B C6B C9B 121(7) . 4_655 ?
C1B C6B C9B 102(3) . 4_655 ?
C6B C6B C9B 135(10) 4_655 4_655 ?
C7B C6B C9B 57(3) 4_655 4_655 ?
C10B C6B C9B 114(8) 4_655 4_655 ?
OB C7B C4B 126(7) 4_655 . ?
OB C7B C8B 7(5) 4_655 . ?
C4B C7B C8B 124.7 . . ?
OB C7B C1B 125(7) 4_655 . ?
C4B C7B C1B 84.4 . . ?
C8B C7B C1B 118.4 . . ?
OB C7B C9B 94(4) 4_655 . ?
C4B C7B C9B 115.5 . . ?
C8B C7B C9B 100.3 . . ?
C1B C7B C9B 114.3 . . ?
OB C7B C1B 135(8) 4_655 4_655 ?
C4B C7B C1B 70(5) . 4_655 ?
C8B C7B C1B 128(3) . 4_655 ?
C1B C7B C1B 14(5) . 4_655 ?
C9B C7B C1B 118.0(18) . 4_655 ?
OB C7B C2B 67(4) 4_655 4_655 ?
C4B C7B C2B 97(7) . 4_655 ?
C8B C7B C2B 60(6) . 4_655 ?
C1B C7B C2B 64(6) . 4_655 ?
C9B C7B C2B 148(7) . 4_655 ?
C1B C7B C2B 69(6) 4_655 4_655 ?
OB C7B C6B 133(9) 4_655 4_655 ?
C4B C7B C6B 102(5) . 4_655 ?
C8B C7B C6B 133(5) . 4_655 ?
C1B C7B C6B 53(4) . 4_655 ?
C9B C7B C6B 62(4) . 4_655 ?
C1B C7B C6B 57(4) 4_655 4_655 ?
C2B C7B C6B 112(8) 4_655 4_655 ?
OB C8B C7B 48(10) 4_655 . ?
OB C8B C2B 101(10) 4_655 4_655 ?
C7B C8B C2B 53(3) . 4_655 ?
C7B C9B C6B 61.3(18) . 4_655 ?
C8B OB C7B 125(10) 4_655 4_655 ?
C8B OB C2B 70(10) 4_655 . ?
C7B OB C2B 55(4) 4_655 . ?
C5B C10B C4B 117(10) 4_655 4_655 ?
C5B C10B C3B 174(10) 4_655 4_655 ?
C4B C10B C3B 60(8) 4_655 4_655 ?
C5B C10B C1B 101(10) 4_655 . ?
C4B C10B C1B 66(6) 4_655 . ?
C3B C10B C1B 73(5) 4_655 . ?
C5B C10B C6B 56(10) 4_655 4_655 ?
C4B C10B C6B 111(10) 4_655 4_655 ?
C3B C10B C6B 119(7) 4_655 4_655 ?
C1B C10B C6B 53(4) . 4_655 ?
C1C C1C C6C 113(4) 4_655 4_655 ?
C1C C1C C2C 89(2) 4_655 4_655 ?
C6C C1C C2C 145(4) 4_655 4_655 ?
C1C C1C C2C 67.3(9) 4_655 . ?
C6C C1C C2C 158(3) 4_655 . ?
C2C C1C C2C 22(2) 4_655 . ?
C1C C1C C6C 46(2) 4_655 . ?
C6C C1C C6C 82(3) 4_655 . ?
C2C C1C C6C 130(2) 4_655 . ?
C2C C1C C6C 108.9 . . ?
C1C C1C C7C 128(5) 4_655 . ?
C6C C1C C7C 92(3) 4_655 . ?
C2C C1C C7C 95(3) 4_655 . ?
C2C C1C C7C 104.8 . . ?
C6C C1C C7C 98.1 . . ?
C1C C1C C10C 114(5) 4_655 . ?
C6C C1C C10C 50(3) 4_655 . ?
C2C C1C C10C 97(3) 4_655 . ?
C2C C1C C10C 109.1 . . ?
C6C C1C C10C 117.7 . . ?
C7C C1C C10C 117.1 . . ?
C1C C1C OC 130(3) 4_655 4_655 ?
C6C C1C OC 117(4) 4_655 4_655 ?
C2C C1C OC 46.8(13) 4_655 4_655 ?
C2C C1C OC 65.2(12) . 4_655 ?
C6C C1C OC 144(2) . 4_655 ?
C7C C1C OC 54.2(18) . 4_655 ?
C10C C1C OC 96(2) . 4_655 ?
C1C C1C C10C 50(4) 4_655 4_655 ?
C6C C1C C10C 117(3) 4_655 4_655 ?
C2C C1C C10C 98(3) 4_655 4_655 ?
C2C C1C C10C 80.9(6) . 4_655 ?
C6C C1C C10C 40.0(10) . 4_655 ?
C7C C1C C10C 78(2) . 4_655 ?
C10C C1C C10C 157.1(15) . 4_655 ?
OC C1C C10C 107(2) 4_655 4_655 ?
C2C C2C C1C 91(2) 4_655 4_655 ?
C2C C2C OC 144(7) 4_655 . ?
C1C C2C OC 90(2) 4_655 . ?
C2C C2C C1C 67.4(3) 4_655 . ?
C1C C2C C1C 24(2) 4_655 . ?
OC C2C C1C 112.0 . . ?
C2C C2C C3C 102(7) 4_655 . ?
C1C C2C C3C 103(2) 4_655 . ?
OC C2C C3C 112.7 . . ?
C1C C2C C3C 102.8 . . ?
C2C C2C OC 27(5) 4_655 4_655 ?
C1C C2C OC 94(2) 4_655 4_655 ?
OC C2C OC 169(2) . 4_655 ?
C1C C2C OC 70.9(4) . 4_655 ?
C3C C2C OC 76(2) . 4_655 ?
C2C C2C C3C 61(6) 4_655 4_655 ?
C1C C2C C3C 98(3) 4_655 4_655 ?
OC C2C C3C 82(3) . 4_655 ?
C1C C2C C3C 90.4(10) . 4_655 ?
C3C C2C C3C 153.7(17) . 4_655 ?
OC C2C C3C 87(3) 4_655 4_655 ?
C4C C3C C2C 95.4 . . ?
C4C C3C C2C 90.8(8) . 4_655 ?
C2C C3C C2C 16.1(18) . 4_655 ?
C4C C3C C10C 43.7(18) . 4_655 ?
C2C C3C C10C 72.9(18) . 4_655 ?
C2C C3C C10C 79.3(17) 4_655 4_655 ?
C10C C4C C7C 103(2) 4_655 . ?
C10C C4C C3C 87.1(10) 4_655 . ?
C7C C4C C3C 106.6 . . ?
C10C C4C C5C 25.5(17) 4_655 . ?
C7C C4C C5C 106.7 . . ?
C3C C4C C5C 109.5 . . ?
C10C C5C C6C 63(4) 4_655 . ?
C10C C5C C4C 62(5) 4_655 . ?
C6C C5C C4C 100.6 . . ?
C10C C6C C1C 81.2(9) 4_655 4_655 ?
C10C C6C C5C 29.0(19) 4_655 . ?
C1C C6C C5C 108(2) 4_655 . ?
C10C C6C C1C 86(2) 4_655 . ?
C1C C6C C1C 20(2) 4_655 . ?
C5C C6C C1C 107.3 . . ?
C10C C6C C6C 121(3) 4_655 4_655 ?
C1C C6C C6C 57(2) 4_655 4_655 ?
C5C C6C C6C 130(2) . 4_655 ?
C1C C6C C6C 41.2(3) . 4_655 ?
C4C C7C C8C 122.2 . . ?
C4C C7C C1C 89.3 . . ?
C8C C7C C1C 112.3 . . ?
C4C C7C C9C 116.3 . . ?
C8C C7C C9C 103.8 . . ?
C1C C7C C9C 112.6 . . ?
C4C C7C OC 100(2) . 4_655 ?
C8C C7C OC 45(2) . 4_655 ?
C1C C7C OC 74(2) . 4_655 ?
C9C C7C OC 143(2) . 4_655 ?
OC C8C C7C 75(2) 4_655 . ?
C5C C10C C6C 88(3) 4_655 4_655 ?
C5C C10C C4C 92(8) 4_655 4_655 ?
C6C C10C C4C 120(6) 4_655 4_655 ?
C5C C10C C1C 133(5) 4_655 . ?
C6C C10C C1C 49(2) 4_655 . ?
C4C C10C C1C 94(3) 4_655 . ?
C5C C10C C1C 126(7) 4_655 4_655 ?
C6C C10C C1C 54(3) 4_655 4_655 ?
C4C C10C C1C 79(3) 4_655 4_655 ?
C1C C10C C1C 16.3(16) . 4_655 ?
C5C C10C C3C 134(7) 4_655 4_655 ?
C6C C10C C3C 130(3) 4_655 4_655 ?
C4C C10C C3C 49.1(14) 4_655 4_655 ?
C1C C10C C3C 81.2(19) . 4_655 ?
C1C C10C C3C 77.1(19) 4_655 4_655 ?
C8C OC C2C 147.0(15) 4_655 . ?
C8C OC C7C 59.4(14) 4_655 4_655 ?
C2C OC C7C 89(2) . 4_655 ?
C8C OC C2C 145(3) 4_655 4_655 ?
C2C OC C2C 9.6(19) . 4_655 ?
C7C OC C2C 86(2) 4_655 4_655 ?
C8C OC C1C 104.5(5) 4_655 4_655 ?
C2C OC C1C 42.7(11) . 4_655 ?
C7C OC C1C 51.7(9) 4_655 4_655 ?
C2C OC C1C 44.0(11) 4_655 4_655 ?

loop_
_geom_torsion_atom_site_label_1
_geom_torsion_atom_site_label_2
_geom_torsion_atom_site_label_3
_geom_torsion_atom_site_label_4
_geom_torsion
_geom_torsion_site_symmetry_1
_geom_torsion_site_symmetry_2
_geom_torsion_site_symmetry_3
_geom_torsion_site_symmetry_4
_geom_torsion_publ_flag
O51 C11 C21 O21 179.6(6) . . . 1 ?
O47 C11 C21 O21 58.9(9) . . . 1 ?
O51 C11 C21 O21 179.6(6) . . . . ?
O47 C11 C21 O21 58.9(9) . . . . ?
O51 C11 C21 C31 57.1(10) . . . . ?
O47 C11 C21 C31 -63.6(10) . . . . ?
C11 C21 O21 O21 0.0(2) . . . 1 ?
C31 C21 O21 O21 0.0(3) . . . 1 ?
O21 C21 C31 O31 57.4(10) 1 . . . ?
O21 C21 C31 O31 57.4(10) . . . . ?
C11 C21 C31 O31 180.0(7) . . . . ?
O21 C21 C31 C41 -179.7(7) 1 . . . ?
O21 C21 C31 C41 -179.7(7) . . . . ?
C11 C21 C31 C41 -57.0(10) . . . . ?
O31 C31 C41 O41 -67.9(9) . . . . ?
C21 C31 C41 O41 172.5(7) . . . . ?
O31 C31 C41 C51 174.7(7) . . . . ?
C21 C31 C41 C51 55.0(10) . . . . ?
O41 C41 C51 O51 -170.8(6) . . . . ?
C31 C41 C51 O51 -53.4(10) . . . . ?
O41 C41 C51 C61 69.7(9) . . . . ?
C31 C41 C51 C61 -172.9(8) . . . . ?
O51 C51 C61 O61 -54.2(9) . . . . ?
C41 C51 C61 O61 67.9(10) . . . . ?
O47 C11 O51 C51 63.4(9) . . . . ?
C21 C11 O51 C51 -56.6(10) . . . . ?
C41 C51 O51 C11 53.3(10) . . . . ?
C61 C51 O51 C11 178.2(7) . . . . ?
C31 C41 O41 C12 121.9(8) . . . . ?
C51 C41 O41 C12 -116.7(8) . . . . ?
C41 O41 C12 O52 116.2(8) . . . . ?
C41 O41 C12 C22 -123.2(8) . . . . ?
O52 C12 C22 O22 -178.9(7) . . . . ?
O41 C12 C22 O22 60.1(10) . . . . ?
O52 C12 C22 C32 61.7(10) . . . . ?
O41 C12 C22 C32 -59.3(10) . . . . ?
O22 C22 C32 O32 58.8(9) . . . . ?
C12 C22 C32 O32 -180.0(7) . . . . ?
O22 C22 C32 C42 178.4(7) . . . . ?
C12 C22 C32 C42 -60.4(9) . . . . ?
O32 C32 C42 O42 -63.4(9) . . . . ?
C22 C32 C42 O42 176.9(7) . . . . ?
O32 C32 C42 C52 176.1(7) . . . . ?
C22 C32 C42 C52 56.4(10) . . . . ?
O42 C42 C52 O52 -169.9(7) . . . . ?
C32 C42 C52 O52 -52.0(10) . . . . ?
O42 C42 C52 C62 71.0(10) . . . . ?
C32 C42 C52 C62 -171.1(8) . . . . ?
O52 C52 C62 O62 -67.3(9) . . . . ?
C42 C52 C62 O62 54.8(11) . . . . ?
O41 C12 O52 C52 61.5(9) . . . . ?
C22 C12 O52 C52 -58.5(9) . . . . ?
C62 C52 O52 C12 176.8(7) . . . . ?
C42 C52 O52 C12 53.2(9) . . . . ?
C52 C42 O42 C13 -104.3(8) . . . . ?
C32 C42 O42 C13 134.4(8) . . . . ?
C42 O42 C13 O53 112.5(8) . . . . ?
C42 O42 C13 C23 -123.8(8) . . . . ?
O53 C13 C23 O23 -177.1(7) . . . . ?
O42 C13 C23 O23 59.0(9) . . . . ?
O53 C13 C23 C33 57.3(10) . . . . ?
O42 C13 C23 C33 -66.6(9) . . . . ?
O23 C23 C33 O33 61.9(10) . . . . ?
C13 C23 C33 O33 -173.6(7) . . . . ?
O23 C23 C33 C43 -179.1(7) . . . . ?
C13 C23 C33 C43 -54.6(10) . . . . ?
O33 C33 C43 O43 -62.8(9) . . . . ?
C23 C33 C43 O43 177.1(7) . . . . ?
O33 C33 C43 C53 174.5(7) . . . . ?
C23 C33 C43 C53 54.4(10) . . . . ?
O43 C43 C53 O53 -176.0(7) . . . . ?
C33 C43 C53 O53 -55.0(9) . . . . ?
O43 C43 C53 C63 65.0(10) . . . . ?
C33 C43 C53 C63 -174.0(8) . . . . ?
O53 C53 C63 O63 -73.8(9) . . . . ?
C43 C53 C63 O63 49.0(11) . . . . ?
O42 C13 O53 C53 63.0(9) . . . . ?
C23 C13 O53 C53 -57.9(9) . . . . ?
C43 C53 O53 C13 57.7(9) . . . . ?
C63 C53 O53 C13 -178.9(7) . . . . ?
C53 C43 O43 C14 -112.9(8) . . . . ?
C33 C43 O43 C14 125.7(7) . . . . ?
C43 O43 C14 O54 110.6(8) . . . . ?
C43 O43 C14 C24 -127.2(8) . . . . ?
O43 C14 C24 O24 56.4(10) . . . . ?
O54 C14 C24 O24 -179.5(7) . . . . ?
O43 C14 C24 C34 -63.3(9) . . . . ?
O54 C14 C24 C34 60.7(10) . . . . ?
O24 C24 C34 O34 62.8(10) . . . . ?
C14 C24 C34 O34 -177.0(7) . . . . ?
O24 C24 C34 C44 -177.4(7) . . . . ?
C14 C24 C34 C44 -57.2(10) . . . . ?
O34 C34 C44 O44 -64.8(9) . . . . ?
C24 C34 C44 O44 174.6(8) . . . . ?
O34 C34 C44 C54 177.4(8) . . . . ?
C24 C34 C44 C54 56.8(11) . . . . ?
O44 C44 C54 C64 73.3(10) . . . . ?
C34 C44 C54 C64 -169.9(8) . . . . ?
O44 C44 C54 O54 -171.0(7) . . . . ?
C34 C44 C54 O54 -54.2(11) . . . . ?
O43 C14 O54 C54 59.7(9) . . . . ?
C24 C14 O54 C54 -61.3(9) . . . . ?
C64 C54 O54 C14 179.4(7) . . . . ?
C44 C54 O54 C14 57.1(10) . . . . ?
O54 C54 C64 O64 -64.7(9) . . . . ?
C44 C54 C64 O64 54.4(11) . . . . ?
C54 C44 O44 C15 -110.0(9) . . . . ?
C34 C44 O44 C15 128.7(8) . . . . ?
C44 O44 C15 O55 111.3(8) . . . . ?
C44 O44 C15 C25 -127.0(8) . . . . ?
O55 C15 C25 O25 -176.4(8) . . . . ?
O44 C15 C25 O25 62.0(9) . . . . ?
O55 C15 C25 C35 57.0(10) . . . . ?
O44 C15 C25 C35 -64.5(9) . . . . ?
O25 C25 C35 O35 56.9(10) . . . . ?
C15 C25 C35 O35 -176.9(7) . . . . ?
O25 C25 C35 C45 177.0(7) . . . . ?
C15 C25 C35 C45 -56.8(10) . . . . ?
O35 C35 C45 O45 -67.1(9) . . . . ?
C25 C35 C45 O45 173.2(7) . . . . ?
O35 C35 C45 C55 176.4(8) . . . . ?
C25 C35 C45 C55 56.7(10) . . . . ?
O45 C45 C55 O55 -172.2(7) . . . . ?
C35 C45 C55 O55 -54.2(10) . . . . ?
O45 C45 C55 C65 66.9(10) . . . . ?
C35 C45 C55 C65 -175.1(9) . . . . ?
O44 C15 O55 C55 61.0(9) . . . . ?
C25 C15 O55 C55 -58.6(10) . . . . ?
C65 C55 O55 C15 -177.6(8) . . . . ?
C45 C55 O55 C15 57.0(10) . . . . ?
O55 C55 C65 O65 -65.9(10) . . . . ?
C45 C55 C65 O65 55.7(12) . . . . ?
C35 C45 O45 C16 122.5(7) . . . . ?
C55 C45 O45 C16 -119.0(7) . . . . ?
C45 O45 C16 O56 116.1(7) . . . . ?
C45 O45 C16 C26 -122.2(7) . . . . ?
O56 C16 C26 O26 -178.0(7) . . . . ?
O45 C16 C26 O26 61.1(8) . . . . ?
O56 C16 C26 C36 60.7(9) . . . . ?
O45 C16 C26 C36 -60.2(9) . . . . ?
O26 C26 C36 O36 61.9(9) . . . . ?
C16 C26 C36 O36 -177.5(7) . . . . ?
O26 C26 C36 C46 179.6(7) . . . . ?
C16 C26 C36 C46 -59.7(9) . . . . ?
O36 C36 C46 O46 -67.1(9) . . . . ?
C26 C36 C46 O46 175.9(7) . . . . ?
O36 C36 C46 C56 174.4(7) . . . . ?
C26 C36 C46 C56 57.4(10) . . . . ?
O46 C46 C56 O56 -171.5(7) . . . . ?
C36 C46 C56 O56 -53.3(10) . . . . ?
O46 C46 C56 C66 68.6(9) . . . . ?
C36 C46 C56 C66 -173.2(7) . . . . ?
O45 C16 O56 C56 62.9(8) . . . . ?
C26 C16 O56 C56 -57.8(9) . . . . ?
C66 C56 O56 C16 177.4(6) . . . . ?
C46 C56 O56 C16 53.3(9) . . . . ?
O56 C56 C66 O66 -64.2(9) . . . . ?
C46 C56 C66 O66 58.3(10) . . . . ?
C56 C46 O46 C17 -115.9(8) . . . . ?
C36 C46 O46 C17 123.2(8) . . . . ?
C46 O46 C17 O57 116.2(8) . . . . ?
C46 O46 C17 C27 -121.6(8) . . . . ?
O57 C17 C27 O27 -175.9(7) . . . . ?
O46 C17 C27 O27 62.6(9) . . . . ?
O57 C17 C27 C37 58.5(9) . . . . ?
O46 C17 C27 C37 -63.0(9) . . . . ?
O27 C27 C37 O37 55.4(9) . . . . ?
C17 C27 C37 O37 -179.7(7) . . . . ?
O27 C27 C37 C47 177.2(7) . . . . ?
C17 C27 C37 C47 -58.0(9) . . . . ?
O37 C37 C47 O47 -63.7(9) . . . . ?
C27 C37 C47 O47 176.1(7) . . . . ?
O37 C37 C47 C57 175.3(6) . . . . ?
C27 C37 C47 C57 55.1(9) . . . . ?
O47 C47 C57 O57 -171.8(6) . . . . ?
C37 C47 C57 O57 -51.7(9) . . . . ?
O47 C47 C57 C67 70.3(9) . . . . ?
C37 C47 C57 C67 -169.5(7) . . . . ?
O46 C17 O57 C57 62.2(8) . . . . ?
C27 C17 O57 C57 -58.1(9) . . . . ?
C67 C57 O57 C17 176.2(6) . . . . ?
C47 C57 O57 C17 53.5(9) . . . . ?
O57 C57 C67 O67 -62.4(8) . . . 1 ?
C47 C57 C67 O67 59.7(9) . . . 1 ?
O57 C57 C67 O67 -62.4(8) . . . . ?
C47 C57 C67 O67 59.7(9) . . . . ?
C57 C67 O67 O67 0.00(7) . . . 1 ?
C37 C47 O47 C11 131.0(7) . . . . ?
C57 C47 O47 C11 -107.7(8) . . . . ?
O51 C11 O47 C47 117.6(7) . . . . ?
C21 C11 O47 C47 -121.7(8) . . . . ?
C7A C1A C2A OA -153.7(10) . . . . ?
C6A C1A C2A OA -48.7(16) . . . . ?
C10A C1A C2A OA 73.6(15) . . . . ?
C7A C1A C2A C3A -32.4(13) . . . . ?
C6A C1A C2A C3A 72.5(15) . . . . ?
C10A C1A C2A C3A -165.1(13) . . . . ?
C1A C2A C3A C4A -1.9(14) . . . . ?
OA C2A C3A C4A 122.2(11) . . . . ?
C2A C3A C4A C7A 39.9(15) . . . . ?
C2A C3A C4A C5A -73.6(15) . . . . ?
C7A C4A C5A C6A -28(2) . . . . ?
C3A C4A C5A C6A 86.1(18) . . . . ?
C4A C5A C6A C1A -12(2) . . . . ?
C2A C1A C6A C5A -66.3(18) . . . . ?
C7A C1A C6A C5A 44.3(17) . . . . ?
C10A C1A C6A C5A 173.7(15) . . . . ?
C5A C4A C7A C8A 167.4(14) . . . . ?
C3A C4A C7A C8A 57.6(18) . . . . ?
C5A C4A C7A C9A -65(2) . . . . ?
C3A C4A C7A C9A -174.3(16) . . . . ?
C5A C4A C7A C1A 53.0(16) . . . . ?
C3A C4A C7A C1A -56.8(14) . . . . ?
C2A C1A C7A C4A 54.6(14) . . . . ?
C6A C1A C7A C4A -57.5(14) . . . . ?
C10A C1A C7A C4A 179.6(15) . . . . ?
C2A C1A C7A C8A -69.3(15) . . . . ?
C6A C1A C7A C8A 178.6(14) . . . . ?
C10A C1A C7A C8A 55.7(19) . . . . ?
C2A C1A C7A C9A 172.5(14) . . . . ?
C6A C1A C7A C9A 60.4(17) . . . . ?
C10A C1A C7A C9A -62.4(19) . . . . ?
C1B C1B C2B C2B 67(12) 4_655 . . 4_655 ?
C6B C1B C2B C2B 97(54) 4_655 . . 4_655 ?
C6B C1B C2B C2B 147(7) . . . 4_655 ?
C7B C1B C2B C2B 27(7) . . . 4_655 ?
C7B C1B C2B C2B -163(11) 4_655 . . 4_655 ?
C4B C1B C2B C2B -107(8) 4_655 . . 4_655 ?
C10B C1B C2B C2B -85(8) . . . 4_655 ?
C4B C1B C2B C2B 67(7) . . . 4_655 ?
C5B C1B C2B C2B -104(8) 4_655 . . 4_655 ?
C6B C1B C2B C1B 30(46) 4_655 . . 4_655 ?
C2B C1B C2B C1B -67(12) 4_655 . . 4_655 ?
C6B C1B C2B C1B 80(12) . . . 4_655 ?
C7B C1B C2B C1B -39(12) . . . 4_655 ?
C7B C1B C2B C1B 130(17) 4_655 . . 4_655 ?
C4B C1B C2B C1B -173(16) 4_655 . . 4_655 ?
C10B C1B C2B C1B -152(14) . . . 4_655 ?
C4B C1B C2B C1B 0(12) . . . 4_655 ?
C5B C1B C2B C1B -170(17) 4_655 . . 4_655 ?
C1B C1B C2B OB -119(12) 4_655 . . . ?
C6B C1B C2B OB -89(52) 4_655 . . . ?
C2B C1B C2B OB 174(7) 4_655 . . . ?
C6B C1B C2B OB -39.3 . . . . ?
C7B C1B C2B OB -158.5 . . . . ?
C7B C1B C2B OB 11(7) 4_655 . . . ?
C4B C1B C2B OB 67(5) 4_655 . . . ?
C10B C1B C2B OB 89(7) . . . . ?
C4B C1B C2B OB -119.1 . . . . ?
C5B C1B C2B OB 71(7) 4_655 . . . ?
C1B C1B C2B C3B 1(12) 4_655 . . . ?
C6B C1B C2B C3B 31(52) 4_655 . . . ?
C2B C1B C2B C3B -66(7) 4_655 . . . ?
C6B C1B C2B C3B 80.9 . . . . ?
C7B C1B C2B C3B -38.3 . . . . ?
C7B C1B C2B C3B 131(7) 4_655 . . . ?
C4B C1B C2B C3B -172(5) 4_655 . . . ?
C10B C1B C2B C3B -151(7) . . . . ?
C4B C1B C2B C3B 1.1 . . . . ?
C5B C1B C2B C3B -169(7) 4_655 . . . ?
C1B C1B C2B C3B 124(15) 4_655 . . 4_655 ?
C6B C1B C2B C3B 153(54) 4_655 . . 4_655 ?
C2B C1B C2B C3B 57(5) 4_655 . . 4_655 ?
C6B C1B C2B C3B -156(5) . . . 4_655 ?
C7B C1B C2B C3B 84(5) . . . 4_655 ?
C7B C1B C2B C3B -106(8) 4_655 . . 4_655 ?
C4B C1B C2B C3B -50(4) 4_655 . . 4_655 ?
C10B C1B C2B C3B -28(8) . . . 4_655 ?
C4B C1B C2B C3B 124(5) . . . 4_655 ?
C5B C1B C2B C3B -47(6) 4_655 . . 4_655 ?
C1B C1B C2B C7B -130(17) 4_655 . . 4_655 ?
C6B C1B C2B C7B -101(54) 4_655 . . 4_655 ?
C2B C1B C2B C7B 163(11) 4_655 . . 4_655 ?
C6B C1B C2B C7B -50(7) . . . 4_655 ?
C7B C1B C2B C7B -170(7) . . . 4_655 ?
C4B C1B C2B C7B 56(5) 4_655 . . 4_655 ?
C10B C1B C2B C7B 77(9) . . . 4_655 ?
C4B C1B C2B C7B -130(7) . . . 4_655 ?
C5B C1B C2B C7B 59(7) 4_655 . . 4_655 ?
C1B C1B C2B C8B -117(17) 4_655 . . 4_655 ?
C6B C1B C2B C8B -87(53) 4_655 . . 4_655 ?
C2B C1B C2B C8B 176(13) 4_655 . . 4_655 ?
C6B C1B C2B C8B -37(8) . . . 4_655 ?
C7B C1B C2B C8B -156(8) . . . 4_655 ?
C7B C1B C2B C8B 14(4) 4_655 . . 4_655 ?
C4B C1B C2B C8B 70(7) 4_655 . . 4_655 ?
C10B C1B C2B C8B 91(11) . . . 4_655 ?
C4B C1B C2B C8B -117(8) . . . 4_655 ?
C5B C1B C2B C8B 73(9) 4_655 . . 4_655 ?
C2B C2B C3B C4B -55.2(11) 4_655 . . . ?
C1B C2B C3B C4B -1(4) 4_655 . . . ?
C1B C2B C3B C4B -1.4 . . . . ?
OB C2B C3B C4B 117.7 . . . . ?
C3B C2B C3B C4B -76(2) 4_655 . . . ?
C7B C2B C3B C4B 50(7) 4_655 . . . ?
C8B C2B C3B C4B 125.6(15) 4_655 . . . ?
C1B C2B C3B C2B 54(4) 4_655 . . 4_655 ?
C1B C2B C3B C2B 53.8(11) . . . 4_655 ?
OB C2B C3B C2B 172.9(11) . . . 4_655 ?
C3B C2B C3B C2B -21(2) 4_655 . . 4_655 ?
C7B C2B C3B C2B 105(7) 4_655 . . 4_655 ?
C8B C2B C3B C2B -179(2) 4_655 . . 4_655 ?
C2B C2B C3B C10B -89(5) 4_655 . . 4_655 ?
C1B C2B C3B C10B -35(4) 4_655 . . 4_655 ?
C1B C2B C3B C10B -35(5) . . . 4_655 ?
OB C2B C3B C10B 84(5) . . . 4_655 ?
C3B C2B C3B C10B -110(6) 4_655 . . 4_655 ?
C7B C2B C3B C10B 16(7) 4_655 . . 4_655 ?
C8B C2B C3B C10B 91(5) 4_655 . . 4_655 ?
C2B C3B C4B C10B -73(7) . . . 4_655 ?
C2B C3B C4B C10B -119(8) 4_655 . . 4_655 ?
C2B C3B C4B C7B 46.2 . . . . ?
C2B C3B C4B C7B 0(4) 4_655 . . . ?
C10B C3B C4B C7B 119(7) 4_655 . . . ?
C2B C3B C4B C5B -70.3 . . . . ?
C2B C3B C4B C5B -116(4) 4_655 . . . ?
C10B C3B C4B C5B 3(7) 4_655 . . . ?
C2B C3B C4B C1B 1(4) . . . 4_655 ?
C2B C3B C4B C1B -45(4) 4_655 . . 4_655 ?
C10B C3B C4B C1B 74(6) 4_655 . . 4_655 ?
C2B C3B C4B C1B 1.0 . . . . ?
C2B C3B C4B C1B -45(4) 4_655 . . . ?
C10B C3B C4B C1B 74(7) 4_655 . . . ?
C1B C1B C4B C10B -96(100) 4_655 . . 4_655 ?
C6B C1B C4B C10B -92(9) 4_655 . . 4_655 ?
C2B C1B C4B C10B 153(11) 4_655 . . 4_655 ?
C2B C1B C4B C10B 86(9) . . . 4_655 ?
C6B C1B C4B C10B -32(9) . . . 4_655 ?
C7B C1B C4B C10B -154(9) . . . 4_655 ?
C7B C1B C4B C10B 38(9) 4_655 . . 4_655 ?
C4B C1B C4B C10B 124(36) 4_655 . . 4_655 ?
C10B C1B C4B C10B -135(18) . . . 4_655 ?
C5B C1B C4B C10B -103(9) 4_655 . . 4_655 ?
C1B C1B C4B C7B 58(100) 4_655 . . . ?
C6B C1B C4B C7B 62(5) 4_655 . . . ?
C2B C1B C4B C7B -53(5) 4_655 . . . ?
C2B C1B C4B C7B -120.4 . . . . ?
C6B C1B C4B C7B 121.6 . . . . ?
C7B C1B C4B C7B -167.7(14) 4_655 . . . ?
C4B C1B C4B C7B -82(33) 4_655 . . . ?
C10B C1B C4B C7B 19(11) . . . . ?
C5B C1B C4B C7B 51(5) 4_655 . . . ?
C1B C1B C4B C5B -70(100) 4_655 . . . ?
C6B C1B C4B C5B -66(5) 4_655 . . . ?
C2B C1B C4B C5B 179(5) 4_655 . . . ?
C2B C1B C4B C5B 111.8 . . . . ?
C6B C1B C4B C5B -6.2 . . . . ?
C7B C1B C4B C5B -127.8 . . . . ?
C7B C1B C4B C5B 64.5(14) 4_655 . . . ?
C4B C1B C4B C5B 150(33) 4_655 . . . ?
C10B C1B C4B C5B -109(11) . . . . ?
C5B C1B C4B C5B -77(5) 4_655 . . . ?
C1B C1B C4B C3B 177(100) 4_655 . . . ?
C6B C1B C4B C3B -179(5) 4_655 . . . ?
C2B C1B C4B C3B 66(5) 4_655 . . . ?
C2B C1B C4B C3B -1.2 . . . . ?
C6B C1B C4B C3B -119.2 . . . . ?
C7B C1B C4B C3B 119.2 . . . . ?
C7B C1B C4B C3B -48.5(14) 4_655 . . . ?
C4B C1B C4B C3B 37(33) 4_655 . . . ?
C10B C1B C4B C3B 138(11) . . . . ?
C5B C1B C4B C3B 170(5) 4_655 . . . ?
C6B C1B C4B C1B 5(100) 4_655 . . 4_655 ?
C2B C1B C4B C1B -111(100) 4_655 . . 4_655 ?
C2B C1B C4B C1B -178(100) . . . 4_655 ?
C6B C1B C4B C1B 64(100) . . . 4_655 ?
C7B C1B C4B C1B -58(100) . . . 4_655 ?
C7B C1B C4B C1B 135(100) 4_655 . . 4_655 ?
C4B C1B C4B C1B -140(100) 4_655 . . 4_655 ?
C10B C1B C4B C1B -39(100) . . . 4_655 ?
C5B C1B C4B C1B -7(100) 4_655 . . 4_655 ?
C7B C4B C5B C10B -121(16) . . . 4_655 ?
C3B C4B C5B C10B -6(16) . . . 4_655 ?
C1B C4B C5B C10B -82(15) 4_655 . . 4_655 ?
C1B C4B C5B C10B -81(16) . . . 4_655 ?
C10B C4B C5B C6B 87(16) 4_655 . . . ?
C7B C4B C5B C6B -33.9 . . . . ?
C3B C4B C5B C6B 81.4 . . . . ?
C1B C4B C5B C6B 5(4) 4_655 . . . ?
C1B C4B C5B C6B 6.6 . . . . ?
C10B C4B C5B C1B 82(15) 4_655 . . 4_655 ?
C7B C4B C5B C1B -39(4) . . . 4_655 ?
C3B C4B C5B C1B 76(4) . . . 4_655 ?
C1B C4B C5B C1B 2(4) . . . 4_655 ?
C10B C5B C6B C1B 33(11) 4_655 . . 4_655 ?
C4B C5B C6B C1B -5(4) . . . 4_655 ?
C10B C5B C6B C1B 29(12) 4_655 . . . ?
C4B C5B C6B C1B -8.8 . . . . ?
C1B C5B C6B C1B -4(4) 4_655 . . . ?
C10B C5B C6B C6B 90(12) 4_655 . . 4_655 ?
C4B C5B C6B C6B 52.7(5) . . . 4_655 ?
C1B C5B C6B C6B 58(4) 4_655 . . 4_655 ?
C10B C5B C6B C7B -16(11) 4_655 . . 4_655 ?
C4B C5B C6B C7B -54(4) . . . 4_655 ?
C1B C5B C6B C7B -48.8(15) 4_655 . . 4_655 ?
C4B C5B C6B C10B -38(12) . . . 4_655 ?
C1B C5B C6B C10B -33(11) 4_655 . . 4_655 ?
C10B C5B C6B C9B -82(12) 4_655 . . 4_655 ?
C4B C5B C6B C9B -119.8(11) . . . 4_655 ?
C1B C5B C6B C9B -115(3) 4_655 . . 4_655 ?
C6B C1B C6B C1B 87(14) 4_655 . . 4_655 ?
C2B C1B C6B C1B 5(9) 4_655 . . 4_655 ?
C2B C1B C6B C1B -88(13) . . . 4_655 ?
C7B C1B C6B C1B 33(13) . . . 4_655 ?
C7B C1B C6B C1B -129(17) 4_655 . . 4_655 ?
C4B C1B C6B C1B 179(17) 4_655 . . 4_655 ?
C10B C1B C6B C1B 137(15) . . . 4_655 ?
C4B C1B C6B C1B -5(13) . . . 4_655 ?
C5B C1B C6B C1B 131(16) 4_655 . . 4_655 ?
C1B C1B C6B C5B 12(13) 4_655 . . . ?
C6B C1B C6B C5B 99(7) 4_655 . . . ?
C2B C1B C6B C5B 17(9) 4_655 . . . ?
C2B C1B C6B C5B -76.0 . . . . ?
C7B C1B C6B C5B 45.1 . . . . ?
C7B C1B C6B C5B -117(6) 4_655 . . . ?
C4B C1B C6B C5B -169(5) 4_655 . . . ?
C10B C1B C6B C5B 149(6) . . . . ?
C4B C1B C6B C5B 7.1 . . . . ?
C5B C1B C6B C5B 143(5) 4_655 . . . ?
C1B C1B C6B C6B -87(14) 4_655 . . 4_655 ?
C2B C1B C6B C6B -82(11) 4_655 . . 4_655 ?
C2B C1B C6B C6B -175(7) . . . 4_655 ?
C7B C1B C6B C6B -54(7) . . . 4_655 ?
C7B C1B C6B C6B 144(10) 4_655 . . 4_655 ?
C4B C1B C6B C6B 92(8) 4_655 . . 4_655 ?
C10B C1B C6B C6B 50(8) . . . 4_655 ?
C4B C1B C6B C6B -92(7) . . . 4_655 ?
C5B C1B C6B C6B 44(5) 4_655 . . 4_655 ?
C1B C1B C6B C7B 129(17) 4_655 . . 4_655 ?
C6B C1B C6B C7B -144(10) 4_655 . . 4_655 ?
C2B C1B C6B C7B 134(13) 4_655 . . 4_655 ?
C2B C1B C6B C7B 41(6) . . . 4_655 ?
C7B C1B C6B C7B 162(6) . . . 4_655 ?
C4B C1B C6B C7B -52(4) 4_655 . . 4_655 ?
C10B C1B C6B C7B -94(7) . . . 4_655 ?
C4B C1B C6B C7B 124(6) . . . 4_655 ?
C5B C1B C6B C7B -100(7) 4_655 . . 4_655 ?
C1B C1B C6B C10B 25(12) 4_655 . . 4_655 ?
C6B C1B C6B C10B 112(9) 4_655 . . 4_655 ?
C2B C1B C6B C10B 30(10) 4_655 . . 4_655 ?
C2B C1B C6B C10B -63(6) . . . 4_655 ?
C7B C1B C6B C10B 58(6) . . . 4_655 ?
C7B C1B C6B C10B -104(8) 4_655 . . 4_655 ?
C4B C1B C6B C10B -155(9) 4_655 . . 4_655 ?
C10B C1B C6B C10B 162(5) . . . 4_655 ?
C4B C1B C6B C10B 20(6) . . . 4_655 ?
C5B C1B C6B C10B 156(9) 4_655 . . 4_655 ?
C1B C1B C6B C9B 137(17) 4_655 . . 4_655 ?
C6B C1B C6B C9B -136(11) 4_655 . . 4_655 ?
C2B C1B C6B C9B 142(11) 4_655 . . 4_655 ?
C2B C1B C6B C9B 49(6) . . . 4_655 ?
C7B C1B C6B C9B 170(6) . . . 4_655 ?
C7B C1B C6B C9B 8(4) 4_655 . . 4_655 ?
C4B C1B C6B C9B -43(4) 4_655 . . 4_655 ?
C10B C1B C6B C9B -86(8) . . . 4_655 ?
C4B C1B C6B C9B 132(6) . . . 4_655 ?
C5B C1B C6B C9B -92(7) 4_655 . . 4_655 ?
C10B C4B C7B OB 159(13) 4_655 . . 4_655 ?
C5B C4B C7B OB -176(7) . . . 4_655 ?
C3B C4B C7B OB 66(7) . . . 4_655 ?
C1B C4B C7B OB 132(8) 4_655 . . 4_655 ?
C1B C4B C7B OB 130(7) . . . 4_655 ?
C10B C4B C7B C8B 150(9) 4_655 . . . ?
C5B C4B C7B C8B 174.6 . . . . ?
C3B C4B C7B C8B 57.1 . . . . ?
C1B C4B C7B C8B 122.7(11) 4_655 . . . ?
C1B C4B C7B C8B 120.9 . . . . ?
C10B C4B C7B C1B 29(9) 4_655 . . . ?
C5B C4B C7B C1B 53.7 . . . . ?
C3B C4B C7B C1B -63.8 . . . . ?
C1B C4B C7B C1B 1.8(11) 4_655 . . . ?
C10B C4B C7B C9B -85(9) 4_655 . . . ?
C5B C4B C7B C9B -60.6 . . . . ?
C3B C4B C7B C9B -178.1 . . . . ?
C1B C4B C7B C9B -112.5(11) 4_655 . . . ?
C1B C4B C7B C9B -114.3 . . . . ?
C10B C4B C7B C1B 27(9) 4_655 . . 4_655 ?
C5B C4B C7B C1B 51.9(11) . . . 4_655 ?
C3B C4B C7B C1B -65.6(11) . . . 4_655 ?
C1B C4B C7B C1B -1.8(11) . . . 4_655 ?
C10B C4B C7B C2B 92(12) 4_655 . . 4_655 ?
C5B C4B C7B C2B 117(6) . . . 4_655 ?
C3B C4B C7B C2B 0(6) . . . 4_655 ?
C1B C4B C7B C2B 65(7) 4_655 . . 4_655 ?
C1B C4B C7B C2B 63(6) . . . 4_655 ?
C10B C4B C7B C6B -21(10) 4_655 . . 4_655 ?
C5B C4B C7B C6B 3(4) . . . 4_655 ?
C3B C4B C7B C6B -114(4) . . . 4_655 ?
C1B C4B C7B C6B -49(4) 4_655 . . 4_655 ?
C1B C4B C7B C6B -50(4) . . . 4_655 ?
C1B C1B C7B OB -137(8) 4_655 . . 4_655 ?
C6B C1B C7B OB 120(10) 4_655 . . 4_655 ?
C2B C1B C7B OB -30(3) 4_655 . . 4_655 ?
C2B C1B C7B OB -65(7) . . . 4_655 ?
C6B C1B C7B OB 169(7) . . . 4_655 ?
C7B C1B C7B OB -94(13) 4_655 . . 4_655 ?
C4B C1B C7B OB 35(7) 4_655 . . 4_655 ?
C10B C1B C7B OB 61(8) . . . 4_655 ?
C4B C1B C7B OB -130(7) . . . 4_655 ?
C5B C1B C7B OB 85(8) 4_655 . . 4_655 ?
C1B C1B C7B C4B -7(5) 4_655 . . . ?
C6B C1B C7B C4B -109(6) 4_655 . . . ?
C2B C1B C7B C4B 100(8) 4_655 . . . ?
C2B C1B C7B C4B 65.5 . . . . ?
C6B C1B C7B C4B -61.0 . . . . ?
C7B C1B C7B C4B 37(13) 4_655 . . . ?
C4B C1B C7B C4B 165.8(18) 4_655 . . . ?
C10B C1B C7B C4B -169(7) . . . . ?
C5B C1B C7B C4B -145(3) 4_655 . . . ?
C1B C1B C7B C8B -134(5) 4_655 . . . ?
C6B C1B C7B C8B 124(6) 4_655 . . . ?
C2B C1B C7B C8B -26(8) 4_655 . . . ?
C2B C1B C7B C8B -61.1 . . . . ?
C6B C1B C7B C8B 172.3 . . . . ?
C7B C1B C7B C8B -90(13) 4_655 . . . ?
C4B C1B C7B C8B 39.2(18) 4_655 . . . ?
C10B C1B C7B C8B 65(7) . . . . ?
C4B C1B C7B C8B -126.7 . . . . ?
C5B C1B C7B C8B 88(3) 4_655 . . . ?
C1B C1B C7B C9B 109(5) 4_655 . . . ?
C6B C1B C7B C9B 6(6) 4_655 . . . ?
C2B C1B C7B C9B -144(8) 4_655 . . . ?
C2B C1B C7B C9B -179.0 . . . . ?
C6B C1B C7B C9B 54.5 . . . . ?
C7B C1B C7B C9B 152(13) 4_655 . . . ?
C4B C1B C7B C9B -78.7(19) 4_655 . . . ?
C10B C1B C7B C9B -53(7) . . . . ?
C4B C1B C7B C9B 115.5 . . . . ?
C5B C1B C7B C9B -29(3) 4_655 . . . ?
C6B C1B C7B C1B -102(4) 4_655 . . 4_655 ?
C2B C1B C7B C1B 107(9) 4_655 . . 4_655 ?
C2B C1B C7B C1B 72(5) . . . 4_655 ?
C6B C1B C7B C1B -54(5) . . . 4_655 ?
C7B C1B C7B C1B 44(16) 4_655 . . 4_655 ?
C4B C1B C7B C1B 173(6) 4_655 . . 4_655 ?
C10B C1B C7B C1B -162(7) . . . 4_655 ?
C4B C1B C7B C1B 7(5) . . . 4_655 ?
C5B C1B C7B C1B -138(3) 4_655 . . 4_655 ?
C1B C1B C7B C2B -107(9) 4_655 . . 4_655 ?
C6B C1B C7B C2B 151(10) 4_655 . . 4_655 ?
C2B C1B C7B C2B -35(8) . . . 4_655 ?
C6B C1B C7B C2B -161(8) . . . 4_655 ?
C7B C1B C7B C2B -63(12) 4_655 . . 4_655 ?
C4B C1B C7B C2B 66(8) 4_655 . . 4_655 ?
C10B C1B C7B C2B 91(8) . . . 4_655 ?
C4B C1B C7B C2B -100(8) . . . 4_655 ?
C5B C1B C7B C2B 115(9) 4_655 . . 4_655 ?
C1B C1B C7B C6B 102(4) 4_655 . . 4_655 ?
C2B C1B C7B C6B -151(10) 4_655 . . 4_655 ?
C2B C1B C7B C6B 175(6) . . . 4_655 ?
C6B C1B C7B C6B 48(6) . . . 4_655 ?
C7B C1B C7B C6B 146(17) 4_655 . . 4_655 ?
C4B C1B C7B C6B -85(7) 4_655 . . 4_655 ?
C10B C1B C7B C6B -59(7) . . . 4_655 ?
C4B C1B C7B C6B 109(6) . . . 4_655 ?
C5B C1B C7B C6B -36(3) 4_655 . . 4_655 ?
C4B C7B C8B OB 101(61) . . . 4_655 ?
C1B C7B C8B OB -155(61) . . . 4_655 ?
C9B C7B C8B OB -30(61) . . . 4_655 ?
C1B C7B C8B OB -168(64) 4_655 . . 4_655 ?
C2B C7B C8B OB 177(69) 4_655 . . 4_655 ?
C6B C7B C8B OB -91(60) 4_655 . . 4_655 ?
OB C7B C8B C2B -177(69) 4_655 . . 4_655 ?
C4B C7B C8B C2B -76(8) . . . 4_655 ?
C1B C7B C8B C2B 28(8) . . . 4_655 ?
C9B C7B C8B C2B 153(8) . . . 4_655 ?
C1B C7B C8B C2B 15(7) 4_655 . . 4_655 ?
C6B C7B C8B C2B 92(11) 4_655 . . 4_655 ?
OB C7B C9B C6B -137(10) 4_655 . . 4_655 ?
C4B C7B C9B C6B 90(5) . . . 4_655 ?
C8B C7B C9B C6B -134(5) . . . 4_655 ?
C1B C7B C9B C6B -6(5) . . . 4_655 ?
C1B C7B C9B C6B 9(4) 4_655 . . 4_655 ?
C2B C7B C9B C6B -86(12) 4_655 . . 4_655 ?
C2B C2B OB C8B -165(59) 4_655 . . 4_655 ?
C1B C2B OB C8B 149(45) 4_655 . . 4_655 ?
C1B C2B OB C8B 167(42) . . . 4_655 ?
C3B C2B OB C8B 56(42) . . . 4_655 ?
C3B C2B OB C8B -111(41) 4_655 . . 4_655 ?
C7B C2B OB C8B 178(48) 4_655 . . 4_655 ?
C2B C2B OB C7B 18(22) 4_655 . . 4_655 ?
C1B C2B OB C7B -28(3) 4_655 . . 4_655 ?
C1B C2B OB C7B -11(6) . . . 4_655 ?
C3B C2B OB C7B -122(6) . . . 4_655 ?
C3B C2B OB C7B 71(7) 4_655 . . 4_655 ?
C8B C2B OB C7B -178(48) 4_655 . . 4_655 ?
C1B C1B C10B C5B 75(17) 4_655 . . 4_655 ?
C6B C1B C10B C5B 31(11) 4_655 . . 4_655 ?
C2B C1B C10B C5B 143(17) 4_655 . . 4_655 ?
C2B C1B C10B C5B -149(14) . . . 4_655 ?
C6B C1B C10B C5B -15(16) . . . 4_655 ?
C7B C1B C10B C5B 94(15) . . . 4_655 ?
C7B C1B C10B C5B -94(16) 4_655 . . 4_655 ?
C4B C1B C10B C5B -115(20) 4_655 . . 4_655 ?
C4B C1B C10B C5B 81(18) . . . 4_655 ?
C1B C1B C10B C4B -170(11) 4_655 . . 4_655 ?
C6B C1B C10B C4B 146(12) 4_655 . . 4_655 ?
C2B C1B C10B C4B -102(8) 4_655 . . 4_655 ?
C2B C1B C10B C4B -34(11) . . . 4_655 ?
C6B C1B C10B C4B 100(8) . . . 4_655 ?
C7B C1B C10B C4B -151(7) . . . 4_655 ?
C7B C1B C10B C4B 21(9) 4_655 . . 4_655 ?
C4B C1B C10B C4B -164(4) . . . 4_655 ?
C5B C1B C10B C4B 115(20) 4_655 . . 4_655 ?
C1B C1B C10B C3B -105(12) 4_655 . . 4_655 ?
C6B C1B C10B C3B -150(9) 4_655 . . 4_655 ?
C2B C1B C10B C3B -38(4) 4_655 . . 4_655 ?
C2B C1B C10B C3B 31(8) . . . 4_655 ?
C6B C1B C10B C3B 164(6) . . . 4_655 ?
C7B C1B C10B C3B -87(6) . . . 4_655 ?
C7B C1B C10B C3B 85(6) 4_655 . . 4_655 ?
C4B C1B C10B C3B 64(8) 4_655 . . 4_655 ?
C4B C1B C10B C3B -100(11) . . . 4_655 ?
C5B C1B C10B C3B 179(19) 4_655 . . 4_655 ?
C1B C1B C10B C6B 44(9) 4_655 . . 4_655 ?
C2B C1B C10B C6B 111(8) 4_655 . . 4_655 ?
C2B C1B C10B C6B -180(6) . . . 4_655 ?
C6B C1B C10B C6B -46(6) . . . 4_655 ?
C7B C1B C10B C6B 62(6) . . . 4_655 ?
C7B C1B C10B C6B -125(6) 4_655 . . 4_655 ?
C4B C1B C10B C6B -146(12) 4_655 . . 4_655 ?
C4B C1B C10B C6B 49(11) . . . 4_655 ?
C5B C1B C10B C6B -31(11) 4_655 . . 4_655 ?
C1C C1C C2C C2C -168(12) 4_655 . . 4_655 ?
C6C C1C C2C C2C -72(10) 4_655 . . 4_655 ?
C6C C1C C2C C2C 171(7) . . . 4_655 ?
C7C C1C C2C C2C 66(7) . . . 4_655 ?
C10C C1C C2C C2C -60(7) . . . 4_655 ?
OC C1C C2C C2C 29(5) 4_655 . . 4_655 ?
C10C C1C C2C C2C 142(8) 4_655 . . 4_655 ?
C6C C1C C2C C1C 97(10) 4_655 . . 4_655 ?
C2C C1C C2C C1C 168(12) 4_655 . . 4_655 ?
C6C C1C C2C C1C -21(6) . . . 4_655 ?
C7C C1C C2C C1C -125(6) . . . 4_655 ?
C10C C1C C2C C1C 109(6) . . . 4_655 ?
OC C1C C2C C1C -163(7) 4_655 . . 4_655 ?
C10C C1C C2C C1C -50(5) 4_655 . . 4_655 ?
C1C C1C C2C OC -28(6) 4_655 . . . ?
C6C C1C C2C OC 69(9) 4_655 . . . ?
C2C C1C C2C OC 140(7) 4_655 . . . ?
C6C C1C C2C OC -48.9 . . . . ?
C7C C1C C2C OC -153.1 . . . . ?
C10C C1C C2C OC 80.7 . . . . ?
OC C1C C2C OC 169(3) 4_655 . . . ?
C10C C1C C2C OC -78(2) 4_655 . . . ?
C1C C1C C2C C3C 93(6) 4_655 . . . ?
C6C C1C C2C C3C -170(9) 4_655 . . . ?
C2C C1C C2C C3C -98(7) 4_655 . . . ?
C6C C1C C2C C3C 72.3 . . . . ?
C7C C1C C2C C3C -31.9 . . . . ?
C10C C1C C2C C3C -158.0 . . . . ?
OC C1C C2C C3C -70(3) 4_655 . . . ?
C10C C1C C2C C3C 43(2) 4_655 . . . ?
C1C C1C C2C OC 163(7) 4_655 . . 4_655 ?
C6C C1C C2C OC -100(8) 4_655 . . 4_655 ?
C2C C1C C2C OC -29(5) 4_655 . . 4_655 ?
C6C C1C C2C OC 142(3) . . . 4_655 ?
C7C C1C C2C OC 38(3) . . . 4_655 ?
C10C C1C C2C OC -88(3) . . . 4_655 ?
C10C C1C C2C OC 113(3) 4_655 . . 4_655 ?
C1C C1C C2C C3C -110(6) 4_655 . . 4_655 ?
C6C C1C C2C C3C -13(8) 4_655 . . 4_655 ?
C2C C1C C2C C3C 59(6) 4_655 . . 4_655 ?
C6C C1C C2C C3C -131(2) . . . 4_655 ?
C7C C1C C2C C3C 125(2) . . . 4_655 ?
C10C C1C C2C C3C -1(2) . . . 4_655 ?
OC C1C C2C C3C 87(2) 4_655 . . 4_655 ?
C10C C1C C2C C3C -160(3) 4_655 . . 4_655 ?
C2C C2C C3C C4C -73.8(13) 4_655 . . . ?
C1C C2C C3C C4C 20(2) 4_655 . . . ?
OC C2C C3C C4C 116.3 . . . . ?
C1C C2C C3C C4C -4.5 . . . . ?
OC C2C C3C C4C -70.7(5) 4_655 . . . ?
C3C C2C C3C C4C -123(5) 4_655 . . . ?
C1C C2C C3C C2C 94(3) 4_655 . . 4_655 ?
OC C2C C3C C2C -169.9(13) . . . 4_655 ?
C1C C2C C3C C2C 69.3(13) . . . 4_655 ?
OC C2C C3C C2C 3.1(9) 4_655 . . 4_655 ?
C3C C2C C3C C2C -49(4) 4_655 . . 4_655 ?
C2C C2C C3C C10C -112(2) 4_655 . . 4_655 ?
C1C C2C C3C C10C -17.7(17) 4_655 . . 4_655 ?
OC C2C C3C C10C 78.3(18) . . . 4_655 ?
C1C C2C C3C C10C -42.4(18) . . . 4_655 ?
OC C2C C3C C10C -108.6(17) 4_655 . . 4_655 ?
C3C C2C C3C C10C -161(5) 4_655 . . 4_655 ?
C2C C3C C4C C10C -58(2) . . . 4_655 ?
C2C C3C C4C C10C -74(3) 4_655 . . 4_655 ?
C2C C3C C4C C7C 44.4 . . . . ?
C2C C3C C4C C7C 29.0(16) 4_655 . . . ?
C10C C3C C4C C7C 103(2) 4_655 . . . ?
C2C C3C C4C C5C -70.6 . . . . ?
C2C C3C C4C C5C -86.0(16) 4_655 . . . ?
C10C C3C C4C C5C -12(2) 4_655 . . . ?
C7C C4C C5C C10C -85(5) . . . 4_655 ?
C3C C4C C5C C10C 30(5) . . . 4_655 ?
C10C C4C C5C C6C 51(5) 4_655 . . . ?
C7C C4C C5C C6C -33.9 . . . . ?
C3C C4C C5C C6C 81.1 . . . . ?
C4C C5C C6C C10C -51(6) . . . 4_655 ?
C10C C5C C6C C1C 23(4) 4_655 . . 4_655 ?
C4C C5C C6C C1C -28(3) . . . 4_655 ?
C10C C5C C6C C1C 44(6) 4_655 . . . ?
C4C C5C C6C C1C -6.8 . . . . ?
C10C C5C C6C C6C 84(6) 4_655 . . 4_655 ?
C4C C5C C6C C6C 33.3(6) . . . 4_655 ?
C1C C1C C6C C10C -75(6) 4_655 . . 4_655 ?
C6C C1C C6C C10C 151(5) 4_655 . . 4_655 ?
C2C C1C C6C C10C -44(4) 4_655 . . 4_655 ?
C2C C1C C6C C10C -48(3) . . . 4_655 ?
C7C C1C C6C C10C 60(3) . . . 4_655 ?
C10C C1C C6C C10C -173(3) . . . 4_655 ?
OC C1C C6C C10C 25(2) 4_655 . . 4_655 ?
C6C C1C C6C C1C -133(9) 4_655 . . 4_655 ?
C2C C1C C6C C1C 32(5) 4_655 . . 4_655 ?
C2C C1C C6C C1C 27(7) . . . 4_655 ?
C7C C1C C6C C1C 136(7) . . . 4_655 ?
C10C C1C C6C C1C -98(7) . . . 4_655 ?
OC C1C C6C C1C 101(7) 4_655 . . 4_655 ?
C10C C1C C6C C1C 75(6) 4_655 . . 4_655 ?
C1C C1C C6C C5C -95(7) 4_655 . . . ?
C6C C1C C6C C5C 131(3) 4_655 . . . ?
C2C C1C C6C C5C -64(3) 4_655 . . . ?
C2C C1C C6C C5C -68.1 . . . . ?
C7C C1C C6C C5C 40.6 . . . . ?
C10C C1C C6C C5C 167.1 . . . . ?
OC C1C C6C C5C 5(2) 4_655 . . . ?
C10C C1C C6C C5C -20(3) 4_655 . . . ?
C1C C1C C6C C6C 133(9) 4_655 . . 4_655 ?
C2C C1C C6C C6C 165(6) 4_655 . . 4_655 ?
C2C C1C C6C C6C 161(3) . . . 4_655 ?
C7C C1C C6C C6C -91(3) . . . 4_655 ?
C10C C1C C6C C6C 36(3) . . . 4_655 ?
OC C1C C6C C6C -126(4) 4_655 . . 4_655 ?
C10C C1C C6C C6C -151(5) 4_655 . . 4_655 ?
C10C C4C C7C C8C 145.3(14) 4_655 . . . ?
C3C C4C C7C C8C 54.4 . . . . ?
C5C C4C C7C C8C 171.4 . . . . ?
C10C C4C C7C C1C 29.1(14) 4_655 . . . ?
C3C C4C C7C C1C -61.7 . . . . ?
C5C C4C C7C C1C 55.2 . . . . ?
C10C C4C C7C C9C -86.0(14) 4_655 . . . ?
C3C C4C C7C C9C -176.8 . . . . ?
C5C C4C C7C C9C -59.9 . . . . ?
C10C C4C C7C OC 103(3) 4_655 . . 4_655 ?
C3C C4C C7C OC 12(2) . . . 4_655 ?
C5C C4C C7C OC 129(2) . . . 4_655 ?
C1C C1C C7C C4C -15.9(12) 4_655 . . . ?
C6C C1C C7C C4C -138(3) 4_655 . . . ?
C2C C1C C7C C4C 76(3) 4_655 . . . ?
C2C C1C C7C C4C 56.6 . . . . ?
C6C C1C C7C C4C -55.5 . . . . ?
C10C C1C C7C C4C 177.6 . . . . ?
OC C1C C7C C4C 100(2) 4_655 . . . ?
C10C C1C C7C C4C -20.6(2) 4_655 . . . ?
C1C C1C C7C C8C -140.8(12) 4_655 . . . ?
C6C C1C C7C C8C 97(3) 4_655 . . . ?
C2C C1C C7C C8C -48(3) 4_655 . . . ?
C2C C1C C7C C8C -68.3 . . . . ?
C6C C1C C7C C8C 179.7 . . . . ?
C10C C1C C7C C8C 52.7 . . . . ?
OC C1C C7C C8C -25(2) 4_655 . . . ?
C10C C1C C7C C8C -145.5(2) 4_655 . . . ?
C1C C1C C7C C9C 102.4(12) 4_655 . . . ?
C6C C1C C7C C9C -19(3) 4_655 . . . ?
C2C C1C C7C C9C -165(3) 4_655 . . . ?
C2C C1C C7C C9C 175.0 . . . . ?
C6C C1C C7C C9C 62.9 . . . . ?
C10C C1C C7C C9C -64.0 . . . . ?
OC C1C C7C C9C -142(2) 4_655 . . . ?
C10C C1C C7C C9C 97.8(2) 4_655 . . . ?
C1C C1C C7C OC -116(2) 4_655 . . 4_655 ?
C6C C1C C7C OC 122(4) 4_655 . . 4_655 ?
C2C C1C C7C OC -23.7(14) 4_655 . . 4_655 ?
C2C C1C C7C OC -43(2) . . . 4_655 ?
C6C C1C C7C OC -156(2) . . . 4_655 ?
C10C C1C C7C OC 78(2) . . . 4_655 ?
C10C C1C C7C OC -121(2) 4_655 . . 4_655 ?
C4C C7C C8C OC -70(4) . . . 4_655 ?
C1C C7C C8C OC 35(4) . . . 4_655 ?
C9C C7C C8C OC 157(4) . . . 4_655 ?
C1C C1C C10C C5C -70(10) 4_655 . . 4_655 ?
C6C C1C C10C C5C 31(7) 4_655 . . 4_655 ?
C2C C1C C10C C5C -162(12) 4_655 . . 4_655 ?
C2C C1C C10C C5C -143(11) . . . 4_655 ?
C6C C1C C10C C5C -19(11) . . . 4_655 ?
C7C C1C C10C C5C 98(11) . . . 4_655 ?
OC C1C C10C C5C 151(11) 4_655 . . 4_655 ?
C10C C1C C10C C5C -30(11) 4_655 . . 4_655 ?
C1C C1C C10C C6C -101(4) 4_655 . . 4_655 ?
C2C C1C C10C C6C 167(6) 4_655 . . 4_655 ?
C2C C1C C10C C6C -174(4) . . . 4_655 ?
C6C C1C C10C C6C -50(4) . . . 4_655 ?
C7C C1C C10C C6C 67(4) . . . 4_655 ?
OC C1C C10C C6C 120(5) 4_655 . . 4_655 ?
C10C C1C C10C C6C -61(5) 4_655 . . 4_655 ?
C1C C1C C10C C4C 26(2) 4_655 . . 4_655 ?
C6C C1C C10C C4C 128(6) 4_655 . . 4_655 ?
C2C C1C C10C C4C -65.3(19) 4_655 . . 4_655 ?
C2C C1C C10C C4C -46.6(16) . . . 4_655 ?
C6C C1C C10C C4C 78.1(16) . . . 4_655 ?
C7C C1C C10C C4C -165.3(16) . . . 4_655 ?
OC C1C C10C C4C -112.5(12) 4_655 . . 4_655 ?
C10C C1C C10C C4C 67(4) 4_655 . . 4_655 ?
C6C C1C C10C C1C 101(4) 4_655 . . 4_655 ?
C2C C1C C10C C1C -92(3) 4_655 . . 4_655 ?
C2C C1C C10C C1C -73.0(12) . . . 4_655 ?
C6C C1C C10C C1C 51.6(12) . . . 4_655 ?
C7C C1C C10C C1C 168.3(12) . . . 4_655 ?
OC C1C C10C C1C -138.9(19) 4_655 . . 4_655 ?
C10C C1C C10C C1C 40(3) 4_655 . . 4_655 ?
C1C C1C C10C C3C 74(3) 4_655 . . 4_655 ?
C6C C1C C10C C3C 175(6) 4_655 . . 4_655 ?
C2C C1C C10C C3C -17.7(13) 4_655 . . 4_655 ?
C2C C1C C10C C3C 1(2) . . . 4_655 ?
C6C C1C C10C C3C 126(2) . . . 4_655 ?
C7C C1C C10C C3C -118(2) . . . 4_655 ?
OC C1C C10C C3C -64.9(13) 4_655 . . 4_655 ?
C10C C1C C10C C3C 114(4) 4_655 . . 4_655 ?
C2C C2C OC C8C 85(9) 4_655 . . 4_655 ?
C1C C2C OC C8C -7(7) 4_655 . . 4_655 ?
C1C C2C OC C8C 4(8) . . . 4_655 ?
C3C C2C OC C8C -112(8) . . . 4_655 ?
OC C2C OC C8C 107(10) 4_655 . . 4_655 ?
C3C C2C OC C8C 91(9) 4_655 . . 4_655 ?
C2C C2C OC C7C 67(3) 4_655 . . 4_655 ?
C1C C2C OC C7C -25.5(16) 4_655 . . 4_655 ?
C1C C2C OC C7C -14(3) . . . 4_655 ?
C3C C2C OC C7C -130(3) . . . 4_655 ?
OC C2C OC C7C 89(6) 4_655 . . 4_655 ?
C3C C2C OC C7C 73(3) 4_655 . . 4_655 ?
C1C C2C OC C2C -92(3) 4_655 . . 4_655 ?
C1C C2C OC C2C -81.3(9) . . . 4_655 ?
C3C C2C OC C2C 163.3(9) . . . 4_655 ?
OC C2C OC C2C 22(5) 4_655 . . 4_655 ?
C3C C2C OC C2C 5.9(6) 4_655 . . 4_655 ?
C2C C2C OC C1C 92(3) 4_655 . . 4_655 ?
C1C C2C OC C1C 11(2) . . . 4_655 ?
C3C C2C OC C1C -104(2) . . . 4_655 ?
OC C2C OC C1C 115(7) 4_655 . . 4_655 ?
C3C C2C OC C1C 98(3) 4_655 . . 4_655 ?

_diffrn_measured_fraction_theta_max 0.981
_diffrn_reflns_theta_full        23.61
_diffrn_measured_fraction_theta_full 0.981
_refine_diff_density_max         1.000
_refine_diff_density_min         -0.487
_refine_diff_density_rms         0.102
