
#######################################################################
#
#                 Cambridge Crystallographic Data Centre
#                                CCDC 
#
#######################################################################
#
# If this CIF has been generated directly or indirectly from an entry in the 
# Cambridge Structural Database, then it will include bibliographic, chemical, 
# crystal, experimental, refinement or atomic coordinate data resulting from 
# the CCDC's data processing and validation procedures. Files generated from 
# CSD entries are Copyright 2016 Cambridge Crystallographic Data Centre. They 
# may be used in bona fide research applications only, and may not be copied or 
# further disseminated in any form, whether machine-readable or not, except for 
# the purposes of generating routine backup copies on your local computer 
# system.
# 
# Files arising from any other source may also contain material that is the 
# copyright of third parties, including the originator, and you should check 
# with the originator concerning the permitted uses of the information 
# contained in this CIF.
#
# For further information on the CCDC and the free tools enCIFer and Mercury
# for validating and visualising CIF files, please visit www.ccdc.cam.ac.uk
#
#######################################################################

data_OVENOU
_audit_creation_date             2016-09-16
_database_code_depnum_ccdc_archive 'CCDC 1452672'
_chemical_formula_moiety         'C48 H84 N12 12+,6(O4 S1 2-),27.25(H2 O1)'
_chemical_name_systematic        
'5,8,16,19,27,30,38,41,46,49,54,57-dodeca-azoniaheptacyclo[21.21.6.6^12,34^.1^3,43^.1^10,14^.1^21,25^.1^32,36^]hexaconta-1,3(51),10(60),11,13,21(59),22,24,32(52),33,35,43-dodecaene hexakis(sulfate) hydrate'
_journal_volume                  7
_journal_year                    2016
_journal_page_first              12750
loop_
_publ_author_name
'Ming Liu'
'Linjiang Chen'
S.Lewis
'Samantha Y.Chong'
M.A.Little
T.Hasell
I.M.Aldous
C.M.Brown
M.W.Smith
C.A.Morrison
L.J.Hardwick
A.I.Cooper
_chemical_absolute_configuration unk
_diffrn_ambient_temperature      100
_exptl_crystal_density_meas      1.445
_exptl_crystal_density_diffrn    1.445
#These two values have been output from a single CSD field.
_refine_ls_R_factor_gt           0.066
_refine_ls_wR_factor_gt          0.066
_diffrn_radiation_probe          x-ray
_symmetry_cell_setting           orthorhombic
_symmetry_space_group_name_H-M   'F d d 2'
_symmetry_Int_Tables_number      43
loop_
_symmetry_equiv_pos_site_id
_symmetry_equiv_pos_as_xyz
1 x,y,z
2 -x,-y,z
3 1/4-x,1/4+y,1/4+z
4 1/4+x,1/4-y,1/4+z
5 x,1/2+y,1/2+z
6 -x,1/2-y,1/2+z
7 1/4-x,3/4+y,3/4+z
8 1/4+x,3/4-y,3/4+z
9 1/2+x,y,1/2+z
10 1/2-x,-y,1/2+z
11 3/4-x,1/4+y,3/4+z
12 3/4+x,1/4-y,3/4+z
13 1/2+x,1/2+y,z
14 1/2-x,1/2-y,z
15 3/4-x,3/4+y,1/4+z
16 3/4+x,3/4-y,1/4+z
_cell_length_a                   32.757(2)
_cell_length_b                   34.249(2)
_cell_length_c                   31.088(2)
_cell_angle_alpha                90
_cell_angle_beta                 90
_cell_angle_gamma                90
_cell_volume                     34877.5
_exptl_crystal_colour            colorless
_exptl_crystal_description       block
_cell_formula_units_Z            16
loop_
_atom_site_label
_atom_site_type_symbol
_atom_site_fract_x
_atom_site_fract_y
_atom_site_fract_z
S1 S 0.30442(4) 0.54221(4) 0.35701(5)
O1 O 0.34199(14) 0.52800(13) 0.33746(17)
O2 O 0.29987(14) 0.52287(16) 0.40050(15)
O3 O 0.26950(14) 0.53267(14) 0.33199(16)
O4 O 0.3080(2) 0.58368(15) 0.3679(3)
S2 S 0.11577(3) 0.49969(3) 0.27154(3)
O5 O 0.10496(11) 0.46048(9) 0.25664(11)
O6 O 0.09644(14) 0.50746(12) 0.31294(14)
O7 O 0.16046(10) 0.50291(10) 0.27606(11)
O8 O 0.10206(15) 0.52843(13) 0.23930(18)
S3 S 0.34848(4) 0.45375(3) 0.55240(4)
O9 O 0.3781(2) 0.4616(2) 0.5201(2)
O10 O 0.3185(2) 0.42291(18) 0.5399(2)
O11 O 0.36539(18) 0.4443(2) 0.59494(17)
O12 O 0.32219(19) 0.48966(15) 0.55977(18)
S4 S 0.08667(5) 0.45031(5) 0.47346(4)
O13 O 0.09357(13) 0.45819(16) 0.42892(12)
O14 O 0.0836(3) 0.40651(17) 0.4746(4)
O15 O 0.12447(15) 0.45859(13) 0.49748(14)
O16 O 0.05384(17) 0.46733(18) 0.49442(18)
S5 S 0.21062(4) 0.55031(4) 0.60825(6)
O17 O 0.23098(13) 0.57887(10) 0.57992(13)
O18 O 0.20395(16) 0.51422(14) 0.5854(3)
O19 O 0.23651(15) 0.5441(2) 0.6464(2)
O20 O 0.17106(13) 0.56413(18) 0.62354(17)
O21 O 0.23861(15) 0.44666(13) 0.55241(16)
O22 O 0.29259(13) 0.56344(13) 0.76394(14)
O23 O 0.00055(10) 0.56434(10) 0.55206(11)
O24 O 0.1765(3) 0.6507(2) 0.6153(3)
O25 O 0.2226(2) 0.7279(2) 0.5996(3)
O26 O 0.29550(19) 0.35078(18) 0.6575(3)
O27 O 0.21238(10) 0.56536(9) 0.27513(11)
O28 O 0.19977(13) 0.34881(11) 0.38785(17)
O29 O 0.1304(3) 0.3460(3) 0.4371(4)
O30 O 0.1710(2) 0.27912(17) 0.48419(19)
O31 O 0.2500 0.2500 0.5181(4)
O32 O 0.29459(17) 0.59857(14) 0.45481(16)
O33 O 0.37398(18) 0.37489(14) 0.63059(18)
O34 O 0.19220(13) 0.41400(11) 0.48900(12)
O35 O 0.44373(14) 0.47081(16) 0.61085(15)
O36 O 0.4469(3) 0.4097(3) 0.5173(4)
O37 O 0.11547(15) 0.64856(13) 0.55846(13)
O38 O 0.2371(3) 0.6275(3) 0.6763(5)
O39 O 0.2645(7) 0.6479(6) 0.3619(6)
O40 O 0.28263(11) 0.72366(10) 0.44406(11)
N1 N 0.17155(11) 0.48656(10) 0.40720(11)
H1 H 0.1899 0.4883 0.4291
H2 H 0.1463 0.4843 0.4190
N2 N 0.23171(11) 0.41143(10) 0.34467(13)
H3 H 0.2164 0.4140 0.3204
H4 H 0.2224 0.3902 0.3593
N3 N 0.07868(13) 0.58388(11) 0.52441(12)
H5 H 0.0898 0.6055 0.5369
H6 H 0.0541 0.5793 0.5371
N4 N 0.12177(11) 0.49375(10) 0.57580(12)
H7 H 0.1228 0.4809 0.5502
H8 H 0.1475 0.5021 0.5822
N5 N 0.23783(12) 0.65679(11) 0.46203(12)
H9 H 0.2524 0.6354 0.4539
H10 H 0.2540 0.6781 0.4579
N6 N 0.26096(11) 0.65609(10) 0.58019(11)
H11 H 0.2502 0.6326 0.5880
H12 H 0.2423 0.6749 0.5866
N7 N 0.41626(12) 0.58657(10) 0.50086(12)
H13 H 0.4024 0.6068 0.4887
H14 H 0.4401 0.5836 0.4862
N8 N 0.36751(14) 0.49973(12) 0.44543(13)
H15 H 0.3645 0.4884 0.4717
H16 H 0.3422 0.5064 0.4358
N9 N 0.30999(11) 0.50566(10) 0.64607(11)
H17 H 0.3170 0.4958 0.6199
H18 H 0.2864 0.5194 0.6428
N10 N 0.26215(14) 0.41577(12) 0.69314(14)
H19 H 0.2713 0.3909 0.6891
H20 H 0.2737 0.4242 0.7181
N11 N 0.30962(12) 0.34867(10) 0.50579(11)
H21 H 0.3158 0.3302 0.5258
H22 H 0.3168 0.3723 0.5168
N12 N 0.19785(13) 0.34393(11) 0.53144(13)
H23 H 0.1937 0.3236 0.5131
H24 H 0.1896 0.3661 0.5179
C1 C 0.16118(14) 0.55813(12) 0.40801(13)
C2 C 0.18697(14) 0.59067(12) 0.40994(13)
H25 H 0.2125 0.5903 0.3955
C3 C 0.17497(15) 0.62392(12) 0.43325(13)
C4 C 0.13786(15) 0.62385(12) 0.45506(13)
H26 H 0.1299 0.6461 0.4712
C5 C 0.11208(14) 0.59123(13) 0.45344(13)
C6 C 0.12380(14) 0.55903(12) 0.42929(14)
H27 H 0.1060 0.5372 0.4272
C7 C 0.17324(14) 0.52332(12) 0.38113(13)
H28 H 0.1545 0.5210 0.3562
H29 H 0.2013 0.5271 0.3700
C8 C 0.20082(15) 0.66025(12) 0.43327(14)
H30 H 0.1840 0.6826 0.4430
H31 H 0.2099 0.6657 0.4035
C9 C 0.07239(15) 0.59131(15) 0.47732(14)
H32 H 0.0543 0.5709 0.4653
H33 H 0.0588 0.6169 0.4734
C10 C 0.30396(13) 0.40414(12) 0.36984(14)
C11 C 0.30500(13) 0.37373(12) 0.39929(14)
H34 H 0.2871 0.3522 0.3957
C12 C 0.33184(13) 0.37427(11) 0.43396(14)
C13 C 0.35846(13) 0.40596(12) 0.43907(13)
H35 H 0.3771 0.4064 0.4624
C14 C 0.35752(13) 0.43670(11) 0.40999(14)
C15 C 0.33032(13) 0.43574(12) 0.37546(14)
H36 H 0.3297 0.4568 0.3556
C16 C 0.27547(13) 0.40427(13) 0.33183(15)
H37 H 0.2774 0.3788 0.3169
H38 H 0.2842 0.4248 0.3114
C17 C 0.33441(14) 0.34107(12) 0.46600(15)
H39 H 0.3246 0.3168 0.4522
H40 H 0.3633 0.3371 0.4742
C18 C 0.38568(14) 0.47087(13) 0.41531(15)
H41 H 0.4123 0.4618 0.4267
H42 H 0.3905 0.4833 0.3870
C19 C 0.38887(12) 0.59724(11) 0.57532(12)
C20 C 0.38161(13) 0.56579(11) 0.60248(14)
H43 H 0.3996 0.5440 0.6020
C21 C 0.34864(14) 0.56576(11) 0.63012(13)
C22 C 0.32184(13) 0.59708(12) 0.63008(12)
H44 H 0.2989 0.5969 0.6487
C23 C 0.32835(13) 0.62877(11) 0.60293(12)
C24 C 0.36195(13) 0.62914(11) 0.57600(13)
H45 H 0.3668 0.6510 0.5579
C25 C 0.42584(13) 0.59678(12) 0.54674(15)
H46 H 0.4389 0.6228 0.5475
H47 H 0.4457 0.5776 0.5582
C26 C 0.34249(17) 0.53235(14) 0.66103(16)
H48 H 0.3684 0.5176 0.6640
H49 H 0.3351 0.5428 0.6897
C27 C 0.29902(14) 0.66329(12) 0.60563(14)
H50 H 0.2917 0.6680 0.6361
H51 H 0.3128 0.6870 0.5946
C28 C 0.19239(14) 0.40871(15) 0.66252(15)
C29 C 0.19501(13) 0.37613(13) 0.63564(14)
H52 H 0.2137 0.3558 0.6421
C30 C 0.17034(13) 0.37339(12) 0.59944(14)
C31 C 0.14171(13) 0.40275(12) 0.59093(14)
H53 H 0.1242 0.4006 0.5667
C32 C 0.13887(13) 0.43502(13) 0.61775(15)
C33 C 0.16471(14) 0.43808(14) 0.65317(15)
H54 H 0.1633 0.4605 0.6711
C34 C 0.21844(18) 0.4120(2) 0.70249(18)
H55 H 0.2094 0.4350 0.7193
H56 H 0.2141 0.3885 0.7205
C35 C 0.17185(14) 0.33784(12) 0.57114(15)
H57 H 0.1438 0.3309 0.5622
H58 H 0.1830 0.3156 0.5879
C36 C 0.10751(14) 0.46646(14) 0.60984(17)
H59 H 0.0814 0.4544 0.6009
H60 H 0.1026 0.4811 0.6368
C37 C 0.18049(13) 0.45086(12) 0.38151(15)
H61 H 0.1652 0.4520 0.3541
H62 H 0.1710 0.4276 0.3975
C38 C 0.22580(13) 0.44681(13) 0.37200(16)
H63 H 0.2358 0.4703 0.3567
H64 H 0.2413 0.4441 0.3992
C39 C 0.22845(14) 0.65358(13) 0.50842(14)
H65 H 0.2148 0.6284 0.5145
H66 H 0.2100 0.6750 0.5173
C40 C 0.26847(13) 0.65607(13) 0.53281(13)
H67 H 0.2859 0.6335 0.5251
H68 H 0.2831 0.6803 0.5246
C41 C 0.1061(2) 0.54975(17) 0.5316(2)
H69 H 0.1347 0.5589 0.5342
H70 H 0.1045 0.5319 0.5067
C42 C 0.09411(14) 0.52830(12) 0.57182(14)
H71 H 0.0971 0.5455 0.5972
H72 H 0.0653 0.5197 0.5699
C43 C 0.39144(15) 0.55000(13) 0.49595(15)
H73 H 0.4024 0.5295 0.5151
H74 H 0.3628 0.5552 0.5045
C44 C 0.39258(17) 0.53605(14) 0.45026(16)
H75 H 0.3818 0.5567 0.4310
H76 H 0.4212 0.5306 0.4418
C45 C 0.26502(14) 0.34829(13) 0.49800(14)
H77 H 0.2577 0.3252 0.4805
H78 H 0.2570 0.3720 0.4818
C46 C 0.24226(14) 0.34703(13) 0.54085(14)
H79 H 0.2514 0.3243 0.5580
H80 H 0.2479 0.3710 0.5576
C47 C 0.30299(16) 0.47300(13) 0.67634(15)
H81 H 0.3297 0.4642 0.6877
H82 H 0.2868 0.4828 0.7010
C48 C 0.2821(4) 0.4396(3) 0.6580(3)
H83 H 0.3018 0.4232 0.6421
H84 H 0.2610 0.4487 0.6375
O41? O 0.3876(4) 0.4572(5) 0.5255(5)
O42? O 0.3419(4) 0.4115(3) 0.5517(3)
O43? O 0.3628(3) 0.4677(4) 0.5923(3)
O44? O 0.3220(4) 0.4759(3) 0.5280(4)
O45? O 0.0561(5) 0.4234(5) 0.4844(5)
O46? O 0.0613(6) 0.4873(5) 0.4775(7)
O47? O 0.2613(3) 0.2923(4) 0.7406(3)
O48? O 0.2556(2) 0.3264(3) 0.7222(3)
O49? O 0.1551(4) 0.4915(4) 0.7511(4)
O50? O 0.1927(3) 0.6966(2) 0.6002(3)
O51? O 0.2981(7) 0.3509(6) 0.6333(6)
O52? O 0.2968(5) 0.5525(4) 0.5279(5)
O53? O 0.2765(2) 0.54500(18) 0.51810(18)
O54? O 0.1175(3) 0.3747(3) 0.3933(4)
O55? O 0.1570(4) 0.5307(4) 0.7071(3)
O56? O 0.2680(5) 0.5794(4) 0.4554(5)
O57? O 0.3327(2) 0.28226(19) 0.5515(2)
O58? O 0.3278(3) 0.3025(3) 0.5732(4)
O59? O 0.0976(3) 0.3518(3) 0.5101(4)
O60? O 0.23962(17) 0.49839(17) 0.45538(17)
O61? O 0.2132(6) 0.5158(5) 0.4782(5)
O62? O 0.2375(6) 0.6192(10) 0.7044(11)
O63? O 0.2651(4) 0.6492(4) 0.3419(4)
O64? O 0.2271(4) 0.5113(4) 0.7499(5)
O65? O 0.2199(6) 0.5376(7) 0.7272(6)
O66? O 0.3891(4) 0.6529(5) 0.4608(6)
O67? O 0.3768(6) 0.6490(6) 0.4656(8)
H85? H 0.2714 0.3951 0.6775
H86? H 0.2770 0.4178 0.7178
H87? H 0.3256 0.4540 0.6739
H88? H 0.3027 0.4831 0.7062
C49? C 0.2638(3) 0.4532(3) 0.6673(3)
H89? H 0.2617 0.4472 0.6362
H90? H 0.2408 0.4704 0.6753
S6? S 0.0000 0.5000 0.65287(4)
O68? O 0.0371(2) 0.5235(2) 0.6639(2)
O69? O -0.0345(2) 0.5136(2) 0.6784(3)
O70? O 0.0082(2) 0.45906(18) 0.6637(2)
O71? O 0.0000 0.5000 0.60535(17)
S7? S 0.2500 0.2500 0.63230(5)
O72? O 0.2595(3) 0.2101(2) 0.6342(3)
O73? O 0.2337(3) 0.2643(3) 0.6743(3)
O74? O 0.2189(2) 0.2584(2) 0.5996(3)
O75? O 0.2864(2) 0.2743(2) 0.6232(3)
O76? O 0.0151(3) 0.5100(3) 0.4299(3)
O77? O 0.2407(3) 0.7436(3) 0.5278(3)
O78? O 0.4895(4) 0.5116(3) 0.5570(3)

#END

