
#######################################################################
#
#                 Cambridge Crystallographic Data Centre
#                                CCDC 
#
#######################################################################
#
# If this CIF has been generated directly or indirectly from an entry in the 
# Cambridge Structural Database, then it will include bibliographic, chemical, 
# crystal, experimental, refinement or atomic coordinate data resulting from 
# the CCDC's data processing and validation procedures. Files generated from 
# CSD entries are Copyright 2015 Cambridge Crystallographic Data Centre. They 
# may be used in bona fide research applications only, and may not be copied or 
# further disseminated in any form, whether machine-readable or not, except for 
# the purposes of generating routine backup copies on your local computer 
# system.
# 
# Files arising from any other source may also contain material that is the 
# copyright of third parties, including the originator, and you should check 
# with the originator concerning the permitted uses of the information 
# contained in this CIF.
#
# For further information on the CCDC and the free tools enCIFer and Mercury
# for validating and visualising CIF files, please visit www.ccdc.cam.ac.uk
#
#######################################################################

data_OZECAY
_audit_creation_date             2011-11-21
_database_code_depnum_ccdc_archive 'CCDC 819686'
_chemical_formula_moiety         'C66 H72 N12'
_chemical_name_systematic        
5,11,19,25,33,39,47,53,58,64,69,75-Dodeca-azatridecacyclo[27.27.9.9^15,43^.1^3,55^.1^13,17^.1^27,31^.1^41,45^.0^6,10^.0^20,24^.0^34,38^.0^48,52^.0^59,63^.0^70,74^]octaheptaconta-1,3(66),4,11,13(78),14,16,18,25,27(77),28,30,32,39,41(67),42,44,46,53,55,57,64,68,75-tetracosaene
_journal_coden_Cambridge         1220
_journal_volume                  17
_journal_year                    2011
_journal_page_first              10235
_journal_name_full               Chem.-Eur.J.
loop_
_publ_author_name
T.Mitra
'Xiaofeng Wu'
R.Clowes
J.T.A.Jones
K.E.Jelfs
D.J.Adams
A.Trewin
J.Bacsa
A.Steiner
A.I.Cooper
_chemical_absolute_configuration unk
_diffrn_ambient_temperature      293
_exptl_crystal_density_meas      0.935
_exptl_crystal_density_diffrn    0.935
#These two values have been output from a single CSD field.
_refine_ls_R_factor_gt           0.0673
_refine_ls_wR_factor_gt          0.0673
_diffrn_radiation_probe          x-ray
_symmetry_cell_setting           trigonal
_symmetry_space_group_name_H-M   'P 3'
_symmetry_Int_Tables_number      143
loop_
_symmetry_equiv_pos_site_id
_symmetry_equiv_pos_as_xyz
1 x,y,z
2 -y,x-y,z
3 -x+y,-x,z
_cell_length_a                   24.073(3)
_cell_length_b                   24.073(3)
_cell_length_c                   10.971(2)
_cell_angle_alpha                90
_cell_angle_beta                 90
_cell_angle_gamma                120
_cell_volume                     5506.01
_exptl_crystal_colour            colorless
_exptl_crystal_description       needle
_cell_formula_units_Z            3
loop_
_atom_site_label
_atom_site_type_symbol
_atom_site_fract_x
_atom_site_fract_y
_atom_site_fract_z
N1 N 0.5218(5) 0.3502(4) 0.2322(7)
N2 N 0.4511(5) 0.3473(5) 0.4687(8)
N3 N 0.4411(4) 0.2010(5) 0.9606(8)
N4 N 0.6174(5) 0.5096(6) 0.9341(8)
C1 C 0.6044(6) 0.3216(8) 0.2340(8)
C2 C 0.6166(6) 0.2715(6) 0.2361(8)
H1 H 0.5826 0.2295 0.2390
C3 C 0.5365(6) 0.3078(6) 0.2410(8)
H2 H 0.5039 0.2656 0.2524
C4 C 0.4992(6) 0.3704(7) 0.6664(10)
C5 C 0.4685(6) 0.3073(7) 0.7035(10)
H3 H 0.4415 0.2755 0.6493
C6 C 0.4769(6) 0.2897(6) 0.8200(10)
C7 C 0.5182(5) 0.3377(7) 0.8983(9)
H4 H 0.5251 0.3268 0.9760
C8 C 0.5496(6) 0.4015(7) 0.8640(10)
C9 C 0.5400(6) 0.4177(6) 0.7458(9)
H5 H 0.5612 0.4604 0.7212
C10 C 0.4904(7) 0.3883(6) 0.5411(10)
H6 H 0.5147 0.4308 0.5160
C11 C 0.4418(6) 0.2228(7) 0.8538(10)
H7 H 0.4178 0.1933 0.7935
C12 C 0.5923(6) 0.4513(8) 0.9527(10)
H8 H 0.6006 0.4379 1.0265
C13 C 0.4544(6) 0.3309(6) 0.2477(9)
H9 H 0.4293 0.2851 0.2667
C14 C 0.4456(5) 0.3694(6) 0.3465(9)
H10 H 0.4771 0.4151 0.3369
C15 C 0.3770(6) 0.3579(6) 0.3253(9)
H11 H 0.3459 0.3220 0.3736
H12 H 0.3746 0.3958 0.3465
C16 C 0.3651(6) 0.3435(7) 0.1901(10)
H13 H 0.3572 0.3749 0.1504
H14 H 0.3281 0.3012 0.1775
C17 C 0.4252(6) 0.3465(6) 0.1383(9)
H15 H 0.4545 0.3889 0.1065
H16 H 0.4145 0.3152 0.0738
C18 C 0.4071(6) 0.1338(6) 0.9829(10)
H17 H 0.3854 0.1113 0.9078
C19 C 0.3576(5) 0.1125(7) 1.0866(10)
H18 H 0.3748 0.1418 1.1551
H19 H 0.3187 0.1111 1.0589
C20 C 0.3443(8) 0.0457(8) 1.1226(14)
H20 H 0.3419 0.0409 1.2106
H21 H 0.3042 0.0130 1.0876
C21 C 0.3998(7) 0.0397(7) 1.0731(12)
H22 H 0.3859 0.0092 1.0065
H23 H 0.4183 0.0258 1.1364
C22 C 0.4485(6) 0.1070(6) 1.0288(10)
H24 H 0.4742 0.1328 1.0979
N1A N 0.6498 0.1716 0.2322
N1B N 0.8284 0.4782 0.2322
N2A N 0.6527 0.1038 0.4687
N2B N 0.8962 0.5489 0.4687
N3A N 0.799 0.2401 0.9606
N3B N 0.7599 0.5589 0.9606
N4A N 0.4904 0.1078 0.9341
N4B N 0.8922 0.3826 0.9341
C1A C 0.6784 0.2828 0.234
C1B C 0.7172 0.3956 0.234
C2A C 0.7285 0.3451 0.2361
C2B C 0.6549 0.3834 0.2361
H1A H 0.7705 0.3531 0.239
H1B H 0.6469 0.4174 0.239
C3A C 0.6922 0.2287 0.241
C3B C 0.7713 0.4635 0.241
H2A H 0.7344 0.2383 0.2524
H2B H 0.7617 0.4961 0.2524
C4A C 0.6296 0.1288 0.6664
C4B C 0.8712 0.5008 0.6664
C5A C 0.6927 0.1612 0.7035
C5B C 0.8388 0.5315 0.7035
H3A H 0.7245 0.166 0.6493
H3B H 0.834 0.5585 0.6493
C6A C 0.7103 0.1872 0.82
C6B C 0.8128 0.5231 0.82
C7A C 0.6623 0.1805 0.8983
C7B C 0.8195 0.4818 0.8983
H4A H 0.6732 0.1983 0.976
H4B H 0.8017 0.4749 0.976
C8A C 0.5985 0.1481 0.864
C8B C 0.8519 0.4504 0.864
C9A C 0.5823 0.1223 0.7458
C9B C 0.8777 0.46 0.7458
H5A H 0.5396 0.1008 0.7212
H5B H 0.8992 0.4388 0.7212
C10A C 0.6117 0.1021 0.5411
C10B C 0.8979 0.5096 0.5411
H6A H 0.5692 0.0839 0.516
H6B H 0.9161 0.4853 0.516
C11A C 0.7772 0.219 0.8538
C11B C 0.781 0.5582 0.8538
H7A H 0.8067 0.2245 0.7935
H7B H 0.7755 0.5822 0.7935
C12A C 0.5487 0.141 0.9527
C12B C 0.859 0.4077 0.9527
H8A H 0.5621 0.1627 1.0265
H8B H 0.8373 0.3994 1.0265
C13A C 0.6691 0.1235 0.2477
C13B C 0.8765 0.5456 0.2477
H9A H 0.7149 0.1442 0.2667
H9B H 0.8558 0.5707 0.2667
C14A C 0.6306 0.0762 0.3465
C14B C 0.9238 0.5544 0.3465
H10A H 0.5849 0.062 0.3369
H10B H 0.938 0.5229 0.3369
C15A C 0.6421 0.0191 0.3253
C15B C 0.9809 0.623 0.3253
H11A H 0.678 0.0239 0.3736
H11B H 0.9761 0.6541 0.3736
H12A H 0.6042 -0.0212 0.3465
H12B H 1.0212 0.6254 0.3465
C16A C 0.6565 0.0216 0.1901
C16B C 0.9784 0.6349 0.1901
H13A H 0.6251 -0.0177 0.1504
H13B H 1.0177 0.6428 0.1504
H14A H 0.6988 0.0269 0.1775
H14B H 0.9731 0.6719 0.1775
C17A C 0.6535 0.0787 0.1383
C17B C 0.9213 0.5748 0.1383
H15A H 0.6111 0.0656 0.1065
H15B H 0.9344 0.5455 0.1065
H16A H 0.6848 0.0993 0.0738
H16B H 0.9007 0.5855 0.0738
C18A C 0.8662 0.2733 0.9829
C18B C 0.7267 0.5929 0.9829
H17A H 0.8887 0.2741 0.9078
H17B H 0.7259 0.6146 0.9078
C19A C 0.8875 0.2451 1.0866
C19B C 0.7549 0.6424 1.0866
H18A H 0.8582 0.233 1.1551
H18B H 0.767 0.6252 1.1551
H19A H 0.8889 0.2076 1.0589
H19B H 0.7924 0.6813 1.0589
C20A C 0.9543 0.2986 1.1226
C20B C 0.7014 0.6557 1.1226
H20A H 0.9591 0.301 1.2106
H20B H 0.699 0.6581 1.2106
H21A H 0.987 0.2912 1.0876
H21B H 0.7088 0.6958 1.0876
C21A C 0.9603 0.3601 1.0731
C21B C 0.6399 0.6002 1.0731
H22A H 0.9908 0.3767 1.0065
H22B H 0.6233 0.6141 1.0065
H23A H 0.9742 0.3925 1.1364
H23B H 0.6075 0.5817 1.1364
C22A C 0.893 0.3415 1.0288
C22B C 0.6585 0.5515 1.0288
H24A H 0.8672 0.3414 1.0979
H24B H 0.6586 0.5258 1.0979
N5 N 0.1770(6) 0.0728(5) 0.4583(7)
N6 N 0.2597(5) 0.1223(5) 0.6900(8)
N7 N 0.1553(5) -0.0623(5) 1.1664(8)
N8 N 0.0270(5) -0.1847(4) 1.1912(8)
C23 C 0.0669(7) 0.0440(8) 0.4714(9)
C24 C 0.0423(8) -0.0232(9) 0.4719(8)
H25 H 0.0710 -0.0384 0.4727
C25 C 0.1356(7) 0.0899(6) 0.4731(9)
H26 H 0.1494 0.1330 0.4856
C26 C 0.2127(5) 0.0852(7) 0.8889(9)
C27 C 0.2151(5) 0.1422(6) 0.9243(9)
H27 H 0.2306 0.1767 0.8706
C28 C 0.1942(5) 0.1472(6) 1.0390(9)
C29 C 0.1704(6) 0.0938(7) 1.1151(9)
H28 H 0.1540 0.0959 1.1906
C30 C 0.1699(6) 0.0380(6) 1.0843(9)
C31 C 0.1906(5) 0.0332(6) 0.9693(10)
H29 H 0.1899 -0.0043 0.9455
C32 C 0.2330(6) 0.0765(6) 0.7649(10)
H30 H 0.2257 0.0362 0.7423
C33 C 0.1461(5) -0.0152(6) 1.1742(9)
H31 H 0.1229 -0.0137 1.2407
C34 C 0.0111(6) -0.1929(6) 1.0809(11)
H32 H 0.0370 -0.1983 1.0247
C35 C 0.2443(6) 0.1223(6) 0.4677(9)
H33 H 0.2484 0.1644 0.4813
C36 C 0.2772(6) 0.1060(6) 0.5709(9)
H34 H 0.2645 0.0605 0.5683
C37 C 0.3473(6) 0.1473(6) 0.5418(10)
H35 H 0.3722 0.1304 0.5792
H36 H 0.3634 0.1910 0.5694
C38 C 0.3494(6) 0.1443(7) 0.4040(12)
H37 H 0.3802 0.1860 0.3715
H38 H 0.3625 0.1137 0.3796
C39 C 0.2843(6) 0.1240(7) 0.3562(10)
H39 H 0.2657 0.0820 0.3187
H40 H 0.2860 0.1544 0.2960
C40 C 0.1289(5) -0.1070(5) 1.2701(9)
H41 H 0.1028 -0.0952 1.3205
C41 C 0.0889(5) -0.1745(5) 1.2295(9)
H42 H 0.1099 -0.1837 1.1623
C42 C 0.0852(5) -0.2136(5) 1.3432(10)
H43 H 0.0442 -0.2297 1.3838
H44 H 0.0906 -0.2496 1.3212
C43 C 0.1399(6) -0.1670(7) 1.4256(11)
H45 H 0.1232 -0.1562 1.4966
H46 H 0.1654 -0.1856 1.4524
C44 C 0.1797(5) -0.1080(6) 1.3483(10)
H47 H 0.2018 -0.0697 1.3979
H48 H 0.2108 -0.1126 1.2994
N5A N -0.0728 0.1042 0.4583
N5B N -0.1042 -0.177 0.4583
N6A N -0.1223 0.1374 0.69
N6B N -0.1374 -0.2597 0.69
N7A N 0.0623 0.2176 1.1664
N7B N -0.2176 -0.1553 1.1664
N8A N 0.1847 0.2117 1.1912
N8B N -0.2117 -0.027 1.1912
C23A C -0.044 0.0229 0.4714
C23B C -0.0229 -0.0669 0.4714
C24A C 0.0232 0.0655 0.4719
C24B C -0.0655 -0.0423 0.4719
H25A H 0.0384 0.1094 0.4727
H25B H -0.1094 -0.071 0.4727
C25A C -0.0899 0.0457 0.4731
C25B C -0.0457 -0.1356 0.4731
H26A H -0.133 0.0164 0.4856
H26B H -0.0164 -0.1494 0.4856
C26A C -0.0852 0.1275 0.8889
C26B C -0.1275 -0.2127 0.8889
C27A C -0.1422 0.0729 0.9243
C27B C -0.0729 -0.2151 0.9243
H27A H -0.1767 0.0539 0.8706
H27B H -0.0539 -0.2306 0.8706
C28A C -0.1472 0.047 1.039
C28B C -0.047 -0.1942 1.039
C29A C -0.0938 0.0766 1.1151
C29B C -0.0766 -0.1704 1.1151
H28A H -0.0959 0.0581 1.1906
H28B H -0.0581 -0.154 1.1906
C30A C -0.038 0.1319 1.0843
C30B C -0.1319 -0.1699 1.0843
C31A C -0.0332 0.1574 0.9693
C31B C -0.1574 -0.1906 0.9693
H29A H 0.0043 0.1942 0.9455
H29B H -0.1942 -0.1899 0.9455
C32A C -0.0765 0.1565 0.7649
C32B C -0.1565 -0.233 0.7649
H30A H -0.0362 0.1895 0.7423
H30B H -0.1895 -0.2257 0.7423
C33A C 0.0152 0.1613 1.1742
C33B C -0.1613 -0.1461 1.1742
H31A H 0.0137 0.1366 1.2407
H31B H -0.1366 -0.1229 1.2407
C34A C 0.1929 0.204 1.0809
C34B C -0.204 -0.0111 1.0809
H32A H 0.1983 0.2353 1.0247
H32B H -0.2353 -0.037 1.0247
C35A C -0.1223 0.122 0.4677
C35B C -0.122 -0.2443 0.4677
H33A H -0.1644 0.084 0.4813
H33B H -0.084 -0.2484 0.4813
C36A C -0.106 0.1712 0.5709
C36B C -0.1712 -0.2772 0.5709
H34A H -0.0605 0.204 0.5683
H34B H -0.204 -0.2645 0.5683
C37A C -0.1473 0.2 0.5418
C37B C -0.2 -0.3473 0.5418
H35A H -0.1304 0.2418 0.5792
H35B H -0.2418 -0.3722 0.5792
H36A H -0.191 0.1724 0.5694
H36B H -0.1724 -0.3634 0.5694
C38A C -0.1443 0.2051 0.404
C38B C -0.2051 -0.3494 0.404
H37A H -0.186 0.1942 0.3715
H37B H -0.1942 -0.3802 0.3715
H38A H -0.1137 0.2488 0.3796
H38B H -0.2488 -0.3625 0.3796
C39A C -0.124 0.1603 0.3562
C39B C -0.1603 -0.2843 0.3562
H39A H -0.082 0.1837 0.3187
H39B H -0.1837 -0.2657 0.3187
H40A H -0.1544 0.1316 0.296
H40B H -0.1316 -0.286 0.296
C40A C 0.107 0.2359 1.2701
C40B C -0.2359 -0.1289 1.2701
H41A H 0.0952 0.198 1.3205
H41B H -0.198 -0.1028 1.3205
C41A C 0.1745 0.2634 1.2295
C41B C -0.2634 -0.0889 1.2295
H42A H 0.1837 0.2936 1.1623
H42B H -0.2936 -0.1099 1.1623
C42A C 0.2136 0.2988 1.3432
C42B C -0.2988 -0.0852 1.3432
H43A H 0.2297 0.2739 1.3838
H43B H -0.2739 -0.0442 1.3838
H44A H 0.2496 0.3402 1.3212
H44B H -0.3402 -0.0906 1.3212
C43A C 0.167 0.3069 1.4256
C43B C -0.3069 -0.1399 1.4256
H45A H 0.1562 0.2794 1.4966
H45B H -0.2794 -0.1232 1.4966
H46A H 0.1856 0.351 1.4524
H46B H -0.351 -0.1654 1.4524
C44A C 0.108 0.2877 1.3483
C44B C -0.2877 -0.1797 1.3483
H47A H 0.0697 0.2715 1.3979
H47B H -0.2715 -0.2018 1.3979
H48A H 0.1126 0.3234 1.2994
H48B H -0.3234 -0.2108 1.2994
N9 N 0.3187(5) 0.5071(6) -0.2645(7)
N10 N 0.3205(5) 0.4374(5) -0.0322(8)
N11 N 0.1618(6) 0.4497(5) 0.4348(9)
N12 N 0.4637(6) 0.5689(5) 0.4619(9)
C45 C 0.3451(10) 0.6166(8) -0.2553(9)
C46 C 0.2822(8) 0.6046(7) -0.2550(8)
H49 H 0.2480 0.5627 -0.2546
C47 C 0.3600(6) 0.5654(8) -0.2513(9)
H50 H 0.4024 0.5762 -0.2384
C48 C 0.2986(8) 0.4682(6) 0.1602(10)
C49 C 0.3610(8) 0.4986(7) 0.1975(11)
H51 H 0.3922 0.5022 0.1428
C50 C 0.3800(7) 0.5243(6) 0.3116(11)
C51 C 0.3323(8) 0.5186(6) 0.3935(11)
H52 H 0.3436 0.5351 0.4720
C52 C 0.2686(7) 0.4884(6) 0.3575(11)
C53 C 0.2505(6) 0.4613(5) 0.2409(10)
H53 H 0.2076 0.4393 0.2177
C54 C 0.2789(6) 0.4389(5) 0.0379(10)
H54 H 0.2366 0.4218 0.0122
C55 C 0.4472(7) 0.5558(6) 0.3515(13)
H55 H 0.4790 0.5665 0.2931
C56 C 0.2211(8) 0.4843(7) 0.4480(11)
H56 H 0.2362 0.5088 0.5186
C57 C 0.3373(6) 0.4588(5) -0.2528(9)
H57 H 0.3828 0.4794 -0.2312
C58 C 0.2968(6) 0.4089(5) -0.1535(9)
H58 H 0.2509 0.3937 -0.1629
C59 C 0.3122(7) 0.3561(6) -0.1788(11)
H59 H 0.2783 0.3153 -0.1483
H60 H 0.3522 0.3656 -0.1401
C60 C 0.3176(7) 0.3540(7) -0.3173(11)
H61 H 0.3548 0.3506 -0.3397
H62 H 0.2796 0.3177 -0.3511
C61 C 0.3244(7) 0.4155(6) -0.3632(10)
H63 H 0.2853 0.4077 -0.4040
H64 H 0.3596 0.4356 -0.4206
C62 C 0.5325(8) 0.6050(8) 0.4852(12)
H65 H 0.5568 0.6086 0.4112
C63 C 0.5529(8) 0.5779(8) 0.5898(14)
H66 H 0.5186 0.5573 0.6490
H67 H 0.5640 0.5467 0.5601
C64 C 0.6100(9) 0.6339(9) 0.6456(16)
H68 H 0.6481 0.6307 0.6323
H69 H 0.6038 0.6353 0.7327
C65 C 0.1214(6) 0.4498(6) 0.5341(10)
H70 H 0.1475 0.4793 0.5990
C66 C 0.0759(8) 0.3830(7) 0.5857(12)
H71 H 0.0586 0.3513 0.5211
H72 H 0.0977 0.3705 0.6444
N9A N 0.4929 0.8116 -0.2645
N9B N 0.1884 0.6813 -0.2645
N10A N 0.5626 0.8831 -0.0322
N10B N 0.1169 0.6795 -0.0322
N11A N 0.5503 0.7121 0.4348
N11B N 0.2879 0.8382 0.4348
N12A N 0.4311 0.8948 0.4619
N12B N 0.1052 0.5363 0.4619
C45A C 0.3834 0.7285 -0.2553
C45B C 0.2715 0.6549 -0.2553
C46A C 0.3954 0.6776 -0.255
C46B C 0.3224 0.7178 -0.255
H49A H 0.4373 0.6853 -0.2546
H49B H 0.3147 0.752 -0.2546
C47A C 0.4346 0.7946 -0.2513
C47B C 0.2054 0.64 -0.2513
H50A H 0.4238 0.8262 -0.2384
H50B H 0.1738 0.5976 -0.2384
C48A C 0.5318 0.8304 0.1602
C48B C 0.1696 0.7014 0.1602
C49A C 0.5014 0.8624 0.1975
C49B C 0.1376 0.639 0.1975
H51A H 0.4978 0.89 0.1428
H51B H 0.11 0.6078 0.1428
C50A C 0.4757 0.8557 0.3116
C50B C 0.1443 0.62 0.3116
C51A C 0.4814 0.8137 0.3935
C51B C 0.1863 0.6677 0.3935
H52A H 0.4649 0.8085 0.472
H52B H 0.1915 0.6564 0.472
C52A C 0.5116 0.7802 0.3575
C52B C 0.2198 0.7314 0.3575
C53A C 0.5387 0.7892 0.2409
C53B C 0.2108 0.7495 0.2409
H53A H 0.5607 0.7683 0.2177
H53B H 0.2317 0.7924 0.2177
C54A C 0.5611 0.84 0.0379
C54B C 0.16 0.7211 0.0379
H54A H 0.5782 0.8148 0.0122
H54B H 0.1852 0.7634 0.0122
C55A C 0.4442 0.8914 0.3515
C55B C 0.1086 0.5528 0.3515
H55A H 0.4335 0.9125 0.2931
H55B H 0.0875 0.521 0.2931
C56A C 0.5157 0.7368 0.448
C56B C 0.2632 0.7789 0.448
H56A H 0.4912 0.7274 0.5186
H56B H 0.2726 0.7638 0.5186
C57A C 0.5412 0.8785 -0.2528
C57B C 0.1215 0.6627 -0.2528
H57A H 0.5206 0.9034 -0.2312
H57B H 0.0966 0.6172 -0.2312
C58A C 0.5911 0.8879 -0.1535
C58B C 0.1121 0.7032 -0.1535
H58A H 0.6063 0.8572 -0.1629
H58B H 0.1428 0.7491 -0.1629
C59A C 0.6439 0.9561 -0.1788
C59B C 0.0439 0.6878 -0.1788
H59A H 0.6847 0.963 -0.1483
H59B H 0.037 0.7217 -0.1483
H60A H 0.6344 0.9866 -0.1401
H60B H 0.0134 0.6478 -0.1401
C60A C 0.646 0.9636 -0.3173
C60B C 0.0364 0.6824 -0.3173
H61A H 0.6494 1.0042 -0.3397
H61B H -0.0042 0.6452 -0.3397
H62A H 0.6823 0.9619 -0.3511
H62B H 0.0381 0.7204 -0.3511
C61A C 0.5845 0.9089 -0.3632
C61B C 0.0911 0.6756 -0.3632
H63A H 0.5923 0.8776 -0.404
H63B H 0.1224 0.7147 -0.404
H64A H 0.5644 0.924 -0.4206
H64B H 0.076 0.6404 -0.4206
C62A C 0.395 0.9275 0.4852
C62B C 0.0725 0.4675 0.4852
H65A H 0.3914 0.9482 0.4112
H65B H 0.0518 0.4432 0.4112
C63A C 0.4221 0.975 0.5898
C63B C 0.025 0.4471 0.5898
H66A H 0.4427 0.9613 0.649
H66B H 0.0387 0.4814 0.649
H67A H 0.4533 1.0173 0.5601
H67B H -0.0173 0.436 0.5601
C64A C 0.3661 0.9761 0.6456
C64B C 0.0239 0.39 0.6456
H68A H 0.3693 1.0174 0.6323
H68B H -0.0174 0.3519 0.6323
H69A H 0.3647 0.9685 0.7327
H69B H 0.0315 0.3962 0.7327
C65A C 0.5502 0.6716 0.5341
C65B C 0.3284 0.8786 0.5341
H70A H 0.5207 0.6682 0.599
H70B H 0.3318 0.8525 0.599
C66A C 0.617 0.6929 0.5857
C66B C 0.3071 0.9241 0.5857
H71A H 0.6487 0.7073 0.5211
H71B H 0.2927 0.9414 0.5211
H72A H 0.6295 0.7272 0.6444
H72B H 0.2728 0.9023 0.6444

#END

