####################################################################### 
# 
# This file contains crystal structure data downloaded from the 
# Cambridge Structural Database (CSD) hosted by the Cambridge 
# Crystallographic Data Centre (CCDC).
# 
# Full information about CCDC data access policies and citation 
# guidelines are available at http://www.ccdc.cam.ac.uk/access/V1 
# 
# Audit and citation data items may have been added by the CCDC. 
# Please retain this information to preserve the provenance of 
# this file and to allow appropriate attribution of the data. 
# 
#######################################################################

data_oc1_sqd
_audit_block_doi                 10.5517/cc1j5bqr
_database_code_depnum_ccdc_archive 'CCDC 1405314'
_audit_update_record             
;
2015-06-08 deposited with the CCDC.
2015-08-25 downloaded from the CCDC.
;

_audit_creation_method           SHELXL-2014/7
_shelx_SHELXL_version_number     2014/7
_chemical_name_systematic        ?
_chemical_name_common            ?
_chemical_melting_point          ?
_chemical_formula_moiety         'C336 H276 N56'
_chemical_formula_sum            'C336 H276 N56'
_chemical_formula_weight         5098.11

loop_
_atom_type_symbol
_atom_type_description
_atom_type_scat_dispersion_real
_atom_type_scat_dispersion_imag
_atom_type_scat_source
C C 0.0060 0.0030 'International Tables Vol C Tables 4.2.6.8 and 6.1.1.4'
H H 0.0000 0.0000 'International Tables Vol C Tables 4.2.6.8 and 6.1.1.4'
N N 0.0110 0.0060 'International Tables Vol C Tables 4.2.6.8 and 6.1.1.4'

_space_group_crystal_system      tetragonal
_space_group_IT_number           85
_space_group_name_H-M_alt        'P 4/n'
_space_group_name_Hall           '-P 4a'

_shelx_space_group_comment       
;
The symmetry employed for this shelxl refinement is uniquely defined
by the following loop, which should always be used as a source of
symmetry information in preference to the above space-group names.
They are only intended as comments.
;

loop_
_space_group_symop_operation_xyz
'x, y, z'
'-x+1/2, -y+1/2, z'
'-y+1/2, x, z'
'y, -x+1/2, z'
'-x, -y, -z'
'x-1/2, y-1/2, -z'
'y-1/2, -x, -z'
'-y, x-1/2, -z'

_cell_length_a                   29.926(4)
_cell_length_b                   29.926(4)
_cell_length_c                   22.380(5)
_cell_angle_alpha                90
_cell_angle_beta                 90
_cell_angle_gamma                90
_cell_volume                     20043(7)
_cell_formula_units_Z            2
_cell_measurement_temperature    300(2)
_cell_measurement_reflns_used    152001
_cell_measurement_theta_min      0.516
_cell_measurement_theta_max      33.749

_exptl_crystal_description       block
_exptl_crystal_colour            red
_exptl_crystal_density_meas      ?
_exptl_crystal_density_method    ?
_exptl_crystal_density_diffrn    0.845
_exptl_crystal_F_000             5368
_exptl_transmission_factor_min   ?
_exptl_transmission_factor_max   ?
_exptl_crystal_size_max          0.200
_exptl_crystal_size_mid          0.100
_exptl_crystal_size_min          0.100
_exptl_absorpt_coefficient_mu    0.090
_shelx_estimated_absorpt_T_min   0.982
_shelx_estimated_absorpt_T_max   0.991
_exptl_absorpt_correction_type   empirical
_exptl_absorpt_correction_T_min  0.982
_exptl_absorpt_correction_T_max  0.991
_exptl_absorpt_process_details   'HKL3000sm Scalepack'
_exptl_absorpt_special_details   ?
_diffrn_ambient_temperature      300(2)
_diffrn_radiation_wavelength     0.900
_diffrn_radiation_type           synchrotron
_diffrn_source                   'PLSII 2D bending magnet'
_diffrn_measurement_device_type  'ADSC Q210 CCD area detector'
_diffrn_measurement_method       'omega scan'
_diffrn_detector_area_resol_mean ?
_diffrn_reflns_number            27160
_diffrn_reflns_av_unetI/netI     0.0278
_diffrn_reflns_av_R_equivalents  0.0220
_diffrn_reflns_limit_h_min       -33
_diffrn_reflns_limit_h_max       33
_diffrn_reflns_limit_k_min       -23
_diffrn_reflns_limit_k_max       23
_diffrn_reflns_limit_l_min       -23
_diffrn_reflns_limit_l_max       23
_diffrn_reflns_theta_min         2.073
_diffrn_reflns_theta_max         30.000
_diffrn_reflns_theta_full        30.000
_diffrn_measured_fraction_theta_max 0.968
_diffrn_measured_fraction_theta_full 0.968
_diffrn_reflns_Laue_measured_fraction_max 0.968
_diffrn_reflns_Laue_measured_fraction_full 0.968
_diffrn_reflns_point_group_measured_fraction_max 0.968
_diffrn_reflns_point_group_measured_fraction_full 0.968
_reflns_number_total             13945
_reflns_number_gt                5673
_reflns_threshold_expression     'I > 2\s(I)'
_reflns_Friedel_coverage         0.000
_reflns_Friedel_fraction_max     .
_reflns_Friedel_fraction_full    .

_reflns_special_details          
;
 Reflections were merged by SHELXL according to the crystal
 class for the calculation of statistics and refinement.
 
 _reflns_Friedel_fraction is defined as the number of unique
 Friedel pairs measured divided by the number that would be
 possible theoretically, ignoring centric projections and
 systematic absences.
;

_computing_data_collection       
'PAL ADSC Quantum-210 ADX Program (Arvai & Nielsen, 1983)'
_computing_cell_refinement       'HKL3000sm(Otwinowski & Minor, 1997)'
_computing_data_reduction        'HKL3000sm(Otwinowski & Minor, 1997)'
_computing_structure_solution    'SHELXT-2014/5 (Sheldrick, 2015a)'
_computing_structure_refinement  'SHELXL-2014/7 (Sheldrick, 2015b)'
_computing_molecular_graphics    'DIAMOND (Putz, Brandenburg, 2007)'
_computing_publication_material  'enCifer 1.5.1'
_refine_special_details          ?
_refine_ls_structure_factor_coef Fsqd
_refine_ls_matrix_type           full
_refine_ls_weighting_scheme      calc
_refine_ls_weighting_details     
'w=1/[\s^2^(Fo^2^)+(0.2000P)^2^] where P=(Fo^2^+2Fc^2^)/3'
_atom_sites_solution_primary     ?
_atom_sites_solution_secondary   ?
_atom_sites_solution_hydrogens   geom
_refine_ls_hydrogen_treatment    constr
_refine_ls_extinction_method     none
_refine_ls_extinction_coef       .
_refine_ls_number_reflns         13945
_refine_ls_number_parameters     883
_refine_ls_number_restraints     1
_refine_ls_R_factor_all          0.1980
_refine_ls_R_factor_gt           0.1536
_refine_ls_wR_factor_ref         0.4486
_refine_ls_wR_factor_gt          0.4179
_refine_ls_goodness_of_fit_ref   1.417
_refine_ls_restrained_S_all      1.417
_refine_ls_shift/su_max          0.000
_refine_ls_shift/su_mean         0.000

loop_
_atom_site_label
_atom_site_type_symbol
_atom_site_fract_x
_atom_site_fract_y
_atom_site_fract_z
_atom_site_U_iso_or_equiv
_atom_site_adp_type
_atom_site_occupancy
_atom_site_site_symmetry_order
_atom_site_calc_flag
_atom_site_refinement_flags_posn
_atom_site_refinement_flags_adp
_atom_site_refinement_flags_occupancy
_atom_site_disorder_assembly
_atom_site_disorder_group
C1 C 0.93367(19) 0.5567(2) 0.2487(4) 0.1497(18) Uani 1 1 d . . . . .
C2 C 0.9415(2) 0.5773(3) 0.3004(4) 0.162(2) Uani 1 1 d . . . . .
C3 C 0.95954(19) 0.6186(2) 0.3079(4) 0.1491(18) Uani 1 1 d . . . . .
C4 C 0.96873(19) 0.6402(3) 0.3633(3) 0.1488(17) Uani 1 1 d . . . . .
H4 H 0.9631 0.6287 0.4012 0.179 Uiso 1 1 calc R U . . .
C5 C 0.9870(2) 0.6799(3) 0.3510(4) 0.162(2) Uani 1 1 d . . . . .
H5 H 0.9962 0.7008 0.3791 0.195 Uiso 1 1 calc R U . . .
C6 C 0.99002(18) 0.6849(2) 0.2898(3) 0.1308(15) Uani 1 1 d . . . . .
C7 C 1.00825(18) 0.7210(2) 0.2608(4) 0.1411(16) Uani 1 1 d . . . . .
C8 C 1.0102(2) 0.7267(2) 0.2003(4) 0.1482(18) Uani 1 1 d . . . . .
C9 C 1.0313(2) 0.7641(2) 0.1663(4) 0.170(2) Uani 1 1 d . . . . .
H9 H 1.0453 0.7890 0.1827 0.204 Uiso 1 1 calc R U . . .
C10 C 1.0265(2) 0.7556(2) 0.1103(4) 0.166(2) Uani 1 1 d . . . . .
H10 H 1.0356 0.7744 0.0794 0.199 Uiso 1 1 calc R U . . .
C11 C 1.0061(2) 0.7149(3) 0.1025(4) 0.166(2) Uani 1 1 d . . . . .
C12 C 0.9973(2) 0.6928(2) 0.0462(3) 0.1547(18) Uani 1 1 d . . . . .
C13 C 0.9776(2) 0.6502(3) 0.0418(4) 0.161(2) Uani 1 1 d . . . . .
C14 C 0.9677(3) 0.6311(3) -0.0180(4) 0.192(3) Uani 1 1 d . . . . .
H14 H 0.9726 0.6430 -0.0558 0.231 Uiso 1 1 calc R U . . .
C15 C 0.9491(2) 0.5905(3) -0.0018(5) 0.189(3) Uani 1 1 d . . . . .
H15 H 0.9398 0.5691 -0.0292 0.227 Uiso 1 1 calc R U . . .
C16 C 0.9460(2) 0.5852(3) 0.0584(4) 0.155(2) Uani 1 1 d . . . . .
C17 C 0.9300(2) 0.5487(3) 0.0873(4) 0.1559(19) Uani 1 1 d . . . . .
C18 C 0.9276(2) 0.5431(3) 0.1475(5) 0.171(2) Uani 1 1 d . . . . .
C19 C 0.9111(3) 0.5059(3) 0.1772(4) 0.188(3) Uani 1 1 d . . . . .
H19 H 0.8996 0.4806 0.1586 0.226 Uiso 1 1 calc R U . . .
C20 C 0.9141(3) 0.5117(3) 0.2362(5) 0.195(3) Uani 1 1 d . . . . .
H20 H 0.9054 0.4910 0.2650 0.235 Uiso 1 1 calc R U . . .
C21 C 1.0322(2) 0.7559(2) 0.2974(3) 0.1475(17) Uani 1 1 d . . . . .
C22 C 1.0700(2) 0.7455(2) 0.3258(3) 0.163(2) Uani 1 1 d . . . . .
H22 H 1.0804 0.7162 0.3249 0.196 Uiso 1 1 calc R U . . .
C23 C 1.0946(2) 0.7783(3) 0.3573(4) 0.194(3) Uani 1 1 d . . . . .
H23 H 1.1226 0.7716 0.3729 0.233 Uiso 1 1 calc R U . . .
C24 C 1.0763(3) 0.8210(2) 0.3646(3) 0.161(2) Uani 1 1 d . . . . .
C25 C 1.0360(3) 0.8284(2) 0.3422(3) 0.164(2) Uani 1 1 d . . . . .
H25 H 1.0226 0.8559 0.3494 0.197 Uiso 1 1 calc R U . . .
C26 C 1.0134(2) 0.7980(3) 0.3093(3) 0.170(2) Uani 1 1 d . . . . .
H26 H 0.9852 0.8050 0.2945 0.204 Uiso 1 1 calc R U . . .
C27 C 1.1012(3) 0.8542(3) 0.3979(3) 0.188(2) Uani 1 1 d . . . . .
H27 H 1.0879 0.8820 0.4041 0.226 Uiso 1 1 calc R U . . .
C28 C 1.1628(3) 0.8876(3) 0.4470(5) 0.233(4) Uani 1 1 d . . . . .
H28A H 1.1424 0.9128 0.4480 0.279 Uiso 1 1 calc R U . . .
H28B H 1.1896 0.8960 0.4255 0.279 Uiso 1 1 calc R U . . .
C29 C 1.0157(3) 0.7149(2) -0.0097(3) 0.168(2) Uani 1 1 d . . . . .
C30 C 1.0577(3) 0.7108(3) -0.0275(4) 0.205(3) Uani 1 1 d . . . . .
H30 H 1.0774 0.6942 -0.0044 0.246 Uiso 1 1 calc R U . . .
C31 C 1.0732(3) 0.7309(3) -0.0804(4) 0.197(3) Uani 1 1 d . . . . .
H31 H 1.1030 0.7278 -0.0917 0.237 Uiso 1 1 calc R U . . .
C32 C 1.0446(4) 0.7547(2) -0.1148(4) 0.169(2) Uani 1 1 d . . . . .
C33 C 1.0023(4) 0.7591(3) -0.1009(4) 0.191(3) Uani 1 1 d . . . . .
H33 H 0.9830 0.7746 -0.1259 0.229 Uiso 1 1 calc R U . . .
C34 C 0.9870(3) 0.7402(3) -0.0481(5) 0.204(3) Uani 1 1 d . . . . .
H34 H 0.9573 0.7441 -0.0373 0.245 Uiso 1 1 calc R U . . .
C35 C 1.0600(4) 0.7762(3) -0.1714(5) 0.202(3) Uani 1 1 d . . . . .
H35 H 1.0401 0.7917 -0.1955 0.242 Uiso 1 1 calc R U . . .
C36 C 1.1149(4) 0.7931(3) -0.2429(5) 0.232(4) Uani 1 1 d . . . . .
H36A H 1.1264 0.7699 -0.2690 0.279 Uiso 1 1 calc R U . . .
H36B H 1.0899 0.8073 -0.2627 0.279 Uiso 1 1 calc R U . . .
C37 C 0.9138(3) 0.5108(2) 0.0508(3) 0.168(2) Uani 1 1 d . . . . .
C38 C 0.9433(3) 0.4775(3) 0.0257(4) 0.214(3) Uani 1 1 d . . . . .
H38 H 0.9739 0.4799 0.0320 0.256 Uiso 1 1 calc R U . . .
C39 C 0.9273(4) 0.4435(3) -0.0063(4) 0.213(3) Uani 1 1 d . . . . .
H39 H 0.9471 0.4220 -0.0202 0.255 Uiso 1 1 calc R U . . .
C40 C 0.8829(3) 0.4390(3) -0.0195(3) 0.171(2) Uani 1 1 d . . . . .
C41 C 0.8541(3) 0.4705(3) -0.0012(3) 0.177(2) Uani 1 1 d . . . . .
H41 H 0.8241 0.4691 -0.0122 0.212 Uiso 1 1 calc R U . . .
C42 C 0.8700(3) 0.5064(2) 0.0354(3) 0.179(2) Uani 1 1 d . . . . .
H42 H 0.8497 0.5275 0.0493 0.215 Uiso 1 1 calc R U . . .
C44 C 0.8713(5) 0.3313(3) -0.1082(8) 0.300(8) Uani 1 1 d . . . . .
H44A H 0.8389 0.3326 -0.1102 0.361 Uiso 1 1 calc R U . . .
H44B H 0.8793 0.3027 -0.0908 0.361 Uiso 1 1 calc R U . . .
C45 C 0.8902(5) 0.3337(5) -0.1721(7) 0.259(5) Uani 1 1 d . . . . .
H45A H 0.9218 0.3405 -0.1707 0.310 Uiso 1 1 calc R U . . .
H45B H 0.8865 0.3050 -0.1917 0.310 Uiso 1 1 calc R U . . .
C46 C 0.8995(4) 0.3799(4) -0.2444(5) 0.255(4) Uani 1 1 d D . . . .
H46A H 0.8837 0.3862 -0.2813 0.306 Uiso 1 1 calc R U . . .
H46B H 0.9189 0.3547 -0.2523 0.306 Uiso 1 1 calc R U . . .
C47 C 0.9293(3) 0.4198(4) -0.2314(5) 0.244(4) Uani 1 1 d . . . . .
H47A H 0.9435 0.4161 -0.1928 0.293 Uiso 1 1 calc R U . . .
H47B H 0.9525 0.4219 -0.2616 0.293 Uiso 1 1 calc R U . . .
C48 C 0.8993(3) 0.4798(3) -0.1857(6) 0.205(3) Uani 1 1 d . . . . .
H48 H 0.9136 0.4684 -0.1521 0.246 Uiso 1 1 calc R U . . .
C49 C 0.8719(3) 0.5242(3) -0.1768(6) 0.198(3) Uani 1 1 d . . . . .
C50 C 0.8716(3) 0.5459(3) -0.1256(5) 0.199(3) Uani 1 1 d . . . . .
H50 H 0.8861 0.5348 -0.0919 0.239 Uiso 1 1 calc R U . . .
C51 C 0.8477(3) 0.5877(3) -0.1247(4) 0.193(3) Uani 1 1 d . . . . .
H51 H 0.8475 0.6041 -0.0894 0.231 Uiso 1 1 calc R U . . .
C52 C 0.8256(3) 0.6044(3) -0.1725(5) 0.196(3) Uani 1 1 d . . . . .
C53 C 0.8248(4) 0.5787(4) -0.2281(5) 0.229(3) Uani 1 1 d . . . . .
H53 H 0.8085 0.5881 -0.2612 0.275 Uiso 1 1 calc R U . . .
C54 C 0.8498(4) 0.5394(4) -0.2288(5) 0.222(3) Uani 1 1 d . . . . .
H54 H 0.8519 0.5229 -0.2639 0.266 Uiso 1 1 calc R U . . .
C55 C 0.8029(4) 0.6494(3) -0.1730(3) 0.193(3) Uani 1 1 d . . . . .
C56 C 0.7562(4) 0.6461(3) -0.1722(4) 0.192(3) Uani 1 1 d . . . . .
C57 C 0.8667(3) 0.4000(3) -0.0552(3) 0.179(2) Uani 1 1 d . . . . .
H57 H 0.8373 0.4010 -0.0690 0.215 Uiso 1 1 calc R U . . .
C58 C 0.6874(4) 0.6237(3) -0.1711(4) 0.205(3) Uani 1 1 d . . . . .
H58 H 0.6623 0.6054 -0.1729 0.246 Uiso 1 1 calc R U . . .
C59 C 0.7290(4) 0.6087(3) -0.1689(4) 0.224(4) Uani 1 1 d . . . . .
H59 H 0.7381 0.5791 -0.1658 0.269 Uiso 1 1 calc R U . . .
C60 C 0.6858(4) 0.6704(3) -0.1704(4) 0.194(3) Uani 1 1 d . . . . .
C61 C 0.9341(3) 0.5492(2) 0.3568(3) 0.162(2) Uani 1 1 d . . . . .
C62 C 0.9611(2) 0.5151(3) 0.3733(4) 0.192(3) Uani 1 1 d . . . . .
H62 H 0.9852 0.5076 0.3491 0.230 Uiso 1 1 calc R U . . .
C63 C 0.9539(3) 0.4915(3) 0.4240(4) 0.194(3) Uani 1 1 d . . . . .
H63 H 0.9726 0.4678 0.4342 0.233 Uiso 1 1 calc R U . . .
C64 C 0.9172(3) 0.5035(3) 0.4618(3) 0.171(2) Uani 1 1 d . . . . .
C65 C 0.8909(2) 0.5383(2) 0.4504(3) 0.160(2) Uani 1 1 d . . . . .
H65 H 0.8685 0.5474 0.4765 0.192 Uiso 1 1 calc R U . . .
C66 C 0.8990(2) 0.5602(2) 0.3965(4) 0.171(2) Uani 1 1 d . . . . .
H66 H 0.8802 0.5837 0.3860 0.205 Uiso 1 1 calc R U . . .
C67 C 0.9110(2) 0.4781(3) 0.5173(4) 0.176(2) Uani 1 1 d . . . . .
H67 H 0.8889 0.4881 0.5433 0.211 Uiso 1 1 calc R U . . .
C68 C 0.9252(3) 0.4182(4) 0.5874(4) 0.208(3) Uani 1 1 d . . . . .
H68A H 0.9520 0.4196 0.6117 0.250 Uiso 1 1 calc R U . . .
H68B H 0.9014 0.4324 0.6098 0.250 Uiso 1 1 calc R U . . .
C69 C 0.9139(3) 0.3727(3) 0.5791(4) 0.206(3) Uani 1 1 d . . . . .
H69A H 0.9377 0.3584 0.5567 0.247 Uiso 1 1 calc R U . . .
H69B H 0.9125 0.3584 0.6180 0.247 Uiso 1 1 calc R U . . .
C70 C 0.7950(3) 0.3760(3) 0.5780(4) 0.222(3) Uani 1 1 d . . . . .
H70A H 0.7743 0.3637 0.6070 0.266 Uiso 1 1 calc R U . . .
H70B H 0.7860 0.3657 0.5388 0.266 Uiso 1 1 calc R U . . .
C71 C 0.7874(2) 0.4468(3) 0.5292(4) 0.181(2) Uani 1 1 d . . . . .
H71 H 0.7861 0.4298 0.4945 0.217 Uiso 1 1 calc R U . . .
C72 C 0.7838(2) 0.4946(2) 0.5241(4) 0.160(2) Uani 1 1 d . . . . .
C73 C 0.7724(2) 0.5147(3) 0.4740(3) 0.161(2) Uani 1 1 d . . . . .
H73 H 0.7676 0.4969 0.4405 0.193 Uiso 1 1 calc R U . . .
C74 C 0.7671(2) 0.5593(3) 0.4680(3) 0.167(2) Uani 1 1 d . . . . .
H74 H 0.7579 0.5717 0.4319 0.201 Uiso 1 1 calc R U . . .
C75 C 0.7758(2) 0.5861(2) 0.5176(5) 0.173(2) Uani 1 1 d . . . . .
C76 C 0.7896(3) 0.5671(3) 0.5704(4) 0.209(3) Uani 1 1 d . . . . .
H76 H 0.7964 0.5852 0.6029 0.251 Uiso 1 1 calc R U . . .
C77 C 0.7935(2) 0.5222(3) 0.5752(4) 0.192(3) Uani 1 1 d . . . . .
H77 H 0.8022 0.5093 0.6112 0.231 Uiso 1 1 calc R U . . .
C78 C 0.7665(3) 0.6384(2) 0.5131(3) 0.162(2) Uani 1 1 d . . . . .
C79 C 0.7241(3) 0.6520(3) 0.5131(3) 0.179(2) Uani 1 1 d . . . . .
C80 C 0.6852(3) 0.6211(2) 0.5142(3) 0.176(2) Uani 1 1 d . . . . .
H80 H 0.6850 0.5901 0.5157 0.211 Uiso 1 1 calc R U . . .
C81 C 0.8061(3) 0.6627(3) 0.5128(3) 0.163(2) Uani 1 1 d . . . . .
C82 C 0.8499(3) 0.6495(3) 0.5123(4) 0.203(3) Uani 1 1 d . . . . .
H82 H 0.8590 0.6198 0.5109 0.243 Uiso 1 1 calc R U . . .
C83 C 1.1497(3) 0.8261(4) -0.2312(4) 0.230(4) Uani 1 1 d . . . . .
H83A H 1.1644 0.8332 -0.2687 0.276 Uiso 1 1 calc R U . . .
H83B H 1.1719 0.8127 -0.2051 0.276 Uiso 1 1 calc R U . . .
C84 C 0.8705(4) 0.3258(3) 0.5127(6) 0.242(4) Uani 1 1 d . . . . .
H84A H 0.8395 0.3164 0.5113 0.291 Uiso 1 1 calc R U . . .
H84B H 0.8881 0.3016 0.5292 0.291 Uiso 1 1 calc R U . . .
C85 C 0.8392(5) 0.3595(3) 0.5908(7) 0.258(6) Uani 1 1 d . . . . .
H85A H 0.8484 0.3727 0.6284 0.310 Uiso 1 1 calc R U . . .
H85B H 0.8365 0.3276 0.5977 0.310 Uiso 1 1 calc R U . . .
N1 N 0.94043(16) 0.57338(18) 0.1907(3) 0.1588(16) Uani 1 1 d . . . . .
N2 N 0.97126(14) 0.64780(17) 0.2626(2) 0.1371(13) Uani 1 1 d . . . . .
H2 H 0.9676 0.6437 0.2249 0.165 Uiso 1 1 calc R U . . .
N3 N 0.99493(16) 0.69820(16) 0.1582(3) 0.1480(14) Uani 1 1 d . . . . .
N4 N 0.96395(17) 0.6234(2) 0.0821(3) 0.1620(16) Uani 1 1 d . . . . .
H4A H 0.9658 0.6287 0.1198 0.194 Uiso 1 1 calc R U . . .
N5 N 1.1412(3) 0.8474(2) 0.4197(3) 0.204(2) Uani 1 1 d . . . . .
N6 N 1.0998(4) 0.7730(2) -0.1857(3) 0.221(3) Uani 1 1 d . . . . .
N7 N 0.8878(3) 0.3684(3) -0.0672(3) 0.216(3) Uani 1 1 d . . . . .
N8 N 0.8682(3) 0.3659(3) -0.2036(4) 0.203(2) Uani 1 1 d D . . . .
N9 N 0.9037(3) 0.4590(3) -0.2315(5) 0.244(4) Uani 1 1 d . . . . .
N10 N 0.7286(3) 0.6863(2) -0.1694(3) 0.190(2) Uani 1 1 d . . . . .
H10A H 0.7373 0.7136 -0.1675 0.228 Uiso 0.5 1 calc R U P . .
N11 N 0.9329(2) 0.4439(3) 0.5332(3) 0.201(2) Uani 1 1 d . . . . .
N12 N 0.8748(3) 0.3654(3) 0.5504(4) 0.187(2) Uani 1 1 d . . . . .
N13 N 0.7924(2) 0.4262(2) 0.5798(4) 0.207(2) Uani 1 1 d . . . . .
N14 N 0.8061(2) 0.7094(2) 0.5116(2) 0.1708(17) Uani 1 1 d . . . . .
H14A H 0.7827 0.7260 0.5101 0.205 Uiso 0.5 1 calc R U P . .

loop_
_atom_site_aniso_label
_atom_site_aniso_U_11
_atom_site_aniso_U_22
_atom_site_aniso_U_33
_atom_site_aniso_U_23
_atom_site_aniso_U_13
_atom_site_aniso_U_12
C1 0.147(4) 0.142(5) 0.160(6) 0.014(5) 0.008(4) -0.018(3)
C2 0.162(5) 0.167(6) 0.157(6) -0.033(5) -0.007(4) -0.007(4)
C3 0.123(4) 0.130(5) 0.195(6) -0.013(5) -0.011(4) 0.012(3)
C4 0.156(4) 0.158(5) 0.133(5) -0.004(4) -0.001(3) -0.003(4)
C5 0.168(5) 0.144(5) 0.175(7) -0.017(4) -0.003(4) 0.004(4)
C6 0.139(4) 0.136(5) 0.117(5) -0.003(4) -0.002(3) 0.011(3)
C7 0.139(4) 0.132(4) 0.152(6) -0.020(4) -0.016(4) 0.013(3)
C8 0.163(5) 0.120(4) 0.161(6) 0.005(4) -0.014(4) -0.012(3)
C9 0.176(5) 0.162(6) 0.171(7) -0.003(4) -0.011(4) -0.026(4)
C10 0.209(6) 0.156(5) 0.131(5) 0.003(4) -0.006(4) -0.018(5)
C11 0.162(5) 0.156(5) 0.182(7) -0.005(5) -0.005(4) -0.030(4)
C12 0.176(5) 0.159(5) 0.129(5) 0.004(4) 0.002(4) -0.032(4)
C13 0.154(5) 0.167(6) 0.163(6) 0.021(5) 0.007(4) -0.014(4)
C14 0.194(6) 0.210(7) 0.173(6) -0.039(5) -0.010(5) -0.043(5)
C15 0.148(5) 0.188(7) 0.231(10) -0.015(6) -0.007(5) -0.035(5)
C16 0.166(5) 0.179(7) 0.120(5) -0.022(5) 0.004(4) -0.024(4)
C17 0.152(5) 0.174(6) 0.142(6) -0.014(5) 0.010(4) -0.016(4)
C18 0.158(5) 0.156(6) 0.199(9) 0.010(6) 0.008(5) -0.016(4)
C19 0.215(7) 0.176(7) 0.173(7) -0.043(5) 0.018(5) -0.035(5)
C20 0.211(7) 0.164(6) 0.211(8) 0.017(5) 0.020(5) -0.052(5)
C21 0.154(5) 0.138(5) 0.151(4) -0.018(3) -0.013(4) 0.006(4)
C22 0.139(4) 0.128(4) 0.222(6) -0.023(4) -0.042(4) 0.007(4)
C23 0.162(5) 0.187(6) 0.234(7) -0.051(5) -0.054(5) 0.036(5)
C24 0.156(5) 0.140(5) 0.188(5) -0.039(4) -0.018(4) -0.010(4)
C25 0.142(5) 0.156(5) 0.194(5) -0.021(4) -0.018(4) 0.004(4)
C26 0.146(5) 0.153(5) 0.211(6) -0.012(4) -0.023(4) 0.006(4)
C27 0.201(7) 0.179(6) 0.185(6) -0.014(5) 0.016(5) -0.024(6)
C28 0.170(6) 0.257(9) 0.270(10) -0.074(8) -0.030(6) -0.051(6)
C29 0.182(7) 0.166(5) 0.156(6) -0.002(4) -0.009(5) -0.001(5)
C30 0.166(7) 0.254(9) 0.194(7) 0.057(6) 0.012(6) 0.024(6)
C31 0.186(7) 0.226(7) 0.180(7) 0.032(6) 0.009(6) -0.008(6)
C32 0.191(7) 0.171(6) 0.146(6) 0.008(4) 0.008(6) 0.002(5)
C33 0.190(8) 0.192(7) 0.191(7) 0.033(5) 0.031(6) -0.006(6)
C34 0.163(6) 0.214(7) 0.237(9) 0.012(7) -0.005(7) -0.004(6)
C35 0.172(7) 0.222(8) 0.212(9) -0.009(6) 0.027(6) -0.012(6)
C36 0.281(10) 0.185(7) 0.231(9) -0.001(6) 0.054(8) -0.040(7)
C37 0.155(6) 0.158(5) 0.190(6) -0.019(4) 0.004(5) -0.032(5)
C38 0.169(6) 0.216(8) 0.256(8) -0.070(7) 0.009(6) -0.012(6)
C39 0.200(8) 0.189(7) 0.249(8) -0.071(6) -0.011(6) -0.004(6)
C40 0.172(6) 0.157(6) 0.184(6) -0.022(5) -0.010(5) -0.008(5)
C41 0.176(6) 0.168(6) 0.186(6) -0.034(5) 0.010(4) -0.010(5)
C42 0.168(6) 0.166(6) 0.204(6) -0.022(5) -0.003(5) -0.003(5)
C44 0.335(15) 0.149(6) 0.417(19) -0.036(9) -0.184(15) -0.008(7)
C45 0.261(11) 0.267(13) 0.247(12) -0.104(10) 0.015(9) 0.051(10)
C46 0.255(11) 0.235(11) 0.275(12) -0.086(9) 0.018(10) 0.045(9)
C47 0.210(8) 0.229(9) 0.294(11) -0.098(8) 0.028(7) 0.029(8)
C48 0.165(6) 0.188(8) 0.261(10) 0.005(7) 0.011(6) 0.015(5)
C49 0.176(6) 0.167(7) 0.252(10) 0.001(7) -0.023(6) 0.012(5)
C50 0.197(7) 0.178(7) 0.222(8) -0.050(6) 0.000(5) 0.022(6)
C51 0.189(6) 0.174(7) 0.215(8) -0.011(6) -0.015(6) -0.003(5)
C52 0.182(7) 0.176(7) 0.229(9) -0.005(7) 0.001(6) 0.013(6)
C53 0.279(10) 0.194(8) 0.214(9) -0.012(7) 0.017(7) 0.058(7)
C54 0.250(9) 0.196(8) 0.219(9) -0.004(6) 0.052(8) 0.032(7)
C55 0.176(8) 0.172(8) 0.230(8) 0.004(5) -0.013(5) 0.024(7)
C56 0.178(8) 0.148(6) 0.251(8) 0.024(5) 0.006(5) 0.002(6)
C57 0.185(6) 0.165(6) 0.186(6) -0.024(5) 0.000(4) -0.005(5)
C58 0.197(9) 0.168(8) 0.250(8) -0.005(5) -0.025(6) -0.017(6)
C59 0.164(7) 0.180(8) 0.330(12) 0.023(6) -0.023(6) -0.001(7)
C60 0.183(9) 0.160(7) 0.238(8) -0.005(5) 0.001(6) 0.011(7)
C61 0.175(6) 0.151(5) 0.161(6) 0.004(4) 0.019(5) -0.033(5)
C62 0.167(6) 0.166(6) 0.243(8) 0.044(6) 0.040(5) 0.039(5)
C63 0.185(7) 0.174(6) 0.223(8) 0.052(6) 0.019(6) 0.006(5)
C64 0.176(6) 0.169(6) 0.168(6) 0.041(5) 0.003(5) -0.005(5)
C65 0.167(5) 0.150(5) 0.164(5) 0.051(4) -0.009(4) -0.014(4)
C66 0.170(6) 0.134(4) 0.210(7) 0.000(5) 0.001(5) 0.012(4)
C67 0.157(5) 0.167(6) 0.203(7) 0.010(5) -0.008(5) 0.001(5)
C68 0.215(7) 0.240(10) 0.170(6) 0.057(6) -0.026(5) 0.019(7)
C69 0.198(8) 0.161(7) 0.259(9) 0.064(6) -0.029(7) -0.014(6)
C70 0.238(9) 0.156(7) 0.271(9) 0.056(6) -0.066(7) -0.008(6)
C71 0.154(5) 0.200(8) 0.189(7) 0.035(6) -0.021(4) 0.004(4)
C72 0.161(5) 0.129(5) 0.192(7) -0.012(5) -0.018(4) -0.010(4)
C73 0.166(5) 0.146(6) 0.171(6) 0.021(4) -0.036(4) -0.002(4)
C74 0.170(5) 0.147(6) 0.186(6) 0.008(5) -0.022(4) -0.001(4)
C75 0.143(5) 0.137(5) 0.240(8) -0.001(6) -0.012(5) -0.005(4)
C76 0.305(10) 0.163(7) 0.160(6) 0.005(5) -0.075(6) 0.001(6)
C77 0.192(6) 0.176(7) 0.209(8) 0.030(6) -0.036(5) 0.016(5)
C78 0.154(6) 0.140(5) 0.194(6) 0.004(4) -0.004(4) -0.004(5)
C79 0.156(6) 0.186(8) 0.197(6) 0.002(5) -0.013(4) 0.002(6)
C80 0.145(5) 0.144(5) 0.238(7) 0.003(4) -0.016(4) -0.008(5)
C81 0.128(5) 0.145(6) 0.215(6) 0.002(4) -0.009(4) 0.018(4)
C82 0.181(7) 0.167(6) 0.260(8) -0.023(5) 0.005(5) -0.002(6)
C83 0.240(9) 0.250(10) 0.200(8) -0.019(7) 0.058(6) 0.002(9)
C84 0.282(11) 0.173(8) 0.272(11) 0.073(8) -0.101(9) 0.036(7)
C85 0.249(11) 0.155(7) 0.371(16) 0.084(8) -0.120(12) -0.024(7)
N1 0.151(4) 0.150(4) 0.175(5) -0.030(4) -0.006(3) -0.011(3)
N2 0.145(3) 0.128(3) 0.138(3) 0.014(3) 0.006(2) -0.009(3)
N3 0.166(4) 0.137(3) 0.141(4) 0.014(3) 0.004(3) -0.006(3)
N4 0.164(4) 0.170(4) 0.152(4) -0.009(4) 0.007(3) -0.024(3)
N5 0.168(5) 0.208(6) 0.237(6) -0.045(4) -0.027(4) -0.012(4)
N6 0.288(10) 0.188(6) 0.187(6) 0.033(4) 0.008(6) -0.030(6)
N7 0.255(7) 0.176(5) 0.218(6) -0.059(5) -0.065(5) 0.032(5)
N8 0.208(7) 0.197(6) 0.205(7) -0.042(5) 0.010(6) 0.032(6)
N9 0.266(9) 0.211(7) 0.255(8) -0.067(6) -0.002(6) 0.031(6)
N10 0.162(5) 0.187(6) 0.220(6) 0.012(4) 0.010(4) -0.002(5)
N11 0.183(5) 0.206(6) 0.214(7) 0.026(5) -0.026(4) -0.023(5)
N12 0.198(7) 0.156(5) 0.208(6) 0.044(4) -0.029(5) 0.003(5)
N13 0.209(6) 0.183(6) 0.228(7) 0.019(5) -0.018(5) -0.004(4)
N14 0.149(4) 0.167(5) 0.196(5) -0.011(3) -0.015(3) -0.011(4)

_geom_special_details            
;
 All esds (except the esd in the dihedral angle between two l.s. planes)
 are estimated using the full covariance matrix.  The cell esds are taken
 into account individually in the estimation of esds in distances, angles
 and torsion angles; correlations between esds in cell parameters are only
 used when they are defined by crystal symmetry.  An approximate (isotropic)
 treatment of cell esds is used for estimating esds involving l.s. planes.
;

loop_
_geom_bond_atom_site_label_1
_geom_bond_atom_site_label_2
_geom_bond_distance
_geom_bond_site_symmetry_2
_geom_bond_publ_flag
C1 C2 1.333(8) . ?
C1 N1 1.406(7) . ?
C1 C20 1.495(10) . ?
C2 C3 1.360(8) . ?
C2 C61 1.534(10) . ?
C3 N2 1.383(7) . ?
C3 C4 1.425(8) . ?
C4 C5 1.338(8) . ?
C4 H4 0.9300 . ?
C5 C6 1.381(8) . ?
C5 H5 0.9300 . ?
C6 C7 1.374(8) . ?
C6 N2 1.384(7) . ?
C7 C8 1.367(8) . ?
C7 C21 1.508(8) . ?
C8 N3 1.351(8) . ?
C8 C9 1.493(9) . ?
C9 C10 1.288(8) . ?
C9 H9 0.9300 . ?
C10 C11 1.375(8) . ?
C10 H10 0.9300 . ?
C11 N3 1.384(8) . ?
C11 C12 1.448(9) . ?
C12 C13 1.409(9) . ?
C12 C29 1.518(9) . ?
C13 N4 1.275(7) . ?
C13 C14 1.484(9) . ?
C14 C15 1.384(10) . ?
C14 H14 0.9300 . ?
C15 C16 1.359(9) . ?
C15 H15 0.9300 . ?
C16 C17 1.356(9) . ?
C16 N4 1.371(8) . ?
C17 C18 1.360(9) . ?
C17 C37 1.479(9) . ?
C18 N1 1.379(9) . ?
C18 C19 1.387(10) . ?
C19 C20 1.335(9) . ?
C19 H19 0.9300 . ?
C20 H20 0.9300 . ?
C21 C22 1.336(8) . ?
C21 C26 1.405(8) . ?
C22 C23 1.414(9) . ?
C22 H22 0.9300 . ?
C23 C24 1.399(9) . ?
C23 H23 0.9300 . ?
C24 C25 1.326(8) . ?
C24 C27 1.447(10) . ?
C25 C26 1.350(8) . ?
C25 H25 0.9300 . ?
C26 H26 0.9300 . ?
C27 N5 1.311(9) . ?
C27 H27 0.9300 . ?
C28 N5 1.493(10) . ?
C28 C84 1.593(13) 3_655 ?
C28 H28A 0.9700 . ?
C28 H28B 0.9700 . ?
C29 C30 1.323(9) . ?
C29 C34 1.431(10) . ?
C30 C31 1.407(10) . ?
C30 H30 0.9300 . ?
C31 C32 1.352(9) . ?
C31 H31 0.9300 . ?
C32 C33 1.310(10) . ?
C32 C35 1.495(12) . ?
C33 C34 1.389(10) . ?
C33 H33 0.9300 . ?
C34 H34 0.9300 . ?
C35 N6 1.234(10) . ?
C35 H35 0.9300 . ?
C36 C83 1.459(11) . ?
C36 N6 1.485(11) . ?
C36 H36A 0.9700 . ?
C36 H36B 0.9700 . ?
C37 C42 1.359(8) . ?
C37 C38 1.445(10) . ?
C38 C39 1.334(10) . ?
C38 H38 0.9300 . ?
C39 C40 1.367(10) . ?
C39 H39 0.9300 . ?
C40 C41 1.342(9) . ?
C40 C57 1.496(10) . ?
C41 C42 1.434(9) . ?
C41 H41 0.9300 . ?
C42 H42 0.9300 . ?
C44 N7 1.522(12) . ?
C44 C45 1.541(17) . ?
C44 H44A 0.9700 . ?
C44 H44B 0.9700 . ?
C45 N8 1.365(14) . ?
C45 H45A 0.9700 . ?
C45 H45B 0.9700 . ?
C46 N8 1.372(8) . ?
C46 C47 1.520(13) . ?
C46 H46A 0.9700 . ?
C46 H46B 0.9700 . ?
C47 N9 1.399(12) . ?
C47 H47A 0.9700 . ?
C47 H47B 0.9700 . ?
C48 N9 1.206(10) . ?
C48 C49 1.574(13) . ?
C48 H48 0.9300 . ?
C49 C50 1.317(11) . ?
C49 C54 1.413(11) . ?
C50 C51 1.441(11) . ?
C50 H50 0.9300 . ?
C51 C52 1.353(10) . ?
C51 H51 0.9300 . ?
C52 C53 1.463(11) . ?
C52 C55 1.508(12) . ?
C53 C54 1.395(11) . ?
C53 H53 0.9300 . ?
C54 H54 0.9300 . ?
C55 C60 1.353(11) 3_655 ?
C55 C56 1.400(12) . ?
C56 C59 1.387(11) . ?
C56 N10 1.459(10) . ?
C57 N7 1.169(8) . ?
C57 H57 0.9300 . ?
C58 C59 1.323(11) . ?
C58 C60 1.399(11) . ?
C58 H58 0.9300 . ?
C59 H59 0.9300 . ?
C60 C55 1.353(11) 4_565 ?
C60 N10 1.368(10) . ?
C61 C62 1.353(9) . ?
C61 C66 1.414(9) . ?
C62 C63 1.354(10) . ?
C62 H62 0.9300 . ?
C63 C64 1.432(9) . ?
C63 H63 0.9300 . ?
C64 C65 1.332(8) . ?
C64 C67 1.467(10) . ?
C65 C66 1.395(9) . ?
C65 H65 0.9300 . ?
C66 H66 0.9300 . ?
C67 N11 1.266(8) . ?
C67 H67 0.9300 . ?
C68 C69 1.413(11) . ?
C68 N11 1.455(10) . ?
C68 H68A 0.9700 . ?
C68 H68B 0.9700 . ?
C69 N12 1.353(10) . ?
C69 H69A 0.9700 . ?
C69 H69B 0.9700 . ?
C70 C85 1.441(12) . ?
C70 N13 1.505(10) . ?
C70 H70A 0.9700 . ?
C70 H70B 0.9700 . ?
C71 N13 1.297(8) . ?
C71 C72 1.441(10) . ?
C71 H71 0.9300 . ?
C72 C73 1.317(9) . ?
C72 C77 1.440(9) . ?
C73 C74 1.350(8) . ?
C73 H73 0.9300 . ?
C74 C75 1.394(9) . ?
C74 H74 0.9300 . ?
C75 C76 1.375(9) . ?
C75 C78 1.593(9) . ?
C76 C77 1.352(9) . ?
C76 H76 0.9300 . ?
C77 H77 0.9300 . ?
C78 C79 1.330(10) . ?
C78 C81 1.392(9) . ?
C79 N14 1.330(9) 4_565 ?
C79 C80 1.487(9) . ?
C80 C82 1.376(9) 4_565 ?
C80 H80 0.9300 . ?
C81 C82 1.368(9) . ?
C81 N14 1.399(8) . ?
C82 C80 1.376(9) 3_655 ?
C82 H82 0.9300 . ?
C83 N8 1.480(11) 3_655 ?
C83 H83A 0.9700 . ?
C83 H83B 0.9700 . ?
C84 N12 1.460(12) . ?
C84 C28 1.593(13) 4_565 ?
C84 H84A 0.9700 . ?
C84 H84B 0.9700 . ?
C85 N12 1.408(14) . ?
C85 H85A 0.9700 . ?
C85 H85B 0.9700 . ?
N2 H2 0.8600 . ?
N4 H4A 0.8600 . ?
N8 C83 1.479(11) 4_565 ?
N10 H10A 0.8600 . ?
N14 C79 1.330(9) 3_655 ?
N14 H14A 0.8600 . ?

loop_
_geom_angle_atom_site_label_1
_geom_angle_atom_site_label_2
_geom_angle_atom_site_label_3
_geom_angle
_geom_angle_site_symmetry_1
_geom_angle_site_symmetry_3
_geom_angle_publ_flag
C2 C1 N1 127.7(6) . . ?
C2 C1 C20 130.4(8) . . ?
N1 C1 C20 101.8(7) . . ?
C1 C2 C3 126.7(7) . . ?
C1 C2 C61 115.9(7) . . ?
C3 C2 C61 117.0(7) . . ?
C2 C3 N2 125.8(7) . . ?
C2 C3 C4 126.5(8) . . ?
N2 C3 C4 107.6(6) . . ?
C5 C4 C3 107.6(6) . . ?
C5 C4 H4 126.2 . . ?
C3 C4 H4 126.2 . . ?
C4 C5 C6 109.0(6) . . ?
C4 C5 H5 125.5 . . ?
C6 C5 H5 125.5 . . ?
C7 C6 C5 125.3(7) . . ?
C7 C6 N2 125.8(6) . . ?
C5 C6 N2 108.9(6) . . ?
C8 C7 C6 125.6(5) . . ?
C8 C7 C21 115.6(7) . . ?
C6 C7 C21 118.6(7) . . ?
N3 C8 C7 126.8(6) . . ?
N3 C8 C9 105.1(7) . . ?
C7 C8 C9 128.1(7) . . ?
C10 C9 C8 107.6(7) . . ?
C10 C9 H9 126.2 . . ?
C8 C9 H9 126.2 . . ?
C9 C10 C11 110.3(7) . . ?
C9 C10 H10 124.9 . . ?
C11 C10 H10 124.9 . . ?
C10 C11 N3 108.3(6) . . ?
C10 C11 C12 126.6(7) . . ?
N3 C11 C12 125.2(6) . . ?
C13 C12 C11 123.4(6) . . ?
C13 C12 C29 119.3(6) . . ?
C11 C12 C29 116.9(6) . . ?
N4 C13 C12 130.8(7) . . ?
N4 C13 C14 109.5(7) . . ?
C12 C13 C14 119.7(7) . . ?
C15 C14 C13 100.5(7) . . ?
C15 C14 H14 129.8 . . ?
C13 C14 H14 129.8 . . ?
C16 C15 C14 113.0(8) . . ?
C16 C15 H15 123.5 . . ?
C14 C15 H15 123.5 . . ?
C17 C16 C15 126.2(8) . . ?
C17 C16 N4 128.7(7) . . ?
C15 C16 N4 105.0(7) . . ?
C16 C17 C18 126.2(7) . . ?
C16 C17 C37 118.0(7) . . ?
C18 C17 C37 115.8(8) . . ?
C17 C18 N1 126.8(8) . . ?
C17 C18 C19 126.3(9) . . ?
N1 C18 C19 106.9(8) . . ?
C20 C19 C18 110.3(8) . . ?
C20 C19 H19 124.8 . . ?
C18 C19 H19 124.8 . . ?
C19 C20 C1 109.0(7) . . ?
C19 C20 H20 125.5 . . ?
C1 C20 H20 125.5 . . ?
C22 C21 C26 117.3(6) . . ?
C22 C21 C7 119.9(6) . . ?
C26 C21 C7 122.3(6) . . ?
C21 C22 C23 121.0(6) . . ?
C21 C22 H22 119.5 . . ?
C23 C22 H22 119.5 . . ?
C24 C23 C22 119.3(6) . . ?
C24 C23 H23 120.3 . . ?
C22 C23 H23 120.3 . . ?
C25 C24 C23 117.6(6) . . ?
C25 C24 C27 123.2(8) . . ?
C23 C24 C27 119.1(8) . . ?
C24 C25 C26 123.4(6) . . ?
C24 C25 H25 118.3 . . ?
C26 C25 H25 118.3 . . ?
C25 C26 C21 120.4(6) . . ?
C25 C26 H26 119.8 . . ?
C21 C26 H26 119.8 . . ?
N5 C27 C24 123.7(8) . . ?
N5 C27 H27 118.1 . . ?
C24 C27 H27 118.1 . . ?
N5 C28 C84 102.3(8) . 3_655 ?
N5 C28 H28A 111.3 . . ?
C84 C28 H28A 111.3 3_655 . ?
N5 C28 H28B 111.3 . . ?
C84 C28 H28B 111.3 3_655 . ?
H28A C28 H28B 109.2 . . ?
C30 C29 C34 116.0(7) . . ?
C30 C29 C12 123.5(8) . . ?
C34 C29 C12 120.4(9) . . ?
C29 C30 C31 121.9(8) . . ?
C29 C30 H30 119.1 . . ?
C31 C30 H30 119.1 . . ?
C32 C31 C30 119.6(8) . . ?
C32 C31 H31 120.2 . . ?
C30 C31 H31 120.2 . . ?
C33 C32 C31 121.9(8) . . ?
C33 C32 C35 117.1(9) . . ?
C31 C32 C35 120.9(9) . . ?
C32 C33 C34 118.7(8) . . ?
C32 C33 H33 120.6 . . ?
C34 C33 H33 120.6 . . ?
C33 C34 C29 121.9(8) . . ?
C33 C34 H34 119.1 . . ?
C29 C34 H34 119.1 . . ?
N6 C35 C32 118.8(10) . . ?
N6 C35 H35 120.6 . . ?
C32 C35 H35 120.6 . . ?
C83 C36 N6 109.8(9) . . ?
C83 C36 H36A 109.7 . . ?
N6 C36 H36A 109.7 . . ?
C83 C36 H36B 109.7 . . ?
N6 C36 H36B 109.7 . . ?
H36A C36 H36B 108.2 . . ?
C42 C37 C38 115.0(7) . . ?
C42 C37 C17 122.1(7) . . ?
C38 C37 C17 122.8(7) . . ?
C39 C38 C37 121.0(8) . . ?
C39 C38 H38 119.5 . . ?
C37 C38 H38 119.5 . . ?
C38 C39 C40 122.7(8) . . ?
C38 C39 H39 118.6 . . ?
C40 C39 H39 118.6 . . ?
C41 C40 C39 119.3(7) . . ?
C41 C40 C57 120.1(8) . . ?
C39 C40 C57 120.5(8) . . ?
C40 C41 C42 119.1(7) . . ?
C40 C41 H41 120.5 . . ?
C42 C41 H41 120.5 . . ?
C37 C42 C41 122.6(7) . . ?
C37 C42 H42 118.7 . . ?
C41 C42 H42 118.7 . . ?
N7 C44 C45 114.0(11) . . ?
N7 C44 H44A 108.8 . . ?
C45 C44 H44A 108.8 . . ?
N7 C44 H44B 108.8 . . ?
C45 C44 H44B 108.8 . . ?
H44A C44 H44B 107.7 . . ?
N8 C45 C44 109.6(10) . . ?
N8 C45 H45A 109.7 . . ?
C44 C45 H45A 109.7 . . ?
N8 C45 H45B 109.7 . . ?
C44 C45 H45B 109.7 . . ?
H45A C45 H45B 108.2 . . ?
N8 C46 C47 120.9(9) . . ?
N8 C46 H46A 107.1 . . ?
C47 C46 H46A 107.1 . . ?
N8 C46 H46B 107.1 . . ?
C47 C46 H46B 107.1 . . ?
H46A C46 H46B 106.8 . . ?
N9 C47 C46 109.8(9) . . ?
N9 C47 H47A 109.7 . . ?
C46 C47 H47A 109.7 . . ?
N9 C47 H47B 109.7 . . ?
C46 C47 H47B 109.7 . . ?
H47A C47 H47B 108.2 . . ?
N9 C48 C49 126.9(11) . . ?
N9 C48 H48 116.6 . . ?
C49 C48 H48 116.6 . . ?
C50 C49 C54 123.7(9) . . ?
C50 C49 C48 121.9(10) . . ?
C54 C49 C48 114.3(11) . . ?
C49 C50 C51 116.3(9) . . ?
C49 C50 H50 121.9 . . ?
C51 C50 H50 121.9 . . ?
C52 C51 C50 123.5(8) . . ?
C52 C51 H51 118.3 . . ?
C50 C51 H51 118.3 . . ?
C51 C52 C53 119.1(8) . . ?
C51 C52 C55 123.8(10) . . ?
C53 C52 C55 117.1(9) . . ?
C54 C53 C52 116.4(9) . . ?
C54 C53 H53 121.8 . . ?
C52 C53 H53 121.8 . . ?
C53 C54 C49 120.8(9) . . ?
C53 C54 H54 119.6 . . ?
C49 C54 H54 119.6 . . ?
C60 C55 C56 130.1(8) 3_655 . ?
C60 C55 C52 116.9(9) 3_655 . ?
C56 C55 C52 112.8(10) . . ?
C59 C56 C55 130.0(9) . . ?
C59 C56 N10 109.3(8) . . ?
C55 C56 N10 120.5(8) . . ?
N7 C57 C40 125.4(8) . . ?
N7 C57 H57 117.3 . . ?
C40 C57 H57 117.3 . . ?
C59 C58 C60 111.7(9) . . ?
C59 C58 H58 124.1 . . ?
C60 C58 H58 124.1 . . ?
C58 C59 C56 106.1(9) . . ?
C58 C59 H59 127.0 . . ?
C56 C59 H59 127.0 . . ?
C55 C60 N10 123.5(9) 4_565 . ?
C55 C60 C58 128.1(11) 4_565 . ?
N10 C60 C58 108.4(9) . . ?
C62 C61 C66 116.7(7) . . ?
C62 C61 C2 123.5(7) . . ?
C66 C61 C2 119.7(7) . . ?
C61 C62 C63 121.8(7) . . ?
C61 C62 H62 119.1 . . ?
C63 C62 H62 119.1 . . ?
C62 C63 C64 119.1(7) . . ?
C62 C63 H63 120.4 . . ?
C64 C63 H63 120.4 . . ?
C65 C64 C63 122.4(7) . . ?
C65 C64 C67 119.6(8) . . ?
C63 C64 C67 117.9(8) . . ?
C64 C65 C66 115.6(7) . . ?
C64 C65 H65 122.2 . . ?
C66 C65 H65 122.2 . . ?
C65 C66 C61 124.2(6) . . ?
C65 C66 H66 117.9 . . ?
C61 C66 H66 117.9 . . ?
N11 C67 C64 126.2(8) . . ?
N11 C67 H67 116.9 . . ?
C64 C67 H67 116.9 . . ?
C69 C68 N11 116.0(8) . . ?
C69 C68 H68A 108.3 . . ?
N11 C68 H68A 108.3 . . ?
C69 C68 H68B 108.3 . . ?
N11 C68 H68B 108.3 . . ?
H68A C68 H68B 107.4 . . ?
N12 C69 C68 115.2(8) . . ?
N12 C69 H69A 108.5 . . ?
C68 C69 H69A 108.5 . . ?
N12 C69 H69B 108.5 . . ?
C68 C69 H69B 108.5 . . ?
H69A C69 H69B 107.5 . . ?
C85 C70 N13 112.7(7) . . ?
C85 C70 H70A 109.1 . . ?
N13 C70 H70A 109.1 . . ?
C85 C70 H70B 109.1 . . ?
N13 C70 H70B 109.1 . . ?
H70A C70 H70B 107.8 . . ?
N13 C71 C72 123.4(8) . . ?
N13 C71 H71 118.3 . . ?
C72 C71 H71 118.3 . . ?
C73 C72 C77 117.9(7) . . ?
C73 C72 C71 122.7(8) . . ?
C77 C72 C71 119.4(8) . . ?
C72 C73 C74 124.5(7) . . ?
C72 C73 H73 117.8 . . ?
C74 C73 H73 117.8 . . ?
C73 C74 C75 117.8(7) . . ?
C73 C74 H74 121.1 . . ?
C75 C74 H74 121.1 . . ?
C76 C75 C74 120.2(7) . . ?
C76 C75 C78 120.9(8) . . ?
C74 C75 C78 118.8(8) . . ?
C77 C76 C75 120.4(7) . . ?
C77 C76 H76 119.8 . . ?
C75 C76 H76 119.8 . . ?
C76 C77 C72 119.1(7) . . ?
C76 C77 H77 120.4 . . ?
C72 C77 H77 120.4 . . ?
C79 C78 C81 130.7(6) . . ?
C79 C78 C75 117.8(7) . . ?
C81 C78 C75 111.4(7) . . ?
N14 C79 C78 127.1(8) 4_565 . ?
N14 C79 C80 109.1(7) 4_565 . ?
C78 C79 C80 123.8(9) . . ?
C82 C80 C79 102.5(7) 4_565 . ?
C82 C80 H80 128.8 4_565 . ?
C79 C80 H80 128.8 . . ?
C82 C81 C78 131.7(8) . . ?
C82 C81 N14 106.7(7) . . ?
C78 C81 N14 121.6(7) . . ?
C81 C82 C80 112.3(7) . 3_655 ?
C81 C82 H82 123.8 . . ?
C80 C82 H82 123.8 3_655 . ?
C36 C83 N8 115.1(8) . 3_655 ?
C36 C83 H83A 108.5 . . ?
N8 C83 H83A 108.5 3_655 . ?
C36 C83 H83B 108.5 . . ?
N8 C83 H83B 108.5 3_655 . ?
H83A C83 H83B 107.5 . . ?
N12 C84 C28 109.3(8) . 4_565 ?
N12 C84 H84A 109.8 . . ?
C28 C84 H84A 109.8 4_565 . ?
N12 C84 H84B 109.8 . . ?
C28 C84 H84B 109.8 4_565 . ?
H84A C84 H84B 108.3 . . ?
N12 C85 C70 121.6(10) . . ?
N12 C85 H85A 106.9 . . ?
C70 C85 H85A 106.9 . . ?
N12 C85 H85B 106.9 . . ?
C70 C85 H85B 106.9 . . ?
H85A C85 H85B 106.7 . . ?
C18 N1 C1 111.9(6) . . ?
C3 N2 C6 106.7(5) . . ?
C3 N2 H2 126.7 . . ?
C6 N2 H2 126.7 . . ?
C8 N3 C11 108.6(6) . . ?
C13 N4 C16 112.0(6) . . ?
C13 N4 H4A 124.0 . . ?
C16 N4 H4A 124.0 . . ?
C27 N5 C28 115.0(7) . . ?
C35 N6 C36 119.0(10) . . ?
C57 N7 C44 123.6(8) . . ?
C45 N8 C46 103.3(10) . . ?
C45 N8 C83 113.7(10) . 4_565 ?
C46 N8 C83 113.6(10) . 4_565 ?
C48 N9 C47 119.5(10) . . ?
C60 N10 C56 104.1(7) . . ?
C60 N10 H10A 128.0 . . ?
C56 N10 H10A 128.0 . . ?
C67 N11 C68 125.5(8) . . ?
C69 N12 C85 111.7(9) . . ?
C69 N12 C84 118.9(8) . . ?
C85 N12 C84 101.6(10) . . ?
C71 N13 C70 117.2(8) . . ?
C79 N14 C81 109.3(6) 3_655 . ?
C79 N14 H14A 125.3 3_655 . ?
C81 N14 H14A 125.3 . . ?

loop_
_geom_torsion_atom_site_label_1
_geom_torsion_atom_site_label_2
_geom_torsion_atom_site_label_3
_geom_torsion_atom_site_label_4
_geom_torsion
_geom_torsion_site_symmetry_1
_geom_torsion_site_symmetry_2
_geom_torsion_site_symmetry_3
_geom_torsion_site_symmetry_4
_geom_torsion_publ_flag
N1 C1 C2 C3 -2.9(10) . . . . ?
C20 C1 C2 C3 -179.9(6) . . . . ?
N1 C1 C2 C61 -175.6(6) . . . . ?
C20 C1 C2 C61 7.4(10) . . . . ?
C1 C2 C3 N2 3.2(10) . . . . ?
C61 C2 C3 N2 175.8(6) . . . . ?
C1 C2 C3 C4 -178.5(6) . . . . ?
C61 C2 C3 C4 -5.9(9) . . . . ?
C2 C3 C4 C5 178.9(6) . . . . ?
N2 C3 C4 C5 -2.5(6) . . . . ?
C3 C4 C5 C6 0.0(6) . . . . ?
C4 C5 C6 C7 -178.1(5) . . . . ?
C4 C5 C6 N2 2.6(6) . . . . ?
C5 C6 C7 C8 -178.0(5) . . . . ?
N2 C6 C7 C8 1.2(8) . . . . ?
C5 C6 C7 C21 8.0(8) . . . . ?
N2 C6 C7 C21 -172.8(5) . . . . ?
C6 C7 C8 N3 -0.3(9) . . . . ?
C21 C7 C8 N3 173.8(5) . . . . ?
C6 C7 C8 C9 -177.0(6) . . . . ?
C21 C7 C8 C9 -2.9(9) . . . . ?
N3 C8 C9 C10 0.9(7) . . . . ?
C7 C8 C9 C10 178.2(6) . . . . ?
C8 C9 C10 C11 -3.0(8) . . . . ?
C9 C10 C11 N3 4.0(8) . . . . ?
C9 C10 C11 C12 -176.4(7) . . . . ?
C10 C11 C12 C13 177.7(6) . . . . ?
N3 C11 C12 C13 -2.8(10) . . . . ?
C10 C11 C12 C29 5.4(10) . . . . ?
N3 C11 C12 C29 -175.0(6) . . . . ?
C11 C12 C13 N4 0.3(11) . . . . ?
C29 C12 C13 N4 172.3(7) . . . . ?
C11 C12 C13 C14 177.0(6) . . . . ?
C29 C12 C13 C14 -11.0(9) . . . . ?
N4 C13 C14 C15 -2.4(7) . . . . ?
C12 C13 C14 C15 -179.8(6) . . . . ?
C13 C14 C15 C16 2.2(8) . . . . ?
C14 C15 C16 C17 -178.6(7) . . . . ?
C14 C15 C16 N4 -1.2(8) . . . . ?
C15 C16 C17 C18 178.8(7) . . . . ?
N4 C16 C17 C18 2.0(11) . . . . ?
C15 C16 C17 C37 -0.9(10) . . . . ?
N4 C16 C17 C37 -177.7(6) . . . . ?
C16 C17 C18 N1 0.5(11) . . . . ?
C37 C17 C18 N1 -179.9(6) . . . . ?
C16 C17 C18 C19 179.6(7) . . . . ?
C37 C17 C18 C19 -0.7(10) . . . . ?
C17 C18 C19 C20 179.4(7) . . . . ?
N1 C18 C19 C20 -1.2(9) . . . . ?
C18 C19 C20 C1 0.8(9) . . . . ?
C2 C1 C20 C19 177.6(7) . . . . ?
N1 C1 C20 C19 -0.1(8) . . . . ?
C8 C7 C21 C22 -108.6(7) . . . . ?
C6 C7 C21 C22 65.9(8) . . . . ?
C8 C7 C21 C26 79.6(7) . . . . ?
C6 C7 C21 C26 -105.8(7) . . . . ?
C26 C21 C22 C23 -11.9(10) . . . . ?
C7 C21 C22 C23 176.0(7) . . . . ?
C21 C22 C23 C24 7.5(11) . . . . ?
C22 C23 C24 C25 1.1(11) . . . . ?
C22 C23 C24 C27 178.8(7) . . . . ?
C23 C24 C25 C26 -4.9(11) . . . . ?
C27 C24 C25 C26 177.5(7) . . . . ?
C24 C25 C26 C21 0.3(11) . . . . ?
C22 C21 C26 C25 8.2(10) . . . . ?
C7 C21 C26 C25 -179.9(7) . . . . ?
C25 C24 C27 N5 -179.3(7) . . . . ?
C23 C24 C27 N5 3.2(11) . . . . ?
C13 C12 C29 C30 -91.7(9) . . . . ?
C11 C12 C29 C30 80.8(9) . . . . ?
C13 C12 C29 C34 85.3(8) . . . . ?
C11 C12 C29 C34 -102.1(8) . . . . ?
C34 C29 C30 C31 1.1(12) . . . . ?
C12 C29 C30 C31 178.3(7) . . . . ?
C29 C30 C31 C32 -0.7(13) . . . . ?
C30 C31 C32 C33 -1.3(12) . . . . ?
C30 C31 C32 C35 -179.6(8) . . . . ?
C31 C32 C33 C34 2.7(12) . . . . ?
C35 C32 C33 C34 -178.9(7) . . . . ?
C32 C33 C34 C29 -2.2(12) . . . . ?
C30 C29 C34 C33 0.3(11) . . . . ?
C12 C29 C34 C33 -176.9(7) . . . . ?
C33 C32 C35 N6 179.5(9) . . . . ?
C31 C32 C35 N6 -2.1(12) . . . . ?
C16 C17 C37 C42 -93.6(8) . . . . ?
C18 C17 C37 C42 86.7(8) . . . . ?
C16 C17 C37 C38 82.3(9) . . . . ?
C18 C17 C37 C38 -97.4(8) . . . . ?
C42 C37 C38 C39 -4.7(12) . . . . ?
C17 C37 C38 C39 179.1(9) . . . . ?
C37 C38 C39 C40 2.9(14) . . . . ?
C38 C39 C40 C41 1.9(13) . . . . ?
C38 C39 C40 C57 -179.5(8) . . . . ?
C39 C40 C41 C42 -4.5(11) . . . . ?
C57 C40 C41 C42 176.9(6) . . . . ?
C38 C37 C42 C41 2.1(10) . . . . ?
C17 C37 C42 C41 178.3(7) . . . . ?
C40 C41 C42 C37 2.5(11) . . . . ?
N7 C44 C45 N8 -77.6(13) . . . . ?
N8 C46 C47 N9 -68.9(14) . . . . ?
N9 C48 C49 C50 -175.4(10) . . . . ?
N9 C48 C49 C54 1.8(14) . . . . ?
C54 C49 C50 C51 -1.1(13) . . . . ?
C48 C49 C50 C51 175.8(7) . . . . ?
C49 C50 C51 C52 1.3(13) . . . . ?
C50 C51 C52 C53 1.2(13) . . . . ?
C50 C51 C52 C55 -176.2(9) . . . . ?
C51 C52 C53 C54 -3.9(13) . . . . ?
C55 C52 C53 C54 173.7(9) . . . . ?
C52 C53 C54 C49 4.2(14) . . . . ?
C50 C49 C54 C53 -1.8(15) . . . . ?
C48 C49 C54 C53 -178.9(8) . . . . ?
C51 C52 C55 C60 68.1(12) . . . 3_655 ?
C53 C52 C55 C60 -109.4(9) . . . 3_655 ?
C51 C52 C55 C56 -108.0(10) . . . . ?
C53 C52 C55 C56 74.5(10) . . . . ?
C60 C55 C56 C59 -172.8(9) 3_655 . . . ?
C52 C55 C56 C59 2.7(13) . . . . ?
C60 C55 C56 N10 1.2(13) 3_655 . . . ?
C52 C55 C56 N10 176.7(7) . . . . ?
C41 C40 C57 N7 -170.5(8) . . . . ?
C39 C40 C57 N7 10.9(13) . . . . ?
C60 C58 C59 C56 -5.4(11) . . . . ?
C55 C56 C59 C58 -178.6(9) . . . . ?
N10 C56 C59 C58 6.9(10) . . . . ?
C59 C58 C60 C55 178.9(9) . . . 4_565 ?
C59 C58 C60 N10 1.7(10) . . . . ?
C1 C2 C61 C62 70.5(9) . . . . ?
C3 C2 C61 C62 -102.9(8) . . . . ?
C1 C2 C61 C66 -113.1(7) . . . . ?
C3 C2 C61 C66 73.5(8) . . . . ?
C66 C61 C62 C63 2.4(11) . . . . ?
C2 C61 C62 C63 178.9(7) . . . . ?
C61 C62 C63 C64 -1.0(12) . . . . ?
C62 C63 C64 C65 -3.0(12) . . . . ?
C62 C63 C64 C67 -178.4(7) . . . . ?
C63 C64 C65 C66 5.0(10) . . . . ?
C67 C64 C65 C66 -179.7(6) . . . . ?
C64 C65 C66 C61 -3.5(10) . . . . ?
C62 C61 C66 C65 -0.1(10) . . . . ?
C2 C61 C66 C65 -176.7(6) . . . . ?
C65 C64 C67 N11 178.4(7) . . . . ?
C63 C64 C67 N11 -6.1(11) . . . . ?
N11 C68 C69 N12 -63.7(11) . . . . ?
N13 C71 C72 C73 -169.8(7) . . . . ?
N13 C71 C72 C77 10.7(10) . . . . ?
C77 C72 C73 C74 -3.1(10) . . . . ?
C71 C72 C73 C74 177.5(6) . . . . ?
C72 C73 C74 C75 2.2(10) . . . . ?
C73 C74 C75 C76 0.6(10) . . . . ?
C73 C74 C75 C78 -175.7(6) . . . . ?
C74 C75 C76 C77 -2.3(12) . . . . ?
C78 C75 C76 C77 173.9(8) . . . . ?
C75 C76 C77 C72 1.4(12) . . . . ?
C73 C72 C77 C76 1.2(11) . . . . ?
C71 C72 C77 C76 -179.3(7) . . . . ?
C76 C75 C78 C79 -103.3(8) . . . . ?
C74 C75 C78 C79 73.0(9) . . . . ?
C76 C75 C78 C81 73.7(9) . . . . ?
C74 C75 C78 C81 -110.0(7) . . . . ?
C81 C78 C79 N14 1.5(12) . . . 4_565 ?
C75 C78 C79 N14 177.8(7) . . . 4_565 ?
C81 C78 C79 C80 -179.3(7) . . . . ?
C75 C78 C79 C80 -3.0(10) . . . . ?
N14 C79 C80 C82 0.7(8) 4_565 . . 4_565 ?
C78 C79 C80 C82 -178.6(7) . . . 4_565 ?
C79 C78 C81 C82 -179.5(8) . . . . ?
C75 C78 C81 C82 4.1(11) . . . . ?
C79 C78 C81 N14 -0.8(11) . . . . ?
C75 C78 C81 N14 -177.3(6) . . . . ?
C78 C81 C82 C80 -177.9(7) . . . 3_655 ?
N14 C81 C82 C80 3.3(9) . . . 3_655 ?
N6 C36 C83 N8 -72.6(12) . . . 3_655 ?
N13 C70 C85 N12 -69.8(14) . . . . ?
C17 C18 N1 C1 -179.5(6) . . . . ?
C19 C18 N1 C1 1.2(7) . . . . ?
C2 C1 N1 C18 -178.4(6) . . . . ?
C20 C1 N1 C18 -0.7(6) . . . . ?
C2 C3 N2 C6 -177.4(5) . . . . ?
C4 C3 N2 C6 4.0(5) . . . . ?
C7 C6 N2 C3 176.6(5) . . . . ?
C5 C6 N2 C3 -4.1(5) . . . . ?
C7 C8 N3 C11 -175.9(6) . . . . ?
C9 C8 N3 C11 1.5(6) . . . . ?
C10 C11 N3 C8 -3.3(7) . . . . ?
C12 C11 N3 C8 177.1(6) . . . . ?
C12 C13 N4 C16 178.8(6) . . . . ?
C14 C13 N4 C16 1.9(7) . . . . ?
C17 C16 N4 C13 176.8(6) . . . . ?
C15 C16 N4 C13 -0.5(7) . . . . ?
C24 C27 N5 C28 174.0(7) . . . . ?
C84 C28 N5 C27 124.4(8) 3_655 . . . ?
C32 C35 N6 C36 178.2(7) . . . . ?
C83 C36 N6 C35 121.0(10) . . . . ?
C40 C57 N7 C44 -174.5(10) . . . . ?
C45 C44 N7 C57 101.4(15) . . . . ?
C44 C45 N8 C46 151.4(10) . . . . ?
C44 C45 N8 C83 -85.0(11) . . . 4_565 ?
C47 C46 N8 C45 -93.9(12) . . . . ?
C47 C46 N8 C83 142.4(10) . . . 4_565 ?
C49 C48 N9 C47 -179.8(9) . . . . ?
C46 C47 N9 C48 114.3(11) . . . . ?
C55 C60 N10 C56 -174.9(8) 4_565 . . . ?
C58 C60 N10 C56 2.5(8) . . . . ?
C59 C56 N10 C60 -5.8(8) . . . . ?
C55 C56 N10 C60 179.0(7) . . . . ?
C64 C67 N11 C68 -177.6(7) . . . . ?
C69 C68 N11 C67 119.6(9) . . . . ?
C68 C69 N12 C85 -94.1(9) . . . . ?
C68 C69 N12 C84 148.0(9) . . . . ?
C70 C85 N12 C69 143.8(9) . . . . ?
C70 C85 N12 C84 -88.4(10) . . . . ?
C28 C84 N12 C69 -87.7(8) 4_565 . . . ?
C28 C84 N12 C85 149.3(7) 4_565 . . . ?
C72 C71 N13 C70 179.2(7) . . . . ?
C85 C70 N13 C71 108.8(11) . . . . ?
C82 C81 N14 C79 -2.7(8) . . . 3_655 ?
C78 C81 N14 C79 178.4(6) . . . 3_655 ?

_refine_diff_density_max         0.354
_refine_diff_density_min         -0.296
_refine_diff_density_rms         0.061

_shelx_res_file                  
;

    oc1_sqd.res created by SHELXL-2014/7


TITL OC1 in P4/n
CELL  0.90000  29.9260  29.9260  22.3800  90.000  90.000  90.000
ZERR     2.00   0.0042   0.0042   0.0045   0.000   0.000   0.000
LATT 1
SYMM 0.5-X, 0.5-Y, Z
SYMM 0.5-Y, X, Z
SYMM Y, 0.5-X, Z
SFAC C  H  N
DISP C 0.006 0.003 20.172
DISP H -0 0 0.633
DISP N 0.011 0.006 36.799
UNIT 672 552 112
OMIT -3 60
L.S. 20 0  388
ACTA
BOND $H
FMAP -2
PLAN -20
SIZE 0.200 0.100 0.100
CONF
TEMP 27
DFIX 1.39 0.01 N8 C46
WGHT    0.200000
FVAR       3.57172
C1    1    0.933672    0.556651    0.248670    11.00000    0.14704    0.14204 =
         0.16015    0.01371    0.00771   -0.01833
C2    1    0.941502    0.577293    0.300385    11.00000    0.16187    0.16712 =
         0.15657   -0.03323   -0.00666   -0.00710
C3    1    0.959535    0.618613    0.307862    11.00000    0.12263    0.12985 =
         0.19480   -0.01318   -0.01095    0.01218
C4    1    0.968732    0.640154    0.363312    11.00000    0.15557    0.15815 =
         0.13271   -0.00385   -0.00143   -0.00314
AFIX  43
H4    2    0.963052    0.628669    0.401170    11.00000   -1.20000
AFIX   0
C5    1    0.987027    0.679915    0.351005    11.00000    0.16771    0.14407 =
         0.17491   -0.01665   -0.00288    0.00354
AFIX  43
H5    2    0.996239    0.700842    0.379148    11.00000   -1.20000
AFIX   0
C6    1    0.990021    0.684858    0.289792    11.00000    0.13905    0.13628 =
         0.11701   -0.00251   -0.00237    0.01091
C7    1    1.008251    0.721027    0.260835    11.00000    0.13894    0.13243 =
         0.15208   -0.01964   -0.01555    0.01321
C8    1    1.010195    0.726721    0.200308    11.00000    0.16331    0.12048 =
         0.16078    0.00494   -0.01431   -0.01197
C9    1    1.031273    0.764122    0.166317    11.00000    0.17603    0.16240 =
         0.17146   -0.00261   -0.01128   -0.02604
AFIX  43
H9    2    1.045290    0.789020    0.182660    11.00000   -1.20000
AFIX   0
C10   1    1.026518    0.755646    0.110268    11.00000    0.20941    0.15590 =
         0.13142    0.00259   -0.00591   -0.01798
AFIX  43
H10   2    1.035586    0.774409    0.079442    11.00000   -1.20000
AFIX   0
C11   1    1.006111    0.714874    0.102504    11.00000    0.16161    0.15571 =
         0.18206   -0.00501   -0.00472   -0.02966
C12   1    0.997273    0.692810    0.046171    11.00000    0.17589    0.15881 =
         0.12938    0.00445    0.00231   -0.03235
C13   1    0.977587    0.650183    0.041758    11.00000    0.15411    0.16660 =
         0.16313    0.02071    0.00737   -0.01428
C14   1    0.967721    0.631086   -0.017995    11.00000    0.19414    0.21034 =
         0.17264   -0.03930   -0.01043   -0.04317
AFIX  43
H14   2    0.972646    0.643046   -0.055779    11.00000   -1.20000
AFIX   0
C15   1    0.949149    0.590519   -0.001795    11.00000    0.14843    0.18842 =
         0.23117   -0.01479   -0.00737   -0.03460
AFIX  43
H15   2    0.939824    0.569109   -0.029213    11.00000   -1.20000
AFIX   0
C16   1    0.945954    0.585219    0.058363    11.00000    0.16619    0.17907 =
         0.12050   -0.02247    0.00419   -0.02351
C17   1    0.930012    0.548709    0.087266    11.00000    0.15179    0.17356 =
         0.14247   -0.01441    0.01033   -0.01644
C18   1    0.927562    0.543135    0.147475    11.00000    0.15793    0.15583 =
         0.19930    0.01003    0.00837   -0.01617
C19   1    0.911071    0.505937    0.177179    11.00000    0.21544    0.17617 =
         0.17333   -0.04265    0.01777   -0.03485
AFIX  43
H19   2    0.899557    0.480628    0.158618    11.00000   -1.20000
AFIX   0
C20   1    0.914085    0.511650    0.236219    11.00000    0.21058    0.16435 =
         0.21138    0.01657    0.02044   -0.05185
AFIX  43
H20   2    0.905396    0.490961    0.264967    11.00000   -1.20000
AFIX   0
C21   1    1.032181    0.755947    0.297404    11.00000    0.15430    0.13775 =
         0.15054   -0.01784   -0.01299    0.00643
C22   1    1.070043    0.745502    0.325813    11.00000    0.13950    0.12825 =
         0.22223   -0.02317   -0.04162    0.00660
AFIX  43
H22   2    1.080410    0.716214    0.324875    11.00000   -1.20000
AFIX   0
C23   1    1.094576    0.778311    0.357273    11.00000    0.16211    0.18673 =
         0.23389   -0.05105   -0.05414    0.03636
AFIX  43
H23   2    1.122565    0.771585    0.372930    11.00000   -1.20000
AFIX   0
C24   1    1.076318    0.821012    0.364618    11.00000    0.15600    0.13984 =
         0.18773   -0.03906   -0.01820   -0.00955
C25   1    1.035989    0.828404    0.342178    11.00000    0.14243    0.15610 =
         0.19438   -0.02077   -0.01764    0.00376
AFIX  43
H25   2    1.022572    0.855904    0.349441    11.00000   -1.20000
AFIX   0
C26   1    1.013397    0.798039    0.309313    11.00000    0.14645    0.15322 =
         0.21114   -0.01177   -0.02309    0.00599
AFIX  43
H26   2    0.985227    0.805037    0.294470    11.00000   -1.20000
AFIX   0
C27   1    1.101160    0.854224    0.397862    11.00000    0.20062    0.17924 =
         0.18518   -0.01434    0.01630   -0.02420
AFIX  43
H27   2    1.087940    0.881963    0.404076    11.00000   -1.20000
AFIX   0
C28   1    1.162755    0.887553    0.447008    11.00000    0.17044    0.25690 =
         0.27035   -0.07407   -0.03035   -0.05124
AFIX  23
H28A  2    1.142391    0.912761    0.447961    11.00000   -1.20000
H28B  2    1.189601    0.895988    0.425500    11.00000   -1.20000
AFIX   0
C29   1    1.015706    0.714920   -0.009704    11.00000    0.18206    0.16620 =
         0.15558   -0.00242   -0.00949   -0.00055
C30   1    1.057651    0.710835   -0.027498    11.00000    0.16634    0.25429 =
         0.19419    0.05719    0.01176    0.02362
AFIX  43
H30   2    1.077427    0.694230   -0.004379    11.00000   -1.20000
AFIX   0
C31   1    1.073204    0.730904   -0.080428    11.00000    0.18555    0.22620 =
         0.17965    0.03215    0.00894   -0.00778
AFIX  43
H31   2    1.102951    0.727813   -0.091720    11.00000   -1.20000
AFIX   0
C32   1    1.044647    0.754708   -0.114773    11.00000    0.19132    0.17115 =
         0.14593    0.00791    0.00817    0.00160
C33   1    1.002349    0.759108   -0.100891    11.00000    0.19037    0.19214 =
         0.19069    0.03289    0.03096   -0.00563
AFIX  43
H33   2    0.982968    0.774575   -0.125940    11.00000   -1.20000
AFIX   0
C34   1    0.987012    0.740231   -0.048052    11.00000    0.16270    0.21362 =
         0.23664    0.01176   -0.00470   -0.00366
AFIX  43
H34   2    0.957253    0.744149   -0.037282    11.00000   -1.20000
AFIX   0
C35   1    1.060046    0.776196   -0.171442    11.00000    0.17225    0.22176 =
         0.21160   -0.00851    0.02745   -0.01178
AFIX  43
H35   2    1.040056    0.791731   -0.195542    11.00000   -1.20000
AFIX   0
C36   1    1.114908    0.793095   -0.242871    11.00000    0.28140    0.18471 =
         0.23107   -0.00076    0.05386   -0.04035
AFIX  23
H36A  2    1.126436    0.769925   -0.268968    11.00000   -1.20000
H36B  2    1.089858    0.807312   -0.262749    11.00000   -1.20000
AFIX   0
C37   1    0.913756    0.510834    0.050801    11.00000    0.15489    0.15774 =
         0.19025   -0.01863    0.00384   -0.03204
C38   1    0.943291    0.477544    0.025701    11.00000    0.16855    0.21602 =
         0.25625   -0.06966    0.00936   -0.01247
AFIX  43
H38   2    0.973924    0.479870    0.031968    11.00000   -1.20000
AFIX   0
C39   1    0.927265    0.443537   -0.006317    11.00000    0.20028    0.18917 =
         0.24859   -0.07111   -0.01091   -0.00432
AFIX  43
H39   2    0.947099    0.421996   -0.020239    11.00000   -1.20000
AFIX   0
C40   1    0.882896    0.439040   -0.019511    11.00000    0.17199    0.15709 =
         0.18417   -0.02185   -0.01020   -0.00826
C41   1    0.854057    0.470528   -0.001214    11.00000    0.17578    0.16832 =
         0.18645   -0.03411    0.00981   -0.01046
AFIX  43
H41   2    0.824113    0.469093   -0.012166    11.00000   -1.20000
AFIX   0
C42   1    0.870037    0.506412    0.035447    11.00000    0.16792    0.16558 =
         0.20411   -0.02161   -0.00292   -0.00293
AFIX  43
H42   2    0.849685    0.527500    0.049271    11.00000   -1.20000
AFIX   0
C44   1    0.871280    0.331283   -0.108160    11.00000    0.33535    0.14900 =
         0.41712   -0.03577   -0.18413   -0.00769
AFIX  23
H44A  2    0.838929    0.332616   -0.110170    11.00000   -1.20000
H44B  2    0.879346    0.302704   -0.090786    11.00000   -1.20000
AFIX   0
C45   1    0.890186    0.333651   -0.172110    11.00000    0.26080    0.26748 =
         0.24723   -0.10431    0.01503    0.05135
AFIX  23
H45A  2    0.921844    0.340525   -0.170682    11.00000   -1.20000
H45B  2    0.886534    0.304969   -0.191701    11.00000   -1.20000
AFIX   0
C46   1    0.899469    0.379885   -0.244390    11.00000    0.25524    0.23497 =
         0.27502   -0.08582    0.01841    0.04531
AFIX  23
H46A  2    0.883703    0.386227   -0.281298    11.00000   -1.20000
H46B  2    0.918950    0.354665   -0.252312    11.00000   -1.20000
AFIX   0
C47   1    0.929281    0.419830   -0.231442    11.00000    0.20973    0.22881 =
         0.29382   -0.09794    0.02822    0.02897
AFIX  23
H47A  2    0.943539    0.416091   -0.192841    11.00000   -1.20000
H47B  2    0.952470    0.421890   -0.261600    11.00000   -1.20000
AFIX   0
C48   1    0.899292    0.479780   -0.185666    11.00000    0.16485    0.18845 =
         0.26072    0.00546    0.01118    0.01549
AFIX  43
H48   2    0.913559    0.468366   -0.152052    11.00000   -1.20000
AFIX   0
C49   1    0.871892    0.524189   -0.176806    11.00000    0.17563    0.16687 =
         0.25167    0.00090   -0.02256    0.01216
C50   1    0.871648    0.545886   -0.125597    11.00000    0.19714    0.17846 =
         0.22174   -0.04965    0.00022    0.02241
AFIX  43
H50   2    0.886097    0.534844   -0.091900    11.00000   -1.20000
AFIX   0
C51   1    0.847740    0.587694   -0.124691    11.00000    0.18881    0.17369 =
         0.21546   -0.01125   -0.01469   -0.00346
AFIX  43
H51   2    0.847505    0.604078   -0.089382    11.00000   -1.20000
AFIX   0
C52   1    0.825619    0.604374   -0.172473    11.00000    0.18173    0.17603 =
         0.22927   -0.00484    0.00054    0.01297
C53   1    0.824819    0.578691   -0.228078    11.00000    0.27901    0.19387 =
         0.21435   -0.01235    0.01739    0.05807
AFIX  43
H53   2    0.808532    0.588090   -0.261162    11.00000   -1.20000
AFIX   0
C54   1    0.849799    0.539353   -0.228802    11.00000    0.25006    0.19625 =
         0.21943   -0.00413    0.05229    0.03220
AFIX  43
H54   2    0.851943    0.522896   -0.263935    11.00000   -1.20000
AFIX   0
C55   1    0.802882    0.649357   -0.172990    11.00000    0.17618    0.17248 =
         0.23033    0.00411   -0.01282    0.02441
C56   1    0.756210    0.646119   -0.172237    11.00000    0.17771    0.14835 =
         0.25059    0.02366    0.00564    0.00243
C57   1    0.866651    0.400026   -0.055218    11.00000    0.18529    0.16521 =
         0.18599   -0.02403    0.00004   -0.00488
AFIX  43
H57   2    0.837347    0.401001   -0.068990    11.00000   -1.20000
AFIX   0
C58   1    0.687403    0.623690   -0.171128    11.00000    0.19708    0.16811 =
         0.25019   -0.00473   -0.02546   -0.01676
AFIX  43
H58   2    0.662319    0.605395   -0.172929    11.00000   -1.20000
AFIX   0
C59   1    0.728977    0.608715   -0.168925    11.00000    0.16376    0.17970 =
         0.33002    0.02311   -0.02309   -0.00072
AFIX  43
H59   2    0.738086    0.579096   -0.165791    11.00000   -1.20000
AFIX   0
C60   1    0.685796    0.670420   -0.170415    11.00000    0.18327    0.15985 =
         0.23767   -0.00481    0.00104    0.01131
C61   1    0.934144    0.549205    0.356849    11.00000    0.17467    0.15060 =
         0.16135    0.00420    0.01916   -0.03339
C62   1    0.961116    0.515064    0.373303    11.00000    0.16658    0.16633 =
         0.24311    0.04406    0.03993    0.03864
AFIX  43
H62   2    0.985246    0.507585    0.349102    11.00000   -1.20000
AFIX   0
C63   1    0.953928    0.491495    0.424041    11.00000    0.18525    0.17441 =
         0.22260    0.05229    0.01914    0.00624
AFIX  43
H63   2    0.972587    0.467837    0.434217    11.00000   -1.20000
AFIX   0
C64   1    0.917212    0.503475    0.461836    11.00000    0.17620    0.16934 =
         0.16822    0.04139    0.00292   -0.00456
C65   1    0.890861    0.538284    0.450357    11.00000    0.16688    0.14991 =
         0.16360    0.05072   -0.00946   -0.01368
AFIX  43
H65   2    0.868487    0.547350    0.476525    11.00000   -1.20000
AFIX   0
C66   1    0.899037    0.560246    0.396487    11.00000    0.16953    0.13371 =
         0.21011   -0.00047    0.00068    0.01247
AFIX  43
H66   2    0.880185    0.583662    0.385954    11.00000   -1.20000
AFIX   0
C67   1    0.911022    0.478114    0.517316    11.00000    0.15657    0.16719 =
         0.20332    0.00983   -0.00788    0.00096
AFIX  43
H67   2    0.888903    0.488102    0.543270    11.00000   -1.20000
AFIX   0
C68   1    0.925228    0.418161    0.587402    11.00000    0.21516    0.24000 =
         0.16968    0.05714   -0.02557    0.01935
AFIX  23
H68A  2    0.952017    0.419577    0.611728    11.00000   -1.20000
H68B  2    0.901387    0.432383    0.609776    11.00000   -1.20000
AFIX   0
C69   1    0.913920    0.372742    0.579099    11.00000    0.19848    0.16093 =
         0.25897    0.06432   -0.02873   -0.01406
AFIX  23
H69A  2    0.937693    0.358437    0.556691    11.00000   -1.20000
H69B  2    0.912510    0.358444    0.617951    11.00000   -1.20000
AFIX   0
C70   1    0.795026    0.376008    0.578045    11.00000    0.23822    0.15634 =
         0.27069    0.05621   -0.06562   -0.00783
AFIX  23
H70A  2    0.774257    0.363742    0.606998    11.00000   -1.20000
H70B  2    0.785971    0.365708    0.538774    11.00000   -1.20000
AFIX   0
C71   1    0.787416    0.446779    0.529227    11.00000    0.15380    0.19956 =
         0.18883    0.03526   -0.02109    0.00360
AFIX  43
H71   2    0.786095    0.429760    0.494502    11.00000   -1.20000
AFIX   0
C72   1    0.783841    0.494631    0.524071    11.00000    0.16055    0.12852 =
         0.19157   -0.01226   -0.01827   -0.00968
C73   1    0.772369    0.514694    0.473988    11.00000    0.16613    0.14608 =
         0.17076    0.02050   -0.03615   -0.00196
AFIX  43
H73   2    0.767585    0.496946    0.440481    11.00000   -1.20000
AFIX   0
C74   1    0.767081    0.559272    0.467979    11.00000    0.17012    0.14659 =
         0.18563    0.00765   -0.02233   -0.00059
AFIX  43
H74   2    0.757938    0.571702    0.431909    11.00000   -1.20000
AFIX   0
C75   1    0.775770    0.586065    0.517590    11.00000    0.14283    0.13736 =
         0.24005   -0.00064   -0.01228   -0.00499
C76   1    0.789643    0.567053    0.570355    11.00000    0.30500    0.16269 =
         0.15951    0.00503   -0.07508    0.00150
AFIX  43
H76   2    0.796431    0.585167    0.602878    11.00000   -1.20000
AFIX   0
C77   1    0.793479    0.522172    0.575249    11.00000    0.19166    0.17552 =
         0.20928    0.02980   -0.03566    0.01595
AFIX  43
H77   2    0.802227    0.509262    0.611193    11.00000   -1.20000
AFIX   0
C78   1    0.766462    0.638368    0.513103    11.00000    0.15379    0.13995 =
         0.19373    0.00438   -0.00382   -0.00360
C79   1    0.724138    0.651965    0.513107    11.00000    0.15562    0.18554 =
         0.19680    0.00188   -0.01346    0.00164
C80   1    0.685207    0.621123    0.514186    11.00000    0.14540    0.14412 =
         0.23792    0.00300   -0.01575   -0.00751
AFIX  43
H80   2    0.685009    0.590068    0.515728    11.00000   -1.20000
AFIX   0
C81   1    0.806109    0.662693    0.512773    11.00000    0.12847    0.14541 =
         0.21526    0.00159   -0.00914    0.01768
C82   1    0.849894    0.649531    0.512326    11.00000    0.18067    0.16722 =
         0.25963   -0.02294    0.00485   -0.00200
AFIX  43
H82   2    0.859030    0.619846    0.510926    11.00000   -1.20000
AFIX   0
C83   1    1.149741    0.826089   -0.231209    11.00000    0.23998    0.25017 =
         0.20035   -0.01905    0.05790    0.00240
AFIX  23
H83A  2    1.164414    0.833192   -0.268670    11.00000   -1.20000
H83B  2    1.171911    0.812716   -0.205133    11.00000   -1.20000
AFIX   0
C84   1    0.870510    0.325817    0.512692    11.00000    0.28165    0.17271 =
         0.27214    0.07295   -0.10141    0.03571
AFIX  23
H84A  2    0.839513    0.316396    0.511309    11.00000   -1.20000
H84B  2    0.888091    0.301554    0.529225    11.00000   -1.20000
AFIX   0
C85   1    0.839240    0.359479    0.590767    11.00000    0.24916    0.15498 =
         0.37082    0.08447   -0.12042   -0.02417
AFIX  23
H85A  2    0.848421    0.372737    0.628364    11.00000   -1.20000
H85B  2    0.836481    0.327603    0.597706    11.00000   -1.20000
AFIX   0
N1    3    0.940429    0.573377    0.190659    11.00000    0.15084    0.15038 =
         0.17520   -0.02994   -0.00591   -0.01098
N2    3    0.971264    0.647797    0.262609    11.00000    0.14520    0.12841 =
         0.13779    0.01441    0.00646   -0.00876
AFIX  43
H2    2    0.967611    0.643712    0.224887    11.00000   -1.20000
AFIX   0
N3    3    0.994933    0.698199    0.158194    11.00000    0.16639    0.13662 =
         0.14092    0.01443    0.00432   -0.00612
N4    3    0.963951    0.623409    0.082134    11.00000    0.16367    0.17013 =
         0.15210   -0.00891    0.00735   -0.02398
AFIX  43
H4A   2    0.965822    0.628680    0.119827    11.00000   -1.20000
AFIX   0
N5    3    1.141246    0.847446    0.419728    11.00000    0.16839    0.20819 =
         0.23680   -0.04549   -0.02671   -0.01200
N6    3    1.099765    0.772959   -0.185688    11.00000    0.28824    0.18781 =
         0.18698    0.03321    0.00823   -0.03034
N7    3    0.887776    0.368404   -0.067234    11.00000    0.25467    0.17618 =
         0.21814   -0.05903   -0.06496    0.03194
N8    3    0.868206    0.365902   -0.203638    11.00000    0.20781    0.19720 =
         0.20493   -0.04157    0.00981    0.03168
N9    3    0.903732    0.458989   -0.231470    11.00000    0.26551    0.21110 =
         0.25519   -0.06715   -0.00195    0.03058
N10   3    0.728642    0.686292   -0.169364    11.00000    0.16211    0.18736 =
         0.22042    0.01166    0.01038   -0.00186
AFIX  43
H10A  2    0.737338    0.713645   -0.167451    10.50000   -1.20000
AFIX   0
N11   3    0.932913    0.443928    0.533242    11.00000    0.18280    0.20569 =
         0.21450    0.02559   -0.02637   -0.02343
N12   3    0.874835    0.365408    0.550371    11.00000    0.19767    0.15627 =
         0.20754    0.04424   -0.02870    0.00318
N13   3    0.792385    0.426206    0.579821    11.00000    0.20912    0.18299 =
         0.22795    0.01874   -0.01828   -0.00445
N14   3    0.806125    0.709426    0.511583    11.00000    0.14915    0.16724 =
         0.19607   -0.01117   -0.01514   -0.01074
AFIX  43
H14A  2    0.782702    0.726039    0.510098    10.50000   -1.20000
AFIX   0
HKLF 4

REM  OC1 in P4/n
REM R1 =  0.1536 for    5673 Fo > 4sig(Fo)  and  0.1980 for all   13945 data
REM    883 parameters refined using      1 restraints

END

WGHT      0.2000      0.0000

REM Highest difference peak  0.354,  deepest hole -0.296,  1-sigma level  0.061
Q1    1   1.0120  0.7938 -0.1837  11.00000  0.05    0.35
Q2    1   1.0098  0.7363  0.3525  11.00000  0.05    0.31
Q3    1   0.8535  0.5528 -0.1805  11.00000  0.05   -0.30
Q4    1   0.9897  0.7506  0.3785  11.00000  0.05    0.29
Q5    1   0.7425  0.4592  0.4850  11.00000  0.05   -0.28
Q6    1   1.1211  0.9165  0.4086  11.00000  0.05    0.28
Q7    1   0.8672  0.5148 -0.2968  11.00000  0.05    0.27
Q8    1   0.9536  0.3283  0.5554  11.00000  0.05    0.27
Q9    1   1.1630  0.8251 -0.3059  11.00000  0.05    0.27
Q10   1   1.0287  0.8648  0.3398  11.00000  0.05    0.26
Q11   1   1.0493  0.6559  0.0259  11.00000  0.05   -0.26
Q12   1   1.1599  0.9179  0.5111  11.00000  0.05    0.26
Q13   1   0.9053  0.5630 -0.0465  11.00000  0.05    0.26
Q14   1   0.9811  0.6616 -0.0146  11.00000  0.05    0.26
Q15   1   1.0945  0.8944  0.3821  11.00000  0.05    0.25
Q16   1   0.9455  0.5802  0.1366  11.00000  0.05    0.25
Q17   1   0.7500  0.7500 -0.1992  10.25000  0.05    0.25
Q18   1   0.7750  0.5836 -0.2467  11.00000  0.05    0.25
Q19   1   1.0527  0.8929  0.3559  11.00000  0.05    0.25
Q20   1   0.8594  0.5945  0.4647  11.00000  0.05    0.24
;

# SQUEEZE RESULTS (Version =  50315)
# Note: Data are Listed for all Voids in the P1 Unit Cell
# i.e. Centre of Gravity, Solvent Accessible Volume,
# Recovered number of Electrons in the Void and
# Details about the Squeezed Material
loop_
_platon_squeeze_void_nr
_platon_squeeze_void_average_x
_platon_squeeze_void_average_y
_platon_squeeze_void_average_z
_platon_squeeze_void_volume
_platon_squeeze_void_count_electrons
_platon_squeeze_void_content
1 0.162 -0.018 0.043 5639 1827 ' '
2 0.250 0.250 0.829 1299 464 ' '
3 0.750 0.750 0.171 1299 464 ' '
_platon_squeeze_void_probe_radius 1.20
_platon_squeeze_details          ?
