
#######################################################################
#
#                 Cambridge Crystallographic Data Centre
#                                CCDC 
#
#######################################################################
#
# If this CIF has been generated directly or indirectly from an entry in the 
# Cambridge Structural Database, then it will include bibliographic, chemical, 
# crystal, experimental, refinement or atomic coordinate data resulting from 
# the CCDC's data processing and validation procedures. Files generated from 
# CSD entries are Copyright 2016 Cambridge Crystallographic Data Centre. They 
# may be used in bona fide research applications only, and may not be copied or 
# further disseminated in any form, whether machine-readable or not, except for 
# the purposes of generating routine backup copies on your local computer 
# system.
# 
# Files arising from any other source may also contain material that is the 
# copyright of third parties, including the originator, and you should check 
# with the originator concerning the permitted uses of the information 
# contained in this CIF.
#
# For further information on the CCDC and the free tools enCIFer and Mercury
# for validating and visualising CIF files, please visit www.ccdc.cam.ac.uk
#
#######################################################################

data_ORAVOU
_audit_creation_date             2016-07-15
_database_code_depnum_ccdc_archive 'CCDC 1477553'
_chemical_formula_moiety         'C72 H84 N12 O4'
_chemical_name_systematic        
'5,12,20,27,35,42,50,57,62,69,74,81-dodecaazatridecacyclo[29.29.10.10^16,46^.1^3,59^.1^14,18^.1^29,33^.1^44,48^.0^6,11^.0^21,26^.0^36,41^.0^51,56^.0^63,68^.0^75,80^]tetraoctaconta-1,3(71),4,12,14(84),15,17,19,27,29(83),30,32,34,42,44(72),45,47,49,57,59,61,69,73,81-tetracosaene-2,17,45,83-tetrol xylene solvate'
_journal_coden_Cambridge         177
_journal_volume                  14
_journal_year                    2016
_journal_page_first              7495
_journal_name_full               Org.Biomol.Chem.
loop_
_publ_author_name
M.Petryk
J.Szymkowiak
B.Gierczyk
G.Spolnik
L.Popenda
A.Janiak
M.Kwit
_chemical_absolute_configuration unk
_diffrn_ambient_temperature      150
_exptl_crystal_density_meas      1.014
_exptl_crystal_density_diffrn    1.017
#These two values have been output from a single CSD field.
_refine_ls_R_factor_gt           0.1104
_refine_ls_wR_factor_gt          0.1104
_diffrn_radiation_probe          x-ray
_symmetry_cell_setting           cubic
_symmetry_space_group_name_H-M   'F 41 3 2'
_symmetry_Int_Tables_number      210
loop_
_symmetry_equiv_pos_site_id
_symmetry_equiv_pos_as_xyz
1 x,y,z
2 1/4-y,1/4+x,1/4+z
3 -x,-y,z
4 1/4+y,1/4-x,1/4+z
5 1/4+x,1/4-z,1/4+y
6 x,-y,-z
7 1/4+x,1/4+z,1/4-y
8 1/4+z,1/4+y,1/4-x
9 -x,y,-z
10 1/4-z,1/4+y,1/4+x
11 z,x,y
12 y,z,x
13 -y,-z,x
14 z,-x,-y
15 -y,z,-x
16 -z,-x,y
17 -z,x,-y
18 y,-z,-x
19 1/4+y,1/4+x,1/4-z
20 1/4-y,1/4-x,1/4-z
21 1/4-x,1/4+z,1/4+y
22 1/4-x,1/4-z,1/4-y
23 1/4+z,1/4-y,1/4+x
24 1/4-z,1/4-y,1/4-x
25 x,1/2+y,1/2+z
26 1/4-y,3/4+x,3/4+z
27 -x,1/2-y,1/2+z
28 1/4+y,3/4-x,3/4+z
29 1/4+x,3/4-z,3/4+y
30 x,1/2-y,1/2-z
31 1/4+x,3/4+z,3/4-y
32 1/4+z,3/4+y,3/4-x
33 -x,1/2+y,1/2-z
34 1/4-z,3/4+y,3/4+x
35 z,1/2+x,1/2+y
36 y,1/2+z,1/2+x
37 -y,1/2-z,1/2+x
38 z,1/2-x,1/2-y
39 -y,1/2+z,1/2-x
40 -z,1/2-x,1/2+y
41 -z,1/2+x,1/2-y
42 y,1/2-z,1/2-x
43 1/4+y,3/4+x,3/4-z
44 1/4-y,3/4-x,3/4-z
45 1/4-x,3/4+z,3/4+y
46 1/4-x,3/4-z,3/4-y
47 1/4+z,3/4-y,3/4+x
48 1/4-z,3/4-y,3/4-x
49 1/2+x,y,1/2+z
50 3/4-y,1/4+x,3/4+z
51 1/2-x,-y,1/2+z
52 3/4+y,1/4-x,3/4+z
53 3/4+x,1/4-z,3/4+y
54 1/2+x,-y,1/2-z
55 3/4+x,1/4+z,3/4-y
56 3/4+z,1/4+y,3/4-x
57 1/2-x,y,1/2-z
58 3/4-z,1/4+y,3/4+x
59 1/2+z,x,1/2+y
60 1/2+y,z,1/2+x
61 1/2-y,-z,1/2+x
62 1/2+z,-x,1/2-y
63 1/2-y,z,1/2-x
64 1/2-z,-x,1/2+y
65 1/2-z,x,1/2-y
66 1/2+y,-z,1/2-x
67 3/4+y,1/4+x,3/4-z
68 3/4-y,1/4-x,3/4-z
69 3/4-x,1/4+z,3/4+y
70 3/4-x,1/4-z,3/4-y
71 3/4+z,1/4-y,3/4+x
72 3/4-z,1/4-y,3/4-x
73 1/2+x,1/2+y,z
74 3/4-y,3/4+x,1/4+z
75 1/2-x,1/2-y,z
76 3/4+y,3/4-x,1/4+z
77 3/4+x,3/4-z,1/4+y
78 1/2+x,1/2-y,-z
79 3/4+x,3/4+z,1/4-y
80 3/4+z,3/4+y,1/4-x
81 1/2-x,1/2+y,-z
82 3/4-z,3/4+y,1/4+x
83 1/2+z,1/2+x,y
84 1/2+y,1/2+z,x
85 1/2-y,1/2-z,x
86 1/2+z,1/2-x,-y
87 1/2-y,1/2+z,-x
88 1/2-z,1/2-x,y
89 1/2-z,1/2+x,-y
90 1/2+y,1/2-z,-x
91 3/4+y,3/4+x,1/4-z
92 3/4-y,3/4-x,1/4-z
93 3/4-x,3/4+z,1/4+y
94 3/4-x,3/4-z,1/4-y
95 3/4+z,3/4-y,1/4+x
96 3/4-z,3/4-y,1/4-x
_cell_length_a                   24.8942(5)
_cell_length_b                   24.8942(5)
_cell_length_c                   24.8942(5)
_cell_angle_alpha                90
_cell_angle_beta                 90
_cell_angle_gamma                90
_cell_volume                     15427.5
_exptl_crystal_colour            yellow
_exptl_crystal_description       tetrahedral
_cell_formula_units_Z            8
loop_
_atom_site_label
_atom_site_type_symbol
_atom_site_fract_x
_atom_site_fract_y
_atom_site_fract_z
C1 C 0.7402(8) 0.2778(5) 0.3795(3)
H1 H 0.7181 0.2843 0.3471
H2 H 0.7710 0.3029 0.3789
C2 C 0.7065(4) 0.2874(5) 0.4298(3)
H3 H 0.6932 0.3249 0.4298
H4 H 0.6750 0.2632 0.4294
C3 C 0.7389(2) 0.2775(3) 0.48055(19)
H5 H 0.7693 0.3037 0.4818
N1 N 0.7051(2) 0.2862(2) 0.52627(18)
C4 C 0.7150(3) 0.3240(3) 0.5586(2)
H6 H 0.7465 0.3446 0.5529
C5 C 0.6810(2) 0.3381(2) 0.6044(2)
C6 C 0.6361(2) 0.3055(3) 0.6170(2)
O1 O 0.6235(4) 0.2638(6) 0.5857(5)
H7 H 0.6453 0.2620 0.5599
C1L C 0.7222 0.6205 0.7402
H1L H 0.7157 0.6529 0.7181
H2L H 0.6971 0.6211 0.771
C2L C 0.7126 0.5702 0.7065
H3L H 0.6751 0.5702 0.6932
H4L H 0.7368 0.5706 0.675
C3L C 0.7225 0.51945 0.7389
H5L H 0.6963 0.5182 0.7693
N1L N 0.7138 0.47373 0.7051
C4L C 0.676 0.4414 0.715
H6L H 0.6554 0.4471 0.7465
C5L C 0.6619 0.3956 0.681
C6L C 0.6945 0.383 0.6361
O1L O 0.7362 0.4143 0.6235
H7L H 0.738 0.4401 0.6453
C1M C 0.3795 0.2598 0.7222
H1M H 0.3471 0.2819 0.7157
H2M H 0.3789 0.229 0.6971
C2M C 0.4298 0.2935 0.7126
H3M H 0.4298 0.3068 0.6751
H4M H 0.4294 0.325 0.7368
C3M C 0.48055 0.2611 0.7225
H5M H 0.4818 0.2307 0.6963
N1M N 0.52627 0.2949 0.7138
C4M C 0.5586 0.285 0.676
H6M H 0.5529 0.2535 0.6554
C5M C 0.6044 0.319 0.6619
C6M C 0.617 0.3639 0.6945
O1M O 0.5857 0.3765 0.7362
H7M H 0.5599 0.3547 0.738
C1VB C 0.7598 0.2222 0.3795
H1VB H 0.7819 0.2157 0.3471
H2VB H 0.729 0.1971 0.3789
C2VB C 0.7935 0.2126 0.4298
H3VB H 0.8068 0.1751 0.4298
H4VB H 0.825 0.2368 0.4294
C3VB C 0.7611 0.2225 0.48055
H5VB H 0.7307 0.1963 0.4818
N1VB N 0.7949 0.2138 0.52627
C4VB C 0.785 0.176 0.5586
H6VB H 0.7535 0.1554 0.5529
C5VB C 0.819 0.1619 0.6044
C6VB C 0.8639 0.1945 0.617
O1VB O 0.8765 0.2362 0.5857
H7VB H 0.8547 0.238 0.5599
C1HA C 0.3795 0.2402 0.7778
H1HA H 0.3471 0.2181 0.7843
H2HA H 0.3789 0.271 0.8029
C2HA C 0.4298 0.2065 0.7874
H3HA H 0.4298 0.1932 0.8249
H4HA H 0.4294 0.175 0.7632
C3HA C 0.48055 0.2389 0.7775
H5HA H 0.4818 0.2693 0.8037
N1HA N 0.52627 0.2051 0.7862
C4HA C 0.5586 0.215 0.824
H6HA H 0.5529 0.2465 0.8446
C5HA C 0.6044 0.181 0.8381
C6HA C 0.617 0.1361 0.8055
O1HA O 0.5857 0.1235 0.7638
H7HA H 0.5599 0.1453 0.762
C1LA C 0.7222 -0.1205 0.7598
H1LA H 0.7157 -0.1529 0.7819
H2LA H 0.6971 -0.1211 0.729
C2LA C 0.7126 -0.0702 0.7935
H3LA H 0.6751 -0.0702 0.8068
H4LA H 0.7368 -0.0706 0.825
C3LA C 0.7225 -0.01945 0.7611
H5LA H 0.6963 -0.0182 0.7307
N1LA N 0.7138 0.02627 0.7949
C4LA C 0.676 0.0586 0.785
H6LA H 0.6554 0.0529 0.7535
C5LA C 0.6619 0.1044 0.819
C6LA C 0.6945 0.117 0.8639
O1LA O 0.7362 0.0857 0.8765
H7LA H 0.738 0.0599 0.8547
C1MB C 0.7778 0.6205 0.7598
H1MB H 0.7843 0.6529 0.7819
H2MB H 0.8029 0.6211 0.729
C2MB C 0.7874 0.5702 0.7935
H3MB H 0.8249 0.5702 0.8068
H4MB H 0.7632 0.5706 0.825
C3MB C 0.7775 0.51945 0.7611
H5MB H 0.8037 0.5182 0.7307
N1MB N 0.7862 0.47373 0.7949
C4MB C 0.824 0.4414 0.785
H6MB H 0.8446 0.4471 0.7535
C5MB C 0.8381 0.3956 0.819
C6MB C 0.8055 0.383 0.8639
O1MB O 0.7638 0.4143 0.8765
H7MB H 0.762 0.4401 0.8547
C1EC C 0.7778 -0.1205 0.7402
H1EC H 0.7843 -0.1529 0.7181
H2EC H 0.8029 -0.1211 0.771
C2EC C 0.7874 -0.0702 0.7065
H3EC H 0.8249 -0.0702 0.6932
H4EC H 0.7632 -0.0706 0.675
C3EC C 0.7775 -0.01945 0.7389
H5EC H 0.8037 -0.0182 0.7693
N1EC N 0.7862 0.02627 0.7051
C4EC C 0.824 0.0586 0.715
H6EC H 0.8446 0.0529 0.7465
C5EC C 0.8381 0.1044 0.681
C6EC C 0.8055 0.117 0.6361
O1EC O 0.7638 0.0857 0.6235
H7EC H 0.762 0.0599 0.6453
C1JC C 1.1205 0.2402 0.7222
H1JC H 1.1529 0.2181 0.7157
H2JC H 1.1211 0.271 0.6971
C2JC C 1.0702 0.2065 0.7126
H3JC H 1.0702 0.1932 0.6751
H4JC H 1.0706 0.175 0.7368
C3JC C 1.01945 0.2389 0.7225
H5JC H 1.0182 0.2693 0.6963
N1JC N 0.97373 0.2051 0.7138
C4JC C 0.9414 0.215 0.676
H6JC H 0.9471 0.2465 0.6554
C5JC C 0.8956 0.181 0.6619
C6JC C 0.883 0.1361 0.6945
O1JC O 0.9143 0.1235 0.7362
H7JC H 0.9401 0.1453 0.738
C1CA C 0.7402 0.2222 1.1205
H1CA H 0.7181 0.2157 1.1529
H2CA H 0.771 0.1971 1.1211
C2CA C 0.7065 0.2126 1.0702
H3CA H 0.6932 0.1751 1.0702
H4CA H 0.675 0.2368 1.0706
C3CA C 0.7389 0.2225 1.01945
H5CA H 0.7693 0.1963 1.0182
N1CA N 0.7051 0.2138 0.97373
C4CA C 0.715 0.176 0.9414
H6CA H 0.7465 0.1554 0.9471
C5CA C 0.681 0.1619 0.8956
C6CA C 0.6361 0.1945 0.883
O1CA O 0.6235 0.2362 0.9143
H7CA H 0.6453 0.238 0.9401
C1DB C 0.7598 0.2778 1.1205
H1DB H 0.7819 0.2843 1.1529
H2DB H 0.729 0.3029 1.1211
C2DB C 0.7935 0.2874 1.0702
H3DB H 0.8068 0.3249 1.0702
H4DB H 0.825 0.2632 1.0706
C3DB C 0.7611 0.2775 1.01945
H5DB H 0.7307 0.3037 1.0182
N1DB N 0.7949 0.2862 0.97373
C4DB C 0.785 0.324 0.9414
H6DB H 0.7535 0.3446 0.9471
C5DB C 0.819 0.3381 0.8956
C6DB C 0.8639 0.3055 0.883
O1DB O 0.8765 0.2638 0.9143
H7DB H 0.8547 0.262 0.9401
C1KB C 1.1205 0.2598 0.7778
H1KB H 1.1529 0.2819 0.7843
H2KB H 1.1211 0.229 0.8029
C2KB C 1.0702 0.2935 0.7874
H3KB H 1.0702 0.3068 0.8249
H4KB H 1.0706 0.325 0.7632
C3KB C 1.01945 0.2611 0.7775
H5KB H 1.0182 0.2307 0.8037
N1KB N 0.97373 0.2949 0.7862
C4KB C 0.9414 0.285 0.824
H6KB H 0.9471 0.2535 0.8446
C5KB C 0.8956 0.319 0.8381
C6KB C 0.883 0.3639 0.8055
O1KB O 0.9143 0.3765 0.7638
H7KB H 0.9401 0.3547 0.762
H8? H 0.6277 0.2747 0.5955

#END

