
#######################################################################
#
#                 Cambridge Crystallographic Data Centre
#                                CCDC 
#
#######################################################################
#
# If this CIF has been generated directly or indirectly from an entry in the 
# Cambridge Structural Database, then it will include bibliographic, chemical, 
# crystal, experimental, refinement or atomic coordinate data resulting from 
# the CCDC's data processing and validation procedures. Files generated from 
# CSD entries are Copyright 2014 Cambridge Crystallographic Data Centre. They 
# may be used in bona fide research applications only, and may not be copied or 
# further disseminated in any form, whether machine-readable or not, except for 
# the purposes of generating routine backup copies on your local computer 
# system.
# 
# Files arising from any other source may also contain material that is the 
# copyright of third parties, including the originator, and you should check 
# with the originator concerning the permitted uses of the information 
# contained in this CIF.
#
# For further information on the CCDC and the free tools enCIFer and Mercury
# for validating and visualising CIF files, please visit www.ccdc.cam.ac.uk
#
#######################################################################

data_PUDWUH
_audit_creation_date             2009-12-22
_database_code_depnum_ccdc_archive 'CCDC 720848'
_chemical_name_common            
3,6,10,13,17,20,24,27,30,33,36,39-Dodecaaza-1,8,15,22(1,3,5)-tetrabenzenatricyclo[13.13.6.6$8,22!]tetracontaphane-2,6,9,13,16,20,23,27,29,33,35,39-dodecaene
_chemical_formula_moiety         'C48 H48 N12'
_chemical_name_systematic        
5,8,16,19,27,30,38,41,46,49,54,57-Dodecaazaheptacyclo[21.21.6.6^12,34^.1^3,43^.1^10,14^.1^21,25^.1^32,36^]hexaconta-1,3(51),4,8,10(60),11,13,15,19,21(59),22,24,26,30,32(52),33,35,37,41,43,45,49,53,57-tetracosaene
_journal_coden_Cambridge         771
_journal_volume                  8
_journal_year                    2009
_journal_page_first              973
_journal_name_full               Nat.Mater
loop_
_publ_author_name
T.Tozawa
J.T.A.Jones
S.I.Swamy
'Shan Jiang'
D.J.Adams
S.Shakespeare
R.Clowes
D.Bradshaw
T.Hasell
S.Y.Chong
'Chiu Tang'
S.Thompson
J.Parker
A.Trewin
J.Bacsa
A.M.Z.Slawin
A.Steiner
A.I.Cooper
_chemical_absolute_configuration unk
_diffrn_ambient_temperature      173
_exptl_crystal_density_meas      1.033
_exptl_crystal_density_diffrn    1.033
#These two values have been output from a single CSD field.
_refine_ls_R_factor_gt           0.1733
_refine_ls_wR_factor_gt          0.1733
_diffrn_radiation_probe          x-ray
_symmetry_cell_setting           monoclinic
_symmetry_space_group_name_H-M   'P 21/c'
_symmetry_Int_Tables_number      14
loop_
_symmetry_equiv_pos_site_id
_symmetry_equiv_pos_as_xyz
1 x,y,z
2 -x,1/2+y,1/2-z
3 -x,-y,-z
4 x,1/2-y,1/2+z
_cell_length_a                   12.810(3)
_cell_length_b                   10.910(3)
_cell_length_c                   36.810(10)
_cell_angle_alpha                90
_cell_angle_beta                 97.490(5)
_cell_angle_gamma                90
_cell_volume                     5100.56
_exptl_crystal_colour            colorless
_exptl_crystal_description       needle
_cell_formula_units_Z            4
loop_
_atom_site_label
_atom_site_type_symbol
_atom_site_fract_x
_atom_site_fract_y
_atom_site_fract_z
N1 N 0.5629(19) 0.358(2) 0.2255(6)
N2 N 0.3826(17) 0.4341(18) 0.2625(6)
N3 N 0.3790(17) 0.292(2) 0.0049(6)
N4 N 0.6305(19) 1.034(2) 0.1314(6)
N5 N 0.747(2) 0.812(2) 0.1435(6)
N6 N -0.0489(18) 0.400(2) 0.1551(6)
N7 N -0.0436(17) 0.3942(18) 0.0755(6)
N8 N 0.1977(17) 1.050(2) 0.0264(6)
N9 N 0.5837(18) 0.334(2) 0.0504(6)
N10 N 0.0860(19) 0.911(2) 0.2269(7)
N11 N 0.1608(16) 0.815(2) -0.0149(6)
N12 N 0.1973(18) 1.127(2) 0.1994(6)
C1 C 0.603(3) 0.483(2) 0.1745(6)
C2 C 0.2253(19) 0.507(2) 0.2235(7)
C3 C 0.2583(19) 0.455(2) 0.0139(7)
C4 C 0.4445(17) 1.052(3) 0.1354(7)
C5 C 0.651(2) 0.593(2) 0.1660(7)
C6 C 0.228(2) 0.624(2) 0.2398(8)
C7 C 0.2028(19) 0.384(2) 0.0362(7)
C8 C 0.4185(18) 1.029(3) 0.0980(6)
C9 C 0.659(2) 0.618(2) 0.1293(7)
C10 C 0.153(2) 0.708(2) 0.2250(7)
C11 C 0.1116(18) 0.434(2) 0.0469(7)
C12 C 0.3143(19) 1.039(3) 0.0833(6)
C13 C 0.625(2) 0.540(2) 0.1002(7)
C14 C 0.070(2) 0.681(2) 0.1981(7)
C15 C 0.0735(18) 0.553(2) 0.0384(7)
C16 C 0.2303(19) 1.067(3) 0.1026(6)
C17 C 0.587(2) 0.423(2) 0.1107(6)
C18 C 0.066(2) 0.558(2) 0.1847(8)
C19 C 0.1352(19) 0.623(2) 0.0160(7)
C20 C 0.2619(19) 1.086(3) 0.1411(6)
C21 C 0.571(2) 0.399(2) 0.1468(7)
C22 C 0.1417(19) 0.472(2) 0.1979(7)
C23 C 0.2234(19) 0.572(2) 0.0030(7)
C24 C 0.3656(19) 1.084(3) 0.1564(7)
C25 C 0.594(2) 0.460(2) 0.2134(6)
C26 C 0.3037(18) 0.418(2) 0.2385(7)
C27 C 0.3551(17) 0.405(2) 0.0018(7)
C28 C 0.5555(17) 1.048(3) 0.1506(7)
C29 C 0.569(2) 0.348(3) 0.2655(7)
C30 C 0.452(2) 0.329(2) 0.2708(8)
C31 C 0.4833(18) 0.260(2) -0.0043(7)
C32 C 0.7357(18) 1.028(3) 0.1508(8)
C33 C 0.707(2) 0.736(2) 0.1197(7)
C34 C 0.157(2) 0.835(2) 0.2403(7)
C35 C 0.0458(18) 0.358(2) 0.0677(6)
C36 C 0.2869(18) 1.026(3) 0.0434(6)
C37 C 0.793(2) 0.926(2) 0.1316(8)
C38 C 0.096(2) 1.033(2) 0.2441(8)
C39 C -0.1027(19) 0.311(2) 0.0961(7)
C40 C 0.185(2) 1.033(3) -0.0132(6)
C41 C 0.555(2) 0.330(2) 0.0824(6)
C42 C -0.0218(18) 0.514(2) 0.1584(7)
C43 C 0.1032(19) 0.747(2) 0.0032(7)
C44 C 0.1791(18) 1.109(3) 0.1648(6)
C45 C 0.564(2) 0.223(2) 0.0283(6)
C46 C -0.142(2) 0.379(3) 0.1286(7)
C47 C 0.109(2) 0.930(2) -0.0281(8)
C48 C 0.098(2) 1.139(3) 0.2157(7)
H1 H 0.59810 0.42350 0.27780
H2 H 0.61250 0.27690 0.27500
H3 H 0.67650 0.64930 0.18480
H4 H 0.27900 0.64370 0.26010
H5 H 0.22620 0.30460 0.04390
H6 H 0.47090 1.00660 0.08320
H7 H 0.42330 0.26010 0.25510
H8 H 0.44860 0.30510 0.29650
H9 H 0.62690 0.56210 0.07530
H10 H 0.01900 0.74120 0.18920
H11 H 0.01190 0.58490 0.04680
H12 H 0.15940 1.07310 0.09140
H13 H 0.51130 0.33170 -0.01660
H14 H 0.47550 0.19200 -0.02210
H15 H 0.53710 0.32480 0.15250
H16 H 0.13600 0.38980 0.18950
H17 H 0.25970 0.61800 -0.01340
H18 H 0.38370 1.10440 0.18160
H19 H 0.73390 1.00790 0.17690
H20 H 0.61230 0.52380 0.23050
H21 H 0.29420 0.33690 0.22920
H22 H 0.40110 0.45930 -0.00870
H23 H 0.57280 1.05530 0.17640
H24 H 0.77230 1.10770 0.14930
H25 H 0.70740 0.75450 0.09460
H26 H 0.21070 0.85820 0.25930
H27 H 0.07050 0.27890 0.07570
H28 H 0.34020 0.99890 0.02960
H29 H 0.77920 0.93430 0.10460
H30 H 0.86950 0.92810 0.13940
H31 H 0.16150 1.03550 0.26170
H32 H 0.03600 1.04600 0.25820
H33 H -0.05720 0.24180 0.10540
H34 H -0.16360 0.27790 0.07970
H35 H 0.25540 1.01650 -0.02070
H36 H 0.15970 1.11130 -0.02500
H37 H 0.51160 0.26420 0.08810
H38 H -0.06090 0.57190 0.14300
H39 H 0.03760 0.77820 0.00840
H40 H 0.10790 1.10890 0.15360
H41 H 0.53580 0.15710 0.04270
H42 H 0.62990 0.19370 0.01970
H43 H -0.17570 0.45780 0.12040
H44 H -0.19410 0.32830 0.13950
H45 H 0.04070 0.93880 -0.01880
H46 H 0.09750 0.93120 -0.05520
H47 H 0.03700 1.13290 0.19650
H48 H 0.09570 1.21950 0.22810

#END

