
#######################################################################
#
#                 Cambridge Crystallographic Data Centre
#                                CCDC 
#
#######################################################################
#
# If this CIF has been generated directly or indirectly from an entry in the 
# Cambridge Structural Database, then it will include bibliographic, chemical, 
# crystal, experimental, refinement or atomic coordinate data resulting from 
# the CCDC's data processing and validation procedures. Files generated from 
# CSD entries are Copyright 2014 Cambridge Crystallographic Data Centre. They 
# may be used in bona fide research applications only, and may not be copied or 
# further disseminated in any form, whether machine-readable or not, except for 
# the purposes of generating routine backup copies on your local computer 
# system.
# 
# Files arising from any other source may also contain material that is the 
# copyright of third parties, including the originator, and you should check 
# with the originator concerning the permitted uses of the information 
# contained in this CIF.
#
# For further information on the CCDC and the free tools enCIFer and Mercury
# for validating and visualising CIF files, please visit www.ccdc.cam.ac.uk
#
#######################################################################

data_PUDXAO
_audit_creation_date             2009-12-22
_database_code_depnum_ccdc_archive 'CCDC 720849'
_chemical_formula_moiety         'C54 H60 N12,6(H2 O1)'
_chemical_name_systematic        
'5,11,19,26,31,37-Hexamethyl-3,6,10,13,17,20,24,27,30,33,36,39-dodecaaza-1,8,15,22(1,3,5)-tetrabenzenatricyclo[13.13.6.6^8,22^]tetracontaphane-2,6,9,13,16,20,23,27,29,33,35,39-dodecaene hexahydrate'
_journal_coden_Cambridge         771
_journal_volume                  8
_journal_year                    2009
_journal_page_first              973
_journal_name_full               Nat.Mater
loop_
_publ_author_name
T.Tozawa
J.T.A.Jones
S.I.Swamy
'Shan Jiang'
D.J.Adams
S.Shakespeare
R.Clowes
D.Bradshaw
T.Hasell
S.Y.Chong
'Chiu Tang'
S.Thompson
J.Parker
A.Trewin
J.Bacsa
A.M.Z.Slawin
A.Steiner
A.I.Cooper
_chemical_absolute_configuration unk
_diffrn_ambient_temperature      100
_exptl_crystal_density_meas      0.984
_exptl_crystal_density_diffrn    0.982
#These two values have been output from a single CSD field.
_refine_ls_R_factor_gt           0.0909
_refine_ls_wR_factor_gt          0.0909
_diffrn_radiation_probe          x-ray
_symmetry_cell_setting           trigonal
_symmetry_space_group_name_H-M   'P -3'
_symmetry_Int_Tables_number      147
loop_
_symmetry_equiv_pos_site_id
_symmetry_equiv_pos_as_xyz
1 x,y,z
2 -y,x-y,z
3 -x+y,-x,z
4 -x,-y,-z
5 y,-x+y,-z
6 x-y,x,-z
_cell_length_a                   18.770(3)
_cell_length_b                   18.770(3)
_cell_length_c                   10.921(2)
_cell_angle_alpha                90
_cell_angle_beta                 90
_cell_angle_gamma                120
_cell_volume                     3332.13
_exptl_crystal_colour            colorless
_exptl_crystal_description       needle
_cell_formula_units_Z            2
_exptl_crystal_recrystallization_method acetonitrile
loop_
_atom_site_label
_atom_site_type_symbol
_atom_site_fract_x
_atom_site_fract_y
_atom_site_fract_z
N1 N 0.7993(5) 0.6558(4) 0.7936(7)
N2 N 0.7794(6) 0.5627(7) 1.0178(6)
N3 N 0.9441(4) 0.4092(5) 0.2924(6)
N4 N 0.9455(5) 0.5643(4) 0.3212(6)
C1 C 0.8442(6) 0.6941(6) 0.9096(9)
C2 C 0.7883(7) 0.6450(7) 1.0180(8)
C3 C 0.8600(12) 0.7789(9) 0.9256(14)
C4 C 1.0155(6) 0.4899(7) 0.2672(7)
C5 C 0.9858(6) 0.5474(6) 0.2189(8)
C6 C 1.0698(7) 0.4882(7) 0.1708(10)
C7 C 0.8423(6) 0.6435(5) 0.7104(10)
C8 C 0.8042(7) 0.6089(5) 0.5901(8)
C9 C 0.7282(6) 0.5957(5) 0.5553(8)
C10 C 0.6968(6) 0.5643(5) 0.4410(8)
C11 C 0.7441(6) 0.5440(4) 0.3606(7)
C12 C 0.8219(6) 0.5605(5) 0.3943(8)
C13 C 0.8522(5) 0.5930(5) 0.5107(8)
C14 C 0.8720(7) 0.5444(5) 0.3052(7)
C15 C 0.7065(8) 0.5036(8) 1.0219(7)
C16 C 0.6883(11) 0.4156(7) 1.0215(6)
C17 C 0.7485(6) 0.3918(10) 1.0235(6)
C18 C 0.9359(5) 0.3839(6) 0.4032(8)
H1 H 0.88810 0.80090 1.00380
H2 H 0.89700 0.69320 0.91280
H3 H 0.81320 0.67340 1.09610
H4 H 0.73380 0.64060 1.00950
H5 H 0.89480 0.81340 0.85840
H6 H 1.03840 0.46650 0.09500
H7 H 0.89720 0.65670 0.72700
H8 H 0.69690 0.60830 0.61050
H9 H 0.72190 0.51900 0.28380
H10 H 0.90540 0.60390 0.53510
H11 H 0.84640 0.51720 0.23100
H12 H 0.66230 0.51450 1.02520
H13 H 0.80500 0.43290 1.02620
H14 H 0.97510 0.41820 0.46270
H15 H 0.80770 0.77870 0.92510
H16 H 1.04780 0.51320 0.34420
H17 H 1.03290 0.59930 0.18850
H18 H 0.94640 0.52080 0.15070
H19 H 1.09170 0.45300 0.19700
H20 H 1.11540 0.54420 0.15650
N1A N 0.3442 0.1435 0.7936
N1B N 0.8565 0.2007 0.7936
N2A N 0.4373 0.2167 1.0178
N2B N 0.7833 0.2206 1.0178
N3A N 0.5908 0.5349 0.2924
N3B N 0.4651 0.0559 0.2924
N4A N 0.4357 0.3812 0.3212
N4B N 0.6188 0.0545 0.3212
C1A C 0.3059 0.1501 0.9096
C1B C 0.8499 0.1558 0.9096
C2A C 0.355 0.1433 1.018
C2B C 0.8567 0.2117 1.018
C3A C 0.2211 0.0811 0.9256
C3B C 0.9189 0.14 0.9256
C4A C 0.5101 0.5256 0.2672
C4B C 0.4744 -0.0155 0.2672
C5A C 0.4526 0.4384 0.2189
C5B C 0.5616 0.0142 0.2189
C6A C 0.5118 0.5816 0.1708
C6B C 0.4184 -0.0698 0.1708
C7A C 0.3565 0.1988 0.7104
C7B C 0.8012 0.1577 0.7104
C8A C 0.3911 0.1953 0.5901
C8B C 0.8047 0.1958 0.5901
C9A C 0.4043 0.1325 0.5553
C9B C 0.8675 0.2718 0.5553
C10A C 0.4357 0.1325 0.441
C10B C 0.8675 0.3032 0.441
C11A C 0.456 0.2001 0.3606
C11B C 0.7999 0.2559 0.3606
C12A C 0.4395 0.2614 0.3943
C12B C 0.7386 0.1781 0.3943
C13A C 0.407 0.2592 0.5107
C13B C 0.7408 0.1478 0.5107
C14A C 0.4556 0.3276 0.3052
C14B C 0.6724 0.128 0.3052
C15A C 0.4964 0.2029 1.0219
C15B C 0.7971 0.2935 1.0219
C16A C 0.5844 0.2727 1.0215
C16B C 0.7273 0.3117 1.0215
C17A C 0.6082 0.3567 1.0235
C17B C 0.6433 0.2515 1.0235
C18A C 0.6161 0.552 0.4032
C18B C 0.448 0.0641 0.4032
H1A H 0.1991 0.0872 1.0038
H1B H 0.9128 0.1119 1.0038
H2A H 0.3068 0.2038 0.9128
H2B H 0.7962 0.103 0.9128
H3A H 0.3266 0.1398 1.0961
H3B H 0.8602 0.1868 1.0961
H4A H 0.3594 0.0932 1.0095
H4B H 0.9068 0.2662 1.0095
H5A H 0.1866 0.0814 0.8584
H5B H 0.9186 0.1052 0.8584
H6A H 0.5335 0.5719 0.095
H6B H 0.4281 -0.0384 0.095
H7A H 0.3433 0.2405 0.727
H7B H 0.7595 0.1028 0.727
H8A H 0.3917 0.0886 0.6105
H8B H 0.9114 0.3031 0.6105
H9A H 0.481 0.2029 0.2838
H9B H 0.7971 0.2781 0.2838
H10A H 0.3961 0.3015 0.5351
H10B H 0.6985 0.0946 0.5351
H11A H 0.4828 0.3292 0.231
H11B H 0.6708 0.1536 0.231
H12A H 0.4855 0.1478 1.0252
H12B H 0.8522 0.3377 1.0252
H13A H 0.5671 0.3721 1.0262
H13B H 0.6279 0.195 1.0262
H14A H 0.5818 0.5569 0.4627
H14B H 0.4431 0.0249 0.4627
H15A H 0.2213 0.029 0.9251
H15B H 0.971 0.1923 0.9251
H16A H 0.4868 0.5346 0.3442
H16B H 0.4654 -0.0478 0.3442
H17A H 0.4007 0.4336 0.1885
H17B H 0.5664 -0.0329 0.1885
H18A H 0.4792 0.4256 0.1507
H18B H 0.5744 0.0536 0.1507
H19A H 0.547 0.6387 0.197
H19B H 0.3613 -0.0917 0.197
H20A H 0.4558 0.5712 0.1565
H20B H 0.4288 -0.1154 0.1565
C19? C 0.8442(6) 0.6941(6) 0.9096(9)
C20? C 0.7883(7) 0.6450(7) 1.0180(8)
C21? C 0.8323(13) 0.6955(10) 1.1265(14)
C22? C 1.0155(6) 0.4899(7) 0.2672(7)
C23? C 0.9858(6) 0.5474(6) 0.2189(8)
C24? C 1.0526(15) 0.6134(15) 0.148(3)
H21? H 0.85760 0.75220 0.91410
H22? H 0.89620 0.69270 0.91270
H23? H 0.73330 0.64070 1.00980
H24? H 0.88980 0.70880 1.12430
H25? H 0.80610 0.66450 1.20130
H26? H 0.82990 0.74640 1.12570
H27? H 1.05130 0.48460 0.20560
H28? H 1.04790 0.51300 0.34310
H29? H 0.94120 0.51420 0.15870
H30? H 1.10570 0.62450 0.18080
H31? H 1.04850 0.66340 0.15320
H32? H 1.04810 0.59640 0.06200

#END

