Å“
#######################################################################
#
#                 Cambridge Crystallographic Data Centre
#                                CCDC 
#
#######################################################################
#
# If this CIF has been generated directly or indirectly from an entry in the 
# Cambridge Structural Database, then it will include bibliographic, chemical, 
# crystal, experimental, refinement or atomic coordinate data resulting from 
# the CCDC's data processing and validation procedures. Files generated from 
# CSD entries are Copyright 2015 Cambridge Crystallographic Data Centre. They 
# may be used in bona fide research applications only, and may not be copied or 
# further disseminated in any form, whether machine-readable or not, except for 
# the purposes of generating routine backup copies on your local computer 
# system.
# 
# Files arising from any other source may also contain material that is the 
# copyright of third parties, including the originator, and you should check 
# with the originator concerning the permitted uses of the information 
# contained in this CIF.
#
# For further information on the CCDC and the free tools enCIFer and Mercury
# for validating and visualising CIF files, please visit www.ccdc.cam.ac.uk
#
#######################################################################

data_PUDXES03
_audit_creation_date             2014-07-11
_database_code_depnum_ccdc_archive 'CCDC 991217'
_chemical_formula_moiety         'C72 H84 N12'
_chemical_name_systematic        
5,12,20,27,35,42,50,57,62,69,74,81-dodecaazatridecacyclo[29.29.10.10^16,46^.1^3,59^.1^14,18^.1^29,33^.1^44,48^.0^6,11^.0^21,26^.0^36,41^.0^51,56^.0^63,68^.0^75,80^]tetraoctaconta-1,3(71),4,12,14(84),15,17,19,27,29(83),30,32,34,42,44(72),45,47,49,57,59,61,69,73,81-tetracosaene
_journal_coden_Cambridge         182
_journal_volume                  50
_journal_year                    2014
_journal_page_first              9465
_journal_name_full               Chem.Commun.
loop_
_publ_author_name
M.A.Little
'Samantha Y.Chong'
M.Schmidtmann
T.Hasell
A.I.Cooper
_chemical_absolute_configuration unk
_diffrn_ambient_temperature      400
_exptl_crystal_density_meas      0.914
_exptl_crystal_density_diffrn    0.914
#These two values have been output from a single CSD field.
_refine_ls_R_factor_gt           0.0576
_refine_ls_wR_factor_gt          0.0576
_diffrn_radiation_probe          x-ray
_symmetry_cell_setting           trigonal
_symmetry_space_group_name_H-M   'P 3'
_symmetry_Int_Tables_number      143
loop_
_symmetry_equiv_pos_site_id
_symmetry_equiv_pos_as_xyz
1 x,y,z
2 -y,x-y,z
3 -x+y,-x,z
_cell_length_a                   25.2084(15)
_cell_length_b                   25.2084(15)
_cell_length_c                   11.0674(7)
_cell_angle_alpha                90
_cell_angle_beta                 90
_cell_angle_gamma                120
_cell_volume                     6090.69
_exptl_crystal_colour            colorless
_exptl_crystal_description       needle
_cell_formula_units_Z            3
loop_
_atom_site_label
_atom_site_type_symbol
_atom_site_fract_x
_atom_site_fract_y
_atom_site_fract_z
N1 N 0.53286(18) 0.3558(2) 0.5333(4)
C1 C 0.4696(2) 0.3422(3) 0.5349(5)
H1 H 0.4416 0.2973 0.5467
C2 C 0.6068(2) 0.3234(3) 0.5407(5)
N2 N 0.4679(2) 0.3506(2) 0.7531(5)
C3 C 0.5341(3) 0.3295(4) 1.1709(6)
H2 H 0.5406 0.3172 1.2481
C4 C 0.6576(3) 0.3826(3) 0.5412(5)
H3 H 0.6511 0.4166 0.5420
C5 C 0.5445(2) 0.3134(3) 0.5422(5)
H4 H 0.5113 0.2727 0.5505
C6 C 0.4625(3) 0.3772(3) 0.6404(6)
H5 H 0.4953 0.4213 0.6362
C7 C 0.5561(3) 0.4076(3) 1.0268(6)
H6 H 0.5773 0.4497 1.0050
C8 C 0.6008(3) 0.4383(3) 1.2306(6)
H7 H 0.6121 0.4262 1.3030
C9 C 0.5642(3) 0.3911(3) 1.1408(6)
C10 C 0.4561(3) 0.3617(4) 0.4131(6)
H8 H 0.4878 0.4046 0.3957
H9 H 0.4577 0.3354 0.3483
C11 C 0.4946(3) 0.2857(3) 1.0899(7)
C12 C 0.7168(4) 0.5796(3) 1.2556(6)
H10 H 0.7118 0.5971 1.1782
C13 C 0.6544(3) 0.5374(3) 1.3093(5)
H11 H 0.6588 0.5153 1.3801
C14 C 0.4878(3) 0.3033(4) 0.9772(7)
H12 H 0.4619 0.2730 0.9207
N3 N 0.6177(2) 0.4933(3) 1.2161(5)
C15 C 0.3993(3) 0.3725(3) 0.6370(7)
H13 H 0.3967 0.3982 0.7016
H14 H 0.3669 0.3295 0.6512
C16 C 0.5090(3) 0.3850(3) 0.8256(6)
H15 H 0.5355 0.4264 0.8028
N4 N 0.4552(2) 0.2025(3) 1.2318(6)
C17 C 0.3941(4) 0.3564(6) 0.4139(8)
H16 H 0.3869 0.3705 0.3353
H17 H 0.3622 0.3130 0.4247
C18 C 0.3895(3) 0.3939(4) 0.5135(10)
H18 H 0.3485 0.3903 0.5114
H19 H 0.4206 0.4375 0.5014
C19 C 0.7576(4) 0.6326(4) 1.3437(8)
H20 H 0.7675 0.6159 1.4157
H21 H 0.7965 0.6618 1.3032
C20 C 0.6231(4) 0.5728(4) 1.3492(8)
H22 H 0.6144 0.5907 1.2776
H23 H 0.5836 0.5444 1.3884
C21 C 0.5181(3) 0.3648(3) 0.9430(6)
C22 C 0.6629(6) 0.6232(5) 1.4366(9)
H24 H 0.6421 0.6462 1.4594
H25 H 0.6689 0.6050 1.5109
C23 C 0.7234(6) 0.6659(4) 1.3824(10)
H26 H 0.7485 0.6981 1.4419
H27 H 0.7174 0.6861 1.3111
C24 C 0.4600(3) 0.2198(3) 1.1252(8)
H28 H 0.4410 0.1898 1.0636
N1A N 0.6442 0.17706 0.5333
C1A C 0.6578 0.1274 0.5349
H1A H 0.7027 0.1443 0.5467
C2A C 0.6766 0.2834 0.5407
N2A N 0.6494 0.1173 0.7531
C3A C 0.6705 0.2046 1.1709
H2A H 0.6828 0.2234 1.2481
C4A C 0.6174 0.275 0.5412
H3A H 0.5834 0.2345 0.542
C5A C 0.6866 0.2311 0.5422
H4A H 0.7273 0.2386 0.5505
C6A C 0.6228 0.0853 0.6404
H5A H 0.5787 0.074 0.6362
C7A C 0.5924 0.1485 1.0268
H6A H 0.5503 0.1276 1.005
C8A C 0.5617 0.1625 1.2306
H7A H 0.5738 0.1859 1.303
C9A C 0.6089 0.1731 1.1408
C10A C 0.6383 0.0944 0.4131
H8A H 0.5954 0.0832 0.3957
H9A H 0.6646 0.1223 0.3483
C11A C 0.7143 0.2089 1.0899
C12A C 0.4204 0.1372 1.2556
H10A H 0.4029 0.1147 1.1782
C13A C 0.4626 0.117 1.3093
H11A H 0.4847 0.1435 1.3801
C14A C 0.6967 0.1845 0.9772
H12A H 0.727 0.1889 0.9207
N3A N 0.5067 0.1244 1.2161
C15A C 0.6275 0.0268 0.637
H13A H 0.6018 -0.0015 0.7016
H14A H 0.6705 0.0374 0.6512
C16A C 0.615 0.124 0.8256
H15A H 0.5736 0.1091 0.8028
N4A N 0.7975 0.2527 1.2318
C17A C 0.6436 0.0377 0.4139
H16A H 0.6295 0.0164 0.3353
H17A H 0.687 0.0492 0.4247
C18A C 0.6061 -0.0044 0.5135
H18A H 0.6097 -0.0418 0.5114
H19A H 0.5625 -0.0169 0.5014
C19A C 0.3674 0.125 1.3437
H20A H 0.3841 0.1516 1.4157
H21A H 0.3382 0.1347 1.3032
C20A C 0.4272 0.0503 1.3492
H22A H 0.4093 0.0237 1.2776
H23A H 0.4556 0.0392 1.3884
C21A C 0.6352 0.1533 0.943
C22A C 0.3768 0.0397 1.4366
H24A H 0.3538 -0.0041 1.4594
H25A H 0.395 0.0639 1.5109
C23A C 0.3341 0.0575 1.3824
H26A H 0.3019 0.0504 1.4419
H27A H 0.3139 0.0313 1.3111
C24A C 0.7802 0.2402 1.1252
H28A H 0.8102 0.2512 1.0636
N1B N 0.82294 0.46714 0.5333
C1B C 0.8726 0.5304 0.5349
H1B H 0.8557 0.5584 0.5467
C2B C 0.7166 0.3932 0.5407
N2B N 0.8827 0.5321 0.7531
C3B C 0.7954 0.4659 1.1709
H2B H 0.7766 0.4594 1.2481
C4B C 0.725 0.3424 0.5412
H3B H 0.7655 0.3489 0.542
C5B C 0.7689 0.4555 0.5422
H4B H 0.7614 0.4887 0.5505
C6B C 0.9147 0.5375 0.6404
H5B H 0.926 0.5047 0.6362
C7B C 0.8515 0.4439 1.0268
H6B H 0.8724 0.4227 1.005
C8B C 0.8375 0.3992 1.2306
H7B H 0.8141 0.3879 1.303
C9B C 0.8269 0.4358 1.1408
C10B C 0.9056 0.5439 0.4131
H8B H 0.9168 0.5122 0.3957
H9B H 0.8777 0.5423 0.3483
C11B C 0.7911 0.5054 1.0899
C12B C 0.8628 0.2832 1.2556
H10B H 0.8853 0.2882 1.1782
C13B C 0.883 0.3456 1.3093
H11B H 0.8565 0.3412 1.3801
C14B C 0.8155 0.5122 0.9772
H12B H 0.8111 0.5381 0.9207
N3B N 0.8756 0.3823 1.2161
C15B C 0.9732 0.6007 0.637
H13B H 1.0015 0.6033 0.7016
H14B H 0.9626 0.6331 0.6512
C16B C 0.876 0.491 0.8256
H15B H 0.8909 0.4645 0.8028
N4B N 0.7473 0.5448 1.2318
C17B C 0.9623 0.6059 0.4139
H16B H 0.9836 0.6131 0.3353
H17B H 0.9508 0.6378 0.4247
C18B C 1.0044 0.6105 0.5135
H18B H 1.0418 0.6515 0.5114
H19B H 1.0169 0.5794 0.5014
C19B C 0.875 0.2424 1.3437
H20B H 0.8484 0.2325 1.4157
H21B H 0.8653 0.2035 1.3032
C20B C 0.9497 0.3769 1.3492
H22B H 0.9763 0.3856 1.2776
H23B H 0.9608 0.4164 1.3884
C21B C 0.8467 0.4819 0.943
C22B C 0.9603 0.3371 1.4366
H24B H 1.0041 0.3579 1.4594
H25B H 0.9361 0.3311 1.5109
C23B C 0.9425 0.2766 1.3824
H26B H 0.9496 0.2515 1.4419
H27B H 0.9687 0.2826 1.3111
C24B C 0.7598 0.54 1.1252
H28B H 0.7488 0.559 1.0636
N5 N 0.1669(2) 0.19197(18) 0.4738(4)
C25 C 0.1944(3) 0.1234(3) 0.2135(5)
H29 H 0.2079 0.1567 0.1588
C26 C 0.1556(2) 0.0259(3) 0.3758(5)
C27 C 0.1951(3) 0.0707(3) 0.1785(5)
C28 C 0.1537(2) 0.0782(3) 0.4048(5)
H30 H 0.1377 0.0804 0.4811
C29 C 0.1716(2) 0.2503(2) 0.5062(5)
H31 H 0.1840 0.2777 0.4339
N6 N 0.2412(2) 0.1114(3) -0.0136(4)
C30 C 0.1382(2) -0.0224(3) 0.4635(5)
H32 H 0.1184 -0.0205 0.5351
C31 C 0.1744(3) 0.1274(3) 0.3266(5)
C32 C 0.1767(3) 0.1849(2) 0.3670(6)
H33 H 0.1858 0.2166 0.3101
N7 N 0.1472(2) -0.0666(2) 0.4523(4)
C33 C 0.0624(2) 0.0424(3) -0.2252(4)
C34 C 0.1280(3) 0.0869(2) -0.2241(5)
H34 H 0.1406 0.1291 -0.2164
C35 C 0.2337(2) 0.1204(3) -0.2281(5)
H35 H 0.2363 0.1604 -0.2091
N8 N 0.1691(2) 0.07193(19) -0.2329(4)
C36 C 0.1095(3) 0.2385(2) 0.5528(5)
H36 H 0.0954 0.2079 0.6201
C37 C 0.0206(3) 0.0617(2) -0.2254(5)
H37 H 0.0345 0.1043 -0.2256
C38 C 0.2652(2) 0.1051(3) -0.1305(5)
H38 H 0.2573 0.0623 -0.1410
C39 C 0.2620(3) 0.1243(3) -0.3501(5)
H39 H 0.2421 0.1371 -0.4116
H40 H 0.2553 0.0835 -0.3732
C40 C 0.1760(3) 0.0228(3) 0.2595(6)
H41 H 0.1766 -0.0131 0.2358
C41 C 0.3337(3) 0.1500(4) -0.1284(6)
H42 H 0.3536 0.1368 -0.0678
H43 H 0.3412 0.1911 -0.1051
C42 C 0.2201(3) 0.2797(3) 0.6056(6)
H44 H 0.2090 0.2512 0.6747
H45 H 0.2603 0.2879 0.5742
C43 C 0.2248(4) 0.3391(3) 0.6476(6)
H46 H 0.2561 0.3575 0.7119
H47 H 0.2378 0.3683 0.5793
C44 C 0.1638(4) 0.3276(3) 0.6953(7)
H48 H 0.1670 0.3669 0.7198
H49 H 0.1521 0.3007 0.7672
C45 C 0.2195(3) 0.0673(3) 0.0576(6)
H50 H 0.2184 0.0305 0.0343
C46 C 0.1151(3) 0.2973(3) 0.5976(6)
H51 H 0.0751 0.2890 0.6302
H52 H 0.1255 0.3260 0.5288
C47 C 0.3613(3) 0.1532(5) -0.2536(9)
H53 H 0.4055 0.1840 -0.2526
H54 H 0.3569 0.1130 -0.2738
C48 C 0.3302(4) 0.1701(5) -0.3466(7)
H55 H 0.3484 0.1715 -0.4267
H56 H 0.3367 0.2114 -0.3289
N5A N -0.19197 -0.02507 0.4738
C25A C -0.1234 0.071 0.2135
H29A H -0.1567 0.0512 0.1588
C26A C -0.0259 0.1297 0.3758
C27A C -0.0707 0.1244 0.1785
C28A C -0.0782 0.0755 0.4048
H30A H -0.0804 0.0573 0.4811
C29A C -0.2503 -0.0787 0.5062
H31A H -0.2777 -0.0937 0.4339
N6A N -0.1114 0.1298 -0.0136
C30A C 0.0224 0.1606 0.4635
H32A H 0.0205 0.1389 0.5351
C31A C -0.1274 0.047 0.3266
C32A C -0.1849 -0.0082 0.367
H33A H -0.2166 -0.0308 0.3101
N7A N 0.0666 0.2138 0.4523
C33A C -0.0424 0.02 -0.2252
C34A C -0.0869 0.0411 -0.2241
H34A H -0.1291 0.0115 -0.2164
C35A C -0.1204 0.1133 -0.2281
H35A H -0.1604 0.0759 -0.2091
N8A N -0.07193 0.09717 -0.2329
C36A C -0.2385 -0.129 0.5528
H36A H -0.2079 -0.1125 0.6201
C37A C -0.0617 -0.0411 -0.2254
H37A H -0.1043 -0.0698 -0.2256
C38A C -0.1051 0.1601 -0.1305
H38A H -0.0623 0.195 -0.141
C39A C -0.1243 0.1377 -0.3501
H39A H -0.1371 0.105 -0.4116
H40A H -0.0835 0.1718 -0.3732
C40A C -0.0228 0.1532 0.2595
H41A H 0.0131 0.1897 0.2358
C41A C -0.15 0.1837 -0.1284
H42A H -0.1368 0.2168 -0.0678
H43A H -0.1911 0.1501 -0.1051
C42A C -0.2797 -0.0596 0.6056
H44A H -0.2512 -0.0422 0.6747
H45A H -0.2879 -0.0276 0.5742
C43A C -0.3391 -0.1143 0.6476
H46A H -0.3575 -0.1014 0.7119
H47A H -0.3683 -0.1305 0.5793
C44A C -0.3276 -0.1638 0.6953
H48A H -0.3669 -0.1999 0.7198
H49A H -0.3007 -0.1486 0.7672
C45A C -0.0673 0.1522 0.0576
H50A H -0.0305 0.1879 0.0343
C46A C -0.2973 -0.1822 0.5976
H51A H -0.289 -0.2139 0.6302
H52A H -0.326 -0.2005 0.5288
C47A C -0.1532 0.2081 -0.2536
H53A H -0.184 0.2215 -0.2526
H54A H -0.113 0.2439 -0.2738
C48A C -0.1701 0.1601 -0.3466
H55A H -0.1715 0.1769 -0.4267
H56A H -0.2114 0.1253 -0.3289
N5B N 0.02507 -0.1669 0.4738
C25B C -0.071 -0.1944 0.2135
H29B H -0.0512 -0.2079 0.1588
C26B C -0.1297 -0.1556 0.3758
C27B C -0.1244 -0.1951 0.1785
C28B C -0.0755 -0.1537 0.4048
H30B H -0.0573 -0.1377 0.4811
C29B C 0.0787 -0.1716 0.5062
H31B H 0.0937 -0.184 0.4339
N6B N -0.1298 -0.2412 -0.0136
C30B C -0.1606 -0.1382 0.4635
H32B H -0.1389 -0.1184 0.5351
C31B C -0.047 -0.1744 0.3266
C32B C 0.0082 -0.1767 0.367
H33B H 0.0308 -0.1858 0.3101
N7B N -0.2138 -0.1472 0.4523
C33B C -0.02 -0.0624 -0.2252
C34B C -0.0411 -0.128 -0.2241
H34B H -0.0115 -0.1406 -0.2164
C35B C -0.1133 -0.2337 -0.2281
H35B H -0.0759 -0.2363 -0.2091
N8B N -0.09717 -0.1691 -0.2329
C36B C 0.129 -0.1095 0.5528
H36B H 0.1125 -0.0954 0.6201
C37B C 0.0411 -0.0206 -0.2254
H37B H 0.0698 -0.0345 -0.2256
C38B C -0.1601 -0.2652 -0.1305
H38B H -0.195 -0.2573 -0.141
C39B C -0.1377 -0.262 -0.3501
H39B H -0.105 -0.2421 -0.4116
H40B H -0.1718 -0.2553 -0.3732
C40B C -0.1532 -0.176 0.2595
H41B H -0.1897 -0.1766 0.2358
C41B C -0.1837 -0.3337 -0.1284
H42B H -0.2168 -0.3536 -0.0678
H43B H -0.1501 -0.3412 -0.1051
C42B C 0.0596 -0.2201 0.6056
H44B H 0.0422 -0.209 0.6747
H45B H 0.0276 -0.2603 0.5742
C43B C 0.1143 -0.2248 0.6476
H46B H 0.1014 -0.2561 0.7119
H47B H 0.1305 -0.2378 0.5793
C44B C 0.1638 -0.1638 0.6953
H48B H 0.1999 -0.167 0.7198
H49B H 0.1486 -0.1521 0.7672
C45B C -0.1522 -0.2195 0.0576
H50B H -0.1879 -0.2184 0.0343
C46B C 0.1822 -0.1151 0.5976
H51B H 0.2139 -0.0751 0.6302
H52B H 0.2005 -0.1255 0.5288
C47B C -0.2081 -0.3613 -0.2536
H53B H -0.2215 -0.4055 -0.2526
H54B H -0.2439 -0.3569 -0.2738
C48B C -0.1601 -0.3302 -0.3466
H55B H -0.1769 -0.3484 -0.4267
H56B H -0.1253 -0.3367 -0.3289
C49 C 0.3199(3) 0.5303(3) 0.7072(5)
H57 H 0.3320 0.5451 0.7872
N9 N 0.3003(2) 0.4490(2) 0.2871(4)
N10 N 0.3034(2) 0.5071(3) 0.0596(3)
C50 C 0.3398(3) 0.6153(3) 0.0685(4)
C51 C 0.2849(3) 0.4871(2) 0.4756(5)
N11 N 0.1594(3) 0.4694(3) 0.7494(4)
C52 C 0.2156(3) 0.5013(3) 0.7647(5)
H58 H 0.2299 0.5234 0.8383
C53 C 0.2607(3) 0.5068(3) 0.6757(5)
N12 N 0.4431(3) 0.5634(2) 0.7760(5)
C54 C 0.3142(3) 0.4558(3) 0.0710(5)
H59 H 0.3585 0.4716 0.0885
C55 C 0.2814(3) 0.6089(3) 0.0685(4)
H60 H 0.2460 0.5693 0.0687
C56 C 0.2754(3) 0.4153(3) 0.1758(5)
H61 H 0.2317 0.4044 0.1659
C57 C 0.3638(3) 0.5336(2) 0.6266(5)
C58 C 0.2655(3) 0.4571(3) 0.3554(5)
H62 H 0.2247 0.4435 0.3294
C59 C 0.1179(3) 0.4644(3) 0.8469(6)
H63 H 0.1429 0.4882 0.9181
C60 C 0.3460(3) 0.5119(3) 0.5106(5)
H64 H 0.3754 0.5138 0.4544
C61 C 0.0345(3) 0.4862(4) 0.9037(7)
H65 H 0.0574 0.5098 0.9759
H66 H 0.0091 0.5035 0.8747
C62 C 0.4274(3) 0.5552(3) 0.6663(6)
H67 H 0.4577 0.5633 0.6068
C63 C 0.2970(4) 0.4197(3) -0.0474(5)
H68 H 0.2544 0.4079 -0.0694
H69 H 0.3243 0.4460 -0.1127
C64 C 0.2804(4) 0.3579(3) 0.1819(5)
H70 H 0.2533 0.3310 0.2469
H71 H 0.3230 0.3693 0.2027
C65 C 0.2428(3) 0.4846(2) 0.5586(5)
H72 H 0.2011 0.4675 0.5357
C66 C 0.3467(3) 0.5608(3) 0.0718(5)
H73 H 0.3867 0.5668 0.0839
C67 C 0.0802(3) 0.4926(3) 0.8038(6)
H74 H 0.0570 0.4707 0.7295
C68 C 0.0779(4) 0.3981(4) 0.8839(8)
H75 H 0.1039 0.3823 0.9169
H76 H 0.0561 0.3732 0.8123
C69 C -0.0068(4) 0.4193(5) 0.9379(9)
H77 H -0.0352 0.4162 1.0029
H78 H -0.0315 0.3962 0.8670
C70 C 0.2628(5) 0.3228(3) 0.0637(8)
H79 H 0.2675 0.2863 0.0711
H80 H 0.2193 0.3088 0.0452
C71 C 0.3023(5) 0.3625(4) -0.0366(7)
H81 H 0.2897 0.3394 -0.1135
H82 H 0.3455 0.3743 -0.0207
C72 C 0.0309(5) 0.3921(5) 0.9803(9)
H83 H 0.0036 0.3482 0.9995
H84 H 0.0529 0.4131 1.0552
C49A C 0.4697 0.7896 0.7072
H57A H 0.4549 0.7869 0.7872
N9A N 0.551 0.8513 0.2871
N10A N 0.4929 0.7963 0.0596
C50A C 0.3847 0.7245 0.0685
C51A C 0.5129 0.7978 0.4756
N11A N 0.5306 0.69 0.7494
C52A C 0.4987 0.7143 0.7647
H58A H 0.4766 0.7065 0.8383
C53A C 0.4932 0.7539 0.6757
N12A N 0.4366 0.8797 0.776
C54A C 0.5442 0.8584 0.071
H59A H 0.5284 0.8869 0.0885
C55A C 0.3911 0.6725 0.0685
H60A H 0.4307 0.6767 0.0687
C56A C 0.5847 0.8601 0.1758
H61A H 0.5956 0.8273 0.1659
C57A C 0.4664 0.8302 0.6266
C58A C 0.5429 0.8084 0.3554
H62A H 0.5565 0.7812 0.3294
C59A C 0.5356 0.6535 0.8469
H63A H 0.5118 0.6547 0.9181
C60A C 0.4881 0.8341 0.5106
H64A H 0.4862 0.8616 0.4544
C61A C 0.5138 0.5483 0.9037
H65A H 0.4902 0.5476 0.9759
H66A H 0.4965 0.5056 0.8747
C62A C 0.4448 0.8722 0.6663
H67A H 0.4367 0.8944 0.6068
C63A C 0.5803 0.8773 -0.0474
H68A H 0.5921 0.8465 -0.0694
H69A H 0.554 0.8783 -0.1127
C64A C 0.6421 0.9225 0.1819
H70A H 0.669 0.9223 0.2469
H71A H 0.6307 0.9537 0.2027
C65A C 0.5154 0.7582 0.5586
H72A H 0.5325 0.7336 0.5357
C66A C 0.4392 0.7859 0.0718
H73A H 0.4332 0.8199 0.0839
C67A C 0.5074 0.5876 0.8038
H74A H 0.5293 0.5863 0.7295
C68A C 0.6019 0.6798 0.8839
H75A H 0.6177 0.7216 0.9169
H76A H 0.6268 0.6829 0.8123
C69A C 0.5807 0.5739 0.9379
H77A H 0.5838 0.5486 1.0029
H78A H 0.6038 0.5723 0.867
C70A C 0.6772 0.94 0.0637
H79A H 0.7137 0.9812 0.0711
H80A H 0.6912 0.9105 0.0452
C71A C 0.6375 0.9398 -0.0366
H81A H 0.6606 0.9503 -0.1135
H82A H 0.6257 0.9712 -0.0207
C72A C 0.6079 0.6388 0.9803
H83A H 0.6518 0.6554 0.9995
H84A H 0.5869 0.6398 1.0552
C49B C 0.2104 0.6801 0.7072
H57B H 0.2131 0.668 0.7872
N9B N 0.1487 0.6997 0.2871
N10B N 0.2037 0.6966 0.0596
C50B C 0.2755 0.6602 0.0685
C51B C 0.2022 0.7151 0.4756
N11B N 0.31 0.8406 0.7494
C52B C 0.2857 0.7844 0.7647
H58B H 0.2935 0.7701 0.8383
C53B C 0.2461 0.7393 0.6757
N12B N 0.1203 0.5569 0.776
C54B C 0.1416 0.6858 0.071
H59B H 0.1131 0.6415 0.0885
C55B C 0.3275 0.7186 0.0685
H60B H 0.3233 0.754 0.0687
C56B C 0.1399 0.7246 0.1758
H61B H 0.1727 0.7683 0.1659
C57B C 0.1698 0.6362 0.6266
C58B C 0.1916 0.7345 0.3554
H62B H 0.2188 0.7753 0.3294
C59B C 0.3465 0.8821 0.8469
H63B H 0.3453 0.8571 0.9181
C60B C 0.1659 0.654 0.5106
H64B H 0.1384 0.6246 0.4544
C61B C 0.4517 0.9655 0.9037
H65B H 0.4524 0.9426 0.9759
H66B H 0.4944 0.9909 0.8747
C62B C 0.1278 0.5726 0.6663
H67B H 0.1056 0.5423 0.6068
C63B C 0.1227 0.703 -0.0474
H68B H 0.1535 0.7456 -0.0694
H69B H 0.1217 0.6757 -0.1127
C64B C 0.0775 0.7196 0.1819
H70B H 0.0777 0.7467 0.2469
H71B H 0.0463 0.677 0.2027
C65B C 0.2418 0.7572 0.5586
H72B H 0.2664 0.7989 0.5357
C66B C 0.2141 0.6533 0.0718
H73B H 0.1801 0.6133 0.0839
C67B C 0.4124 0.9198 0.8038
H74B H 0.4137 0.943 0.7295
C68B C 0.3202 0.9221 0.8839
H75B H 0.2784 0.8961 0.9169
H76B H 0.3171 0.9439 0.8123
C69B C 0.4261 1.0068 0.9379
H77B H 0.4514 1.0352 1.0029
H78B H 0.4277 1.0315 0.867
C70B C 0.06 0.7372 0.0637
H79B H 0.0188 0.7325 0.0711
H80B H 0.0895 0.7807 0.0452
C71B C 0.0602 0.6977 -0.0366
H81B H 0.0497 0.7103 -0.1135
H82B H 0.0288 0.6545 -0.0207
C72B C 0.3612 0.9691 0.9803
H83B H 0.3446 0.9964 0.9995
H84B H 0.3602 0.9471 1.0552

#END

