
#######################################################################
#
#                 Cambridge Crystallographic Data Centre
#                                CCDC 
#
#######################################################################
#
# If this CIF has been generated directly or indirectly from an entry in the 
# Cambridge Structural Database, then it will include bibliographic, chemical, 
# crystal, experimental, refinement or atomic coordinate data resulting from 
# the CCDC's data processing and validation procedures. Files generated from 
# CSD entries are Copyright 2015 Cambridge Crystallographic Data Centre. They 
# may be used in bona fide research applications only, and may not be copied or 
# further disseminated in any form, whether machine-readable or not, except for 
# the purposes of generating routine backup copies on your local computer 
# system.
# 
# Files arising from any other source may also contain material that is the 
# copyright of third parties, including the originator, and you should check 
# with the originator concerning the permitted uses of the information 
# contained in this CIF.
#
# For further information on the CCDC and the free tools enCIFer and Mercury
# for validating and visualising CIF files, please visit www.ccdc.cam.ac.uk
#
#######################################################################

data_QORVIE
_audit_creation_date             2015-02-02
_database_code_depnum_ccdc_archive 'CCDC 988435'
_chemical_formula_moiety         
'C66 H54 N6 6+,0.5(C10 H8),6(F6 P1 1-),3(C2 H3 N1)'
_chemical_name_systematic        
'7,14,26,33,42,49-hexaazoniatridecacyclo[18.18.14.2^4,7^.2^9,12^.2^14,17^.2^23,26^.2^28,31^.2^33,36^.2^39,42^.2^44,47^.2^49,52^.1^3,37^.1^18,22^]doheptaconta-1,3(59),4,6,9,11,14,16,18(66),19,21,23,25,28,30,33,35,37,39,41,44,46,49,51,53,55,57,60,62,64,67,69,71-tritriacontaene hemikis(naphthalene) hexakis(hexafluorophosphate) acetonitrile unknown solvate'
_journal_coden_Cambridge         4
_journal_volume                  136
_journal_year                    2014
_journal_page_first              10669
_journal_name_full               J.Am.Chem.Soc.
loop_
_publ_author_name
E.J.Dale
N.A.Vermeulent
A.A.Thomas
J.C.Barnes
M.Juricek
A.K.Blackburn
N.L.Strutt
A.A.Sarjeant
C.L.Stern
S.E.Denmark
'J.Fraser Stoddart'
_chemical_absolute_configuration unk
_diffrn_ambient_temperature      100
_exptl_crystal_density_meas      1.188
_exptl_crystal_density_diffrn    1.188
#These two values have been output from a single CSD field.
_refine_ls_R_factor_gt           0.0696
_refine_ls_wR_factor_gt          0.0696
_diffrn_radiation_probe          x-ray
_symmetry_cell_setting           orthorhombic
_symmetry_space_group_name_H-M   'C m c m'
_symmetry_Int_Tables_number      63
loop_
_symmetry_equiv_pos_site_id
_symmetry_equiv_pos_as_xyz
1 x,y,z
2 -x,-y,1/2+z
3 -x,y,1/2-z
4 x,-y,-z
5 1/2+x,1/2+y,z
6 1/2-x,1/2-y,1/2+z
7 1/2-x,1/2+y,1/2-z
8 1/2+x,1/2-y,-z
9 -x,-y,-z
10 x,y,1/2-z
11 x,-y,1/2+z
12 -x,y,z
13 1/2-x,1/2-y,-z
14 1/2+x,1/2+y,1/2-z
15 1/2+x,1/2-y,1/2+z
16 1/2-x,1/2+y,z
_cell_length_a                   18.0851(5)
_cell_length_b                   28.5005(8)
_cell_length_c                   21.5707(6)
_cell_angle_alpha                90
_cell_angle_beta                 90
_cell_angle_gamma                90
_cell_volume                     11118.3
_exptl_crystal_colour            colorless
_exptl_crystal_description       block
_cell_formula_units_Z            4
loop_
_atom_site_label
_atom_site_type_symbol
_atom_site_fract_x
_atom_site_fract_y
_atom_site_fract_z
N1 N 0.5000 0.64260(13) 0.59830(19)
N2 N 0.23460(14) 0.34209(9) 0.60030(13)
C1 C 0.56621(17) 0.69803(11) 0.71784(16)
H1 H 0.6117 0.6986 0.6959
C2 C 0.5000 0.69713(14) 0.6855(3)
C3 C 0.5000 0.69326(16) 0.6157(2)
H2 H 0.4556 0.7089 0.5985
C4 C 0.56388(19) 0.61916(12) 0.59263(18)
H3 H 0.6092 0.6359 0.5950
C5 C 0.56519(18) 0.57183(12) 0.58349(17)
H4 H 0.6113 0.5563 0.5789
C6 C 0.5000 0.54597(15) 0.58077(19)
C7 C 0.5000 0.49403(15) 0.5797(2)
C8 C 0.43388(16) 0.46884(11) 0.57966(15)
H5 H 0.3883 0.4854 0.5786
C9 C 0.43296(17) 0.41949(11) 0.58108(15)
C10 C 0.5000 0.39575(15) 0.5828(2)
H6 H 0.5000 0.3625 0.5851
C11 C 0.36245(18) 0.39355(11) 0.58506(15)
C12 C 0.35858(18) 0.34628(11) 0.56721(16)
H7 H 0.4006 0.3315 0.5493
C13 C 0.29449(19) 0.32117(12) 0.57541(17)
H8 H 0.2924 0.2891 0.5636
C14 C 0.23564(19) 0.38753(11) 0.61501(17)
H9 H 0.1921 0.4020 0.6305
C15 C 0.29830(18) 0.41330(11) 0.60810(17)
H10 H 0.2980 0.4455 0.6193
C16 C 0.16747(18) 0.31383(12) 0.61541(16)
H11 H 0.1712 0.2824 0.5962
H12 H 0.1227 0.3295 0.5990
C17 C 0.16215(17) 0.30931(11) 0.68513(16)
C18 C 0.10831(17) 0.33258(13) 0.71763(16)
H13 H 0.0706 0.3489 0.6959
C19 C 0.2150(2) 0.28410(11) 0.71830(17)
H14 H 0.2516 0.2667 0.6966
N1B N 0.5 0.6426 0.9017
N2I N 0.2346 0.34209 0.8997
C1I C 0.56621 0.69803 0.78216
H1I H 0.6117 0.6986 0.8041
C2B C 0.5 0.69713 0.8145
C3B C 0.5 0.69326 0.8843
H2I H 0.4556 0.7089 0.9015
C4I C 0.56388 0.61916 0.90737
H3I H 0.6092 0.6359 0.905
C5I C 0.56519 0.57183 0.91651
H4I H 0.6113 0.5563 0.9211
C6B C 0.5 0.54597 0.91923
C7B C 0.5 0.49403 0.9203
C8I C 0.43388 0.46884 0.92034
H5I H 0.3883 0.4854 0.9214
C9I C 0.43296 0.41949 0.91892
C10B C 0.5 0.39575 0.9172
H6B H 0.5 0.3625 0.9149
C11I C 0.36245 0.39355 0.91494
C12I C 0.35858 0.34628 0.93279
H7I H 0.4006 0.3315 0.9507
C13I C 0.29449 0.32117 0.92459
H8I H 0.2924 0.2891 0.9364
C14I C 0.23564 0.38753 0.88499
H9I H 0.1921 0.402 0.8695
C15I C 0.2983 0.4133 0.8919
H10I H 0.298 0.4455 0.8807
C16I C 0.16747 0.31383 0.88459
H11I H 0.1712 0.2824 0.9038
H12I H 0.1227 0.3295 0.901
C17I C 0.16215 0.30931 0.81487
C18I C 0.10831 0.33258 0.78237
H13I H 0.0706 0.3489 0.8041
C19I C 0.215 0.2841 0.7817
H14I H 0.2516 0.2667 0.8034
N2K N 0.7654 0.34209 0.6003
C1K C 0.43379 0.69803 0.71784
H1K H 0.3883 0.6986 0.6959
H2K H 0.5444 0.7089 0.5985
C4K C 0.43612 0.61916 0.59263
H3K H 0.3908 0.6359 0.595
C5K C 0.43481 0.57183 0.58349
H4K H 0.3887 0.5563 0.5789
C8K C 0.56612 0.46884 0.57966
H5K H 0.6117 0.4854 0.5786
C9K C 0.56704 0.41949 0.58108
C11K C 0.63755 0.39355 0.58506
C12K C 0.64142 0.34628 0.56721
H7K H 0.5994 0.3315 0.5493
C13K C 0.70551 0.32117 0.57541
H8K H 0.7076 0.2891 0.5636
C14K C 0.76436 0.38753 0.61501
H9K H 0.8079 0.402 0.6305
C15K C 0.7017 0.4133 0.6081
H10K H 0.702 0.4455 0.6193
C16K C 0.83253 0.31383 0.61541
H11K H 0.8288 0.2824 0.5962
H12K H 0.8773 0.3295 0.599
C17K C 0.83785 0.30931 0.68513
C18K C 0.89169 0.33258 0.71763
H13K H 0.9294 0.3489 0.6959
C19K C 0.785 0.2841 0.7183
H14K H 0.7484 0.2667 0.6966
N2B N 0.7654 0.34209 0.8997
C1B C 0.43379 0.69803 0.78216
H1B H 0.3883 0.6986 0.8041
H2B H 0.5444 0.7089 0.9015
C4B C 0.43612 0.61916 0.90737
H3B H 0.3908 0.6359 0.905
C5B C 0.43481 0.57183 0.91651
H4B H 0.3887 0.5563 0.9211
C8B C 0.56612 0.46884 0.92034
H5B H 0.6117 0.4854 0.9214
C9B C 0.56704 0.41949 0.91892
C11B C 0.63755 0.39355 0.91494
C12B C 0.64142 0.34628 0.93279
H7B H 0.5994 0.3315 0.9507
C13B C 0.70551 0.32117 0.92459
H8B H 0.7076 0.2891 0.9364
C14B C 0.76436 0.38753 0.88499
H9B H 0.8079 0.402 0.8695
C15B C 0.7017 0.4133 0.8919
H10B H 0.702 0.4455 0.8807
C16B C 0.83253 0.31383 0.88459
H11B H 0.8288 0.2824 0.9038
H12B H 0.8773 0.3295 0.901
C17B C 0.83785 0.30931 0.81487
C18B C 0.89169 0.33258 0.78237
H13B H 0.9294 0.3489 0.8041
C19B C 0.785 0.2841 0.7817
H14B H 0.7484 0.2667 0.8034
C20 C 0.5000 0.4227(6) 0.7500
C21 C 0.4302(9) 0.3513(6) 0.7500
H15 H 0.4284 0.3179 0.7500
C22 C 0.3656(13) 0.3759(5) 0.7500
H16 H 0.3193 0.3602 0.7500
C23 C 0.3692(11) 0.4248(5) 0.7500
H17 H 0.3247 0.4424 0.7500
C24 C 0.4345(8) 0.4474(4) 0.7500
H18 H 0.4355 0.4808 0.7500
C25 C 0.5000 0.3739(7) 0.7500
C21B C 0.5698 0.3513 0.75
H15B H 0.5716 0.3179 0.75
C22B C 0.6344 0.3759 0.75
H16B H 0.6807 0.3602 0.75
C23B C 0.6308 0.4248 0.75
H17B H 0.6753 0.4424 0.75
C24B C 0.5655 0.4474 0.75
H18B H 0.5645 0.4808 0.75
P1 P 0.22665(5) 0.32749(3) 0.41099(5)
F1 F 0.27125(14) 0.33940(13) 0.34972(14)
F2 F 0.18286(13) 0.31596(10) 0.47275(11)
F3 F 0.26500(14) 0.37037(8) 0.44597(15)
F4 F 0.29453(14) 0.29533(8) 0.43291(13)
F5 F 0.18843(14) 0.28347(8) 0.37832(11)
F6 F 0.16093(13) 0.35972(9) 0.38790(15)
P2 P 0.0000 0.41375(8) 0.57386(10)
F7 F 0.0000 0.36034(14) 0.5907(2)
F8 F 0.0628(3) 0.42398(18) 0.6192(3)
F9 F 0.0649(5) 0.3959(3) 0.5250(3)
F10 F 0.0000 0.4603(5) 0.5404(7)
F8K F -0.0628 0.42398 0.6192
F9K F -0.0649 0.3959 0.525
N3 N 0.5000 0.27377(17) 0.5252(2)
C26 C 0.5000 0.23617(19) 0.5454(3)
C27 C 0.5000 0.1900(2) 0.5698(4)
H19? H 0.4556 0.7089 0.5985
F11? F 0.0000 0.4768(6) 0.5828(14)
F12? F 0.0000 0.4188(6) 0.5106(6)
F13? F 0.0000 0.4189(5) 0.6573(8)
F14? F 0.0870(7) 0.4177(5) 0.5800(9)
H20? H 0.5309 0.1698 0.5437
H21? H 0.4493 0.1778 0.5704
H22? H 0.5198 0.1904 0.6121
N4? N 0.5000 0.5766(3) 0.7500
C28? C 0.4268(12) 0.5759(5) 0.7500
C29? C 0.3314(9) 0.5796(4) 0.7500
H23? H 0.3151 0.5977 0.7861
H24? H 0.3103 0.5479 0.7519
H25? H 0.3148 0.5952 0.7120

#END

