
#######################################################################
#
#                 Cambridge Crystallographic Data Centre
#                                CCDC 
#
#######################################################################
#
# If this CIF has been generated directly or indirectly from an entry in the 
# Cambridge Structural Database, then it will include bibliographic, chemical, 
# crystal, experimental, refinement or atomic coordinate data resulting from 
# the CCDC's data processing and validation procedures. Files generated from 
# CSD entries are Copyright 2015 Cambridge Crystallographic Data Centre. They 
# may be used in bona fide research applications only, and may not be copied or 
# further disseminated in any form, whether machine-readable or not, except for 
# the purposes of generating routine backup copies on your local computer 
# system.
# 
# Files arising from any other source may also contain material that is the 
# copyright of third parties, including the originator, and you should check 
# with the originator concerning the permitted uses of the information 
# contained in this CIF.
#
# For further information on the CCDC and the free tools enCIFer and Mercury
# for validating and visualising CIF files, please visit www.ccdc.cam.ac.uk
#
#######################################################################

data_QORVOK
_audit_creation_date             2015-02-02
_database_code_depnum_ccdc_archive 'CCDC 988436'
_chemical_formula_moiety         'C66 H54 N6 6+,C14 H10,6(F6 P1 1-),3(C2 H3 N1)'
_chemical_name_systematic        
'7,14,26,33,42,49-hexaazoniatridecacyclo[18.18.14.2^4,7^.2^9,12^.2^14,17^.2^23,26^.2^28,31^.2^33,36^.2^39,42^.2^44,47^.2^49,52^.1^3,37^.1^18,22^]doheptaconta-1,3(59),4,6,9,11,14,16,18(66),19,21,23,25,28,30,33,35,37,39,41,44,46,49,51,53,55,57,60,62,64,67,69,71-tritriacontaene phenanthrene hexakis(hexafluorophosphate) acetonitrile unknown solvate'
_journal_coden_Cambridge         4
_journal_volume                  136
_journal_year                    2014
_journal_page_first              10669
_journal_name_full               J.Am.Chem.Soc.
loop_
_publ_author_name
E.J.Dale
N.A.Vermeulent
A.A.Thomas
J.C.Barnes
M.Juricek
A.K.Blackburn
N.L.Strutt
A.A.Sarjeant
C.L.Stern
S.E.Denmark
'J.Fraser Stoddart'
_chemical_absolute_configuration unk
_diffrn_ambient_temperature      100
_exptl_crystal_density_meas      1.263
_exptl_crystal_density_diffrn    1.263
#These two values have been output from a single CSD field.
_refine_ls_R_factor_gt           0.1084
_refine_ls_wR_factor_gt          0.1084
_diffrn_radiation_probe          x-ray
_symmetry_cell_setting           orthorhombic
_symmetry_space_group_name_H-M   'P b c m'
_symmetry_Int_Tables_number      57
loop_
_symmetry_equiv_pos_site_id
_symmetry_equiv_pos_as_xyz
1 x,y,z
2 -x,-y,1/2+z
3 -x,1/2+y,1/2-z
4 x,1/2-y,-z
5 -x,-y,-z
6 x,y,1/2-z
7 x,1/2-y,1/2+z
8 -x,1/2+y,z
_cell_length_a                   18.1032(12)
_cell_length_b                   28.586(2)
_cell_length_c                   21.3729(13)
_cell_angle_alpha                90
_cell_angle_beta                 90
_cell_angle_gamma                90
_cell_volume                     11060.4
_exptl_crystal_colour            yellow
_exptl_crystal_description       plate
_cell_formula_units_Z            4
loop_
_atom_site_label
_atom_site_type_symbol
_atom_site_fract_x
_atom_site_fract_y
_atom_site_fract_z
N1 N 0.4927(2) 0.40673(17) 0.39962(19)
N2 N 0.7592(2) 0.10766(17) 0.4029(2)
N3 N 1.0243(2) 0.40798(16) 0.40087(18)
C1 C 0.4175(3) 0.43836(19) 0.3151(2)
C2 C 0.4629(4) 0.4675(2) 0.2822(3)
H1 H 0.4950 0.4880 0.3040
C3 C 0.3677(4) 0.4115(3) 0.2821(3)
H2 H 0.3329 0.3928 0.3041
C4 C 0.4249(3) 0.4347(2) 0.3856(3)
H3 H 0.4290 0.4663 0.4043
H4 H 0.3808 0.4191 0.4035
C5 C 0.4928(3) 0.3603(2) 0.3876(4)
H5 H 0.4485 0.3452 0.3749
C6 C 0.5558(3) 0.3351(2) 0.3937(3)
H6 H 0.5549 0.3025 0.3852
C7 C 0.6220(3) 0.35594(19) 0.4121(2)
C8 C 0.6179(3) 0.4031(2) 0.4255(3)
H7 H 0.6607 0.4191 0.4399
C9 C 0.5526(3) 0.4274(2) 0.4181(3)
H8 H 0.5514 0.4600 0.4267
C10 C 0.6923(3) 0.32989(18) 0.41563(19)
C11 C 0.6932(3) 0.28134(18) 0.4173(2)
H9 H 0.6478 0.2647 0.4172
C12 C 0.7608(2) 0.25595(19) 0.41918(19)
C13 C 0.8258(3) 0.28146(17) 0.41974(19)
H10 H 0.8716 0.2653 0.4219
C14 C 0.8262(2) 0.32969(17) 0.41723(19)
C15 C 0.7590(2) 0.3536(2) 0.4150(2)
H11 H 0.7590 0.3868 0.4130
C16 C 0.7603(3) 0.2047(2) 0.4177(2)
C17 C 0.6947(3) 0.1791(2) 0.4169(3)
H12 H 0.6487 0.1948 0.4210
C18 C 0.6962(3) 0.1308(2) 0.4102(3)
H13 H 0.6510 0.1139 0.4109
C19 C 0.8237(3) 0.1316(2) 0.4076(3)
H14 H 0.8690 0.1149 0.4052
C20 C 0.8251(3) 0.17861(19) 0.4158(3)
H15 H 0.8713 0.1941 0.4202
C21 C 0.7596(3) 0.0581(2) 0.3848(3)
H16 H 0.7154 0.0425 0.4024
H17 H 0.8039 0.0427 0.4024
C22 C 0.7596(3) 0.05312(18) 0.3157(3)
C23 C 0.6933(3) 0.0508(2) 0.2825(3)
H18 H 0.6478 0.0492 0.3046
C24 C 0.8264(3) 0.05416(18) 0.2830(3)
H19 H 0.8719 0.0549 0.3052
C25 C 0.8970(3) 0.35638(18) 0.4144(2)
C26 C 0.9613(3) 0.33646(19) 0.3908(2)
H20 H 0.9617 0.3044 0.3792
C27 C 1.0237(3) 0.36263(19) 0.3842(2)
H21 H 1.0672 0.3487 0.3677
C28 C 0.9648(3) 0.4280(2) 0.4257(2)
H22 H 0.9668 0.4598 0.4387
C29 C 0.9002(3) 0.40297(19) 0.4325(2)
H23 H 0.8578 0.4176 0.4497
C30 C 1.0910(3) 0.4371(2) 0.3858(2)
H24 H 1.1361 0.4222 0.4027
H25 H 1.0861 0.4686 0.4047
C31 C 1.0957(2) 0.44093(17) 0.3148(2)
C32 C 1.0403(3) 0.46330(18) 0.2824(2)
H26 H 1.0019 0.4788 0.3046
C33 C 1.1531(3) 0.4217(2) 0.2829(3)
H27 H 1.1933 0.4082 0.3051
N1E N 0.4927 0.40673 0.10038
N2E N 0.7592 0.10766 0.0971
N3E N 1.0243 0.40798 0.09913
C1E C 0.4175 0.43836 0.1849
C2E C 0.4629 0.4675 0.2178
H1E H 0.495 0.488 0.196
C3E C 0.3677 0.4115 0.2179
H2E H 0.3329 0.3928 0.1959
C4E C 0.4249 0.4347 0.1144
H3E H 0.429 0.4663 0.0957
H4E H 0.3808 0.4191 0.0965
C5E C 0.4928 0.3603 0.1124
H5E H 0.4485 0.3452 0.1251
C6E C 0.5558 0.3351 0.1063
H6E H 0.5549 0.3025 0.1148
C7E C 0.622 0.35594 0.0879
C8E C 0.6179 0.4031 0.0745
H7E H 0.6607 0.4191 0.0601
C9E C 0.5526 0.4274 0.0819
H8E H 0.5514 0.46 0.0733
C10E C 0.6923 0.32989 0.08437
C11E C 0.6932 0.28134 0.0827
H9E H 0.6478 0.2647 0.0828
C12E C 0.7608 0.25595 0.08082
C13E C 0.8258 0.28146 0.08026
H10E H 0.8716 0.2653 0.0781
C14E C 0.8262 0.32969 0.08277
C15E C 0.759 0.3536 0.085
H11E H 0.759 0.3868 0.087
C16E C 0.7603 0.2047 0.0823
C17E C 0.6947 0.1791 0.0831
H12E H 0.6487 0.1948 0.079
C18E C 0.6962 0.1308 0.0898
H13E H 0.651 0.1139 0.0891
C19E C 0.8237 0.1316 0.0924
H14E H 0.869 0.1149 0.0948
C20E C 0.8251 0.17861 0.0842
H15E H 0.8713 0.1941 0.0798
C21E C 0.7596 0.0581 0.1152
H16E H 0.7154 0.0425 0.0976
H17E H 0.8039 0.0427 0.0976
C22E C 0.7596 0.05312 0.1843
C23E C 0.6933 0.0508 0.2175
H18E H 0.6478 0.0492 0.1954
C24E C 0.8264 0.05416 0.217
H19E H 0.8719 0.0549 0.1948
C25E C 0.897 0.35638 0.0856
C26E C 0.9613 0.33646 0.1092
H20E H 0.9617 0.3044 0.1208
C27E C 1.0237 0.36263 0.1158
H21E H 1.0672 0.3487 0.1323
C28E C 0.9648 0.428 0.0743
H22E H 0.9668 0.4598 0.0613
C29E C 0.9002 0.40297 0.0675
H23E H 0.8578 0.4176 0.0503
C30E C 1.091 0.4371 0.1142
H24E H 1.1361 0.4222 0.0973
H25E H 1.0861 0.4686 0.0953
C31E C 1.0957 0.44093 0.1852
C32E C 1.0403 0.4633 0.2176
H26E H 1.0019 0.4788 0.1954
C33E C 1.1531 0.4217 0.2171
H27E H 1.1933 0.4082 0.1949
C34 C 0.7723(10) 0.3088(5) 0.2500
C35 C 0.8506(10) 0.3080(6) 0.2500
H28 H 0.8786 0.2799 0.2500
C36 C 0.8820(10) 0.3513(7) 0.2500
H29 H 0.9344 0.3523 0.2500
C37 C 0.8453(11) 0.3946(6) 0.2500
H30 H 0.8706 0.4237 0.2500
C38 C 0.7678(10) 0.3908(7) 0.2500
H31 H 0.7400 0.4190 0.2500
C39 C 0.7286(9) 0.3487(7) 0.2500
C40 C 0.6521(10) 0.3472(6) 0.2500
H32 H 0.6230 0.3748 0.2500
C41 C 0.6203(12) 0.3024(6) 0.2500
H33 H 0.5680 0.3004 0.2500
C42 C 0.6606(10) 0.2605(6) 0.2500
C43 C 0.6170(10) 0.2200(6) 0.2500
H34 H 0.5645 0.2197 0.2500
C44 C 0.6615(10) 0.1804(6) 0.2500
H35 H 0.6359 0.1514 0.2500
C45 C 0.7384(10) 0.1770(7) 0.2500
H36 H 0.7652 0.1484 0.2500
C46 C 0.7709(10) 0.2214(6) 0.2500
H37 H 0.8234 0.2217 0.2500
C47 C 0.7373(9) 0.2653(5) 0.2500
P1 P 0.48800(11) 0.42033(7) 0.58620(8)
F1 F 0.5240(3) 0.37701(17) 0.5508(3)
F2 F 0.4496(2) 0.46204(13) 0.62065(17)
F3 F 0.5314(3) 0.40543(19) 0.6483(2)
F4 F 0.5523(3) 0.45093(18) 0.5678(2)
F5 F 0.4426(3) 0.4304(2) 0.52696(19)
F6 F 0.4209(2) 0.38743(16) 0.6096(2)
P2 P 1.03245(8) 0.42540(6) 0.59206(7)
F7 F 1.0753(2) 0.43968(16) 0.53018(15)
F8 F 0.9885(2) 0.41170(19) 0.65372(19)
F9 F 1.0669(2) 0.46989(13) 0.62681(17)
F10 F 1.0997(2) 0.39456(14) 0.61532(18)
F11 F 0.9981(2) 0.38157(13) 0.5561(2)
F12 F 0.96326(19) 0.45563(14) 0.57006(17)
P3 P 0.25492(9) 0.33785(7) 0.43170(9)
F13 F 0.1938(3) 0.3261(2) 0.3836(3)
F14 F 0.3157(5) 0.3537(3) 0.4813(4)
F15 F 0.2517(3) 0.2863(2) 0.4546(4)
F16 F 0.1921(5) 0.3565(3) 0.4772(3)
F17 F 0.2582(2) 0.39092(16) 0.4127(3)
F18 F 0.3187(3) 0.3248(2) 0.3860(3)
N4 N 0.7567(3) 0.4745(2) 0.4723(3)
C48 C 0.7487(3) 0.5121(3) 0.4517(3)
C49 C 0.7399(4) 0.5586(3) 0.4276(5)
H38 H 0.7588 0.5599 0.3847
H39 H 0.7674 0.5806 0.4539
H40 H 0.6874 0.5670 0.4278
N5 N 0.604(3) 0.5986(19) 0.2500
C50 C 0.634(2) 0.559(2) 0.2500
C51 C 0.654(2) 0.5206(18) 0.2500
N6 N 1.0763(12) 0.3006(6) 0.2500
C52 C 1.1373(16) 0.2879(7) 0.2500
C53 C 1.2196(19) 0.2753(12) 0.2500
C54? C 0.7672(13) 0.3277(10) 0.2500
C55? C 0.8284(19) 0.3530(10) 0.2500
H41? H 0.8752 0.3379 0.2500
C56? C 0.825(2) 0.4001(11) 0.2500
H42? H 0.8686 0.4182 0.2500
C57? C 0.759(2) 0.4211(13) 0.2500
H43? H 0.7564 0.4542 0.2500
C58? C 0.6974(18) 0.3958(12) 0.2500
H44? H 0.6506 0.4108 0.2500
C59? C 0.7018(14) 0.3492(11) 0.2500
C60? C 0.6404(18) 0.3239(10) 0.2500
H45? H 0.5936 0.3390 0.2500
C61? C 0.6441(18) 0.2771(9) 0.2500
H46? H 0.6001 0.2590 0.2500
C62? C 0.7095(15) 0.2559(10) 0.2500
C63? C 0.7131(19) 0.2095(11) 0.2500
H47? H 0.6691 0.1914 0.2500
C64? C 0.779(2) 0.1881(13) 0.2500
H48? H 0.7817 0.1549 0.2500
C65? C 0.841(2) 0.2137(11) 0.2500
H49? H 0.8874 0.1986 0.2500
C66? C 0.8370(19) 0.2603(10) 0.2500
H50? H 0.8809 0.2785 0.2500
C67? C 0.7711(14) 0.2811(10) 0.2500
F19? F 0.2428(15) 0.3359(9) 0.3588(4)
F20? F 0.2608(10) 0.3404(6) 0.5043(4)
F21? F 0.1686(4) 0.3397(8) 0.4404(12)
F22? F 0.3416(5) 0.3335(8) 0.4275(14)
H51? H 0.6612 0.5101 0.2932
H52? H 0.7006 0.5183 0.2271
H53? H 0.6167 0.5008 0.2297
H54? H 1.2262 0.2440 0.2323
H55? H 1.2384 0.2758 0.2930
H56? H 1.2469 0.2981 0.2247

#END

