
#######################################################################
#
#                 Cambridge Crystallographic Data Centre
#                                CCDC 
#
#######################################################################
#
# If this CIF has been generated directly or indirectly from an entry in the 
# Cambridge Structural Database, then it will include bibliographic, chemical, 
# crystal, experimental, refinement or atomic coordinate data resulting from 
# the CCDC's data processing and validation procedures. Files generated from 
# CSD entries are Copyright 2015 Cambridge Crystallographic Data Centre. They 
# may be used in bona fide research applications only, and may not be copied or 
# further disseminated in any form, whether machine-readable or not, except for 
# the purposes of generating routine backup copies on your local computer 
# system.
# 
# Files arising from any other source may also contain material that is the 
# copyright of third parties, including the originator, and you should check 
# with the originator concerning the permitted uses of the information 
# contained in this CIF.
#
# For further information on the CCDC and the free tools enCIFer and Mercury
# for validating and visualising CIF files, please visit www.ccdc.cam.ac.uk
#
#######################################################################

data_QORWOL
_audit_creation_date             2015-02-02
_database_code_depnum_ccdc_archive 'CCDC 988441'
_chemical_formula_moiety         
'C66 H54 N6 6+,C18 H12,6(F6 P1 1-),12(C2 H3 N1)'
_chemical_name_systematic        
'7,14,26,33,42,49-hexaazoniatridecacyclo[18.18.14.2^4,7^.2^9,12^.2^14,17^.2^23,26^.2^28,31^.2^33,36^.2^39,42^.2^44,47^.2^49,52^.1^3,37^.1^18,22^]doheptaconta-1,3(59),4,6,9,11,14,16,18(66),19,21,23,25,28,30,33,35,37,39,41,44,46,49,51,53,55,57,60,62,64,67,69,71-tritriacontaene triphenylene hexakis(hexafluorophosphate) acetonitrile solvate'
_journal_coden_Cambridge         4
_journal_volume                  136
_journal_year                    2014
_journal_page_first              10669
_journal_name_full               J.Am.Chem.Soc.
loop_
_publ_author_name
E.J.Dale
N.A.Vermeulent
A.A.Thomas
J.C.Barnes
M.Juricek
A.K.Blackburn
N.L.Strutt
A.A.Sarjeant
C.L.Stern
S.E.Denmark
'J.Fraser Stoddart'
_chemical_absolute_configuration unk
_diffrn_ambient_temperature      100
_exptl_crystal_density_meas      1.475
_exptl_crystal_density_diffrn    1.475
#These two values have been output from a single CSD field.
_refine_ls_R_factor_gt           0.0435
_refine_ls_wR_factor_gt          0.0435
_diffrn_radiation_probe          x-ray
_symmetry_cell_setting           rhombohedral
_symmetry_space_group_name_H-M   'R -3'
_symmetry_Int_Tables_number      148
loop_
_symmetry_equiv_pos_site_id
_symmetry_equiv_pos_as_xyz
1 x,y,z
2 -y,x-y,z
3 -x+y,-x,z
4 2/3+x,1/3+y,1/3+z
5 2/3-y,1/3+x-y,1/3+z
6 2/3-x+y,1/3-x,1/3+z
7 1/3+x,2/3+y,2/3+z
8 1/3-y,2/3+x-y,2/3+z
9 1/3-x+y,2/3-x,2/3+z
10 -x,-y,-z
11 y,-x+y,-z
12 x-y,x,-z
13 1/3-x,2/3-y,2/3-z
14 1/3+y,2/3-x+y,2/3-z
15 1/3+x-y,2/3+x,2/3-z
16 2/3-x,1/3-y,1/3-z
17 2/3+y,1/3-x+y,1/3-z
18 2/3+x-y,1/3+x,1/3-z
_cell_length_a                   30.6242(5)
_cell_length_b                   30.6242(5)
_cell_length_c                   20.9672(5)
_cell_angle_alpha                90
_cell_angle_beta                 90
_cell_angle_gamma                120
_cell_volume                     17029.4
_exptl_crystal_colour            yellow
_exptl_crystal_description       needle
_cell_formula_units_Z            6
loop_
_atom_site_label
_atom_site_type_symbol
_atom_site_fract_x
_atom_site_fract_y
_atom_site_fract_z
N1 N 0.21295(7) 0.10030(8) 0.09824(9)
N2 N 0.21198(7) 0.12561(7) 0.40295(9)
C1 C 0.02460(8) -0.02762(8) 0.08263(10)
H1 H 0.0415 -0.0465 0.0824
C2 C 0.05284(8) 0.02495(8) 0.08283(10)
C3 C 0.10890(8) 0.05146(9) 0.08494(10)
C4 C 0.13458(9) 0.02519(10) 0.09476(13)
H2 H 0.1161 -0.0106 0.0972
C5 C 0.18605(9) 0.04999(10) 0.10101(13)
H3 H 0.2027 0.0312 0.1074
C6 C 0.18974(10) 0.12697(10) 0.08742(13)
H4 H 0.2092 0.1627 0.0849
C7 C 0.13854(9) 0.10354(9) 0.07995(13)
H5 H 0.1231 0.1231 0.0713
C8 C 0.26791(9) 0.12714(10) 0.11397(12)
H6 H 0.2857 0.1592 0.0899
H7 H 0.2827 0.1060 0.1020
C9 C 0.27388(8) 0.13764(9) 0.18499(11)
C10 C 0.27542(8) 0.18054(9) 0.20939(12)
H8 H 0.2765 0.2053 0.1811
C11 C 0.27544(8) 0.18750(9) 0.27466(12)
H9 H 0.2768 0.2171 0.2909
C12 C 0.27354(8) 0.15135(9) 0.31658(11)
C13 C 0.27421(8) 0.10939(9) 0.29216(12)
H10 H 0.2745 0.0852 0.3204
C14 C 0.27449(8) 0.10277(9) 0.22678(12)
H11 H 0.2751 0.0741 0.2104
C15 C 0.26691(8) 0.15595(9) 0.38750(11)
H12 H 0.2859 0.1433 0.4121
H13 H 0.2800 0.1917 0.3990
C16 C 0.18224(9) 0.14613(9) 0.39619(11)
H14 H 0.1970 0.1810 0.3869
C17 C 0.13093(9) 0.11705(9) 0.40259(11)
H15 H 0.1105 0.1322 0.3983
C18 C 0.10829(8) 0.06535(8) 0.41539(10)
C19 C 0.14084(9) 0.04647(9) 0.42526(12)
H16 H 0.1274 0.0121 0.4368
C20 C 0.19193(9) 0.07676(9) 0.41860(11)
H17 H 0.2134 0.0631 0.4251
C21 C 0.05262(8) 0.03194(8) 0.41715(10)
C22 C 0.02049(8) 0.05181(8) 0.41701(10)
H18 H 0.0345 0.0874 0.4168
N1A N -0.1003 0.11265 0.09824
N2A N -0.12561 0.08637 0.40295
C1A C 0.02762 0.05222 0.08263
H1A H 0.0465 0.088 0.0824
C2A C -0.02495 0.02789 0.08283
C3A C -0.05146 0.05744 0.08494
C4A C -0.02519 0.10939 0.09476
H2A H 0.0106 0.1267 0.0972
C5A C -0.04999 0.13606 0.10101
H3A H -0.0312 0.1715 0.1074
C6A C -0.12697 0.06277 0.08742
H4A H -0.1627 0.0465 0.0849
C7A C -0.10354 0.035 0.07995
H5A H -0.1231 0 0.0713
C8A C -0.12714 0.14077 0.11397
H6A H -0.1592 0.1265 0.0899
H7A H -0.106 0.1767 0.102
C9A C -0.13764 0.13624 0.18499
C10A C -0.18054 0.09488 0.20939
H8A H -0.2053 0.0712 0.1811
C11A C -0.1875 0.08794 0.27466
H9A H -0.2171 0.0597 0.2909
C12A C -0.15135 0.12219 0.31658
C13A C -0.10939 0.16482 0.29216
H10A H -0.0852 0.1893 0.3204
C14A C -0.10277 0.17172 0.22678
H11A H -0.0741 0.201 0.2104
C15A C -0.15595 0.11096 0.3875
H12A H -0.1433 0.1426 0.4121
H13A H -0.1917 0.0883 0.399
C16A C -0.14613 0.03611 0.39619
H14A H -0.181 0.016 0.3869
C17A C -0.11705 0.01388 0.40259
H15A H -0.1322 -0.0217 0.3983
C18A C -0.06535 0.04294 0.41539
C19A C -0.04647 0.09437 0.42526
H16A H -0.0121 0.1153 0.4368
C20A C -0.07676 0.11517 0.4186
H17A H -0.0631 0.1503 0.4251
C21A C -0.03194 0.02068 0.41715
C22A C -0.05181 -0.03132 0.41701
H18A H -0.0874 -0.0529 0.4168
N1B N -0.11265 -0.21295 0.09824
N2B N -0.08637 -0.21198 0.40295
C1B C -0.05222 -0.0246 0.08263
H1B H -0.088 -0.0415 0.0824
C2B C -0.02789 -0.05284 0.08283
C3B C -0.05744 -0.1089 0.08494
C4B C -0.10939 -0.13458 0.09476
H2B H -0.1267 -0.1161 0.0972
C5B C -0.13606 -0.18605 0.10101
H3B H -0.1715 -0.2027 0.1074
C6B C -0.06277 -0.18974 0.08742
H4B H -0.0465 -0.2092 0.0849
C7B C -0.035 -0.13854 0.07995
H5B H 0 -0.1231 0.0713
C8B C -0.14077 -0.26791 0.11397
H6B H -0.1265 -0.2857 0.0899
H7B H -0.1767 -0.2827 0.102
C9B C -0.13624 -0.27388 0.18499
C10B C -0.09488 -0.27542 0.20939
H8B H -0.0712 -0.2765 0.1811
C11B C -0.08794 -0.27544 0.27466
H9B H -0.0597 -0.2768 0.2909
C12B C -0.12219 -0.27354 0.31658
C13B C -0.16482 -0.27421 0.29216
H10B H -0.1893 -0.2745 0.3204
C14B C -0.17172 -0.27449 0.22678
H11B H -0.201 -0.2751 0.2104
C15B C -0.11096 -0.26691 0.3875
H12B H -0.1426 -0.2859 0.4121
H13B H -0.0883 -0.28 0.399
C16B C -0.03611 -0.18224 0.39619
H14B H -0.016 -0.197 0.3869
C17B C -0.01388 -0.13093 0.40259
H15B H 0.0217 -0.1105 0.3983
C18B C -0.04294 -0.10829 0.41539
C19B C -0.09437 -0.14084 0.42526
H16B H -0.1153 -0.1274 0.4368
C20B C -0.11517 -0.19193 0.4186
H17B H -0.1503 -0.2134 0.4251
C21B C -0.02068 -0.05262 0.41715
C22B C 0.03132 -0.02049 0.41701
H18B H 0.0529 -0.0345 0.4168
C23 C 0.14143(10) 0.06994(11) 0.25200(12)
H19 H 0.1753 0.0970 0.2516
C24 C 0.10222(10) 0.07951(10) 0.24954(11)
H20 H 0.1095 0.1135 0.2474
C25 C 0.05154(9) 0.04054(9) 0.25007(10)
C26 C 0.00978(9) 0.05109(9) 0.25070(11)
C27 C 0.01867(11) 0.10091(10) 0.25391(12)
H21 H 0.0524 0.1281 0.2553
C28 C -0.02032(12) 0.11107(11) 0.25514(13)
H22 H -0.0134 0.1449 0.2581
C23A C -0.06994 0.07149 0.252
H19A H -0.097 0.0783 0.2516
C24A C -0.07951 0.02271 0.24954
H20A H -0.1135 -0.004 0.2474
C25A C -0.04054 0.011 0.25007
C26A C -0.05109 -0.04131 0.2507
C27A C -0.10091 -0.08224 0.25391
H21A H -0.1281 -0.0757 0.2553
C28A C -0.11107 -0.13139 0.25514
H22A H -0.1449 -0.1583 0.2581
C23B C -0.07149 -0.14143 0.252
H19B H -0.0783 -0.1753 0.2516
C24B C -0.02271 -0.10222 0.24954
H20B H 0.004 -0.1095 0.2474
C25B C -0.011 -0.05154 0.25007
C26B C 0.04131 -0.00978 0.2507
C27B C 0.08224 -0.01867 0.25391
H21B H 0.0757 -0.0524 0.2553
C28B C 0.13139 0.02032 0.25514
H22B H 0.1583 0.0134 0.2581
P1 P 0.09487(2) 0.23155(2) 0.41053(3)
F1 F 0.09127(6) 0.19626(6) 0.35211(8)
F2 F 0.09855(8) 0.26611(7) 0.46939(8)
F3 F 0.12647(7) 0.28033(6) 0.36742(8)
F4 F 0.04371(7) 0.22788(7) 0.38779(9)
F5 F 0.06408(6) 0.18195(6) 0.45373(8)
F6 F 0.14570(6) 0.23406(6) 0.43349(8)
P2 P 0.24837(2) 0.27376(2) 0.03401(3)
F7 F 0.29019(8) 0.25829(8) 0.04294(11)
F8 F 0.20546(6) 0.28821(6) 0.02498(9)
F9 F 0.23026(8) 0.25644(7) 0.10530(8)
F10 F 0.20994(7) 0.21777(6) 0.01002(8)
F11 F 0.26490(8) 0.28990(8) -0.03795(9)
F12 F 0.28595(6) 0.32980(6) 0.05714(10)
N3 N 0.02406(10) 0.24353(10) 0.19378(13)
C29 C 0.04388(10) 0.27796(11) 0.22571(14)
C30 C 0.06989(13) 0.32228(12) 0.26680(15)
H23 H 0.0992 0.3488 0.2442
H24 H 0.0811 0.3132 0.3058
H25 H 0.0468 0.3346 0.2779
N4 N 0.09476(9) 0.18577(9) 0.07330(14)
C31 C 0.09842(9) 0.22477(10) 0.07138(13)
C32 C 0.10243(10) 0.27394(10) 0.06877(14)
H26 H 0.1218 0.2921 0.0310
H27 H 0.1196 0.2931 0.1072
H28 H 0.0686 0.2698 0.0664
N5 N 0.21230(11) 0.24526(12) 0.30118(15)
C33 C 0.18801(11) 0.25404(12) 0.26671(16)
C34 C 0.15973(12) 0.26805(12) 0.22441(14)
H29 H 0.1690 0.2664 0.1801
H30 H 0.1675 0.3025 0.2341
H31 H 0.1236 0.2448 0.2303
N6 N 0.39325(9) 0.43483(9) 0.22885(12)
C35 C 0.35775(10) 0.39653(10) 0.22381(12)
C36 C 0.31215(11) 0.34759(11) 0.21704(16)
H32 H 0.3132 0.3323 0.1764
H33 H 0.2826 0.3520 0.2179
H34 H 0.3101 0.3256 0.2523

#END

