
#######################################################################
#
#                 Cambridge Crystallographic Data Centre
#                                CCDC 
#
#######################################################################
#
# If this CIF has been generated directly or indirectly from an entry in the 
# Cambridge Structural Database, then it will include bibliographic, chemical, 
# crystal, experimental, refinement or atomic coordinate data resulting from 
# the CCDC's data processing and validation procedures. Files generated from 
# CSD entries are Copyright 2015 Cambridge Crystallographic Data Centre. They 
# may be used in bona fide research applications only, and may not be copied or 
# further disseminated in any form, whether machine-readable or not, except for 
# the purposes of generating routine backup copies on your local computer 
# system.
# 
# Files arising from any other source may also contain material that is the 
# copyright of third parties, including the originator, and you should check 
# with the originator concerning the permitted uses of the information 
# contained in this CIF.
#
# For further information on the CCDC and the free tools enCIFer and Mercury
# for validating and visualising CIF files, please visit www.ccdc.cam.ac.uk
#
#######################################################################

data_QORWAX
_audit_creation_date             2015-02-02
_database_code_depnum_ccdc_archive 'CCDC 988438'
_chemical_formula_moiety         
'C66 H54 N6 6+,0.5(C18 H12),6(F6 P1 1-),2(C2 H3 N1)'
_chemical_name_systematic        
'7,14,26,33,42,49-hexaazoniatridecacyclo[18.18.14.2^4,7^.2^9,12^.2^14,17^.2^23,26^.2^28,31^.2^33,36^.2^39,42^.2^44,47^.2^49,52^.1^3,37^.1^18,22^]doheptaconta-1,3(59),4,6,9,11,14,16,18(66),19,21,23,25,28,30,33,35,37,39,41,44,46,49,51,53,55,57,60,62,64,67,69,71-tritriacontaene hemikis(tetraphene) hexakis(hexafluorophosphate) acetonitrile unknown solvate'
_journal_coden_Cambridge         4
_journal_volume                  136
_journal_year                    2014
_journal_page_first              10669
_journal_name_full               J.Am.Chem.Soc.
loop_
_publ_author_name
E.J.Dale
N.A.Vermeulent
A.A.Thomas
J.C.Barnes
M.Juricek
A.K.Blackburn
N.L.Strutt
A.A.Sarjeant
C.L.Stern
S.E.Denmark
'J.Fraser Stoddart'
_chemical_absolute_configuration unk
_diffrn_ambient_temperature      100
_exptl_crystal_density_meas      1.205
_exptl_crystal_density_diffrn    1.205
#These two values have been output from a single CSD field.
_refine_ls_R_factor_gt           0.0958
_refine_ls_wR_factor_gt          0.0958
_diffrn_radiation_probe          x-ray
_symmetry_cell_setting           orthorhombic
_symmetry_space_group_name_H-M   'C m c m'
_symmetry_Int_Tables_number      63
loop_
_symmetry_equiv_pos_site_id
_symmetry_equiv_pos_as_xyz
1 x,y,z
2 -x,-y,1/2+z
3 -x,y,1/2-z
4 x,-y,-z
5 1/2+x,1/2+y,z
6 1/2-x,1/2-y,1/2+z
7 1/2-x,1/2+y,1/2-z
8 1/2+x,1/2-y,-z
9 -x,-y,-z
10 x,y,1/2-z
11 x,-y,1/2+z
12 -x,y,z
13 1/2-x,1/2-y,-z
14 1/2+x,1/2+y,1/2-z
15 1/2+x,1/2-y,1/2+z
16 1/2-x,1/2+y,z
_cell_length_a                   18.1567(8)
_cell_length_b                   28.6627(13)
_cell_length_c                   21.1615(10)
_cell_angle_alpha                90
_cell_angle_beta                 90
_cell_angle_gamma                90
_cell_volume                     11012.9
_exptl_crystal_colour            yellow
_exptl_crystal_description       block
_cell_formula_units_Z            4
loop_
_atom_site_label
_atom_site_type_symbol
_atom_site_fract_x
_atom_site_fract_y
_atom_site_fract_z
P2 P 1.0000 0.41288(11) 0.43029(14)
F7 F 0.9376(3) 0.4236(3) 0.3845(4)
F8 F 1.0000 0.4636(3) 0.4522(5)
F9 F 0.9359(5) 0.3945(3) 0.4796(4)
F10 F 1.0000 0.35919(19) 0.4148(3)
F7K F 1.0624 0.4236 0.3845
F9K F 1.0641 0.3945 0.4796
N1 N 0.5000 0.64020(15) 0.4044(2)
N2 N 0.76611(17) 0.34166(12) 0.40070(16)
C1 C 0.5659(2) 0.69715(14) 0.2827(2)
H1 H 0.6114 0.6981 0.3049
C2 C 0.5000 0.69583(16) 0.3163(3)
C3 C 0.5000 0.69116(18) 0.3872(3)
H2 H 0.5442 0.7065 0.4050
C4 C 0.5640(2) 0.61727(14) 0.4090(2)
H3 H 0.6090 0.6341 0.4075
C5 C 0.5650(2) 0.56976(14) 0.4159(2)
H4 H 0.6110 0.5541 0.4192
C6 C 0.5000 0.54385(17) 0.4181(2)
C7 C 0.5000 0.49246(17) 0.4188(2)
C8 C 0.56624(19) 0.46726(12) 0.41769(15)
H5 H 0.6117 0.4836 0.4186
C9 C 0.56668(18) 0.41868(12) 0.41534(15)
C10 C 0.5000 0.39474(17) 0.4135(2)
H6 H 0.5000 0.3616 0.4110
C11 C 0.6371(2) 0.39236(12) 0.41187(17)
C12 C 0.6404(2) 0.34526(13) 0.4290(2)
H7 H 0.5980 0.3301 0.4453
C13 C 0.7056(2) 0.32085(14) 0.4222(2)
H8 H 0.7071 0.2887 0.4330
C14 C 0.7653(2) 0.38729(15) 0.3854(2)
H9 H 0.8091 0.4018 0.3707
C15 C 0.7019(2) 0.41296(14) 0.3908(2)
H10 H 0.7023 0.4451 0.3801
C16 C 0.8339(2) 0.31352(15) 0.3872(2)
H11 H 0.8297 0.2822 0.4066
H12 H 0.8778 0.3292 0.4049
C17 C 0.8409(2) 0.30919(14) 0.31587(18)
C18 C 0.7897(2) 0.28271(14) 0.2817(2)
H13 H 0.7544 0.2645 0.3037
C19 C 0.8934(2) 0.33328(19) 0.2833(2)
H14 H 0.9301 0.3502 0.3056
N1B N 0.5 0.6402 0.0956
N2I N 0.76611 0.34166 0.0993
C1I C 0.5659 0.69715 0.2173
H1I H 0.6114 0.6981 0.1951
C2B C 0.5 0.69583 0.1837
C3B C 0.5 0.69116 0.1128
H2I H 0.5442 0.7065 0.095
C4I C 0.564 0.61727 0.091
H3I H 0.609 0.6341 0.0925
C5I C 0.565 0.56976 0.0841
H4I H 0.611 0.5541 0.0808
C6B C 0.5 0.54385 0.0819
C7B C 0.5 0.49246 0.0812
C8I C 0.56624 0.46726 0.08231
H5I H 0.6117 0.4836 0.0814
C9I C 0.56668 0.41868 0.08466
C10B C 0.5 0.39474 0.0865
H6B H 0.5 0.3616 0.089
C11I C 0.6371 0.39236 0.08813
C12I C 0.6404 0.34526 0.071
H7I H 0.598 0.3301 0.0547
C13I C 0.7056 0.32085 0.0778
H8I H 0.7071 0.2887 0.067
C14I C 0.7653 0.38729 0.1146
H9I H 0.8091 0.4018 0.1293
C15I C 0.7019 0.41296 0.1092
H10I H 0.7023 0.4451 0.1199
C16I C 0.8339 0.31352 0.1128
H11I H 0.8297 0.2822 0.0934
H12I H 0.8778 0.3292 0.0951
C17I C 0.8409 0.30919 0.18413
C18I C 0.7897 0.28271 0.2183
H13I H 0.7544 0.2645 0.1963
C19I C 0.8934 0.33328 0.2167
H14I H 0.9301 0.3502 0.1944
N2K N 0.23389 0.34166 0.4007
C1K C 0.4341 0.69715 0.2827
H1K H 0.3886 0.6981 0.3049
H2K H 0.4558 0.7065 0.405
C4K C 0.436 0.61727 0.409
H3K H 0.391 0.6341 0.4075
C5K C 0.435 0.56976 0.4159
H4K H 0.389 0.5541 0.4192
C8K C 0.43376 0.46726 0.41769
H5K H 0.3883 0.4836 0.4186
C9K C 0.43332 0.41868 0.41534
C11K C 0.3629 0.39236 0.41187
C12K C 0.3596 0.34526 0.429
H7K H 0.402 0.3301 0.4453
C13K C 0.2944 0.32085 0.4222
H8K H 0.2929 0.2887 0.433
C14K C 0.2347 0.38729 0.3854
H9K H 0.1909 0.4018 0.3707
C15K C 0.2981 0.41296 0.3908
H10K H 0.2977 0.4451 0.3801
C16K C 0.1661 0.31352 0.3872
H11K H 0.1703 0.2822 0.4066
H12K H 0.1222 0.3292 0.4049
C17K C 0.1591 0.30919 0.31587
C18K C 0.2103 0.28271 0.2817
H13K H 0.2456 0.2645 0.3037
C19K C 0.1066 0.33328 0.2833
H14K H 0.0699 0.3502 0.3056
N2B N 0.23389 0.34166 0.0993
C1B C 0.4341 0.69715 0.2173
H1B H 0.3886 0.6981 0.1951
H2B H 0.4558 0.7065 0.095
C4B C 0.436 0.61727 0.091
H3B H 0.391 0.6341 0.0925
C5B C 0.435 0.56976 0.0841
H4B H 0.389 0.5541 0.0808
C8B C 0.43376 0.46726 0.08231
H5B H 0.3883 0.4836 0.0814
C9B C 0.43332 0.41868 0.08466
C11B C 0.3629 0.39236 0.08813
C12B C 0.3596 0.34526 0.071
H7B H 0.402 0.3301 0.0547
C13B C 0.2944 0.32085 0.0778
H8B H 0.2929 0.2887 0.067
C14B C 0.2347 0.38729 0.1146
H9B H 0.1909 0.4018 0.1293
C15B C 0.2981 0.41296 0.1092
H10B H 0.2977 0.4451 0.1199
C16B C 0.1661 0.31352 0.1128
H11B H 0.1703 0.2822 0.0934
H12B H 0.1222 0.3292 0.0951
C17B C 0.1591 0.30919 0.18413
C18B C 0.2103 0.28271 0.2183
H13B H 0.2456 0.2645 0.1963
C19B C 0.1066 0.33328 0.2167
H14B H 0.0699 0.3502 0.1944
N3 N 0.5000 0.2733(2) 0.4685(3)
C20 C 0.5000 0.2368(2) 0.4479(3)
C21 C 0.5000 0.1909(3) 0.4183(5)
C22 C 0.536(2) 0.3555(9) 0.2500
C23 C 0.5867(18) 0.3180(8) 0.2500
C24 C 0.5523(13) 0.2739(10) 0.2500
C25 C 0.4751(12) 0.2677(10) 0.2500
C26 C 0.4281(16) 0.3069(9) 0.2500
C27 C 0.458(2) 0.3525(10) 0.2500
C28 C 0.4149(18) 0.3935(8) 0.2500
C29 C 0.4463(9) 0.4385(7) 0.2500
C30 C 0.3978(14) 0.4771(6) 0.2500
C31 C 0.4334(11) 0.5206(8) 0.2500
C32 C 0.5100(10) 0.5288(5) 0.2500
C33 C 0.5400(11) 0.5740(6) 0.2500
C34 C 0.6171(10) 0.5798(7) 0.2500
C35 C 0.6630(13) 0.5401(6) 0.2500
C36 C 0.6324(11) 0.4948(7) 0.2500
C37 C 0.5553(9) 0.4887(5) 0.2500
C38 C 0.5235(8) 0.4434(6) 0.2500
C39 C 0.5643(16) 0.4014(8) 0.2500
C22B C 0.464 0.3555 0.25
C23B C 0.4133 0.318 0.25
C24B C 0.4477 0.2739 0.25
C25B C 0.5249 0.2677 0.25
C26B C 0.5719 0.3069 0.25
C27B C 0.542 0.3525 0.25
C28B C 0.5851 0.3935 0.25
C29B C 0.5537 0.4385 0.25
C30B C 0.6022 0.4771 0.25
C31B C 0.5666 0.5206 0.25
C32B C 0.49 0.5288 0.25
C33B C 0.46 0.574 0.25
C34B C 0.3829 0.5798 0.25
C35B C 0.337 0.5401 0.25
C36B C 0.3676 0.4948 0.25
C37B C 0.4447 0.4887 0.25
C38B C 0.4765 0.4434 0.25
C39B C 0.4357 0.4014 0.25
P1 P 0.77346(6) 0.32792(4) 0.59029(6)
F1 F 0.81160(17) 0.28553(10) 0.62700(15)
F2 F 0.73557(16) 0.36906(10) 0.55175(16)
F3 F 0.70673(18) 0.29503(11) 0.56965(18)
F4 F 0.72732(18) 0.34156(16) 0.65182(18)
F5 F 0.83819(16) 0.36079(10) 0.61290(17)
F6 F 0.81920(18) 0.31395(13) 0.52975(14)
H15? H 0.4503 0.1836 0.4031
H16? H 0.5152 0.1674 0.4493
H17? H 0.5345 0.1908 0.3827
F11? F 0.9140(7) 0.4190(7) 0.4224(12)
F12? F 1.0000 0.4132(7) 0.5027(6)
F13? F 1.0000 0.4164(7) 0.3529(6)

#END

