
#######################################################################
#
#                 Cambridge Crystallographic Data Centre
#                                CCDC 
#
#######################################################################
#
# If this CIF has been generated directly or indirectly from an entry in the 
# Cambridge Structural Database, then it will include bibliographic, chemical, 
# crystal, experimental, refinement or atomic coordinate data resulting from 
# the CCDC's data processing and validation procedures. Files generated from 
# CSD entries are Copyright 2015 Cambridge Crystallographic Data Centre. They 
# may be used in bona fide research applications only, and may not be copied or 
# further disseminated in any form, whether machine-readable or not, except for 
# the purposes of generating routine backup copies on your local computer 
# system.
# 
# Files arising from any other source may also contain material that is the 
# copyright of third parties, including the originator, and you should check 
# with the originator concerning the permitted uses of the information 
# contained in this CIF.
#
# For further information on the CCDC and the free tools enCIFer and Mercury
# for validating and visualising CIF files, please visit www.ccdc.cam.ac.uk
#
#######################################################################

data_QORWIF
_audit_creation_date             2015-02-02
_database_code_depnum_ccdc_archive 'CCDC 988440'
_chemical_formula_moiety         'C66 H54 N6 6+,C16 H10,6(F6 P1 1-),2(C2 H3 N1)'
_chemical_name_systematic        
'7,14,26,33,42,49-hexaazoniatridecacyclo[18.18.14.2^4,7^.2^9,12^.2^14,17^.2^23,26^.2^28,31^.2^33,36^.2^39,42^.2^44,47^.2^49,52^.1^3,37^.1^18,22^]doheptaconta-1,3(59),4,6,9,11,14,16,18(66),19,21,23,25,28,30,33,35,37,39,41,44,46,49,51,53,55,57,60,62,64,67,69,71-tritriacontaene pyrene hexakis(hexafluorophosphate) acetonitrile unknown solvate'
_journal_coden_Cambridge         4
_journal_volume                  136
_journal_year                    2014
_journal_page_first              10669
_journal_name_full               J.Am.Chem.Soc.
loop_
_publ_author_name
E.J.Dale
N.A.Vermeulent
A.A.Thomas
J.C.Barnes
M.Juricek
A.K.Blackburn
N.L.Strutt
A.A.Sarjeant
C.L.Stern
S.E.Denmark
'J.Fraser Stoddart'
_chemical_absolute_configuration unk
_diffrn_ambient_temperature      100
_exptl_crystal_density_meas      1.255
_exptl_crystal_density_diffrn    1.255
#These two values have been output from a single CSD field.
_refine_ls_R_factor_gt           0.1076
_refine_ls_wR_factor_gt          0.1076
_diffrn_radiation_probe          x-ray
_symmetry_cell_setting           orthorhombic
_symmetry_space_group_name_H-M   'C m c m'
_symmetry_Int_Tables_number      63
loop_
_symmetry_equiv_pos_site_id
_symmetry_equiv_pos_as_xyz
1 x,y,z
2 -x,-y,1/2+z
3 x,-y,-z
4 -x,y,1/2-z
5 1/2+x,1/2+y,z
6 1/2-x,1/2-y,1/2+z
7 1/2+x,1/2-y,-z
8 1/2-x,1/2+y,1/2-z
9 -x,-y,-z
10 x,y,1/2-z
11 -x,y,z
12 x,-y,1/2+z
13 1/2-x,1/2-y,-z
14 1/2+x,1/2+y,1/2-z
15 1/2-x,1/2+y,z
16 1/2+x,1/2-y,1/2+z
_cell_length_a                   18.0353(6)
_cell_length_b                   28.6360(10)
_cell_length_c                   21.3624(7)
_cell_angle_alpha                90
_cell_angle_beta                 90
_cell_angle_gamma                90
_cell_volume                     11032.8
_exptl_crystal_colour            yellow
_exptl_crystal_description       plate
_cell_formula_units_Z            4
loop_
_atom_site_label
_atom_site_type_symbol
_atom_site_fract_x
_atom_site_fract_y
_atom_site_fract_z
P2 P 1.0000 0.41215(10) 0.43143(13)
F7 F 1.0000 0.4629(2) 0.4588(4)
F8 F 1.0000 0.35991(19) 0.4118(4)
F9 F 0.9371(3) 0.42464(17) 0.3867(3)
F10 F 0.9387(3) 0.3969(2) 0.4806(3)
F9J F 1.0629 0.42464 0.3867
F10J F 1.0613 0.3969 0.4806
N1 N 0.5000 0.6408(2) 0.4033(3)
N2 N 0.7669(3) 0.34172(16) 0.4006(2)
C1 C 0.5674(4) 0.6958(2) 0.2826(3)
H1 H 0.6129 0.6960 0.3051
C2 C 0.5000 0.6954(2) 0.3146(4)
C3 C 0.5000 0.6904(2) 0.3857(4)
H2 H 0.5444 0.7059 0.4033
C4 C 0.5647(4) 0.6172(2) 0.4078(3)
H3 H 0.6101 0.6339 0.4055
C5 C 0.5663(4) 0.5703(2) 0.4156(3)
H4 H 0.6125 0.5548 0.4204
C6 C 0.5000 0.5442(3) 0.4167(3)
C7 C 0.5000 0.4930(2) 0.4192(3)
C8 C 0.5658(4) 0.46827(18) 0.4187(2)
H5 H 0.6114 0.4849 0.4195
C9 C 0.5669(3) 0.41878(18) 0.4170(2)
C10 C 0.5000 0.3957(2) 0.4157(3)
H6 H 0.5000 0.3626 0.4138
C11 C 0.6376(4) 0.39307(17) 0.4145(3)
C12 C 0.6431(4) 0.3459(2) 0.4296(3)
H7 H 0.6008 0.3304 0.4459
C13 C 0.7071(4) 0.3212(2) 0.4218(3)
H8 H 0.7082 0.2889 0.4317
C14 C 0.7674(4) 0.3877(2) 0.3876(4)
H9 H 0.8118 0.4023 0.3737
C15 C 0.7036(4) 0.4135(2) 0.3943(3)
H10 H 0.7046 0.4460 0.3850
C16 C 0.8351(3) 0.3131(2) 0.3860(3)
H11 H 0.8799 0.3283 0.4034
H12 H 0.8307 0.2815 0.4044
C17 C 0.8405(3) 0.31001(18) 0.3158(3)
C18 C 0.7895(4) 0.28423(19) 0.2813(3)
H13 H 0.7535 0.2661 0.3028
C19 C 0.8930(5) 0.3320(4) 0.2815(4)
H14 H 0.9315 0.3482 0.3028
N1C N 0.5 0.6408 0.0967
N2I N 0.7669 0.34172 0.0994
C1I C 0.5674 0.6958 0.2174
H1I H 0.6129 0.696 0.1949
C2C C 0.5 0.6954 0.1854
C3C C 0.5 0.6904 0.1143
H2I H 0.5444 0.7059 0.0967
C4I C 0.5647 0.6172 0.0922
H3I H 0.6101 0.6339 0.0945
C5I C 0.5663 0.5703 0.0844
H4I H 0.6125 0.5548 0.0796
C6C C 0.5 0.5442 0.0833
C7C C 0.5 0.493 0.0808
C8I C 0.5658 0.46827 0.0813
H5I H 0.6114 0.4849 0.0805
C9I C 0.5669 0.41878 0.083
C10C C 0.5 0.3957 0.0843
H6C H 0.5 0.3626 0.0862
C11I C 0.6376 0.39307 0.0855
C12I C 0.6431 0.3459 0.0704
H7I H 0.6008 0.3304 0.0541
C13I C 0.7071 0.3212 0.0782
H8I H 0.7082 0.2889 0.0683
C14I C 0.7674 0.3877 0.1124
H9I H 0.8118 0.4023 0.1263
C15I C 0.7036 0.4135 0.1057
H10I H 0.7046 0.446 0.115
C16I C 0.8351 0.3131 0.114
H11I H 0.8799 0.3283 0.0966
H12I H 0.8307 0.2815 0.0956
C17I C 0.8405 0.31001 0.1842
C18I C 0.7895 0.28423 0.2187
H13I H 0.7535 0.2661 0.1972
C19I C 0.893 0.332 0.2185
H14I H 0.9315 0.3482 0.1972
N2J N 0.2331 0.34172 0.4006
C1J C 0.4326 0.6958 0.2826
H1J H 0.3871 0.696 0.3051
H2J H 0.4556 0.7059 0.4033
C4J C 0.4353 0.6172 0.4078
H3J H 0.3899 0.6339 0.4055
C5J C 0.4337 0.5703 0.4156
H4J H 0.3875 0.5548 0.4204
C8J C 0.4342 0.46827 0.4187
H5J H 0.3886 0.4849 0.4195
C9J C 0.4331 0.41878 0.417
C11J C 0.3624 0.39307 0.4145
C12J C 0.3569 0.3459 0.4296
H7J H 0.3992 0.3304 0.4459
C13J C 0.2929 0.3212 0.4218
H8J H 0.2918 0.2889 0.4317
C14J C 0.2326 0.3877 0.3876
H9J H 0.1882 0.4023 0.3737
C15J C 0.2964 0.4135 0.3943
H10J H 0.2954 0.446 0.385
C16J C 0.1649 0.3131 0.386
H11J H 0.1201 0.3283 0.4034
H12J H 0.1693 0.2815 0.4044
C17J C 0.1595 0.31001 0.3158
C18J C 0.2105 0.28423 0.2813
H13J H 0.2465 0.2661 0.3028
C19J C 0.107 0.332 0.2815
H14J H 0.0685 0.3482 0.3028
N2C N 0.2331 0.34172 0.0994
C1C C 0.4326 0.6958 0.2174
H1C H 0.3871 0.696 0.1949
H2C H 0.4556 0.7059 0.0967
C4C C 0.4353 0.6172 0.0922
H3C H 0.3899 0.6339 0.0945
C5C C 0.4337 0.5703 0.0844
H4C H 0.3875 0.5548 0.0796
C8C C 0.4342 0.46827 0.0813
H5C H 0.3886 0.4849 0.0805
C9C C 0.4331 0.41878 0.083
C11C C 0.3624 0.39307 0.0855
C12C C 0.3569 0.3459 0.0704
H7C H 0.3992 0.3304 0.0541
C13C C 0.2929 0.3212 0.0782
H8C H 0.2918 0.2889 0.0683
C14C C 0.2326 0.3877 0.1124
H9C H 0.1882 0.4023 0.1263
C15C C 0.2964 0.4135 0.1057
H10C H 0.2954 0.446 0.115
C16C C 0.1649 0.3131 0.114
H11C H 0.1201 0.3283 0.0966
H12C H 0.1693 0.2815 0.0956
C17C C 0.1595 0.31001 0.1842
C18C C 0.2105 0.28423 0.2187
H13C H 0.2465 0.2661 0.1972
C19C C 0.107 0.332 0.2185
H14C H 0.0685 0.3482 0.1972
N3 N 0.5000 0.2748(3) 0.4728(4)
C20 C 0.5000 0.2374(3) 0.4537(5)
C21 C 0.5000 0.1911(4) 0.4264(6)
C22 C 0.4139(16) 0.3525(11) 0.2500
H15 H 0.3882 0.3236 0.2500
C23 C 0.4926(16) 0.3550(7) 0.2500
H16 H 0.5206 0.3268 0.2500
C24 C 0.5308(13) 0.3990(7) 0.2500
C25 C 0.6092(14) 0.4022(8) 0.2500
H17 H 0.6378 0.3744 0.2500
C26 C 0.6462(13) 0.4460(8) 0.2500
H18 H 0.6988 0.4478 0.2500
C27 C 0.6021(14) 0.4866(7) 0.2500
C28 C 0.6430(13) 0.5287(8) 0.2500
H19 H 0.6956 0.5283 0.2500
C29 C 0.6042(16) 0.5710(10) 0.2500
H20 H 0.6299 0.5999 0.2500
C30 C 0.5261(16) 0.5697(9) 0.2500
H21 H 0.4992 0.5982 0.2500
C31 C 0.4870(12) 0.5273(8) 0.2500
C32 C 0.4098(14) 0.5251(12) 0.2500
H22 H 0.3817 0.5532 0.2500
C33 C 0.373(2) 0.4818(8) 0.2500
H23 H 0.3203 0.4812 0.2500
C34 C 0.4124(13) 0.4392(8) 0.2500
C35 C 0.376(2) 0.3957(9) 0.2500
H24 H 0.3236 0.3953 0.2500
C36 C 0.4904(12) 0.4403(8) 0.2500
C37 C 0.5247(14) 0.4846(7) 0.2500
C22C C 0.5861 0.3525 0.25
H15C H 0.6118 0.3236 0.25
C23C C 0.5074 0.355 0.25
H16C H 0.4794 0.3268 0.25
C24C C 0.4692 0.399 0.25
C25C C 0.3908 0.4022 0.25
H17C H 0.3622 0.3744 0.25
C26C C 0.3538 0.446 0.25
H18C H 0.3012 0.4478 0.25
C27C C 0.3979 0.4866 0.25
C28C C 0.357 0.5287 0.25
H19C H 0.3044 0.5283 0.25
C29C C 0.3958 0.571 0.25
H20C H 0.3701 0.5999 0.25
C30C C 0.4739 0.5697 0.25
C31C C 0.513 0.5273 0.25
C32C C 0.5902 0.5251 0.25
H22C H 0.6183 0.5532 0.25
C33C C 0.627 0.4818 0.25
H23C H 0.6797 0.4812 0.25
C34C C 0.5876 0.4392 0.25
C35C C 0.624 0.3957 0.25
H24C H 0.6764 0.3953 0.25
C36C C 0.5096 0.4403 0.25
C37C C 0.4753 0.4846 0.25
P1 P 0.77352(12) 0.32764(7) 0.59006(9)
F1 F 0.8084(3) 0.28492(13) 0.6247(2)
F2 F 0.7392(4) 0.36935(15) 0.5518(3)
F3 F 0.7053(3) 0.29747(15) 0.5700(2)
F4 F 0.7298(3) 0.3431(2) 0.6499(2)
F5 F 0.8402(3) 0.35922(15) 0.6119(2)
F6 F 0.8166(3) 0.3127(2) 0.5290(2)
F11? F 0.9134(6) 0.4122(5) 0.4316(12)
F12? F 1.0000 0.3925(7) 0.5005(10)
F13? F 1.0000 0.4274(6) 0.3614(9)
H25? H 0.5444 0.7059 0.4033
H26? H 0.4488 0.1805 0.4207
H27? H 0.5262 0.1695 0.4542
H28? H 0.5250 0.1920 0.3857

#END

