
#######################################################################
#
#                 Cambridge Crystallographic Data Centre
#                                CCDC 
#
#######################################################################
#
# If this CIF has been generated directly or indirectly from an entry in the 
# Cambridge Structural Database, then it will include bibliographic, chemical, 
# crystal, experimental, refinement or atomic coordinate data resulting from 
# the CCDC's data processing and validation procedures. Files generated from 
# CSD entries are Copyright 2015 Cambridge Crystallographic Data Centre. They 
# may be used in bona fide research applications only, and may not be copied or 
# further disseminated in any form, whether machine-readable or not, except for 
# the purposes of generating routine backup copies on your local computer 
# system.
# 
# Files arising from any other source may also contain material that is the 
# copyright of third parties, including the originator, and you should check 
# with the originator concerning the permitted uses of the information 
# contained in this CIF.
#
# For further information on the CCDC and the free tools enCIFer and Mercury
# for validating and visualising CIF files, please visit www.ccdc.cam.ac.uk
#
#######################################################################

data_QORWUR
_audit_creation_date             2015-02-02
_database_code_depnum_ccdc_archive 'CCDC 988442'
_chemical_formula_moiety         'C66 H54 N6 6+,6(F6 P1 1-),2(C2 H3 N1),C20 H12'
_chemical_name_systematic        
'7,14,26,33,42,49-hexaazoniatridecacyclo[18.18.14.2^4,7^.2^9,12^.2^14,17^.2^23,26^.2^28,31^.2^33,36^.2^39,42^.2^44,47^.2^49,52^.1^3,37^.1^18,22^]doheptaconta-1,3(59),4,6,9,11,14,16,18(66),19,21,23,25,28,30,33,35,37,39,41,44,46,49,51,53,55,57,60,62,64,67,69,71-tritriacontaene perylene hexakis(hexafluorophosphate) acetonitrile unknown solvate'
_journal_coden_Cambridge         4
_journal_volume                  136
_journal_year                    2014
_journal_page_first              10669
_journal_name_full               J.Am.Chem.Soc.
loop_
_publ_author_name
E.J.Dale
N.A.Vermeulent
A.A.Thomas
J.C.Barnes
M.Juricek
A.K.Blackburn
N.L.Strutt
A.A.Sarjeant
C.L.Stern
S.E.Denmark
'J.Fraser Stoddart'
_chemical_absolute_configuration unk
_diffrn_ambient_temperature      100
_exptl_crystal_density_meas      1.287
_exptl_crystal_density_diffrn    1.287
#These two values have been output from a single CSD field.
_refine_ls_R_factor_gt           0.0819
_refine_ls_wR_factor_gt          0.0819
_diffrn_radiation_probe          x-ray
_symmetry_cell_setting           orthorhombic
_symmetry_space_group_name_H-M   'C m c m'
_symmetry_Int_Tables_number      63
loop_
_symmetry_equiv_pos_site_id
_symmetry_equiv_pos_as_xyz
1 x,y,z
2 -x,-y,1/2+z
3 -x,y,1/2-z
4 x,-y,-z
5 1/2+x,1/2+y,z
6 1/2-x,1/2-y,1/2+z
7 1/2-x,1/2+y,1/2-z
8 1/2+x,1/2-y,-z
9 -x,-y,-z
10 x,y,1/2-z
11 x,-y,1/2+z
12 -x,y,z
13 1/2-x,1/2-y,-z
14 1/2+x,1/2+y,1/2-z
15 1/2+x,1/2-y,1/2+z
16 1/2-x,1/2+y,z
_cell_length_a                   18.0778(18)
_cell_length_b                   28.704(2)
_cell_length_c                   21.242(2)
_cell_angle_alpha                90
_cell_angle_beta                 90
_cell_angle_gamma                90
_cell_volume                     11022.6
_exptl_crystal_colour            red
_exptl_crystal_description       plate
_cell_formula_units_Z            4
loop_
_atom_site_label
_atom_site_type_symbol
_atom_site_fract_x
_atom_site_fract_y
_atom_site_fract_z
C20 C 0.6108(15) 0.3733(7) 0.2572(16)
H15 H 0.6611 0.3824 0.2612
C21 C 0.5934(16) 0.3230(7) 0.256(2)
H16 H 0.6287 0.2990 0.2625
C22 C 0.5161(15) 0.3148(5) 0.2423(12)
H17 H 0.5001 0.2852 0.2277
C23 C 0.4654(10) 0.3506(6) 0.251(5)
C24 C 0.3866(15) 0.3406(10) 0.2585(16)
H18 H 0.3743 0.3086 0.2634
C25 C 0.3295(16) 0.3701(7) 0.2597(11)
H19 H 0.2782 0.3629 0.2615
C26 C 0.3626(14) 0.4142(7) 0.2576(15)
H20 H 0.3263 0.4382 0.2570
C27 C 0.4303(14) 0.4320(9) 0.2563(18)
C28 C 0.4485(15) 0.4822(8) 0.246(3)
C29 C 0.3968(15) 0.5187(6) 0.2418(14)
H21 H 0.3473 0.5119 0.2300
C30 C 0.4170(16) 0.5656(6) 0.255(3)
H22 H 0.3814 0.5894 0.2627
C31 C 0.492(3) 0.5741(4) 0.2562(18)
H23 H 0.5079 0.6056 0.2583
C32 C 0.5473(12) 0.5384(6) 0.254(2)
C33 C 0.6279(15) 0.5518(8) 0.245(2)
H24 H 0.6416 0.5835 0.2398
C34 C 0.6752(14) 0.5208(7) 0.2432(18)
H25 H 0.7255 0.5288 0.2362
C35 C 0.6539(12) 0.4700(7) 0.252(4)
H26 H 0.6923 0.4478 0.2579
C36 C 0.5833(12) 0.4546(9) 0.253(4)
C37 C 0.5590(13) 0.4067(8) 0.253(3)
C38 C 0.4812(12) 0.3971(5) 0.246(2)
C39 C 0.5290(12) 0.4910(6) 0.253(3)
C20B C 0.3892 0.3733 0.2428
H15B H 0.3389 0.3824 0.2388
C21B C 0.4066 0.323 0.244
H16B H 0.3713 0.299 0.2375
C22B C 0.4839 0.3148 0.2577
H17B H 0.4999 0.2852 0.2723
C23B C 0.5346 0.3506 0.249
C24B C 0.6134 0.3406 0.2415
H18B H 0.6257 0.3086 0.2366
C25B C 0.6705 0.3701 0.2403
H19B H 0.7218 0.3629 0.2385
C26B C 0.6374 0.4142 0.2424
H20B H 0.6737 0.4382 0.243
C27B C 0.5697 0.432 0.2437
C28B C 0.5515 0.4822 0.254
C29B C 0.6032 0.5187 0.2582
H21B H 0.6527 0.5119 0.27
C30B C 0.583 0.5656 0.245
H22B H 0.6186 0.5894 0.2373
C31B C 0.508 0.5741 0.2438
H23B H 0.4921 0.6056 0.2417
C32B C 0.4527 0.5384 0.246
C33B C 0.3721 0.5518 0.255
H24B H 0.3584 0.5835 0.2602
C34B C 0.3248 0.5208 0.2568
H25B H 0.2745 0.5288 0.2638
C35B C 0.3461 0.47 0.248
H26B H 0.3077 0.4478 0.2421
C36B C 0.4167 0.4546 0.247
C37B C 0.441 0.4067 0.247
C38B C 0.5188 0.3971 0.254
C39B C 0.471 0.491 0.247
C20I C 0.6108 0.3733 0.2428
H15I H 0.6611 0.3824 0.2388
C21I C 0.5934 0.323 0.244
H16I H 0.6287 0.299 0.2375
C22I C 0.5161 0.3148 0.2577
C23I C 0.4654 0.3506 0.249
C24I C 0.3866 0.3406 0.2415
H18I H 0.3743 0.3086 0.2366
C25I C 0.3295 0.3701 0.2403
H19I H 0.2782 0.3629 0.2385
C26I C 0.3626 0.4142 0.2424
H20I H 0.3263 0.4382 0.243
C27I C 0.4303 0.432 0.2437
C28I C 0.4485 0.4822 0.254
C29I C 0.3968 0.5187 0.2582
H21I H 0.3473 0.5119 0.27
C30I C 0.417 0.5656 0.245
H22I H 0.3814 0.5894 0.2373
C31I C 0.492 0.5741 0.2438
H23I H 0.5079 0.6056 0.2417
C32I C 0.5473 0.5384 0.246
C33I C 0.6279 0.5518 0.255
H24I H 0.6416 0.5835 0.2602
C34I C 0.6752 0.5208 0.2568
H25I H 0.7255 0.5288 0.2638
C35I C 0.6539 0.47 0.248
H26I H 0.6923 0.4478 0.2421
C36I C 0.5833 0.4546 0.247
C37I C 0.559 0.4067 0.247
C38I C 0.4812 0.3971 0.254
C39I C 0.529 0.491 0.247
C20K C 0.3892 0.3733 0.2572
H15K H 0.3389 0.3824 0.2612
C21K C 0.4066 0.323 0.256
H16K H 0.3713 0.299 0.2625
C22K C 0.4839 0.3148 0.2423
C23K C 0.5346 0.3506 0.251
C24K C 0.6134 0.3406 0.2585
H18K H 0.6257 0.3086 0.2634
C25K C 0.6705 0.3701 0.2597
H19K H 0.7218 0.3629 0.2615
C26K C 0.6374 0.4142 0.2576
H20K H 0.6737 0.4382 0.257
C27K C 0.5697 0.432 0.2563
C28K C 0.5515 0.4822 0.246
C29K C 0.6032 0.5187 0.2418
H21K H 0.6527 0.5119 0.23
C30K C 0.583 0.5656 0.255
H22K H 0.6186 0.5894 0.2627
C31K C 0.508 0.5741 0.2562
H23K H 0.4921 0.6056 0.2583
C32K C 0.4527 0.5384 0.254
C33K C 0.3721 0.5518 0.245
H24K H 0.3584 0.5835 0.2398
C34K C 0.3248 0.5208 0.2432
H25K H 0.2745 0.5288 0.2362
C35K C 0.3461 0.47 0.252
H26K H 0.3077 0.4478 0.2579
C36K C 0.4167 0.4546 0.253
C37K C 0.441 0.4067 0.253
C38K C 0.5188 0.3971 0.246
C39K C 0.471 0.491 0.253
P1 P 0.77151(10) 0.32803(5) 0.58952(7)
F1 F 0.8066(2) 0.28592(10) 0.62852(17)
F2 F 0.7354(2) 0.36954(11) 0.54998(18)
F3 F 0.7016(2) 0.29646(12) 0.57169(19)
F4 F 0.7284(2) 0.34539(14) 0.65103(17)
F5 F 0.8396(2) 0.35973(11) 0.60848(16)
F6 F 0.8147(2) 0.31026(14) 0.52851(16)
P2 P 1.0000 0.40912(6) 0.43585(8)
F7 F 1.0000 0.45965(15) 0.4639(2)
F8 F 1.0000 0.35774(14) 0.4081(2)
F9 F 1.0613(2) 0.42366(11) 0.38632(16)
F10 F 0.9361(3) 0.39346(13) 0.48278(17)
F9K F 0.9387 0.42366 0.38632
F10K F 1.0639 0.39346 0.48278
N3 N 0.5000 0.27443(19) 0.4696(3)
C40 C 0.5000 0.2380(2) 0.4489(3)
C41 C 0.5000 0.1915(3) 0.4203(4)
N1 N 0.5000 0.64061(15) 0.4034(2)
N2 N 0.7664(2) 0.34193(12) 0.40108(18)
C1 C 0.5660(3) 0.69677(13) 0.2824(2)
H1 H 0.6117 0.6974 0.3045
C2 C 0.5000 0.69588(16) 0.3158(3)
C3 C 0.5000 0.69179(18) 0.3863(3)
H2 H 0.4556 0.7072 0.4039
C4 C 0.5635(3) 0.61771(15) 0.4085(2)
H3 H 0.6086 0.6347 0.4071
C5 C 0.5659(3) 0.56985(15) 0.4159(2)
H4 H 0.6121 0.5543 0.4193
C6 C 0.5000 0.54452(18) 0.4182(3)
C7 C 0.5000 0.49262(17) 0.4194(2)
C8 C 0.5656(3) 0.46805(12) 0.41912(17)
H5 H 0.6110 0.4847 0.4203
C9 C 0.5675(3) 0.41890(12) 0.41703(17)
C10 C 0.5000 0.39565(17) 0.4148(2)
H6 H 0.5000 0.3626 0.4116
C11 C 0.6366(3) 0.39275(14) 0.41420(19)
C12 C 0.6415(3) 0.34578(15) 0.4280(2)
H7 H 0.5988 0.3302 0.4434
C13 C 0.7051(3) 0.32101(15) 0.4206(2)
H8 H 0.7056 0.2886 0.4294
C14 C 0.7669(3) 0.38779(16) 0.3894(3)
H9 H 0.8116 0.4024 0.3766
C15 C 0.7028(3) 0.41427(15) 0.3958(3)
H10 H 0.7040 0.4468 0.3878
C16 C 0.8346(3) 0.31366(15) 0.3864(2)
H11 H 0.8304 0.2822 0.4052
H12 H 0.8790 0.3291 0.4039
C17 C 0.8408(3) 0.31004(13) 0.3154(2)
C18 C 0.7920(3) 0.28190(16) 0.2819(3)
H13 H 0.7583 0.2625 0.3040
C19 C 0.8908(3) 0.3356(2) 0.2821(3)
H14 H 0.9264 0.3537 0.3040
N1B N 0.5 0.64061 0.0966
N2I N 0.7664 0.34193 0.09892
C1I C 0.566 0.69677 0.2176
H1I H 0.6117 0.6974 0.1955
C2B C 0.5 0.69588 0.1842
C3B C 0.5 0.69179 0.1137
H2I H 0.4556 0.7072 0.0961
C4I C 0.5635 0.61771 0.0915
H3I H 0.6086 0.6347 0.0929
C5I C 0.5659 0.56985 0.0841
H4I H 0.6121 0.5543 0.0807
C6B C 0.5 0.54452 0.0818
C7B C 0.5 0.49262 0.0806
C8I C 0.5656 0.46805 0.08088
H5I H 0.611 0.4847 0.0797
C9I C 0.5675 0.4189 0.08297
C10B C 0.5 0.39565 0.0852
H6B H 0.5 0.3626 0.0884
C11I C 0.6366 0.39275 0.0858
C12I C 0.6415 0.34578 0.072
H7I H 0.5988 0.3302 0.0566
C13I C 0.7051 0.32101 0.0794
H8I H 0.7056 0.2886 0.0706
C14I C 0.7669 0.38779 0.1106
H9I H 0.8116 0.4024 0.1234
C15I C 0.7028 0.41427 0.1042
H10I H 0.704 0.4468 0.1122
C16I C 0.8346 0.31366 0.1136
H11I H 0.8304 0.2822 0.0948
H12I H 0.879 0.3291 0.0961
C17I C 0.8408 0.31004 0.1846
C18I C 0.792 0.2819 0.2181
H13I H 0.7583 0.2625 0.196
C19I C 0.8908 0.3356 0.2179
H14I H 0.9264 0.3537 0.196
N2K N 0.2336 0.34193 0.40108
C1K C 0.434 0.69677 0.2824
H1K H 0.3883 0.6974 0.3045
H2K H 0.5444 0.7072 0.4039
C4K C 0.4365 0.61771 0.4085
H3K H 0.3914 0.6347 0.4071
C5K C 0.4341 0.56985 0.4159
H4K H 0.3879 0.5543 0.4193
C8K C 0.4344 0.46805 0.41912
H5K H 0.389 0.4847 0.4203
C9K C 0.4325 0.4189 0.41703
C11K C 0.3634 0.39275 0.4142
C12K C 0.3585 0.34578 0.428
H7K H 0.4012 0.3302 0.4434
C13K C 0.2949 0.32101 0.4206
H8K H 0.2944 0.2886 0.4294
C14K C 0.2331 0.38779 0.3894
H9K H 0.1884 0.4024 0.3766
C15K C 0.2972 0.41427 0.3958
H10K H 0.296 0.4468 0.3878
C16K C 0.1654 0.31366 0.3864
H11K H 0.1696 0.2822 0.4052
H12K H 0.121 0.3291 0.4039
C17K C 0.1592 0.31004 0.3154
C18K C 0.208 0.2819 0.2819
H13K H 0.2417 0.2625 0.304
C19K C 0.1092 0.3356 0.2821
H14K H 0.0736 0.3537 0.304
N2B N 0.2336 0.34193 0.09892
C1B C 0.434 0.69677 0.2176
H1B H 0.3883 0.6974 0.1955
H2B H 0.5444 0.7072 0.0961
C4B C 0.4365 0.61771 0.0915
H3B H 0.3914 0.6347 0.0929
C5B C 0.4341 0.56985 0.0841
H4B H 0.3879 0.5543 0.0807
C8B C 0.4344 0.46805 0.08088
H5B H 0.389 0.4847 0.0797
C9B C 0.4325 0.4189 0.08297
C11B C 0.3634 0.39275 0.0858
C12B C 0.3585 0.34578 0.072
H7B H 0.4012 0.3302 0.0566
C13B C 0.2949 0.32101 0.0794
H8B H 0.2944 0.2886 0.0706
C14B C 0.2331 0.38779 0.1106
H9B H 0.1884 0.4024 0.1234
C15B C 0.2972 0.41427 0.1042
H10B H 0.296 0.4468 0.1122
C16B C 0.1654 0.31366 0.1136
H11B H 0.1696 0.2822 0.0948
H12B H 0.121 0.3291 0.0961
C17B C 0.1592 0.31004 0.1846
C18B C 0.208 0.2819 0.2181
H13B H 0.2417 0.2625 0.196
C19B C 0.1092 0.3356 0.2179
H14B H 0.0736 0.3537 0.196
H27? H 0.4556 0.7072 0.4039
H28? H 0.5205 0.1934 0.3776
H29? H 0.4492 0.1797 0.4183
H30? H 0.5303 0.1704 0.4458

#END

