
#######################################################################
#
#                 Cambridge Crystallographic Data Centre
#                                CCDC 
#
#######################################################################
#
# If this CIF has been generated directly or indirectly from an entry in the 
# Cambridge Structural Database, then it will include bibliographic, chemical, 
# crystal, experimental, refinement or atomic coordinate data resulting from 
# the CCDC's data processing and validation procedures. Files generated from 
# CSD entries are Copyright 2015 Cambridge Crystallographic Data Centre. They 
# may be used in bona fide research applications only, and may not be copied or 
# further disseminated in any form, whether machine-readable or not, except for 
# the purposes of generating routine backup copies on your local computer 
# system.
# 
# Files arising from any other source may also contain material that is the 
# copyright of third parties, including the originator, and you should check 
# with the originator concerning the permitted uses of the information 
# contained in this CIF.
#
# For further information on the CCDC and the free tools enCIFer and Mercury
# for validating and visualising CIF files, please visit www.ccdc.cam.ac.uk
#
#######################################################################

data_QORXAY
_audit_creation_date             2015-02-02
_database_code_depnum_ccdc_archive 'CCDC 988443'
_chemical_formula_moiety         'C66 H54 N6 6+,C24 H12,6(F6 P1 1-)'
_chemical_name_systematic        
'7,14,26,33,42,49-hexaazoniatridecacyclo[18.18.14.2^4,7^.2^9,12^.2^14,17^.2^23,26^.2^28,31^.2^33,36^.2^39,42^.2^44,47^.2^49,52^.1^3,37^.1^18,22^]doheptaconta-1,3(59),4,6,9,11,14,16,18(66),19,21,23,25,28,30,33,35,37,39,41,44,46,49,51,53,55,57,60,62,64,67,69,71-tritriacontaene coronene hexakis(hexafluorophosphate) unknown solvate'
_journal_coden_Cambridge         4
_journal_volume                  136
_journal_year                    2014
_journal_page_first              10669
_journal_name_full               J.Am.Chem.Soc.
loop_
_publ_author_name
E.J.Dale
N.A.Vermeulent
A.A.Thomas
J.C.Barnes
M.Juricek
A.K.Blackburn
N.L.Strutt
A.A.Sarjeant
C.L.Stern
S.E.Denmark
'J.Fraser Stoddart'
_chemical_absolute_configuration unk
_diffrn_special_details          twin
_diffrn_ambient_temperature      100
_exptl_crystal_density_meas      1.262
_exptl_crystal_density_diffrn    1.262
#These two values have been output from a single CSD field.
_refine_ls_R_factor_gt           0.1118
_refine_ls_wR_factor_gt          0.1118
_diffrn_radiation_probe          x-ray
_symmetry_cell_setting           monoclinic
_symmetry_space_group_name_H-M   'C 2/m'
_symmetry_Int_Tables_number      12
loop_
_symmetry_equiv_pos_site_id
_symmetry_equiv_pos_as_xyz
1 x,y,z
2 -x,y,-z
3 1/2+x,1/2+y,z
4 1/2-x,1/2+y,-z
5 -x,-y,-z
6 x,-y,z
7 1/2-x,1/2-y,-z
8 1/2+x,1/2-y,z
_cell_length_a                   23.1338(18)
_cell_length_b                   30.560(2)
_cell_length_c                   18.2064(11)
_cell_angle_alpha                90
_cell_angle_beta                 120.757(5)
_cell_angle_gamma                90
_cell_volume                     11060.9
_exptl_crystal_colour            yellow
_exptl_crystal_description       rod
_cell_formula_units_Z            4
loop_
_atom_site_label
_atom_site_type_symbol
_atom_site_fract_x
_atom_site_fract_y
_atom_site_fract_z
C39 C 0.2644(17) 0.6226(10) 0.241(2)
H29 H 0.2682 0.6520 0.2592
C40 C 0.2350(12) 0.5872(7) 0.2603(17)
C41 C 0.1983(15) 0.6007(10) 0.299(2)
H30 H 0.1866 0.6304 0.2996
C42 C 0.1807(19) 0.5672(7) 0.335(2)
H31 H 0.1602 0.5761 0.3659
C43 C 0.1891(10) 0.5220(7) 0.3312(13)
C44 C 0.1641(9) 0.4895(8) 0.3625(13)
H32 H 0.1386 0.4983 0.3876
C45 C 0.1749(14) 0.4452(9) 0.3582(18)
H33 H 0.1631 0.4233 0.3853
C46 C 0.2052(11) 0.4360(8) 0.3098(15)
C47 C 0.2865(19) 0.6053(9) 0.189(3)
H34 H 0.2927 0.6268 0.1556
C48 C 0.2426(12) 0.5428(7) 0.2501(15)
C49 C 0.2189(8) 0.5106(6) 0.2843(11)
C50 C 0.2295(12) 0.4663(7) 0.2750(17)
C51 C 0.2234(15) 0.3921(9) 0.313(2)
H35 H 0.2146 0.3726 0.3465
C52 C 0.2534(15) 0.3753(9) 0.2694(19)
H36 H 0.2591 0.3449 0.2648
C53 C 0.2749(11) 0.4080(7) 0.2326(15)
C54 C 0.3067(18) 0.3953(10) 0.188(2)
H37 H 0.3162 0.3652 0.1857
C55 C 0.3248(14) 0.4258(7) 0.145(2)
H38 H 0.3423 0.4162 0.1107
C56 C 0.3167(13) 0.4707(7) 0.1544(17)
C57 C 0.3426(10) 0.5010(11) 0.1227(13)
H39 H 0.3648 0.4923 0.0933
C58 C 0.3348(14) 0.5449(11) 0.1357(18)
H40 H 0.3543 0.5653 0.1153
C59 C 0.3017(11) 0.5625(8) 0.1753(15)
C60 C 0.2768(14) 0.5301(7) 0.2070(19)
C61 C 0.2664(12) 0.4529(7) 0.2377(16)
C62 C 0.2843(12) 0.4850(6) 0.1979(15)
C39E C 0.2644 0.3774 0.241
H29E H 0.2682 0.348 0.2592
C40E C 0.235 0.4128 0.2603
C41E C 0.1983 0.3993 0.299
H30E H 0.1866 0.3696 0.2996
C42E C 0.1807 0.4328 0.335
H31E H 0.1602 0.4239 0.3659
C43E C 0.1891 0.478 0.3312
C44E C 0.1641 0.5105 0.3625
H32E H 0.1386 0.5017 0.3876
C45E C 0.1749 0.5548 0.3582
H33E H 0.1631 0.5767 0.3853
C46E C 0.2052 0.564 0.3098
C47E C 0.2865 0.3947 0.189
H34E H 0.2927 0.3732 0.1556
C48E C 0.2426 0.4572 0.2501
C49E C 0.2189 0.4894 0.2843
C50E C 0.2295 0.5337 0.275
C51E C 0.2234 0.6079 0.313
H35E H 0.2146 0.6274 0.3465
C52E C 0.2534 0.6247 0.2694
H36E H 0.2591 0.6551 0.2648
C53E C 0.2749 0.592 0.2326
C54E C 0.3067 0.6047 0.188
H37E H 0.3162 0.6348 0.1857
C55E C 0.3248 0.5742 0.145
H38E H 0.3423 0.5838 0.1107
C56E C 0.3167 0.5293 0.1544
C57E C 0.3426 0.499 0.1227
H39E H 0.3648 0.5077 0.0933
C58E C 0.3348 0.4551 0.1357
H40E H 0.3543 0.4347 0.1153
C59E C 0.3017 0.4375 0.1753
C60E C 0.2768 0.4699 0.207
C61E C 0.2664 0.5471 0.2377
C62E C 0.2843 0.515 0.1979
P1 P 0.0166(2) 0.32590(15) 0.1964(3)
F1 F 0.0015(4) 0.3615(2) 0.1287(6)
F2 F 0.0816(6) 0.3093(4) 0.1890(8)
F3 F 0.0366(7) 0.2885(4) 0.2601(8)
F4 F -0.0466(6) 0.3469(4) 0.1962(7)
F5 F 0.0589(6) 0.3592(4) 0.2683(7)
F6 F -0.0310(6) 0.2927(3) 0.1272(7)
P2 P 0.5516(4) 0.5000 0.1901(5)
F7 F 0.5512(7) 0.5000 0.1047(9)
F8 F 0.5543(7) 0.5000 0.2803(9)
F9 F 0.4962(6) 0.4627(5) 0.1524(8)
F10 F 0.6081(5) 0.4672(5) 0.2260(7)
F9E F 0.4962 0.5373 0.1524
F10E F 0.6081 0.5328 0.226
P3 P 0.2148(6) 0.5000 -0.1506(9)
F11 F 0.2810(10) 0.5000 -0.1384(18)
F12 F 0.2544(10) 0.4559(9) -0.0820(14)
F13 F 0.1740(7) 0.5000 -0.1149(9)
F14 F 0.1710(10) 0.4708(9) -0.2359(12)
F12E F 0.2544 0.5441 -0.082
F14E F 0.171 0.5292 -0.2359
P4 P 0.3418(8) 0.3285(5) 0.5316(9)
F15 F 0.4035(11) 0.2940(8) 0.5641(15)
F16 F 0.3806(13) 0.3653(8) 0.5153(16)
F17 F 0.2779(12) 0.3624(8) 0.4951(16)
F18 F 0.2981(11) 0.2913(8) 0.5416(16)
F19 F 0.3702(11) 0.3464(9) 0.6261(12)
F20 F 0.3123(13) 0.3103(9) 0.4342(13)
N1 N 0.1618(5) 0.3403(3) -0.0009(6)
N2 N -0.0306(7) 0.5000 0.2851(9)
N3 N 0.2832(9) 0.5000 0.5959(10)
N4 N 0.4718(7) 0.3407(5) 0.3014(9)
C1 C 0.1380(7) 0.3418(4) 0.0503(9)
H1 H 0.1365 0.3154 0.0768
C2 C 0.1151(6) 0.3790(4) 0.0676(8)
H2 H 0.0933 0.3773 0.0998
C3 C 0.1228(5) 0.4190(3) 0.0394(6)
C4 C 0.1465(6) 0.4180(4) -0.0194(7)
H3 H 0.1479 0.4440 -0.0471
C5 C 0.1672(7) 0.3789(4) -0.0350(9)
H4 H 0.1860 0.3786 -0.0708
C6 C 0.1034(5) 0.4598(3) 0.0595(7)
C7 C 0.1184(7) 0.5000 0.0360(9)
H5 H 0.1394 0.5000 0.0028
C8 C 0.0669(5) 0.4618(3) 0.1023(6)
H6 H 0.0551 0.4349 0.1175
C9 C 0.0473(7) 0.5000 0.1234(9)
C10 C 0.0162(7) 0.5000 0.1753(8)
C11 C 0.0014(6) 0.4608(4) 0.2035(7)
H7 H 0.0083 0.4334 0.1845
C12 C -0.0221(7) 0.4621(5) 0.2566(9)
H8 H -0.0330 0.4356 0.2743
C13 C -0.0367(10) 0.5000 0.3684(12)
H9 H -0.0615 0.5263 0.3690
C14 C 0.0312(12) 0.5000 0.4429(14)
C15 C 0.0661(8) 0.4629(7) 0.4754(10)
H10 H 0.0432 0.4359 0.4537
C16 C 0.1367(9) 0.4612(8) 0.5417(11)
H11 H 0.1612 0.4347 0.5633
C17 C 0.1631(14) 0.5000 0.5686(17)
C18 C 0.2417(12) 0.5000 0.6411(14)
H12 H 0.2526 0.5263 0.6776
C19 C 0.2938(9) 0.4613(7) 0.5673(12)
H13 H 0.2750 0.4350 0.5736
C20 C 0.3327(7) 0.4609(6) 0.5287(9)
H14 H 0.3479 0.4338 0.5191
C21 C 0.3494(7) 0.5000 0.5041(10)
C22 C 0.3832(7) 0.5000 0.4555(10)
C23 C 0.4028(5) 0.4615(4) 0.4321(6)
H15 H 0.3915 0.4341 0.4460
C24 C 0.4366(6) 0.4623(5) 0.3912(7)
C25 C 0.4575(8) 0.5000 0.3714(10)
H16 H 0.4845 0.5000 0.3458
C26 C 0.4534(6) 0.4189(5) 0.3646(8)
C27 C 0.4411(8) 0.3793(6) 0.3886(10)
H17 H 0.4263 0.3784 0.4287
C28 C 0.4497(8) 0.3400(6) 0.3556(11)
H18 H 0.4397 0.3128 0.3722
C29 C 0.4846(8) 0.3790(7) 0.2765(11)
H19 H 0.4968 0.3789 0.2341
C30 C 0.4807(7) 0.4173(6) 0.3094(9)
H20 H 0.4960 0.4433 0.2962
C31 C 0.4716(9) 0.3010(6) 0.2578(12)
H21 H 0.4865 0.2758 0.2977
H22 H 0.5025 0.3039 0.2355
C32 C 0.3961(9) 0.2934(5) 0.1808(12)
C33 C 0.3502(9) 0.2733(7) 0.1887(11)
H23 H 0.3635 0.2553 0.2374
C34 C 0.2847(8) 0.2769(5) 0.1306(10)
H24 H 0.2525 0.2655 0.1430
C35 C 0.2633(7) 0.2968(4) 0.0534(9)
C36 C 0.3100(7) 0.3144(5) 0.0346(10)
H25 H 0.2976 0.3268 -0.0194
C37 C 0.1885(6) 0.2997(4) -0.0169(8)
H26 H 0.1838 0.3008 -0.0740
H27 H 0.1636 0.2740 -0.0144
C38 C 0.3759(8) 0.3121(5) 0.1014(11)
H28 H 0.4097 0.3242 0.0926
N1E N 0.1618 0.6597 -0.0009
N4E N 0.4718 0.6593 0.3014
C1E C 0.138 0.6582 0.0503
H1E H 0.1365 0.6846 0.0768
C2E C 0.1151 0.621 0.0676
H2E H 0.0933 0.6227 0.0998
C3E C 0.1228 0.581 0.0394
C4E C 0.1465 0.582 -0.0194
H3E H 0.1479 0.556 -0.0471
C5E C 0.1672 0.6211 -0.035
H4E H 0.186 0.6214 -0.0708
C6E C 0.1034 0.5402 0.0595
C8E C 0.0669 0.5382 0.1023
H6E H 0.0551 0.5651 0.1175
C11E C 0.0014 0.5392 0.2035
H7E H 0.0083 0.5666 0.1845
C12E C -0.0221 0.5379 0.2566
H8E H -0.033 0.5644 0.2743
H9E H -0.0615 0.4737 0.369
C15E C 0.0661 0.5371 0.4754
H10E H 0.0432 0.5641 0.4537
C16E C 0.1367 0.5388 0.5417
H11E H 0.1612 0.5653 0.5633
H12E H 0.2526 0.4737 0.6776
C19E C 0.2938 0.5387 0.5673
H13E H 0.275 0.565 0.5736
C20E C 0.3327 0.5391 0.5287
H14E H 0.3479 0.5662 0.5191
C23E C 0.4028 0.5385 0.4321
H15E H 0.3915 0.5659 0.446
C24E C 0.4366 0.5377 0.3912
C26E C 0.4534 0.5811 0.3646
C27E C 0.4411 0.6207 0.3886
H17E H 0.4263 0.6216 0.4287
C28E C 0.4497 0.66 0.3556
H18E H 0.4397 0.6872 0.3722
C29E C 0.4846 0.621 0.2765
H19E H 0.4968 0.6211 0.2341
C30E C 0.4807 0.5827 0.3094
H20E H 0.496 0.5567 0.2962
C31E C 0.4716 0.699 0.2578
H21E H 0.4865 0.7242 0.2977
H22E H 0.5025 0.6961 0.2355
C32E C 0.3961 0.7066 0.1808
C33E C 0.3502 0.7267 0.1887
H23E H 0.3635 0.7447 0.2374
C34E C 0.2847 0.7231 0.1306
H24E H 0.2525 0.7345 0.143
C35E C 0.2633 0.7032 0.0534
C36E C 0.31 0.6856 0.0346
H25E H 0.2976 0.6732 -0.0194
C37E C 0.1885 0.7003 -0.0169
H26E H 0.1838 0.6992 -0.074
H27E H 0.1636 0.726 -0.0144
C38E C 0.3759 0.6879 0.1014
H28E H 0.4097 0.6758 0.0926
P5? P 0.3603(11) 0.3206(8) 0.5098(15)
F21? F 0.4250(15) 0.2992(11) 0.513(2)
F22? F 0.395(2) 0.3677(11) 0.538(2)
F23? F 0.2924(18) 0.3398(14) 0.505(2)
F24? F 0.3219(16) 0.2731(11) 0.483(3)
F25? F 0.3893(18) 0.3084(14) 0.610(2)
F26? F 0.3295(16) 0.3309(12) 0.410(2)

#END

