
#######################################################################
#
#                 Cambridge Crystallographic Data Centre
#                                CCDC 
#
#######################################################################
#
# If this CIF has been generated directly or indirectly from an entry in the 
# Cambridge Structural Database, then it will include bibliographic, chemical, 
# crystal, experimental, refinement or atomic coordinate data resulting from 
# the CCDC's data processing and validation procedures. Files generated from 
# CSD entries are Copyright 2016 Cambridge Crystallographic Data Centre. They 
# may be used in bona fide research applications only, and may not be copied or 
# further disseminated in any form, whether machine-readable or not, except for 
# the purposes of generating routine backup copies on your local computer 
# system.
# 
# Files arising from any other source may also contain material that is the 
# copyright of third parties, including the originator, and you should check 
# with the originator concerning the permitted uses of the information 
# contained in this CIF.
#
# For further information on the CCDC and the free tools enCIFer and Mercury
# for validating and visualising CIF files, please visit www.ccdc.cam.ac.uk
#
#######################################################################

data_QUFYIB00
_audit_creation_date             2015-06-08
_database_code_depnum_ccdc_archive 'CCDC 1405313'
_chemical_formula_moiety         'C456 H444 N48 O24'
_journal_coden_Cambridge         179
_journal_volume                  54
_journal_year                    2015
_journal_page_first              13241
_journal_name_full               Angew.Chem.,Int.Ed.
loop_
_publ_author_name
'Soonsang Hong'
R.Rohman
'Jiangtao Jia'
'Youngkook Kim'
'Dohyun Moon'
'Yonghwi Kim'
'Young Ho Ko'
'Eunsung Lee'
K.Kim
_chemical_absolute_configuration unk
_diffrn_ambient_temperature      100
_exptl_crystal_density_meas      0.733
_exptl_crystal_density_diffrn    0.733
#These two values have been output from a single CSD field.
_refine_ls_R_factor_gt           0.0775
_refine_ls_wR_factor_gt          0.0775
_diffrn_radiation_probe          x-ray
_diffrn_source                   synchrotron
_symmetry_cell_setting           rhombohedral
_symmetry_space_group_name_H-M   'R -3 c'
_symmetry_Int_Tables_number      167
loop_
_symmetry_equiv_pos_site_id
_symmetry_equiv_pos_as_xyz
1 x,y,z
2 -y,x-y,z
3 -x+y,-x,z
4 y,x,1/2-z
5 x-y,-y,1/2-z
6 -x,-x+y,1/2-z
7 2/3+x,1/3+y,1/3+z
8 2/3-y,1/3+x-y,1/3+z
9 2/3-x+y,1/3-x,1/3+z
10 2/3+y,1/3+x,5/6-z
11 2/3+x-y,1/3-y,5/6-z
12 2/3-x,1/3-x+y,5/6-z
13 1/3+x,2/3+y,2/3+z
14 1/3-y,2/3+x-y,2/3+z
15 1/3-x+y,2/3-x,2/3+z
16 1/3+y,2/3+x,1/6-z
17 1/3+x-y,2/3-y,1/6-z
18 1/3-x,2/3-x+y,1/6-z
19 -x,-y,-z
20 y,-x+y,-z
21 x-y,x,-z
22 -y,-x,1/2+z
23 -x+y,y,1/2+z
24 x,x-y,1/2+z
25 1/3-x,2/3-y,2/3-z
26 1/3+y,2/3-x+y,2/3-z
27 1/3+x-y,2/3+x,2/3-z
28 1/3-y,2/3-x,1/6+z
29 1/3-x+y,2/3+y,1/6+z
30 1/3+x,2/3+x-y,1/6+z
31 2/3-x,1/3-y,1/3-z
32 2/3+y,1/3-x+y,1/3-z
33 2/3+x-y,1/3+x,1/3-z
34 2/3-y,1/3-x,5/6+z
35 2/3-x+y,1/3+y,5/6+z
36 2/3+x,1/3+x-y,5/6+z
_cell_length_a                   29.518(4)
_cell_length_b                   29.518(4)
_cell_length_c                   125.69(3)
_cell_angle_alpha                90
_cell_angle_beta                 90
_cell_angle_gamma                120
_cell_volume                     94843
_exptl_crystal_colour            red
_exptl_crystal_description       block
_cell_formula_units_Z            6
loop_
_atom_site_label
_atom_site_type_symbol
_atom_site_fract_x
_atom_site_fract_y
_atom_site_fract_z
O1 O 0.40791(8) 0.63606(8) 0.54219(2)
O2 O 0.79439(9) 1.20350(9) 0.62678(2)
O3 O 0.68884(8) 1.26901(8) 0.64117(2)
O4 O 0.66159(10) 1.20595(9) 0.60531(2)
N1 N 0.70249(11) 0.73137(11) 0.62458(2)
N2 N 0.63697(11) 0.70994(11) 0.60599(2)
H1 H 0.6550 0.7373 0.6101
N3 N 0.64904(11) 0.81391(11) 0.60753(2)
N4 N 0.71392(11) 0.83479(11) 0.62640(2)
H2 H 0.6960 0.8075 0.6222
N5 N 0.46647(11) 0.75057(10) 0.55240(2)
N6 N 0.72540(12) 1.12850(11) 0.60854(2)
N7 N 0.74396(12) 1.21324(12) 0.65226(2)
N8 N 0.58227(12) 1.20718(11) 0.62190(2)
C1 C 0.69572(14) 0.68316(14) 0.62201(3)
C2 C 0.66301(14) 0.65045(14) 0.61396(3)
C3 C 0.63488(14) 0.66319(14) 0.60666(3)
C4 C 0.60034(15) 0.62830(14) 0.59867(3)
H3 H 0.5919 0.5931 0.5976
C5 C 0.58202(15) 0.65458(14) 0.59302(3)
H4 H 0.5584 0.6416 0.5872
C6 C 0.60554(14) 0.70650(14) 0.59761(3)
C7 C 0.59971(13) 0.74762(14) 0.59374(3)
C8 C 0.62098(14) 0.79693(14) 0.59812(3)
C9 C 0.62280(15) 0.84216(15) 0.59348(3)
H5 H 0.6067 0.8426 0.5870
C10 C 0.65065(15) 0.88378(15) 0.59974(3)
H6 H 0.6576 0.9184 0.5984
C11 C 0.66797(14) 0.86702(15) 0.60868(3)
C12 C 0.69906(14) 0.89872(14) 0.61701(3)
C13 C 0.71881(14) 0.88297(14) 0.62537(3)
C14 C 0.74909(14) 0.91605(15) 0.63403(3)
H7 H 0.7575 0.9512 0.6352
C15 C 0.76327(14) 0.88748(14) 0.64013(3)
H8 H 0.7833 0.8986 0.6465
C16 C 0.74229(14) 0.83723(14) 0.63516(3)
C17 C 0.75323(14) 0.79831(15) 0.63817(3)
C18 C 0.73669(14) 0.75105(15) 0.63315(3)
C19 C 0.75236(15) 0.71321(15) 0.63562(3)
H9 H 0.7760 0.7163 0.6411
C20 C 0.72742(15) 0.67233(16) 0.62880(3)
H10 H 0.7307 0.6419 0.6286
C21 C 0.57053(15) 0.74008(13) 0.58353(3)
C22 C 0.58942(14) 0.73040(13) 0.57419(3)
H11 H 0.6180 0.7241 0.5744
C23 C 0.52753(15) 0.74792(14) 0.58304(3)
H12 H 0.5133 0.7531 0.5894
C24 C 0.56679(14) 0.72997(13) 0.56462(3)
H13 H 0.5794 0.7224 0.5583
C25 C 0.50561(14) 0.74812(14) 0.57330(3)
H14 H 0.4765 0.7536 0.5730
C26 C 0.52566(13) 0.74043(13) 0.56396(3)
C27 C 0.50361(14) 0.74039(12) 0.55350(3)
H15 H 0.5173 0.7326 0.5474
C28 C 0.44445(13) 0.74412(13) 0.54166(2)
H16 H 0.4626 0.7323 0.5367
H17 H 0.4496 0.7780 0.5391
C29 C 0.38706(13) 0.70448(13) 0.54197(2)
C30 C 0.36997(14) 0.65125(14) 0.54218(2)
C31 C 0.41451(14) 0.61816(14) 0.55260(3)
H18 H 0.3823 0.5856 0.5546
H19 H 0.4215 0.6451 0.5581
C32 C 0.45998(14) 0.60834(14) 0.55192(3)
H20 H 0.4910 0.6398 0.5490
H21 H 0.4511 0.5789 0.5470
C33 C 0.47307(15) 0.59535(15) 0.56294(3)
H22 H 0.4806 0.6243 0.5679
H23 H 0.4423 0.5633 0.5657
C34 C 0.52011(15) 0.58683(15) 0.56261(3)
H24 H 0.5270 0.5787 0.5698
H25 H 0.5125 0.5577 0.5578
H26 H 0.5509 0.6187 0.5600
C35 C 0.73058(14) 1.20703(12) 0.61565(3)
C36 C 0.75650(13) 1.21805(12) 0.62551(3)
C37 C 0.74408(14) 1.23979(12) 0.63389(3)
C38 C 0.70320(13) 1.24968(12) 0.63267(3)
C39 C 0.67596(13) 1.24040(12) 0.62298(3)
C40 C 0.69003(14) 1.21848(12) 0.61474(3)
C41 C 0.74579(14) 1.18432(13) 0.60669(3)
H27 H 0.7316 1.1893 0.5999
H28 H 0.7844 1.2025 0.6061
C42 C 0.75737(16) 1.11214(15) 0.60860(3)
H29 H 0.7929 1.1359 0.6069
C43 C 0.74230(15) 1.05805(14) 0.61119(3)
C44 C 0.69249(15) 1.02283(16) 0.61432(3)
H30 H 0.6671 1.0335 0.6150
C45 C 0.77897(16) 1.04230(15) 0.61073(3)
H31 H 0.8140 1.0669 0.6089
C46 C 0.67902(15) 0.97173(15) 0.61655(3)
H32 H 0.6442 0.9476 0.6187
C47 C 0.76546(16) 0.99066(16) 0.61296(3)
H33 H 0.7910 0.9802 0.6125
C48 C 0.71462(15) 0.95499(14) 0.61581(3)
C49 C 0.77416(14) 1.15473(13) 0.63269(3)
H34 H 0.7430 1.1267 0.6290
H35 H 0.7635 1.1591 0.6399
C50 C 0.81610(15) 1.13965(14) 0.63348(3)
H36 H 0.8296 1.1394 0.6263
H37 H 0.8456 1.1659 0.6378
C51 C 0.79460(15) 1.08646(15) 0.63846(3)
H38 H 0.7662 1.0601 0.6339
H39 H 0.7794 1.0863 0.6455
C52 C 0.83652(17) 1.07133(17) 0.63987(3)
H40 H 0.8210 1.0366 0.6431
H41 H 0.8512 1.0707 0.6329
H42 H 0.8643 1.0969 0.6445
C53 C 0.77512(14) 1.25362(14) 0.64415(3)
H43 H 0.8088 1.2548 0.6429
H44 H 0.7826 1.2885 0.6467
C54 C 0.73998(14) 1.22917(15) 0.66120(3)
H45 H 0.7579 1.2657 0.6626
C55 C 0.70740(14) 1.19181(14) 0.66985(3)
C56 C 0.67814(16) 1.13831(16) 0.66787(3)
H46 H 0.6782 1.1250 0.6610
C57 C 0.70508(14) 1.21057(15) 0.67961(3)
H47 H 0.7233 1.2472 0.6808
C58 C 0.64914(16) 1.10475(15) 0.67594(3)
H48 H 0.6293 1.0682 0.6746
C59 C 0.67687(14) 1.17740(15) 0.68769(3)
H49 H 0.6766 1.1911 0.6945
C60 C 0.64865(14) 1.12384(16) 0.68597(3)
C61 C 0.64255(14) 1.22691(14) 0.64667(3)
H50 H 0.6474 1.1965 0.6479
H51 H 0.6109 1.2153 0.6422
C62 C 0.63619(15) 1.24776(14) 0.65705(3)
H52 H 0.6290 1.2766 0.6557
H53 H 0.6694 1.2624 0.6611
C63 C 0.59224(16) 1.20629(17) 0.66381(3)
H54 H 0.5585 1.1941 0.6601
H55 H 0.5976 1.1759 0.6646
C64 C 0.58932(18) 1.22597(19) 0.67463(3)
H56 H 0.5605 1.1979 0.6786
H57 H 0.6223 1.2373 0.6784
H58 H 0.5832 1.2556 0.6739
C65 C 0.63407(13) 1.25432(13) 0.62144(3)
H59 H 0.6369 1.2791 0.6271
H60 H 0.6388 1.2717 0.6145
C66 C 0.55056(14) 1.20023(13) 0.61468(3)
H61 H 0.5598 1.2261 0.6093
C67 C 0.49871(14) 1.15227(14) 0.61437(3)
C68 C 0.48363(15) 1.11530(15) 0.62250(3)
H62 H 0.5065 1.1213 0.6283
C69 C 0.46452(15) 1.14223(14) 0.60595(3)
H63 H 0.4743 1.1672 0.6004
C70 C 0.43627(15) 1.07061(16) 0.62210(3)
H64 H 0.4261 1.0461 0.6278
C71 C 0.41676(14) 1.09680(15) 0.60547(3)
H65 H 0.3940 1.0909 0.5996
C72 C 0.40196(14) 1.05993(14) 0.61344(3)
C73 C 0.62174(14) 1.15050(14) 0.60481(3)
H66 H 0.5997 1.1408 0.6113
H67 H 0.6389 1.1291 0.6046
C74 C 0.58855(17) 1.13954(18) 0.59528(3)
H68 H 0.6100 1.1453 0.5888
H69 H 0.5750 1.1641 0.5950
C75 C 0.54284(16) 1.08361(19) 0.59529(4)
H70 H 0.5221 1.0779 0.6018
H71 H 0.5568 1.0593 0.5955
C76 C 0.5064(2) 1.0703(3) 0.58559(3)
H72 H 0.4780 1.0339 0.5861
H73 H 0.4917 1.0936 0.5855
H74 H 0.5264 1.0750 0.5791
O1A O 0.36394 0.77185 0.54219
O2A O -0.2035 0.59089 0.62678
O3A O -0.26901 0.41983 0.64117
O4A O -0.20595 0.45564 0.60531
N1A N 0.26863 0.97112 0.62458
N2A N 0.29006 0.92703 0.60599
H1A H 0.2627 0.9177 0.6101
N3A N 0.18609 0.83513 0.60753
N4A N 0.16521 0.87913 0.6264
H2A H 0.1925 0.8885 0.6222
N5A N 0.24943 0.7159 0.5524
N6A N -0.1285 0.5969 0.60854
N7A N -0.21324 0.53072 0.65226
N8A N -0.20718 0.37509 0.6219
C1A C 0.31684 1.01256 0.62201
C2A C 0.34955 1.01256 0.61396
C3A C 0.33681 0.97169 0.60666
C4A C 0.3717 0.97204 0.59867
H3A H 0.4069 0.9988 0.5976
C5A C 0.34542 0.92744 0.59302
H4A H 0.3584 0.9168 0.5872
C6A C 0.2935 0.89904 0.59761
C7A C 0.25238 0.85209 0.59374
C8A C 0.20307 0.82405 0.59812
C9A C 0.15784 0.78064 0.59348
H5A H 0.1574 0.7641 0.587
C10A C 0.11622 0.76687 0.59974
H6A H 0.0816 0.7392 0.5984
C11A C 0.13298 0.80095 0.60868
C12A C 0.10128 0.80034 0.61701
C13A C 0.11703 0.83584 0.62537
C14A C 0.08395 0.83304 0.63403
H7A H 0.0488 0.8063 0.6352
C15A C 0.11252 0.87579 0.64013
H8A H 0.1014 0.8847 0.6465
C16A C 0.16277 0.90506 0.63516
C17A C 0.20169 0.95492 0.63817
C18A C 0.24895 0.98564 0.63315
C19A C 0.28679 1.03915 0.63562
H9A H 0.2837 1.0597 0.6411
C20A C 0.32767 1.05509 0.6288
H10A H 0.3581 1.0888 0.6286
C21A C 0.25992 0.83045 0.58353
C22A C 0.2696 0.85902 0.57419
H11A H 0.2759 0.8939 0.5744
C23A C 0.25208 0.77961 0.58304
H12A H 0.2469 0.7602 0.5894
C24A C 0.27003 0.83682 0.56462
H13A H 0.2776 0.857 0.5583
C25A C 0.25188 0.75749 0.5733
H14A H 0.2464 0.7229 0.573
C26A C 0.25957 0.78523 0.56396
C27A C 0.25961 0.76322 0.5535
H15A H 0.2674 0.7847 0.5474
C28A C 0.25588 0.70033 0.54166
H16A H 0.2677 0.7303 0.5367
H17A H 0.222 0.6716 0.5391
C29A C 0.29552 0.68258 0.54197
C30A C 0.34875 0.71872 0.54218
C31A C 0.38184 0.79635 0.5526
H18A H 0.4144 0.7967 0.5546
H19A H 0.3549 0.7764 0.5581
C32A C 0.39166 0.85164 0.55192
H20A H 0.3602 0.8512 0.549
H21A H 0.4211 0.8722 0.547
C33A C 0.40465 0.87772 0.56294
H22A H 0.3757 0.8563 0.5679
H23A H 0.4367 0.879 0.5657
C34A C 0.41317 0.93328 0.56261
H24A H 0.4213 0.9483 0.5698
H25A H 0.4423 0.9548 0.5578
H26A H 0.3813 0.9322 0.56
C35A C -0.20703 0.52355 0.61565
C36A C -0.21805 0.53845 0.62551
C37A C -0.23979 0.50429 0.63389
C38A C -0.24968 0.45352 0.63267
C39A C -0.2404 0.43556 0.62298
C40A C -0.21848 0.47155 0.61474
C41A C -0.18432 0.56147 0.60669
H27A H -0.1893 0.5423 0.5999
H28A H -0.2025 0.5819 0.6061
C42A C -0.11214 0.64523 0.6086
H29A H -0.1359 0.657 0.6069
C43A C -0.05805 0.68425 0.61119
C44A C -0.02283 0.66966 0.61432
H30A H -0.0335 0.6336 0.615
C45A C -0.0423 0.73667 0.61073
H31A H -0.0669 0.7471 0.6089
C46A C 0.02827 0.70729 0.61655
H32A H 0.0524 0.6966 0.6187
C47A C 0.00934 0.7748 0.61296
H33A H 0.0198 0.8108 0.6125
C48A C 0.04501 0.75963 0.61581
C49A C -0.15473 0.61943 0.63269
H34A H -0.1267 0.6163 0.629
H35A H -0.1591 0.6044 0.6399
C50A C -0.13965 0.67645 0.63348
H36A H -0.1394 0.6902 0.6263
H37A H -0.1659 0.6797 0.6378
C51A C -0.08646 0.70814 0.63846
H38A H -0.0601 0.7061 0.6339
H39A H -0.0863 0.6931 0.6455
C52A C -0.07133 0.76519 0.63987
H40A H -0.0366 0.7844 0.6431
H41A H -0.0707 0.7805 0.6329
H42A H -0.0969 0.7674 0.6445
C53A C -0.25362 0.5215 0.64415
H43A H -0.2548 0.554 0.6429
H44A H -0.2885 0.4941 0.6467
C54A C -0.22917 0.51081 0.6612
H45A H -0.2657 0.4922 0.6626
C55A C -0.19181 0.51559 0.66985
C56A C -0.13831 0.53983 0.66787
H46A H -0.125 0.5532 0.661
C57A C -0.21057 0.49451 0.67961
H47A H -0.2472 0.4761 0.6808
C58A C -0.10475 0.54439 0.67594
H48A H -0.0682 0.5611 0.6746
C59A C -0.1774 0.49947 0.68769
H49A H -0.1911 0.4855 0.6945
C60A C -0.12384 0.52481 0.68597
C61A C -0.22691 0.41564 0.64667
H50A H -0.1965 0.4509 0.6479
H51A H -0.2153 0.3956 0.6422
C62A C -0.24776 0.38843 0.65705
H52A H -0.2766 0.3524 0.6557
H53A H -0.2624 0.407 0.6611
C63A C -0.20629 0.38595 0.66381
H54A H -0.1941 0.3644 0.6601
H55A H -0.1759 0.4217 0.6646
C64A C -0.22597 0.36335 0.67463
H56A H -0.1979 0.3626 0.6786
H57A H -0.2373 0.385 0.6784
H58A H -0.2556 0.3276 0.6739
C65A C -0.25432 0.37975 0.62144
H59A H -0.2791 0.3578 0.6271
H60A H -0.2717 0.3671 0.6145
C66A C -0.20023 0.35033 0.61468
H61A H -0.2261 0.3337 0.6093
C67A C -0.15227 0.34644 0.61437
C68A C -0.1153 0.36833 0.6225
H62A H -0.1213 0.3852 0.6283
C69A C -0.14223 0.32229 0.60595
H63A H -0.1672 0.3071 0.6004
C70A C -0.07061 0.36566 0.6221
H64A H -0.0461 0.38 0.6278
C71A C -0.0968 0.31996 0.60547
H65A H -0.0909 0.3031 0.5996
C72A C -0.05993 0.34203 0.61344
C73A C -0.1505 0.47124 0.60481
H66A H -0.1408 0.4589 0.6113
H67A H -0.1291 0.5098 0.6046
C74A C -0.13954 0.44901 0.59528
H68A H -0.1453 0.4647 0.5888
H69A H -0.1641 0.4109 0.595
C75A C -0.08361 0.45923 0.59529
H70A H -0.0779 0.4442 0.6018
H71A H -0.0593 0.4975 0.5955
C76A C -0.0703 0.4361 0.58559
H72A H -0.0339 0.4441 0.5861
H73A H -0.0936 0.3981 0.5855
H74A H -0.075 0.4514 0.5791
O1B O 0.22815 0.59209 0.54219
O2B O 0.40911 0.20561 0.62678
O3B O 0.58017 0.31116 0.64117
O4B O 0.54436 0.33841 0.60531
N1B N 0.02888 0.29751 0.62458
N2B N 0.07297 0.36303 0.60599
H1B H 0.0823 0.345 0.6101
N3B N 0.16487 0.35096 0.60753
N4B N 0.12087 0.28608 0.6264
H2B H 0.1115 0.304 0.6222
N5B N 0.2841 0.53353 0.5524
N6B N 0.4031 0.2746 0.60854
N7B N 0.46928 0.25604 0.65226
N8B N 0.62491 0.41773 0.6219
C1B C -0.01256 0.30428 0.62201
C2B C -0.01256 0.33699 0.61396
C3B C 0.02831 0.36512 0.60666
C4B C 0.02796 0.39966 0.59867
H3B H 0.0012 0.4081 0.5976
C5B C 0.07256 0.41798 0.59302
H4B H 0.0832 0.4416 0.5872
C6B C 0.10096 0.39446 0.59761
C7B C 0.14791 0.40029 0.59374
C8B C 0.17595 0.37902 0.59812
C9B C 0.21936 0.3772 0.59348
H5B H 0.2359 0.3933 0.587
C10B C 0.23313 0.34935 0.59974
H6B H 0.2608 0.3424 0.5984
C11B C 0.19905 0.33203 0.60868
C12B C 0.19966 0.30094 0.61701
C13B C 0.16416 0.28119 0.62537
C14B C 0.16696 0.25091 0.63403
H7B H 0.1937 0.2425 0.6352
C15B C 0.12421 0.23673 0.64013
H8B H 0.1153 0.2167 0.6465
C16B C 0.09494 0.25771 0.63516
C17B C 0.04508 0.24677 0.63817
C18B C 0.01436 0.26331 0.63315
C19B C -0.03915 0.24764 0.63562
H9B H -0.0597 0.224 0.6411
C20B C -0.05509 0.27258 0.6288
H10B H -0.0888 0.2693 0.6286
C21B C 0.16955 0.42947 0.58353
C22B C 0.14098 0.41058 0.57419
H11B H 0.1061 0.382 0.5744
C23B C 0.22039 0.47247 0.58304
H12B H 0.2398 0.4867 0.5894
C24B C 0.16318 0.43321 0.56462
H13B H 0.143 0.4206 0.5583
C25B C 0.24251 0.49439 0.5733
H14B H 0.2771 0.5235 0.573
C26B C 0.21477 0.47434 0.56396
C27B C 0.23678 0.49639 0.5535
H15B H 0.2153 0.4827 0.5474
C28B C 0.29967 0.55555 0.54166
H16B H 0.2697 0.5374 0.5367
H17B H 0.3284 0.5504 0.5391
C29B C 0.31742 0.61294 0.54197
C30B C 0.28128 0.63003 0.54218
C31B C 0.20365 0.58549 0.5526
H18B H 0.2033 0.6177 0.5546
H19B H 0.2236 0.5785 0.5581
C32B C 0.14836 0.54002 0.55192
H20B H 0.1488 0.509 0.549
H21B H 0.1278 0.5489 0.547
C33B C 0.12228 0.52693 0.56294
H22B H 0.1437 0.5194 0.5679
H23B H 0.121 0.5577 0.5657
C34B C 0.06672 0.47989 0.56261
H24B H 0.0517 0.473 0.5698
H25B H 0.0452 0.4875 0.5578
H26B H 0.0678 0.4491 0.56
C35B C 0.47645 0.26942 0.61565
C36B C 0.46155 0.2435 0.62551
C37B C 0.49571 0.25592 0.63389
C38B C 0.54648 0.2968 0.63267
C39B C 0.56444 0.32404 0.62298
C40B C 0.52845 0.30997 0.61474
C41B C 0.43853 0.25421 0.60669
H27B H 0.4577 0.2684 0.5999
H28B H 0.4181 0.2156 0.6061
C42B C 0.35477 0.24263 0.6086
H29B H 0.343 0.2071 0.6069
C43B C 0.31575 0.2577 0.61119
C44B C 0.33034 0.30751 0.61432
H30B H 0.3664 0.3329 0.615
C45B C 0.26333 0.22103 0.61073
H31B H 0.2529 0.186 0.6089
C46B C 0.29271 0.32098 0.61655
H32B H 0.3034 0.3558 0.6187
C47B C 0.2252 0.23454 0.61296
H33B H 0.1892 0.209 0.6125
C48B C 0.24037 0.28538 0.61581
C49B C 0.38057 0.22584 0.63269
H34B H 0.3837 0.257 0.629
H35B H 0.3956 0.2365 0.6399
C50B C 0.32355 0.1839 0.63348
H36B H 0.3098 0.1704 0.6263
H37B H 0.3203 0.1544 0.6378
C51B C 0.29186 0.2054 0.63846
H38B H 0.2939 0.2338 0.6339
H39B H 0.3069 0.2206 0.6455
C52B C 0.23481 0.16348 0.63987
H40B H 0.2156 0.179 0.6431
H41B H 0.2195 0.1488 0.6329
H42B H 0.2326 0.1357 0.6445
C53B C 0.4785 0.22488 0.64415
H43B H 0.446 0.1912 0.6429
H44B H 0.5059 0.2174 0.6467
C54B C 0.48919 0.26002 0.6612
H45B H 0.5078 0.2421 0.6626
C55B C 0.48441 0.2926 0.66985
C56B C 0.46017 0.32186 0.66787
H46B H 0.4468 0.3218 0.661
C57B C 0.50549 0.29492 0.67961
H47B H 0.5239 0.2767 0.6808
C58B C 0.45561 0.35086 0.67594
H48B H 0.4389 0.3707 0.6746
C59B C 0.50053 0.32313 0.68769
H49B H 0.5145 0.3234 0.6945
C60B C 0.47519 0.35135 0.68597
C61B C 0.58436 0.35745 0.64667
H50B H 0.5491 0.3526 0.6479
H51B H 0.6044 0.3891 0.6422
C62B C 0.61157 0.36381 0.65705
H52B H 0.6476 0.371 0.6557
H53B H 0.593 0.3306 0.6611
C63B C 0.61405 0.40776 0.66381
H54B H 0.6356 0.4415 0.6601
H55B H 0.5783 0.4024 0.6646
C64B C 0.63665 0.41068 0.67463
H56B H 0.6374 0.4395 0.6786
H57B H 0.615 0.3777 0.6784
H58B H 0.6724 0.4168 0.6739
C65B C 0.62025 0.36593 0.62144
H59B H 0.6422 0.3631 0.6271
H60B H 0.6329 0.3612 0.6145
C66B C 0.64967 0.44944 0.61468
H61B H 0.6663 0.4402 0.6093
C67B C 0.65356 0.50129 0.61437
C68B C 0.63167 0.51637 0.6225
H62B H 0.6148 0.4935 0.6283
C69B C 0.67771 0.53548 0.60595
H63B H 0.6929 0.5257 0.6004
C70B C 0.63434 0.56373 0.6221
H64B H 0.62 0.5739 0.6278
C71B C 0.68004 0.58324 0.60547
H65B H 0.6969 0.606 0.5996
C72B C 0.65797 0.59804 0.61344
C73B C 0.52876 0.37826 0.60481
H66B H 0.5411 0.4003 0.6113
H67B H 0.4902 0.3611 0.6046
C74B C 0.55099 0.41145 0.59528
H68B H 0.5353 0.39 0.5888
H69B H 0.5891 0.425 0.595
C75B C 0.54077 0.45716 0.59529
H70B H 0.5558 0.4779 0.6018
H71B H 0.5025 0.4432 0.5955
C76B C 0.5639 0.4936 0.58559
H72B H 0.5559 0.522 0.5861
H73B H 0.6019 0.5083 0.5855
H74B H 0.5486 0.4736 0.5791
O1EA O 0.302727 0.561483 0.791143
O2EA O 0.870167 0.742443 0.706553
O3EA O 0.935677 0.913503 0.692163
O4EA O 0.872617 0.877693 0.728023
N1EA N 0.398037 0.362213 0.708753
N2EA N 0.376607 0.406303 0.727343
H1EA H 0.403967 0.415633 0.723233
N3EA N 0.480577 0.498203 0.725803
N4EA N 0.501457 0.454203 0.706933
H2EA H 0.474167 0.444833 0.711133
N5EA N 0.417237 0.617433 0.780933
N6EA N 0.795167 0.736433 0.724793
N7EA N 0.879907 0.802613 0.681073
N8EA N 0.873847 0.958243 0.711433
C1EA C 0.349827 0.320773 0.711323
C2EA C 0.317117 0.320773 0.719373
C3EA C 0.329857 0.361643 0.726673
C4EA C 0.294967 0.361293 0.734663
H3EA H 0.259767 0.334533 0.735733
C5EA C 0.321247 0.405893 0.740313
H4EA H 0.308267 0.416533 0.746133
C6EA C 0.373167 0.434293 0.735723
C7EA C 0.414287 0.481243 0.739593
C8EA C 0.463597 0.509283 0.735213
C9EA C 0.508827 0.552693 0.739853
H5EA H 0.509267 0.569233 0.746333
C10EA C 0.550447 0.566463 0.733593
H6EA H 0.585067 0.594133 0.734933
C11EA C 0.533687 0.532383 0.724653
C12EA C 0.565387 0.532993 0.716323
C13EA C 0.549637 0.497493 0.707963
C14EA C 0.582717 0.500293 0.699303
H7EA H 0.617867 0.527033 0.698133
C15EA C 0.554147 0.457543 0.693203
H8EA H 0.565267 0.448633 0.686833
C16EA C 0.503897 0.428273 0.698173
C17EA C 0.464977 0.378413 0.695163
C18EA C 0.417717 0.347693 0.700183
C19EA C 0.379877 0.294183 0.697713
H9EA H 0.382967 0.273633 0.692233
C20EA C 0.338997 0.278243 0.704533
H10EA H 0.308567 0.244533 0.704733
C21EA C 0.406747 0.502883 0.749803
C22EA C 0.397067 0.474313 0.759143
H11EA H 0.390767 0.439433 0.758933
C23EA C 0.414587 0.553723 0.750293
H12EA H 0.419767 0.573133 0.743933
C24EA C 0.396637 0.496513 0.768713
H13EA H 0.389067 0.476333 0.775033
C25EA C 0.414787 0.575843 0.760033
H14EA H 0.420267 0.610433 0.760333
C26EA C 0.407097 0.548103 0.769373
C27EA C 0.407057 0.570113 0.779833
H15EA H 0.399267 0.548633 0.785933
C28EA C 0.410787 0.633003 0.791673
H16EA H 0.398967 0.603033 0.796633
H17EA H 0.444667 0.661733 0.794233
C29EA C 0.371147 0.650753 0.791363
C30EA C 0.317917 0.614613 0.791153
C31EA C 0.284827 0.536983 0.780733
H18EA H 0.252267 0.536633 0.778733
H19EA H 0.311767 0.556933 0.775233
C32EA C 0.275007 0.481693 0.781413
H20EA H 0.306467 0.482133 0.784333
H21EA H 0.245567 0.461133 0.786333
C33EA C 0.262017 0.455613 0.770393
H22EA H 0.290967 0.477033 0.765433
H23EA H 0.229967 0.454333 0.767633
C34EA C 0.253497 0.400053 0.770723
H24EA H 0.245367 0.385033 0.763533
H25EA H 0.224367 0.378533 0.775533
H26EA H 0.285367 0.401133 0.773333
C35EA C 0.873697 0.809783 0.717683
C36EA C 0.884717 0.794883 0.707823
C37EA C 0.906457 0.829043 0.699443
C38EA C 0.916347 0.879813 0.700663
C39EA C 0.907067 0.897773 0.710353
C40EA C 0.885147 0.861783 0.718593
C41EA C 0.850987 0.771863 0.726643
H27EA H 0.855967 0.791033 0.733433
H28EA H 0.869167 0.751433 0.727233
C42EA C 0.778807 0.688103 0.724733
H29EA H 0.802567 0.676333 0.726433
C43EA C 0.724717 0.649083 0.722143
C44EA C 0.689497 0.663673 0.719013
H30EA H 0.700167 0.699733 0.718333
C45EA C 0.708967 0.596663 0.722603
H31EA H 0.733567 0.586233 0.724433
C46EA C 0.638397 0.626043 0.716783
H32EA H 0.614267 0.636733 0.714633
C47EA C 0.657327 0.558533 0.720373
H33EA H 0.646867 0.522533 0.720833
C48EA C 0.621657 0.573703 0.717523
C49EA C 0.821397 0.713903 0.700643
H34EA H 0.793367 0.717033 0.704333
H35EA H 0.825767 0.728933 0.693433
C50EA C 0.806317 0.656883 0.699853
H36EA H 0.806067 0.643133 0.707033
H37EA H 0.832567 0.653633 0.695533
C51EA C 0.753127 0.625193 0.694873
H38EA H 0.726767 0.627233 0.699433
H39EA H 0.752967 0.640233 0.687833
C52EA C 0.737997 0.568143 0.693463
H40EA H 0.703267 0.548933 0.690233
H41EA H 0.737367 0.552833 0.700433
H42EA H 0.763567 0.565933 0.688833
C53EA C 0.920287 0.811833 0.689183
H43EA H 0.921467 0.779333 0.690433
H44EA H 0.955167 0.839233 0.686633
C54EA C 0.895837 0.822523 0.672133
H45EA H 0.932367 0.841133 0.670733
C55EA C 0.858477 0.817743 0.663483
C56EA C 0.804977 0.793503 0.665463
H46EA H 0.791667 0.780133 0.672333
C57EA C 0.877237 0.838823 0.653723
H47EA H 0.913867 0.857233 0.652533
C58EA C 0.771417 0.788943 0.657393
H48EA H 0.734867 0.772233 0.658733
C59EA C 0.844067 0.833863 0.645643
H49EA H 0.857767 0.847833 0.638833
C60EA C 0.790507 0.808523 0.647363
C61EA C 0.893577 0.917693 0.686663
H50EA H 0.863167 0.882433 0.685433
H51EA H 0.881967 0.937733 0.691133
C62EA C 0.914427 0.944903 0.676283
H52EA H 0.943267 0.980933 0.677633
H53EA H 0.929067 0.926333 0.672233
C63EA C 0.872957 0.947383 0.669523
H54EA H 0.860767 0.968933 0.673233
H55EA H 0.842567 0.911633 0.668733
C64EA C 0.892637 0.969983 0.658703
H56EA H 0.864567 0.970733 0.654733
H57EA H 0.903967 0.948333 0.654933
H58EA H 0.922267 1.00573 0.659433
C65EA C 0.920987 0.953583 0.711893
H59EA H 0.945767 0.975533 0.706233
H60EA H 0.938367 0.966233 0.718833
C66EA C 0.866897 0.983003 0.718653
H61EA H 0.892767 0.999633 0.724033
C67EA C 0.818937 0.986893 0.718963
C68EA C 0.781967 0.965003 0.710833
H62EA H 0.787967 0.948133 0.705033
C69EA C 0.808897 1.01104 0.727383
H63EA H 0.833867 1.02623 0.732933
C70EA C 0.737277 0.967673 0.711233
H64EA H 0.712767 0.953333 0.705533
C71EA C 0.763467 1.01337 0.727863
H65EA H 0.757567 1.03023 0.733733
C72EA C 0.726597 0.991303 0.719893
C73EA C 0.817167 0.862093 0.728523
H66EA H 0.807467 0.874433 0.722033
H67EA H 0.795767 0.823533 0.728733
C74EA C 0.806207 0.884323 0.738053
H68EA H 0.811967 0.868633 0.744533
H69EA H 0.830767 0.922433 0.738333
C75EA C 0.750277 0.874103 0.738043
H70EA H 0.744567 0.889133 0.731533
H71EA H 0.725967 0.835833 0.737833
C76EA C 0.736967 0.897233 0.747743
H72EA H 0.700567 0.889233 0.747233
H73EA H 0.760267 0.935233 0.747833
H74EA H 0.741667 0.881933 0.754233
O1FA O 0.438517 0.741243 0.791143
O2FA O 0.257557 1.12772 0.706553
O3FA O 0.0864967 1.02217 0.692163
O4FA O 0.122307 0.994923 0.728023
N1FA N 0.637787 1.03582 0.708753
N2FA N 0.593697 0.970303 0.727343
H1FA H 0.584367 0.988333 0.723233
N3FA N 0.501797 0.982373 0.725803
N4FA N 0.545797 1.04725 0.706933
H2FA H 0.555167 1.02933 0.711133
N5FA N 0.382567 0.799803 0.780933
N6FA N 0.263567 1.05873 0.724793
N7FA N 0.197387 1.07729 0.681073
N8FA N 0.0417567 0.915603 0.711433
C1FA C 0.679227 1.02905 0.711323
C2FA C 0.679227 0.996343 0.719373
C3FA C 0.638357 0.968213 0.726673
C4FA C 0.638707 0.933673 0.734663
H3FA H 0.665467 0.925233 0.735733
C5FA C 0.594107 0.915353 0.740313
H4FA H 0.583467 0.891733 0.746133
C6FA C 0.565707 0.938873 0.735723
C7FA C 0.518757 0.933043 0.739593
C8FA C 0.490717 0.954313 0.735213
C9FA C 0.447307 0.956133 0.739853
H5FA H 0.430767 0.940033 0.746333
C10FA C 0.433537 0.983983 0.733593
H6FA H 0.405867 0.990933 0.734933
C11FA C 0.467617 1.0013 0.724653
C12FA C 0.467007 1.03239 0.716323
C13FA C 0.502507 1.05214 0.707963
C14FA C 0.499707 1.08242 0.699303
H7FA H 0.472967 1.09083 0.698133
C15FA C 0.542457 1.0966 0.693203
H8FA H 0.551367 1.11663 0.686833
C16FA C 0.571727 1.07562 0.698173
C17FA C 0.621587 1.08656 0.695163
C18FA C 0.652307 1.07002 0.700183
C19FA C 0.705817 1.08569 0.697713
H9FA H 0.726367 1.10933 0.692233
C20FA C 0.721757 1.06075 0.704533
H10FA H 0.755467 1.06403 0.704733
C21FA C 0.497117 0.903863 0.749803
C22FA C 0.525687 0.922753 0.759143
H11FA H 0.560567 0.951333 0.758933
C23FA C 0.446277 0.860863 0.750293
H12FA H 0.426867 0.846633 0.743933
C24FA C 0.503487 0.900123 0.768713
H13FA H 0.523667 0.912733 0.775033
C25FA C 0.424157 0.838943 0.760033
H14FA H 0.389567 0.809833 0.760333
C26FA C 0.451897 0.858993 0.769373
C27FA C 0.429887 0.836943 0.779833
H15FA H 0.451367 0.850633 0.785933
C28FA C 0.366997 0.777783 0.791673
H16FA H 0.396967 0.795933 0.796633
H17FA H 0.338267 0.782933 0.794233
C29FA C 0.349247 0.720393 0.791363
C30FA C 0.385387 0.703303 0.791153
C31FA C 0.463017 0.747843 0.780733
H18FA H 0.463367 0.715633 0.778733
H19FA H 0.443067 0.754833 0.775233
C32FA C 0.518307 0.793313 0.781413
H20FA H 0.517867 0.824333 0.784333
H21FA H 0.538867 0.784433 0.786333
C33FA C 0.544387 0.806403 0.770393
H22FA H 0.522967 0.813933 0.765433
H23FA H 0.545667 0.775633 0.767633
C34FA C 0.599947 0.853443 0.770723
H24FA H 0.614967 0.860333 0.763533
H25FA H 0.621467 0.845833 0.775533
H26FA H 0.598867 0.884233 0.773333
C35FA C 0.190217 1.06391 0.717683
C36FA C 0.205117 1.08983 0.707823
C37FA C 0.170957 1.07741 0.699443
C38FA C 0.120187 1.03653 0.700663
C39FA C 0.102227 1.00929 0.710353
C40FA C 0.138217 1.02336 0.718593
C41FA C 0.228137 1.07912 0.726643
H27FA H 0.208967 1.06493 0.733433
H28FA H 0.248567 1.11773 0.727233
C42FA C 0.311897 1.0907 0.724733
H29FA H 0.323667 1.12623 0.726433
C43FA C 0.350917 1.07563 0.722143
C44FA C 0.336327 1.02582 0.719013
H30FA H 0.300267 1.00043 0.718333
C45FA C 0.403337 1.1123 0.722603
H31FA H 0.413767 1.14733 0.724433
C46FA C 0.373957 1.01235 0.716783
H32FA H 0.363267 0.977533 0.714633
C47FA C 0.441467 1.09879 0.720373
H33FA H 0.477467 1.12433 0.720833
C48FA C 0.426297 1.04795 0.717523
C49FA C 0.286097 1.10749 0.700643
H34FA H 0.282967 1.07633 0.704333
H35FA H 0.271067 1.09683 0.693433
C50FA C 0.343117 1.14943 0.699853
H36FA H 0.356867 1.16293 0.707033
H37FA H 0.346367 1.17893 0.695533
C51FA C 0.374807 1.12793 0.694873
H38FA H 0.372767 1.09953 0.699433
H39FA H 0.359767 1.11273 0.687833
C52FA C 0.431857 1.16985 0.693463
H40FA H 0.451067 1.15433 0.690233
H41FA H 0.447167 1.18453 0.700433
H42FA H 0.434067 1.19763 0.688833
C53FA C 0.188167 1.10845 0.689183
H43FA H 0.220667 1.14213 0.690433
H44FA H 0.160767 1.11593 0.686633
C54FA C 0.177477 1.07331 0.672133
H45FA H 0.158867 1.09123 0.670733
C55FA C 0.182257 1.04073 0.663483
C56FA C 0.206497 1.01147 0.665463
H46FA H 0.219867 1.01153 0.672333
C57FA C 0.161177 1.03841 0.653723
H47FA H 0.142767 1.05663 0.652533
C58FA C 0.211057 0.982473 0.657393
H48FA H 0.227767 0.962633 0.658733
C59FA C 0.166137 1.0102 0.645643
H49FA H 0.152167 1.00993 0.638833
C60FA C 0.191477 0.981983 0.647363
C61FA C 0.0823067 0.975883 0.686663
H50FA H 0.117567 0.980733 0.685433
H51FA H 0.0622667 0.944233 0.691133
C62FA C 0.0550967 0.969523 0.676283
H52FA H 0.0190667 0.962333 0.677633
H53FA H 0.0736667 1.00273 0.672233
C63FA C 0.0526167 0.925573 0.669523
H54FA H 0.0310667 0.891833 0.673233
H55FA H 0.0883667 0.930933 0.668733
C64FA C 0.0300167 0.922653 0.658703
H56FA H 0.0292667 0.893833 0.654733
H57FA H 0.0516667 0.955633 0.654933
H58FA H -0.00573333 0.916533 0.659433
C65FA C 0.0464167 0.967403 0.711893
H59FA H 0.0244667 0.970233 0.706233
H60FA H 0.0337667 0.972133 0.718833
C66FA C 0.0169967 0.883893 0.718653
H61FA H 0.000366667 0.893133 0.724033
C67FA C 0.0131067 0.832043 0.718963
C68FA C 0.0349967 0.816963 0.710833
H62FA H 0.0518667 0.839833 0.705033
C69FA C -0.0110433 0.797853 0.727383
H63FA H -0.0262333 0.807633 0.732933
C70FA C 0.0323267 0.769603 0.711233
H64FA H 0.0466667 0.759433 0.705533
C71FA C -0.0133733 0.750093 0.727863
H65FA H -0.0302333 0.727333 0.733733
C72FA C 0.00869667 0.735293 0.719893
C73FA C 0.137907 0.955073 0.728523
H66FA H 0.125567 0.933033 0.722033
H67FA H 0.176467 0.972233 0.728733
C74FA C 0.115677 0.921883 0.738053
H68FA H 0.131367 0.943333 0.744533
H69FA H 0.0775667 0.908333 0.738333
C75FA C 0.125897 0.876173 0.738043
H70FA H 0.110867 0.855433 0.731533
H71FA H 0.164167 0.890133 0.737833
C76FA C 0.102767 0.839733 0.747743
H72FA H 0.110767 0.811333 0.747233
H73FA H 0.0647667 0.825033 0.747833
H74FA H 0.118067 0.859733 0.754233
O1DA O 0.258757 0.697273 0.791143
O2DA O -0.127723 0.129833 0.706553
O3DA O -0.0221733 0.0643233 0.692163
O4DA O 0.00507667 0.127383 0.728023
N1DA N -0.0358233 0.601963 0.708753
N2DA N 0.0296967 0.623393 0.727343
H1DA H 0.0116667 0.596033 0.723233
N3DA N 0.0176267 0.519423 0.725803
N4DA N -0.0472533 0.498543 0.706933
H2DA H -0.0293333 0.525833 0.711133
N5DA N 0.200197 0.582763 0.780933
N6DA N -0.0587333 0.204833 0.724793
N7DA N -0.0772933 0.120093 0.681073
N8DA N 0.0843967 0.126153 0.711433
C1DA C -0.0290533 0.650173 0.711323
C2DA C 0.00365667 0.682883 0.719373
C3DA C 0.0317867 0.670143 0.726673
C4DA C 0.0663267 0.705033 0.734663
H3DA H 0.0747667 0.740233 0.735733
C5DA C 0.0846467 0.678753 0.740313
H4DA H 0.108267 0.691733 0.746133
C6DA C 0.0611267 0.626833 0.735723
C7DA C 0.0669567 0.585713 0.739593
C8DA C 0.0456867 0.536403 0.735213
C9DA C 0.0438667 0.491173 0.739853
H5DA H 0.0599667 0.490733 0.746333
C10DA C 0.0160167 0.449553 0.733593
H6DA H 0.00906667 0.414933 0.734933
C11DA C -0.00130333 0.466313 0.724653
C12DA C -0.0323933 0.434613 0.716323
C13DA C -0.0521433 0.450363 0.707963
C14DA C -0.0824233 0.417283 0.699303
H7DA H -0.0908333 0.382133 0.698133
C15DA C -0.0966033 0.445853 0.693203
H8DA H -0.116633 0.434733 0.686833
C16DA C -0.0756233 0.496103 0.698173
C17DA C -0.0865633 0.535023 0.695163
C18DA C -0.0700233 0.582283 0.700183
C19DA C -0.0856933 0.620123 0.697713
H9DA H -0.109333 0.617033 0.692233
C20DA C -0.0607533 0.661003 0.704533
H10DA H -0.0640333 0.691433 0.704733
C21DA C 0.0961367 0.593253 0.749803
C22DA C 0.0772467 0.602933 0.759143
H11DA H 0.0486667 0.609233 0.758933
C23DA C 0.139137 0.585413 0.750293
H12DA H 0.153367 0.580233 0.743933
C24DA C 0.0998767 0.603363 0.768713
H13DA H 0.0872667 0.610933 0.775033
C25DA C 0.161057 0.585213 0.760033
H14DA H 0.190167 0.579733 0.760333
C26DA C 0.141007 0.592903 0.769373
C27DA C 0.163057 0.592943 0.779833
H15DA H 0.149367 0.600733 0.785933
C28DA C 0.222217 0.589213 0.791673
H16DA H 0.204067 0.601033 0.796633
H17DA H 0.217067 0.555333 0.794233
C29DA C 0.279607 0.628853 0.791363
C30DA C 0.296697 0.682083 0.791153
C31DA C 0.252157 0.715173 0.780733
H18DA H 0.284367 0.747733 0.778733
H19DA H 0.245167 0.688233 0.775233
C32DA C 0.206687 0.724993 0.781413
H20DA H 0.175667 0.693533 0.784333
H21DA H 0.215567 0.754433 0.786333
C33DA C 0.193597 0.737983 0.770393
H22DA H 0.186067 0.709033 0.765433
H23DA H 0.224367 0.770033 0.767633
C34DA C 0.146557 0.746503 0.770723
H24DA H 0.139667 0.754633 0.763533
H25DA H 0.154167 0.775633 0.775533
H26DA H 0.115767 0.714633 0.773333
C35DA C -0.0639133 0.126303 0.717683
C36DA C -0.0898333 0.115283 0.707823
C37DA C -0.0774133 0.0935433 0.699443
C38DA C -0.0365333 0.0836533 0.700663
C39DA C -0.00929333 0.0929333 0.710353
C40DA C -0.0233633 0.114853 0.718593
C41DA C -0.0791233 0.149013 0.726643
H27DA H -0.0649333 0.144033 0.733433
H28DA H -0.117733 0.130833 0.727233
C42DA C -0.0907033 0.221193 0.724733
H29DA H -0.126233 0.197433 0.726433
C43DA C -0.0756333 0.275283 0.722143
C44DA C -0.0258233 0.310503 0.719013
H30DA H -0.000433333 0.299833 0.718333
C45DA C -0.112303 0.291033 0.722603
H31DA H -0.147333 0.266433 0.724433
C46DA C -0.0123533 0.361603 0.716783
H32DA H 0.0224667 0.385733 0.714633
C47DA C -0.0987933 0.342673 0.720373
H33DA H -0.124333 0.353133 0.720833
C48DA C -0.0479533 0.378343 0.717523
C49DA C -0.107493 0.178603 0.700643
H34DA H -0.0763333 0.206633 0.704333
H35DA H -0.0968333 0.174233 0.693433
C50DA C -0.149433 0.193683 0.699853
H36DA H -0.162933 0.193933 0.707033
H37DA H -0.178933 0.167433 0.695533
C51DA C -0.127933 0.246873 0.694873
H38DA H -0.0995333 0.273233 0.699433
H39DA H -0.112733 0.247033 0.687833
C52DA C -0.169853 0.262003 0.693463
H40DA H -0.154333 0.296733 0.690233
H41DA H -0.184533 0.262633 0.700433
H42DA H -0.197633 0.236433 0.688833
C53DA C -0.108453 0.0797133 0.689183
H43DA H -0.142133 0.0785333 0.690433
H44DA H -0.115933 0.0448333 0.686633
C54DA C -0.0733133 0.104163 0.672133
H45DA H -0.0912333 0.0676333 0.670733
C55DA C -0.0407333 0.141523 0.663483
C56DA C -0.0114733 0.195023 0.665463
H46DA H -0.0115333 0.208333 0.672333
C57DA C -0.0384133 0.122763 0.653723
H47DA H -0.0566333 0.0861333 0.652533
C58DA C 0.0175267 0.228583 0.657393
H48DA H 0.0373667 0.265133 0.658733
C59DA C -0.0102033 0.155933 0.645643
H49DA H -0.00993333 0.142233 0.638833
C60DA C 0.0180167 0.209493 0.647363
C61DA C 0.0241167 0.106423 0.686663
H50DA H 0.0192667 0.136833 0.685433
H51DA H 0.0557667 0.118033 0.691133
C62DA C 0.0304767 0.0855733 0.676283
H52DA H 0.0376667 0.0567333 0.677633
H53DA H -0.00273333 0.0709333 0.672233
C63DA C 0.0744267 0.127043 0.669523
H54DA H 0.108167 0.139233 0.673233
H55DA H 0.0690667 0.157433 0.668733
C64DA C 0.0773467 0.107363 0.658703
H56DA H 0.106167 0.135433 0.654733
H57DA H 0.0443667 0.0960333 0.654933
H58DA H 0.0834667 0.0777333 0.659433
C65DA C 0.0325967 0.0790133 0.711893
H59DA H 0.0297667 0.0542333 0.706233
H60DA H 0.0278667 0.0616333 0.718833
C66DA C 0.116107 0.133103 0.718653
H61DA H 0.106867 0.107233 0.724033
C67DA C 0.167957 0.181063 0.718963
C68DA C 0.183037 0.218033 0.710833
H62DA H 0.160167 0.212033 0.705033
C69DA C 0.202147 0.191103 0.727383
H63DA H 0.192367 0.166133 0.732933
C70DA C 0.230397 0.262723 0.711233
H64DA H 0.240567 0.287233 0.705533
C71DA C 0.249907 0.236533 0.727863
H65DA H 0.272667 0.242433 0.733733
C72DA C 0.264707 0.273403 0.719893
C73DA C 0.0449267 0.182833 0.728523
H66DA H 0.0669667 0.192533 0.722033
H67DA H 0.0277667 0.204233 0.728733
C74DA C 0.0781167 0.193793 0.738053
H68DA H 0.0566667 0.188033 0.744533
H69DA H 0.0916667 0.169233 0.738333
C75DA C 0.123827 0.249723 0.738043
H70DA H 0.144567 0.255433 0.731533
H71DA H 0.109867 0.274033 0.737833
C76DA C 0.160267 0.263033 0.747743
H72DA H 0.188667 0.299433 0.747233
H73DA H 0.174967 0.239733 0.747833
H74DA H 0.140267 0.258333 0.754233

#END

