
#######################################################################
#
#                 Cambridge Crystallographic Data Centre
#                                CCDC 
#
#######################################################################
#
# If this CIF has been generated directly or indirectly from an entry in the 
# Cambridge Structural Database, then it will include bibliographic, chemical, 
# crystal, experimental, refinement or atomic coordinate data resulting from 
# the CCDC's data processing and validation procedures. Files generated from 
# CSD entries are Copyright 2016 Cambridge Crystallographic Data Centre. They 
# may be used in bona fide research applications only, and may not be copied or 
# further disseminated in any form, whether machine-readable or not, except for 
# the purposes of generating routine backup copies on your local computer 
# system.
# 
# Files arising from any other source may also contain material that is the 
# copyright of third parties, including the originator, and you should check 
# with the originator concerning the permitted uses of the information 
# contained in this CIF.
#
# For further information on the CCDC and the free tools enCIFer and Mercury
# for validating and visualising CIF files, please visit www.ccdc.cam.ac.uk
#
#######################################################################

data_QUFYOH00
_audit_creation_date             2015-06-08
_database_code_depnum_ccdc_archive 'CCDC 1405314'
_chemical_formula_moiety         'C336 H276 N56'
_journal_coden_Cambridge         179
_journal_volume                  54
_journal_year                    2015
_journal_page_first              13241
_journal_name_full               Angew.Chem.,Int.Ed.
loop_
_publ_author_name
'Soonsang Hong'
R.Rohman
'Jiangtao Jia'
'Youngkook Kim'
'Dohyun Moon'
'Yonghwi Kim'
'Young Ho Ko'
'Eunsung Lee'
K.Kim
_chemical_absolute_configuration unk
_diffrn_ambient_temperature      300
_exptl_crystal_density_meas      0.845
_exptl_crystal_density_diffrn    0.845
#These two values have been output from a single CSD field.
_refine_ls_R_factor_gt           0.1536
_refine_ls_wR_factor_gt          0.1536
_diffrn_radiation_probe          x-ray
_diffrn_source                   synchrotron
_symmetry_cell_setting           tetragonal
_symmetry_space_group_name_H-M   'P 4/n'
_symmetry_Int_Tables_number      85
loop_
_symmetry_equiv_pos_site_id
_symmetry_equiv_pos_as_xyz
1 x,y,z
2 1/2-x,1/2-y,z
3 1/2-y,x,z
4 y,1/2-x,z
5 -x,-y,-z
6 1/2+x,1/2+y,-z
7 1/2+y,-x,-z
8 -y,1/2+x,-z
_cell_length_a                   29.926(4)
_cell_length_b                   29.926(4)
_cell_length_c                   22.380(5)
_cell_angle_alpha                90
_cell_angle_beta                 90
_cell_angle_gamma                90
_cell_volume                     20042.8
_exptl_crystal_colour            red
_exptl_crystal_description       block
_cell_formula_units_Z            2
loop_
_atom_site_label
_atom_site_type_symbol
_atom_site_fract_x
_atom_site_fract_y
_atom_site_fract_z
C1 C 0.93367(19) 0.5567(2) 0.2487(4)
C2 C 0.9415(2) 0.5773(3) 0.3004(4)
C3 C 0.95954(19) 0.6186(2) 0.3079(4)
C4 C 0.96873(19) 0.6402(3) 0.3633(3)
H1 H 0.9631 0.6287 0.4012
C5 C 0.9870(2) 0.6799(3) 0.3510(4)
H2 H 0.9962 0.7008 0.3791
C6 C 0.99002(18) 0.6849(2) 0.2898(3)
C7 C 1.00825(18) 0.7210(2) 0.2608(4)
C8 C 1.0102(2) 0.7267(2) 0.2003(4)
C9 C 1.0313(2) 0.7641(2) 0.1663(4)
H3 H 1.0453 0.7890 0.1827
C10 C 1.0265(2) 0.7556(2) 0.1103(4)
H4 H 1.0356 0.7744 0.0794
C11 C 1.0061(2) 0.7149(3) 0.1025(4)
C12 C 0.9973(2) 0.6928(2) 0.0462(3)
C13 C 0.9776(2) 0.6502(3) 0.0418(4)
C14 C 0.9677(3) 0.6311(3) -0.0180(4)
H5 H 0.9726 0.6430 -0.0558
C15 C 0.9491(2) 0.5905(3) -0.0018(5)
H6 H 0.9398 0.5691 -0.0292
C16 C 0.9460(2) 0.5852(3) 0.0584(4)
C17 C 0.9300(2) 0.5487(3) 0.0873(4)
C18 C 0.9276(2) 0.5431(3) 0.1475(5)
C19 C 0.9111(3) 0.5059(3) 0.1772(4)
H7 H 0.8996 0.4806 0.1586
C20 C 0.9141(3) 0.5117(3) 0.2362(5)
H8 H 0.9054 0.4910 0.2650
C21 C 1.0322(2) 0.7559(2) 0.2974(3)
C22 C 1.0700(2) 0.7455(2) 0.3258(3)
H9 H 1.0804 0.7162 0.3249
C23 C 1.0946(2) 0.7783(3) 0.3573(4)
H10 H 1.1226 0.7716 0.3729
C24 C 1.0763(3) 0.8210(2) 0.3646(3)
C25 C 1.0360(3) 0.8284(2) 0.3422(3)
H11 H 1.0226 0.8559 0.3494
C26 C 1.0134(2) 0.7980(3) 0.3093(3)
H12 H 0.9852 0.8050 0.2945
C27 C 1.1012(3) 0.8542(3) 0.3979(3)
H13 H 1.0879 0.8820 0.4041
C28 C 1.1628(3) 0.8876(3) 0.4470(5)
H14 H 1.1424 0.9128 0.4480
H15 H 1.1896 0.8960 0.4255
C29 C 1.0157(3) 0.7149(2) -0.0097(3)
C30 C 1.0577(3) 0.7108(3) -0.0275(4)
H16 H 1.0774 0.6942 -0.0044
C31 C 1.0732(3) 0.7309(3) -0.0804(4)
H17 H 1.1030 0.7278 -0.0917
C32 C 1.0446(4) 0.7547(2) -0.1148(4)
C33 C 1.0023(4) 0.7591(3) -0.1009(4)
H18 H 0.9830 0.7746 -0.1259
C34 C 0.9870(3) 0.7402(3) -0.0481(5)
H19 H 0.9573 0.7441 -0.0373
C35 C 1.0600(4) 0.7762(3) -0.1714(5)
H20 H 1.0401 0.7917 -0.1955
C36 C 1.1149(4) 0.7931(3) -0.2429(5)
H21 H 1.1264 0.7699 -0.2690
H22 H 1.0899 0.8073 -0.2627
C37 C 0.9138(3) 0.5108(2) 0.0508(3)
C38 C 0.9433(3) 0.4775(3) 0.0257(4)
H23 H 0.9739 0.4799 0.0320
C39 C 0.9273(4) 0.4435(3) -0.0063(4)
H24 H 0.9471 0.4220 -0.0202
C40 C 0.8829(3) 0.4390(3) -0.0195(3)
C41 C 0.8541(3) 0.4705(3) -0.0012(3)
H25 H 0.8241 0.4691 -0.0122
C42 C 0.8700(3) 0.5064(2) 0.0354(3)
H26 H 0.8497 0.5275 0.0493
C43 C 0.8713(5) 0.3313(3) -0.1082(8)
H27 H 0.8389 0.3326 -0.1102
H28 H 0.8793 0.3027 -0.0908
C44 C 0.8902(5) 0.3337(5) -0.1721(7)
H29 H 0.9218 0.3405 -0.1707
H30 H 0.8865 0.3050 -0.1917
C45 C 0.8995(4) 0.3799(4) -0.2444(5)
H31 H 0.8837 0.3862 -0.2813
H32 H 0.9189 0.3547 -0.2523
C46 C 0.9293(3) 0.4198(4) -0.2314(5)
H33 H 0.9435 0.4161 -0.1928
H34 H 0.9525 0.4219 -0.2616
C47 C 0.8993(3) 0.4798(3) -0.1857(6)
H35 H 0.9136 0.4684 -0.1521
C48 C 0.8719(3) 0.5242(3) -0.1768(6)
C49 C 0.8716(3) 0.5459(3) -0.1256(5)
H36 H 0.8861 0.5348 -0.0919
C50 C 0.8477(3) 0.5877(3) -0.1247(4)
H37 H 0.8475 0.6041 -0.0894
C51 C 0.8256(3) 0.6044(3) -0.1725(5)
C52 C 0.8248(4) 0.5787(4) -0.2281(5)
H38 H 0.8085 0.5881 -0.2612
C53 C 0.8498(4) 0.5394(4) -0.2288(5)
H39 H 0.8519 0.5229 -0.2639
C54 C 0.8029(4) 0.6494(3) -0.1730(3)
C55 C 0.7562(4) 0.6461(3) -0.1722(4)
C56 C 0.8667(3) 0.4000(3) -0.0552(3)
H40 H 0.8373 0.4010 -0.0690
C57 C 0.6874(4) 0.6237(3) -0.1711(4)
H41 H 0.6623 0.6054 -0.1729
C58 C 0.7290(4) 0.6087(3) -0.1689(4)
H42 H 0.7381 0.5791 -0.1658
C59 C 0.6858(4) 0.6704(3) -0.1704(4)
C60 C 0.9341(3) 0.5492(2) 0.3568(3)
C61 C 0.9611(2) 0.5151(3) 0.3733(4)
H43 H 0.9852 0.5076 0.3491
C62 C 0.9539(3) 0.4915(3) 0.4240(4)
H44 H 0.9726 0.4678 0.4342
C63 C 0.9172(3) 0.5035(3) 0.4618(3)
C64 C 0.8909(2) 0.5383(2) 0.4504(3)
H45 H 0.8685 0.5474 0.4765
C65 C 0.8990(2) 0.5602(2) 0.3965(4)
H46 H 0.8802 0.5837 0.3860
C66 C 0.9110(2) 0.4781(3) 0.5173(4)
H47 H 0.8889 0.4881 0.5433
C67 C 0.9252(3) 0.4182(4) 0.5874(4)
H48 H 0.9520 0.4196 0.6117
H49 H 0.9014 0.4324 0.6098
C68 C 0.9139(3) 0.3727(3) 0.5791(4)
H50 H 0.9377 0.3584 0.5567
H51 H 0.9125 0.3584 0.6180
C69 C 0.7950(3) 0.3760(3) 0.5780(4)
H52 H 0.7743 0.3637 0.6070
H53 H 0.7860 0.3657 0.5388
C70 C 0.7874(2) 0.4468(3) 0.5292(4)
H54 H 0.7861 0.4298 0.4945
C71 C 0.7838(2) 0.4946(2) 0.5241(4)
C72 C 0.7724(2) 0.5147(3) 0.4740(3)
H55 H 0.7676 0.4969 0.4405
C73 C 0.7671(2) 0.5593(3) 0.4680(3)
H56 H 0.7579 0.5717 0.4319
C74 C 0.7758(2) 0.5861(2) 0.5176(5)
C75 C 0.7896(3) 0.5671(3) 0.5704(4)
H57 H 0.7964 0.5852 0.6029
C76 C 0.7935(2) 0.5222(3) 0.5752(4)
H58 H 0.8022 0.5093 0.6112
C77 C 0.7665(3) 0.6384(2) 0.5131(3)
C78 C 0.7241(3) 0.6520(3) 0.5131(3)
C79 C 0.6852(3) 0.6211(2) 0.5142(3)
H59 H 0.6850 0.5901 0.5157
C80 C 0.8061(3) 0.6627(3) 0.5128(3)
C81 C 0.8499(3) 0.6495(3) 0.5123(4)
H60 H 0.8590 0.6198 0.5109
C82 C 1.1497(3) 0.8261(4) -0.2312(4)
H61 H 1.1644 0.8332 -0.2687
H62 H 1.1719 0.8127 -0.2051
C83 C 0.8705(4) 0.3258(3) 0.5127(6)
H63 H 0.8395 0.3164 0.5113
H64 H 0.8881 0.3016 0.5292
C84 C 0.8392(5) 0.3595(3) 0.5908(7)
H65 H 0.8484 0.3727 0.6284
H66 H 0.8365 0.3276 0.5977
N1 N 0.94043(16) 0.57338(18) 0.1907(3)
N2 N 0.97126(14) 0.64780(17) 0.2626(2)
H67 H 0.9676 0.6437 0.2249
N3 N 0.99493(16) 0.69820(16) 0.1582(3)
N4 N 0.96395(17) 0.6234(2) 0.0821(3)
H68 H 0.9658 0.6287 0.1198
N5 N 1.1412(3) 0.8474(2) 0.4197(3)
N6 N 1.0998(4) 0.7730(2) -0.1857(3)
N7 N 0.8878(3) 0.3684(3) -0.0672(3)
N8 N 0.8682(3) 0.3659(3) -0.2036(4)
N9 N 0.9037(3) 0.4590(3) -0.2315(5)
N10 N 0.7286(3) 0.6863(2) -0.1694(3)
H69 H 0.7373 0.7136 -0.1675
N11 N 0.9329(2) 0.4439(3) 0.5332(3)
N12 N 0.8748(3) 0.3654(3) 0.5504(4)
N13 N 0.7924(2) 0.4262(2) 0.5798(4)
N14 N 0.8061(2) 0.7094(2) 0.5116(2)
C1B C 0.9433 0.93367 0.2487
C2B C 0.9227 0.9415 0.3004
C3B C 0.8814 0.95954 0.3079
C4B C 0.8598 0.96873 0.3633
H1B H 0.8713 0.9631 0.4012
C5B C 0.8201 0.987 0.351
H2B H 0.7992 0.9962 0.3791
C6B C 0.8151 0.99002 0.2898
C7B C 0.779 1.00825 0.2608
C8B C 0.7733 1.0102 0.2003
C9B C 0.7359 1.0313 0.1663
H3B H 0.711 1.0453 0.1827
C10B C 0.7444 1.0265 0.1103
H4B H 0.7256 1.0356 0.0794
C11B C 0.7851 1.0061 0.1025
C12B C 0.8072 0.9973 0.0462
C13B C 0.8498 0.9776 0.0418
C14B C 0.8689 0.9677 -0.018
H5B H 0.857 0.9726 -0.0558
C15B C 0.9095 0.9491 -0.0018
H6B H 0.9309 0.9398 -0.0292
C16B C 0.9148 0.946 0.0584
C17B C 0.9513 0.93 0.0873
C18B C 0.9569 0.9276 0.1475
C19B C 0.9941 0.9111 0.1772
H7B H 1.0194 0.8996 0.1586
C20B C 0.9883 0.9141 0.2362
H8B H 1.009 0.9054 0.265
C21B C 0.7441 1.0322 0.2974
C22B C 0.7545 1.07 0.3258
H9B H 0.7838 1.0804 0.3249
C23B C 0.7217 1.0946 0.3573
H10B H 0.7284 1.1226 0.3729
C24B C 0.679 1.0763 0.3646
C25B C 0.6716 1.036 0.3422
H11B H 0.6441 1.0226 0.3494
C26B C 0.702 1.0134 0.3093
H12B H 0.695 0.9852 0.2945
C27B C 0.6458 1.1012 0.3979
H13B H 0.618 1.0879 0.4041
C28B C 0.6124 1.1628 0.447
H14B H 0.5872 1.1424 0.448
H15B H 0.604 1.1896 0.4255
C29B C 0.7851 1.0157 -0.0097
C30B C 0.7892 1.0577 -0.0275
H16B H 0.8058 1.0774 -0.0044
C31B C 0.7691 1.0732 -0.0804
H17B H 0.7722 1.103 -0.0917
C32B C 0.7453 1.0446 -0.1148
C33B C 0.7409 1.0023 -0.1009
H18B H 0.7254 0.983 -0.1259
C34B C 0.7598 0.987 -0.0481
H19B H 0.7559 0.9573 -0.0373
C35B C 0.7238 1.06 -0.1714
H20B H 0.7083 1.0401 -0.1955
C36B C 0.7069 1.1149 -0.2429
H21B H 0.7301 1.1264 -0.269
H22B H 0.6927 1.0899 -0.2627
C37B C 0.9892 0.9138 0.0508
C38B C 1.0225 0.9433 0.0257
H23B H 1.0201 0.9739 0.032
C39B C 1.0565 0.9273 -0.0063
H24B H 1.078 0.9471 -0.0202
C40B C 1.061 0.8829 -0.0195
C41B C 1.0295 0.8541 -0.0012
H25B H 1.0309 0.8241 -0.0122
C42B C 0.9936 0.87 0.0354
H26B H 0.9725 0.8497 0.0493
C43B C 1.1687 0.8713 -0.1082
H27B H 1.1674 0.8389 -0.1102
H28B H 1.1973 0.8793 -0.0908
C44B C 1.1663 0.8902 -0.1721
H29B H 1.1595 0.9218 -0.1707
H30B H 1.195 0.8865 -0.1917
C45B C 1.1201 0.8995 -0.2444
H31B H 1.1138 0.8837 -0.2813
H32B H 1.1453 0.9189 -0.2523
C46B C 1.0802 0.9293 -0.2314
H33B H 1.0839 0.9435 -0.1928
H34B H 1.0781 0.9525 -0.2616
C47B C 1.0202 0.8993 -0.1857
H35B H 1.0316 0.9136 -0.1521
C48B C 0.9758 0.8719 -0.1768
C49B C 0.9541 0.8716 -0.1256
H36B H 0.9652 0.8861 -0.0919
C50B C 0.9123 0.8477 -0.1247
H37B H 0.8959 0.8475 -0.0894
C51B C 0.8956 0.8256 -0.1725
C52B C 0.9213 0.8248 -0.2281
H38B H 0.9119 0.8085 -0.2612
C53B C 0.9606 0.8498 -0.2288
H39B H 0.9771 0.8519 -0.2639
C54B C 0.8506 0.8029 -0.173
C55B C 0.8539 0.7562 -0.1722
C56B C 1.1 0.8667 -0.0552
H40B H 1.099 0.8373 -0.069
C57B C 0.8763 0.6874 -0.1711
H41B H 0.8946 0.6623 -0.1729
C58B C 0.8913 0.729 -0.1689
H42B H 0.9209 0.7381 -0.1658
C59B C 0.8296 0.6858 -0.1704
C60B C 0.9508 0.9341 0.3568
C61B C 0.9849 0.9611 0.3733
H43B H 0.9924 0.9852 0.3491
C62B C 1.0085 0.9539 0.424
H44B H 1.0322 0.9726 0.4342
C63B C 0.9965 0.9172 0.4618
C64B C 0.9617 0.8909 0.4504
H45B H 0.9526 0.8685 0.4765
C65B C 0.9398 0.899 0.3965
H46B H 0.9163 0.8802 0.386
C66B C 1.0219 0.911 0.5173
H47B H 1.0119 0.8889 0.5433
C67B C 1.0818 0.9252 0.5874
H48B H 1.0804 0.952 0.6117
H49B H 1.0676 0.9014 0.6098
C68B C 1.1273 0.9139 0.5791
H50B H 1.1416 0.9377 0.5567
H51B H 1.1416 0.9125 0.618
C69B C 1.124 0.795 0.578
H52B H 1.1363 0.7743 0.607
H53B H 1.1343 0.786 0.5388
C70B C 1.0532 0.7874 0.5292
H54B H 1.0702 0.7861 0.4945
C71B C 1.0054 0.7838 0.5241
C72B C 0.9853 0.7724 0.474
H55B H 1.0031 0.7676 0.4405
C73B C 0.9407 0.7671 0.468
H56B H 0.9283 0.7579 0.4319
C74B C 0.9139 0.7758 0.5176
C75B C 0.9329 0.7896 0.5704
H57B H 0.9148 0.7964 0.6029
C76B C 0.9778 0.7935 0.5752
H58B H 0.9907 0.8022 0.6112
C77B C 0.8616 0.7665 0.5131
C78B C 0.848 0.7241 0.5131
C79B C 0.8789 0.6852 0.5142
H59B H 0.9099 0.685 0.5157
C80B C 0.8373 0.8061 0.5128
C81B C 0.8505 0.8499 0.5123
H60B H 0.8802 0.859 0.5109
C82B C 0.6739 1.1497 -0.2312
H61B H 0.6668 1.1644 -0.2687
H62B H 0.6873 1.1719 -0.2051
C83B C 1.1742 0.8705 0.5127
H63B H 1.1836 0.8395 0.5113
H64B H 1.1984 0.8881 0.5292
C84B C 1.1405 0.8392 0.5908
H65B H 1.1273 0.8484 0.6284
H66B H 1.1724 0.8365 0.5977
N1B N 0.92662 0.94043 0.1907
N2B N 0.8522 0.97126 0.2626
H67B H 0.8563 0.9676 0.2249
N3B N 0.8018 0.99493 0.1582
N4B N 0.8766 0.96395 0.0821
H68B H 0.8713 0.9658 0.1198
N5B N 0.6526 1.1412 0.4197
N6B N 0.727 1.0998 -0.1857
N7B N 1.1316 0.8878 -0.0672
N8B N 1.1341 0.8682 -0.2036
N9B N 1.041 0.9037 -0.2315
N10B N 0.8137 0.7286 -0.1694
H69B H 0.7864 0.7373 -0.1675
N11B N 1.0561 0.9329 0.5332
N12B N 1.1346 0.8748 0.5504
N13B N 1.0738 0.7924 0.5798
N14B N 0.7906 0.8061 0.5116
C1C C 0.5567 0.56633 0.2487
C2C C 0.5773 0.5585 0.3004
C3C C 0.6186 0.54046 0.3079
C4C C 0.6402 0.53127 0.3633
H1C H 0.6287 0.5369 0.4012
C5C C 0.6799 0.513 0.351
H2C H 0.7008 0.5038 0.3791
C6C C 0.6849 0.50998 0.2898
C7C C 0.721 0.49175 0.2608
C8C C 0.7267 0.4898 0.2003
C9C C 0.7641 0.4687 0.1663
H3C H 0.789 0.4547 0.1827
C10C C 0.7556 0.4735 0.1103
H4C H 0.7744 0.4644 0.0794
C11C C 0.7149 0.4939 0.1025
C12C C 0.6928 0.5027 0.0462
C13C C 0.6502 0.5224 0.0418
C14C C 0.6311 0.5323 -0.018
H5C H 0.643 0.5274 -0.0558
C15C C 0.5905 0.5509 -0.0018
H6C H 0.5691 0.5602 -0.0292
C16C C 0.5852 0.554 0.0584
C17C C 0.5487 0.57 0.0873
C18C C 0.5431 0.5724 0.1475
C19C C 0.5059 0.5889 0.1772
H7C H 0.4806 0.6004 0.1586
C20C C 0.5117 0.5859 0.2362
H8C H 0.491 0.5946 0.265
C21C C 0.7559 0.4678 0.2974
C22C C 0.7455 0.43 0.3258
H9C H 0.7162 0.4196 0.3249
C23C C 0.7783 0.4054 0.3573
H10C H 0.7716 0.3774 0.3729
C24C C 0.821 0.4237 0.3646
C25C C 0.8284 0.464 0.3422
H11C H 0.8559 0.4774 0.3494
C26C C 0.798 0.4866 0.3093
H12C H 0.805 0.5148 0.2945
C27C C 0.8542 0.3988 0.3979
H13C H 0.882 0.4121 0.4041
C28C C 0.8876 0.3372 0.447
H14C H 0.9128 0.3576 0.448
H15C H 0.896 0.3104 0.4255
C29C C 0.7149 0.4843 -0.0097
C30C C 0.7108 0.4423 -0.0275
H16C H 0.6942 0.4226 -0.0044
C31C C 0.7309 0.4268 -0.0804
H17C H 0.7278 0.397 -0.0917
C32C C 0.7547 0.4554 -0.1148
C33C C 0.7591 0.4977 -0.1009
H18C H 0.7746 0.517 -0.1259
C34C C 0.7402 0.513 -0.0481
H19C H 0.7441 0.5427 -0.0373
C35C C 0.7762 0.44 -0.1714
H20C H 0.7917 0.4599 -0.1955
C36C C 0.7931 0.3851 -0.2429
H21C H 0.7699 0.3736 -0.269
H22C H 0.8073 0.4101 -0.2627
C37C C 0.5108 0.5862 0.0508
C38C C 0.4775 0.5567 0.0257
H23C H 0.4799 0.5261 0.032
C39C C 0.4435 0.5727 -0.0063
H24C H 0.422 0.5529 -0.0202
C40C C 0.439 0.6171 -0.0195
C41C C 0.4705 0.6459 -0.0012
H25C H 0.4691 0.6759 -0.0122
C42C C 0.5064 0.63 0.0354
H26C H 0.5275 0.6503 0.0493
C43C C 0.3313 0.6287 -0.1082
H27C H 0.3326 0.6611 -0.1102
H28C H 0.3027 0.6207 -0.0908
C44C C 0.3337 0.6098 -0.1721
H29C H 0.3405 0.5782 -0.1707
H30C H 0.305 0.6135 -0.1917
C45C C 0.3799 0.6005 -0.2444
H31C H 0.3862 0.6163 -0.2813
H32C H 0.3547 0.5811 -0.2523
C46C C 0.4198 0.5707 -0.2314
H33C H 0.4161 0.5565 -0.1928
H34C H 0.4219 0.5475 -0.2616
C47C C 0.4798 0.6007 -0.1857
H35C H 0.4684 0.5864 -0.1521
C48C C 0.5242 0.6281 -0.1768
C49C C 0.5459 0.6284 -0.1256
H36C H 0.5348 0.6139 -0.0919
C50C C 0.5877 0.6523 -0.1247
H37C H 0.6041 0.6525 -0.0894
C51C C 0.6044 0.6744 -0.1725
C52C C 0.5787 0.6752 -0.2281
H38C H 0.5881 0.6915 -0.2612
C53C C 0.5394 0.6502 -0.2288
H39C H 0.5229 0.6481 -0.2639
C54C C 0.6494 0.6971 -0.173
C55C C 0.6461 0.7438 -0.1722
C56C C 0.4 0.6333 -0.0552
H40C H 0.401 0.6627 -0.069
C57C C 0.6237 0.8126 -0.1711
H41C H 0.6054 0.8377 -0.1729
C58C C 0.6087 0.771 -0.1689
H42C H 0.5791 0.7619 -0.1658
C59C C 0.6704 0.8142 -0.1704
C60C C 0.5492 0.5659 0.3568
C61C C 0.5151 0.5389 0.3733
H43C H 0.5076 0.5148 0.3491
C62C C 0.4915 0.5461 0.424
H44C H 0.4678 0.5274 0.4342
C63C C 0.5035 0.5828 0.4618
C64C C 0.5383 0.6091 0.4504
H45C H 0.5474 0.6315 0.4765
C65C C 0.5602 0.601 0.3965
H46C H 0.5837 0.6198 0.386
C66C C 0.4781 0.589 0.5173
H47C H 0.4881 0.6111 0.5433
C67C C 0.4182 0.5748 0.5874
H48C H 0.4196 0.548 0.6117
H49C H 0.4324 0.5986 0.6098
C68C C 0.3727 0.5861 0.5791
H50C H 0.3584 0.5623 0.5567
H51C H 0.3584 0.5875 0.618
C69C C 0.376 0.705 0.578
H52C H 0.3637 0.7257 0.607
H53C H 0.3657 0.714 0.5388
C70C C 0.4468 0.7126 0.5292
H54C H 0.4298 0.7139 0.4945
C71C C 0.4946 0.7162 0.5241
C72C C 0.5147 0.7276 0.474
H55C H 0.4969 0.7324 0.4405
C73C C 0.5593 0.7329 0.468
H56C H 0.5717 0.7421 0.4319
C74C C 0.5861 0.7242 0.5176
C75C C 0.5671 0.7104 0.5704
H57C H 0.5852 0.7036 0.6029
C76C C 0.5222 0.7065 0.5752
H58C H 0.5093 0.6978 0.6112
C77C C 0.6384 0.7335 0.5131
C78C C 0.652 0.7759 0.5131
C79C C 0.6211 0.8148 0.5142
H59C H 0.5901 0.815 0.5157
C80C C 0.6627 0.6939 0.5128
C81C C 0.6495 0.6501 0.5123
H60C H 0.6198 0.641 0.5109
C82C C 0.8261 0.3503 -0.2312
H61C H 0.8332 0.3356 -0.2687
H62C H 0.8127 0.3281 -0.2051
C83C C 0.3258 0.6295 0.5127
H63C H 0.3164 0.6605 0.5113
H64C H 0.3016 0.6119 0.5292
C84C C 0.3595 0.6608 0.5908
H65C H 0.3727 0.6516 0.6284
H66C H 0.3276 0.6635 0.5977
N1C N 0.57338 0.55957 0.1907
N2C N 0.6478 0.52874 0.2626
H67C H 0.6437 0.5324 0.2249
N3C N 0.6982 0.50507 0.1582
N4C N 0.6234 0.53605 0.0821
H68C H 0.6287 0.5342 0.1198
N5C N 0.8474 0.3588 0.4197
N6C N 0.773 0.4002 -0.1857
N7C N 0.3684 0.6122 -0.0672
N8C N 0.3659 0.6318 -0.2036
N9C N 0.459 0.5963 -0.2315
N10C N 0.6863 0.7714 -0.1694
H69C H 0.7136 0.7627 -0.1675
N11C N 0.4439 0.5671 0.5332
N12C N 0.3654 0.6252 0.5504
N13C N 0.4262 0.7076 0.5798
N14C N 0.7094 0.6939 0.5116
C1A C 0.56633 0.9433 0.2487
C2A C 0.5585 0.9227 0.3004
C3A C 0.54046 0.8814 0.3079
C4A C 0.53127 0.8598 0.3633
H1A H 0.5369 0.8713 0.4012
C5A C 0.513 0.8201 0.351
H2A H 0.5038 0.7992 0.3791
C6A C 0.50998 0.8151 0.2898
C7A C 0.49175 0.779 0.2608
C8A C 0.4898 0.7733 0.2003
C9A C 0.4687 0.7359 0.1663
H3A H 0.4547 0.711 0.1827
C10A C 0.4735 0.7444 0.1103
H4A H 0.4644 0.7256 0.0794
C11A C 0.4939 0.7851 0.1025
C12A C 0.5027 0.8072 0.0462
C13A C 0.5224 0.8498 0.0418
C14A C 0.5323 0.8689 -0.018
H5A H 0.5274 0.857 -0.0558
C15A C 0.5509 0.9095 -0.0018
H6A H 0.5602 0.9309 -0.0292
C16A C 0.554 0.9148 0.0584
C17A C 0.57 0.9513 0.0873
C18A C 0.5724 0.9569 0.1475
C19A C 0.5889 0.9941 0.1772
H7A H 0.6004 1.0194 0.1586
C20A C 0.5859 0.9883 0.2362
H8A H 0.5946 1.009 0.265
C21A C 0.4678 0.7441 0.2974
C22A C 0.43 0.7545 0.3258
H9A H 0.4196 0.7838 0.3249
C23A C 0.4054 0.7217 0.3573
H10A H 0.3774 0.7284 0.3729
C24A C 0.4237 0.679 0.3646
C25A C 0.464 0.6716 0.3422
H11A H 0.4774 0.6441 0.3494
C26A C 0.4866 0.702 0.3093
H12A H 0.5148 0.695 0.2945
C27A C 0.3988 0.6458 0.3979
H13A H 0.4121 0.618 0.4041
C28A C 0.3372 0.6124 0.447
H14A H 0.3576 0.5872 0.448
H15A H 0.3104 0.604 0.4255
C29A C 0.4843 0.7851 -0.0097
C30A C 0.4423 0.7892 -0.0275
H16A H 0.4226 0.8058 -0.0044
C31A C 0.4268 0.7691 -0.0804
H17A H 0.397 0.7722 -0.0917
C32A C 0.4554 0.7453 -0.1148
C33A C 0.4977 0.7409 -0.1009
H18A H 0.517 0.7254 -0.1259
C34A C 0.513 0.7598 -0.0481
H19A H 0.5427 0.7559 -0.0373
C35A C 0.44 0.7238 -0.1714
H20A H 0.4599 0.7083 -0.1955
C36A C 0.3851 0.7069 -0.2429
H21A H 0.3736 0.7301 -0.269
H22A H 0.4101 0.6927 -0.2627
C37A C 0.5862 0.9892 0.0508
C38A C 0.5567 1.0225 0.0257
H23A H 0.5261 1.0201 0.032
C39A C 0.5727 1.0565 -0.0063
H24A H 0.5529 1.078 -0.0202
C40A C 0.6171 1.061 -0.0195
C41A C 0.6459 1.0295 -0.0012
H25A H 0.6759 1.0309 -0.0122
C42A C 0.63 0.9936 0.0354
H26A H 0.6503 0.9725 0.0493
C43A C 0.6287 1.1687 -0.1082
H27A H 0.6611 1.1674 -0.1102
H28A H 0.6207 1.1973 -0.0908
C44A C 0.6098 1.1663 -0.1721
H29A H 0.5782 1.1595 -0.1707
H30A H 0.6135 1.195 -0.1917
C45A C 0.6005 1.1201 -0.2444
H31A H 0.6163 1.1138 -0.2813
H32A H 0.5811 1.1453 -0.2523
C46A C 0.5707 1.0802 -0.2314
H33A H 0.5565 1.0839 -0.1928
H34A H 0.5475 1.0781 -0.2616
C47A C 0.6007 1.0202 -0.1857
H35A H 0.5864 1.0316 -0.1521
C48A C 0.6281 0.9758 -0.1768
C49A C 0.6284 0.9541 -0.1256
H36A H 0.6139 0.9652 -0.0919
C50A C 0.6523 0.9123 -0.1247
H37A H 0.6525 0.8959 -0.0894
C51A C 0.6744 0.8956 -0.1725
C52A C 0.6752 0.9213 -0.2281
H38A H 0.6915 0.9119 -0.2612
C53A C 0.6502 0.9606 -0.2288
H39A H 0.6481 0.9771 -0.2639
C54A C 0.6971 0.8506 -0.173
C55A C 0.7438 0.8539 -0.1722
C56A C 0.6333 1.1 -0.0552
H40A H 0.6627 1.099 -0.069
C57A C 0.8126 0.8763 -0.1711
H41A H 0.8377 0.8946 -0.1729
C58A C 0.771 0.8913 -0.1689
H42A H 0.7619 0.9209 -0.1658
C59A C 0.8142 0.8296 -0.1704
C60A C 0.5659 0.9508 0.3568
C61A C 0.5389 0.9849 0.3733
H43A H 0.5148 0.9924 0.3491
C62A C 0.5461 1.0085 0.424
H44A H 0.5274 1.0322 0.4342
C63A C 0.5828 0.9965 0.4618
C64A C 0.6091 0.9617 0.4504
H45A H 0.6315 0.9526 0.4765
C65A C 0.601 0.9398 0.3965
H46A H 0.6198 0.9163 0.386
C66A C 0.589 1.0219 0.5173
H47A H 0.6111 1.0119 0.5433
C67A C 0.5748 1.0818 0.5874
H48A H 0.548 1.0804 0.6117
H49A H 0.5986 1.0676 0.6098
C68A C 0.5861 1.1273 0.5791
H50A H 0.5623 1.1416 0.5567
H51A H 0.5875 1.1416 0.618
C69A C 0.705 1.124 0.578
H52A H 0.7257 1.1363 0.607
H53A H 0.714 1.1343 0.5388
C70A C 0.7126 1.0532 0.5292
H54A H 0.7139 1.0702 0.4945
C71A C 0.7162 1.0054 0.5241
C72A C 0.7276 0.9853 0.474
H55A H 0.7324 1.0031 0.4405
C73A C 0.7329 0.9407 0.468
H56A H 0.7421 0.9283 0.4319
C74A C 0.7242 0.9139 0.5176
C75A C 0.7104 0.9329 0.5704
H57A H 0.7036 0.9148 0.6029
C76A C 0.7065 0.9778 0.5752
H58A H 0.6978 0.9907 0.6112
C77A C 0.7335 0.8616 0.5131
C78A C 0.7759 0.848 0.5131
C79A C 0.8148 0.8789 0.5142
H59A H 0.815 0.9099 0.5157
C80A C 0.6939 0.8373 0.5128
C81A C 0.6501 0.8505 0.5123
H60A H 0.641 0.8802 0.5109
C82A C 0.3503 0.6739 -0.2312
H61A H 0.3356 0.6668 -0.2687
H62A H 0.3281 0.6873 -0.2051
C83A C 0.6295 1.1742 0.5127
H63A H 0.6605 1.1836 0.5113
H64A H 0.6119 1.1984 0.5292
C84A C 0.6608 1.1405 0.5908
H65A H 0.6516 1.1273 0.6284
H66A H 0.6635 1.1724 0.5977
N1A N 0.55957 0.92662 0.1907
N2A N 0.52874 0.8522 0.2626
H67A H 0.5324 0.8563 0.2249
N3A N 0.50507 0.8018 0.1582
N4A N 0.53605 0.8766 0.0821
H68A H 0.5342 0.8713 0.1198
N5A N 0.3588 0.6526 0.4197
N6A N 0.4002 0.727 -0.1857
N7A N 0.6122 1.1316 -0.0672
N8A N 0.6318 1.1341 -0.2036
N9A N 0.5963 1.041 -0.2315
N10A N 0.7714 0.8137 -0.1694
H69A H 0.7627 0.7864 -0.1675
N11A N 0.5671 1.0561 0.5332
N12A N 0.6252 1.1346 0.5504
N13A N 0.7076 1.0738 0.5798
N14A N 0.6939 0.7906 0.5116
H70? H 0.7827 0.7260 0.5101

#END

