
#######################################################################
#
#                 Cambridge Crystallographic Data Centre
#                                CCDC 
#
#######################################################################
#
# If this CIF has been generated directly or indirectly from an entry in the 
# Cambridge Structural Database, then it will include bibliographic, chemical, 
# crystal, experimental, refinement or atomic coordinate data resulting from 
# the CCDC's data processing and validation procedures. Files generated from 
# CSD entries are Copyright 2015 Cambridge Crystallographic Data Centre. They 
# may be used in bona fide research applications only, and may not be copied or 
# further disseminated in any form, whether machine-readable or not, except for 
# the purposes of generating routine backup copies on your local computer 
# system.
# 
# Files arising from any other source may also contain material that is the 
# copyright of third parties, including the originator, and you should check 
# with the originator concerning the permitted uses of the information 
# contained in this CIF.
#
# For further information on the CCDC and the free tools enCIFer and Mercury
# for validating and visualising CIF files, please visit www.ccdc.cam.ac.uk
#
#######################################################################

data_FIFTOF
_audit_creation_date             2013-08-09
_database_code_depnum_ccdc_archive 'CCDC 955295'
_chemical_formula_moiety         'C96 H132 Br12 N12 O12,12(C1 H1 Cl3),H2 O1'
_chemical_name_systematic        
'5,8,16,19,27,30,38,41,46,49,54,57-dodecakis(2-Bromo-2-methylpropanoyl)-5,8,16,19,27,30,38,41,46,49,54,57-dodecaazaheptacyclo[21.21.6.6^12,34^.1^3,43^.1^10,14^.1^21,25^.1^32,36^]hexaconta-1,3(51),10(60),11,13,21(59),22,24,32(52),33,35,43-dodecaene chloroform solvate monohydrate'
_journal_coden_Cambridge         4
_journal_volume                  135
_journal_year                    2013
_journal_page_first              10007
_journal_name_full               J.Am.Chem.Soc.
loop_
_publ_author_name
J.L.Culshaw
'Ge Cheng'
M.Schmidtmann
T.Hasell
'Ming Liu'
D.J.Adams
A.I.Cooper
_chemical_absolute_configuration unk
_diffrn_special_details          twin
_diffrn_ambient_temperature      100
_exptl_crystal_density_meas      1.603
_exptl_crystal_density_diffrn    1.603
#These two values have been output from a single CSD field.
_refine_ls_R_factor_gt           0.0446
_refine_ls_wR_factor_gt          0.0446
_diffrn_radiation_probe          x-ray
_symmetry_cell_setting           cubic
_symmetry_space_group_name_H-M   'P -4 3 n'
_symmetry_Int_Tables_number      218
loop_
_symmetry_equiv_pos_site_id
_symmetry_equiv_pos_as_xyz
1 x,y,z
2 -x,-y,z
3 -x,y,-z
4 x,-y,-z
5 z,x,y
6 z,-x,-y
7 -z,-x,y
8 -z,x,-y
9 y,z,x
10 -y,z,-x
11 y,-z,-x
12 -y,-z,x
13 1/2+y,1/2+x,1/2+z
14 1/2-y,1/2-x,1/2+z
15 1/2+y,1/2-x,1/2-z
16 1/2-y,1/2+x,1/2-z
17 1/2+x,1/2+z,1/2+y
18 1/2-x,1/2+z,1/2-y
19 1/2-x,1/2-z,1/2+y
20 1/2+x,1/2-z,1/2-y
21 1/2+z,1/2+y,1/2+x
22 1/2+z,1/2-y,1/2-x
23 1/2-z,1/2+y,1/2-x
24 1/2-z,1/2-y,1/2+x
_cell_length_a                   20.3301(7)
_cell_length_b                   20.3301(7)
_cell_length_c                   20.3301(7)
_cell_angle_alpha                90
_cell_angle_beta                 90
_cell_angle_gamma                90
_cell_volume                     8402.69
_exptl_crystal_colour            colorless
_exptl_crystal_description       'trigonal plate'
_cell_formula_units_Z            2
loop_
_atom_site_label
_atom_site_type_symbol
_atom_site_fract_x
_atom_site_fract_y
_atom_site_fract_z
N1 N 0.52753(15) 0.23897(15) 0.56889(15)
O1 O 0.42670(15) 0.19652(17) 0.58145(15)
Br1 Br 0.57224(7) 0.08034(4) 0.57038(5)
C1 C 0.59086(18) 0.32087(18) 0.66760(17)
H1 H 0.5531 0.2977 0.6826
C2 C 0.62423(17) 0.29880(18) 0.61192(17)
C3 C 0.59942(19) 0.23985(18) 0.5730(2)
H2 H 0.6181 0.2413 0.5281
H3 H 0.6148 0.1989 0.5944
C4 C 0.4971(2) 0.29649(19) 0.5373(2)
H4 H 0.5181 0.3369 0.5547
H5 H 0.4500 0.2979 0.5494
C5 C 0.4864(2) 0.1909(2) 0.59013(19)
C6 C 0.5113(3) 0.1300(2) 0.6258(2)
C7 C 0.4524(3) 0.0873(2) 0.6453(3)
H6 H 0.4262 0.0773 0.6061
H7 H 0.4251 0.1111 0.6772
H8 H 0.4681 0.0463 0.6650
C8 C 0.5515(14) 0.1389(15) 0.6932(10)
H9 H 0.5647 0.0957 0.7099
H10 H 0.5235 0.1608 0.7258
H11 H 0.5907 0.1658 0.6851
N1B N 0.47247 0.23897 0.43111
O1B O 0.5733 0.19652 0.41855
Br1B Br 0.42776 0.08034 0.42962
C1B C 0.40914 0.32087 0.3324
H1B H 0.4469 0.2977 0.3174
C2B C 0.37577 0.2988 0.38808
C3B C 0.40058 0.23985 0.427
H2B H 0.3819 0.2413 0.4719
H3B H 0.3852 0.1989 0.4056
C4B C 0.5029 0.29649 0.4627
H4B H 0.4819 0.3369 0.4453
H5B H 0.55 0.2979 0.4506
C5B C 0.5136 0.1909 0.40987
C6B C 0.4887 0.13 0.3742
C7B C 0.5476 0.0873 0.3547
H6B H 0.5738 0.0773 0.3939
H7B H 0.5749 0.1111 0.3228
H8B H 0.5319 0.0463 0.335
C8B C 0.4485 0.1389 0.3068
H9B H 0.4353 0.0957 0.2901
H10B H 0.4765 0.1608 0.2742
H11B H 0.4093 0.1658 0.3149
N1E N 0.56889 0.47247 0.76103
O1E O 0.58145 0.5733 0.80348
Br1E Br 0.57038 0.42776 0.91966
C1E C 0.6676 0.40914 0.67913
H1E H 0.6826 0.4469 0.7023
C2E C 0.61192 0.37577 0.7012
C3E C 0.573 0.40058 0.76015
H2E H 0.5281 0.3819 0.7587
H3E H 0.5944 0.3852 0.8011
C4E C 0.5373 0.5029 0.70351
H4E H 0.5547 0.4819 0.6631
H5E H 0.5494 0.55 0.7021
C5E C 0.59013 0.5136 0.8091
C6E C 0.6258 0.4887 0.87
C7E C 0.6453 0.5476 0.9127
H6E H 0.6061 0.5738 0.9227
H7E H 0.6772 0.5749 0.8889
H8E H 0.665 0.5319 0.9537
C8E C 0.6932 0.4485 0.8611
H9E H 0.7099 0.4353 0.9043
H10E H 0.7258 0.4765 0.8392
H11E H 0.6851 0.4093 0.8342
N1G N 0.43111 0.52753 0.76103
O1G O 0.41855 0.4267 0.80348
Br1G Br 0.42962 0.57224 0.91966
C1G C 0.3324 0.59086 0.67913
H1G H 0.3174 0.5531 0.7023
C2G C 0.38808 0.62423 0.7012
C3G C 0.427 0.59942 0.76015
H2G H 0.4719 0.6181 0.7587
H3G H 0.4056 0.6148 0.8011
C4G C 0.4627 0.4971 0.70351
H4G H 0.4453 0.5181 0.6631
H5G H 0.4506 0.45 0.7021
C5G C 0.40987 0.4864 0.8091
C6G C 0.3742 0.5113 0.87
C7G C 0.3547 0.4524 0.9127
H6G H 0.3939 0.4262 0.9227
H7G H 0.3228 0.4251 0.8889
H8G H 0.335 0.4681 0.9537
C8G C 0.3068 0.5515 0.8611
H9G H 0.2901 0.5647 0.9043
H10G H 0.2742 0.5235 0.8392
H11G H 0.3149 0.5907 0.8342
N1J N 0.23897 0.43111 0.47247
O1J O 0.19652 0.41855 0.5733
Br1J Br 0.08034 0.42962 0.42776
C1J C 0.32087 0.3324 0.40914
H1J H 0.2977 0.3174 0.4469
C2J C 0.2988 0.38808 0.37577
C3J C 0.23985 0.427 0.40058
H2J H 0.2413 0.4719 0.3819
H3J H 0.1989 0.4056 0.3852
C4J C 0.29649 0.4627 0.5029
H4J H 0.3369 0.4453 0.4819
H5J H 0.2979 0.4506 0.55
C5J C 0.1909 0.40987 0.5136
C6J C 0.13 0.3742 0.4887
C7J C 0.0873 0.3547 0.5476
H6J H 0.0773 0.3939 0.5738
H7J H 0.1111 0.3228 0.5749
H8J H 0.0463 0.335 0.5319
C8J C 0.1389 0.3068 0.4485
H9J H 0.0957 0.2901 0.4353
H10J H 0.1608 0.2742 0.4765
H11J H 0.1658 0.3149 0.4093
N1K N 0.76103 0.43111 0.52753
O1K O 0.80348 0.41855 0.4267
Br1K Br 0.91966 0.42962 0.57224
C1K C 0.67913 0.3324 0.59086
H1K H 0.7023 0.3174 0.5531
C2K C 0.7012 0.38808 0.62423
C3K C 0.76015 0.427 0.59942
H2K H 0.7587 0.4719 0.6181
H3K H 0.8011 0.4056 0.6148
C4K C 0.70351 0.4627 0.4971
H4K H 0.6631 0.4453 0.5181
H5K H 0.7021 0.4506 0.45
C5K C 0.8091 0.40987 0.4864
C6K C 0.87 0.3742 0.5113
C7K C 0.9127 0.3547 0.4524
H6K H 0.9227 0.3939 0.4262
H7K H 0.8889 0.3228 0.4251
H8K H 0.9537 0.335 0.4681
C8K C 0.8611 0.3068 0.5515
H9K H 0.9043 0.2901 0.5647
H10K H 0.8392 0.2742 0.5235
H11K H 0.8342 0.3149 0.5907
N1A N 0.47247 0.76103 0.56889
O1A O 0.5733 0.80348 0.58145
Br1A Br 0.42776 0.91966 0.57038
C1A C 0.40914 0.67913 0.6676
H1A H 0.4469 0.7023 0.6826
C2A C 0.37577 0.7012 0.61192
C3A C 0.40058 0.76015 0.573
H2A H 0.3819 0.7587 0.5281
H3A H 0.3852 0.8011 0.5944
C4A C 0.5029 0.70351 0.5373
H4A H 0.4819 0.6631 0.5547
H5A H 0.55 0.7021 0.5494
C5A C 0.5136 0.8091 0.59013
C6A C 0.4887 0.87 0.6258
C7A C 0.5476 0.9127 0.6453
H6A H 0.5738 0.9227 0.6061
H7A H 0.5749 0.8889 0.6772
H8A H 0.5319 0.9537 0.665
C8A C 0.4485 0.8611 0.6932
H9A H 0.4353 0.9043 0.7099
H10A H 0.4765 0.8392 0.7258
H11A H 0.4093 0.8342 0.6851
N1C N 0.52753 0.76103 0.43111
O1C O 0.4267 0.80348 0.41855
Br1C Br 0.57224 0.91966 0.42962
C1C C 0.59086 0.67913 0.3324
H1C H 0.5531 0.7023 0.3174
C2C C 0.62423 0.7012 0.38808
C3C C 0.59942 0.76015 0.427
H2C H 0.6181 0.7587 0.4719
H3C H 0.6148 0.8011 0.4056
C4C C 0.4971 0.70351 0.4627
H4C H 0.5181 0.6631 0.4453
H5C H 0.45 0.7021 0.4506
C5C C 0.4864 0.8091 0.40987
C6C C 0.5113 0.87 0.3742
C7C C 0.4524 0.9127 0.3547
H6C H 0.4262 0.9227 0.3939
H7C H 0.4251 0.8889 0.3228
H8C H 0.4681 0.9537 0.335
C8C C 0.5515 0.8611 0.3068
H9C H 0.5647 0.9043 0.2901
H10C H 0.5235 0.8392 0.2742
H11C H 0.5907 0.8342 0.3149
N1D N 0.56889 0.52753 0.23897
O1D O 0.58145 0.4267 0.19652
Br1D Br 0.57038 0.57224 0.08034
C1D C 0.6676 0.59086 0.32087
H1D H 0.6826 0.5531 0.2977
C2D C 0.61192 0.62423 0.2988
C3D C 0.573 0.59942 0.23985
H2D H 0.5281 0.6181 0.2413
H3D H 0.5944 0.6148 0.1989
C4D C 0.5373 0.4971 0.29649
H4D H 0.5547 0.5181 0.3369
H5D H 0.5494 0.45 0.2979
C5D C 0.59013 0.4864 0.1909
C6D C 0.6258 0.5113 0.13
C7D C 0.6453 0.4524 0.0873
H6D H 0.6061 0.4262 0.0773
H7D H 0.6772 0.4251 0.1111
H8D H 0.665 0.4681 0.0463
C8D C 0.6932 0.5515 0.1389
H9D H 0.7099 0.5647 0.0957
H10D H 0.7258 0.5235 0.1608
H11D H 0.6851 0.5907 0.1658
N1F N 0.43111 0.47247 0.23897
O1F O 0.41855 0.5733 0.19652
Br1F Br 0.42962 0.42776 0.08034
C1F C 0.3324 0.40914 0.32087
H1F H 0.3174 0.4469 0.2977
C2F C 0.38808 0.37577 0.2988
C3F C 0.427 0.40058 0.23985
H2F H 0.4719 0.3819 0.2413
H3F H 0.4056 0.3852 0.1989
C4F C 0.4627 0.5029 0.29649
H4F H 0.4453 0.4819 0.3369
H5F H 0.4506 0.55 0.2979
C5F C 0.40987 0.5136 0.1909
C6F C 0.3742 0.4887 0.13
C7F C 0.3547 0.5476 0.0873
H6F H 0.3939 0.5738 0.0773
H7F H 0.3228 0.5749 0.1111
H8F H 0.335 0.5319 0.0463
C8F C 0.3068 0.4485 0.1389
H9F H 0.2901 0.4353 0.0957
H10F H 0.2742 0.4765 0.1608
H11F H 0.3149 0.4093 0.1658
N1H N 0.23897 0.56889 0.52753
O1H O 0.19652 0.58145 0.4267
Br1H Br 0.08034 0.57038 0.57224
C1H C 0.32087 0.6676 0.59086
H1H H 0.2977 0.6826 0.5531
C2H C 0.2988 0.61192 0.62423
C3H C 0.23985 0.573 0.59942
H2H H 0.2413 0.5281 0.6181
H3H H 0.1989 0.5944 0.6148
C4H C 0.29649 0.5373 0.4971
H4H H 0.3369 0.5547 0.5181
H5H H 0.2979 0.5494 0.45
C5H C 0.1909 0.59013 0.4864
C6H C 0.13 0.6258 0.5113
C7H C 0.0873 0.6453 0.4524
H6H H 0.0773 0.6061 0.4262
H7H H 0.1111 0.6772 0.4251
H8H H 0.0463 0.665 0.4681
C8H C 0.1389 0.6932 0.5515
H9H H 0.0957 0.7099 0.5647
H10H H 0.1608 0.7258 0.5235
H11H H 0.1658 0.6851 0.5907
N1I N 0.76103 0.56889 0.47247
O1I O 0.80348 0.58145 0.5733
Br1I Br 0.91966 0.57038 0.42776
C1I C 0.67913 0.6676 0.40914
H1I H 0.7023 0.6826 0.4469
C2I C 0.7012 0.61192 0.37577
C3I C 0.76015 0.573 0.40058
H2I H 0.7587 0.5281 0.3819
H3I H 0.8011 0.5944 0.3852
C4I C 0.70351 0.5373 0.5029
H4I H 0.6631 0.5547 0.4819
H5I H 0.7021 0.5494 0.55
C5I C 0.8091 0.59013 0.5136
C6I C 0.87 0.6258 0.4887
C7I C 0.9127 0.6453 0.5476
H6I H 0.9227 0.6061 0.5738
H7I H 0.8889 0.6772 0.5749
H8I H 0.9537 0.665 0.5319
C8I C 0.8611 0.6932 0.4485
H9I H 0.9043 0.7099 0.4353
H10I H 0.8392 0.7258 0.4765
H11I H 0.8342 0.6851 0.4093

#END

