
#######################################################################
#
#                 Cambridge Crystallographic Data Centre
#                                CCDC 
#
#######################################################################
#
# If this CIF has been generated directly or indirectly from an entry in the 
# Cambridge Structural Database, then it will include bibliographic, chemical, 
# crystal, experimental, refinement or atomic coordinate data resulting from 
# the CCDC's data processing and validation procedures. Files generated from 
# CSD entries are Copyright 2015 Cambridge Crystallographic Data Centre. They 
# may be used in bona fide research applications only, and may not be copied or 
# further disseminated in any form, whether machine-readable or not, except for 
# the purposes of generating routine backup copies on your local computer 
# system.
# 
# Files arising from any other source may also contain material that is the 
# copyright of third parties, including the originator, and you should check 
# with the originator concerning the permitted uses of the information 
# contained in this CIF.
#
# For further information on the CCDC and the free tools enCIFer and Mercury
# for validating and visualising CIF files, please visit www.ccdc.cam.ac.uk
#
#######################################################################

data_FIFTEV
_audit_creation_date             2013-08-09
_database_code_depnum_ccdc_archive 'CCDC 955293'
_chemical_formula_moiety         'C180 H144 N12 O12,7(C1 H1 Cl3)'
_chemical_name_systematic        
'5,8,16,19,27,30,38,41,46,49,54,57-dodecakis(2-Naphthoyl)-5,8,16,19,27,30,38,41,46,49,54,57-dodecaazaheptacyclo[21.21.6.6^12,34^.1^3,43^.1^10,14^.1^21,25^.1^32,36^]hexaconta-1,3(51),10(60),11,13,21(59),22,24,32(52),33,35,43-dodecaene chloroform solvate'
_journal_coden_Cambridge         4
_journal_volume                  135
_journal_year                    2013
_journal_page_first              10007
_journal_name_full               J.Am.Chem.Soc.
loop_
_publ_author_name
J.L.Culshaw
'Ge Cheng'
M.Schmidtmann
T.Hasell
'Ming Liu'
D.J.Adams
A.I.Cooper
_chemical_absolute_configuration unk
_diffrn_ambient_temperature      100
_exptl_crystal_density_meas      1.385
_exptl_crystal_density_diffrn    1.385
#These two values have been output from a single CSD field.
_refine_ls_R_factor_gt           0.0933
_refine_ls_wR_factor_gt          0.0933
_diffrn_radiation_probe          x-ray
_symmetry_cell_setting           cubic
_symmetry_space_group_name_H-M   'P n -3'
_symmetry_Int_Tables_number      201
loop_
_symmetry_equiv_pos_site_id
_symmetry_equiv_pos_as_xyz
1 x,y,z
2 1/2-x,1/2-y,z
3 1/2-x,y,1/2-z
4 x,1/2-y,1/2-z
5 z,x,y
6 z,1/2-x,1/2-y
7 1/2-z,1/2-x,y
8 1/2-z,x,1/2-y
9 y,z,x
10 1/2-y,z,1/2-x
11 y,1/2-z,1/2-x
12 1/2-y,1/2-z,x
13 -x,-y,-z
14 1/2+x,1/2+y,-z
15 1/2+x,-y,1/2+z
16 -x,1/2+y,1/2+z
17 -z,-x,-y
18 -z,1/2+x,1/2+y
19 1/2+z,1/2+x,-y
20 1/2+z,-x,1/2+y
21 -y,-z,-x
22 1/2+y,-z,1/2+x
23 -y,1/2+z,1/2+x
24 1/2+y,1/2+z,-x
_cell_length_a                   20.3289(13)
_cell_length_b                   20.3289(13)
_cell_length_c                   20.3289(13)
_cell_angle_alpha                90
_cell_angle_beta                 90
_cell_angle_gamma                90
_cell_volume                     8401.21
_exptl_crystal_colour            colorless
_exptl_crystal_description       block
_cell_formula_units_Z            2
loop_
_atom_site_label
_atom_site_type_symbol
_atom_site_fract_x
_atom_site_fract_y
_atom_site_fract_z
N1 N 0.77958(19) 0.67924(19) 1.01824(19)
O1 O 0.6893(2) 0.67820(19) 1.0794(2)
C1 C 0.8396(2) 0.5832(2) 0.9280(2)
H1 H 0.8015 0.5684 0.9505
C2 C 0.8727(2) 0.63850(19) 0.95078(19)
C3 C 0.8516(2) 0.6747(2) 1.0120(2)
H2 H 0.8695 0.6518 1.0510
H3 H 0.8703 0.7197 1.0111
C4 C 0.7453(3) 0.7141(3) 0.9644(2)
H4 H 0.7610 0.6964 0.9219
H5 H 0.6976 0.7047 0.9676
C5 C 0.7467(3) 0.6642(2) 1.0728(3)
C6 C 0.7829(7) 0.6373(4) 1.1316(6)
C7 C 0.7930(4) 0.5732(4) 1.1372(4)
H6 H 0.7790 0.5448 1.1029
C8 C 0.8252(11) 0.5453(6) 1.1954(6)
C9 C 0.8362(5) 0.4773(5) 1.2027(5)
H7 H 0.8206 0.4476 1.1702
C10 C 0.8677(8) 0.4549(6) 1.2539(7)
H8 H 0.8736 0.4088 1.2580
C11 C 0.8916(17) 0.4933(15) 1.3002(12)
H9 H 0.9169 0.4749 1.3350
C12 C 0.8805(10) 0.5587(8) 1.2985(6)
H10 H 0.8961 0.5862 1.3329
C13 C 0.8449(7) 0.5866(6) 1.2443(7)
C14 C 0.8338(5) 0.6540(4) 1.2384(5)
H11 H 0.8473 0.6830 1.2725
C15 C 0.8032(4) 0.6787(5) 1.1828(5)
H12 H 0.7957 0.7247 1.1793
N1A N 0.72042 0.82076 1.01824
O1A O 0.8107 0.8218 1.0794
C1A C 0.6604 0.9168 0.928
H1A H 0.6985 0.9316 0.9505
C2A C 0.6273 0.8615 0.95078
C3A C 0.6484 0.8253 1.012
H2A H 0.6305 0.8482 1.051
H3A H 0.6297 0.7803 1.0111
C4A C 0.7547 0.7859 0.9644
H4A H 0.739 0.8036 0.9219
H5A H 0.8024 0.7953 0.9676
C5A C 0.7533 0.8358 1.0728
C6A C 0.7171 0.8627 1.1316
C7A C 0.707 0.9268 1.1372
H6A H 0.721 0.9552 1.1029
C8A C 0.6748 0.9547 1.1954
C9A C 0.6638 1.0227 1.2027
H7A H 0.6794 1.0524 1.1702
C10A C 0.6323 1.0451 1.2539
H8A H 0.6264 1.0912 1.258
C11A C 0.6084 1.0067 1.3002
H9A H 0.5831 1.0251 1.335
C12A C 0.6195 0.9413 1.2985
H10A H 0.6039 0.9138 1.3329
C13A C 0.6551 0.9134 1.2443
C14A C 0.6662 0.846 1.2384
H11A H 0.6527 0.817 1.2725
C15A C 0.6968 0.8213 1.1828
H12A H 0.7043 0.7753 1.1793
N1E N 1.01824 0.72042 0.82076
O1E O 1.0794 0.8107 0.8218
C1E C 0.928 0.6604 0.9168
H1E H 0.9505 0.6985 0.9316
C2E C 0.95078 0.6273 0.8615
C3E C 1.012 0.6484 0.8253
H2E H 1.051 0.6305 0.8482
H3E H 1.0111 0.6297 0.7803
C4E C 0.9644 0.7547 0.7859
H4E H 0.9219 0.739 0.8036
H5E H 0.9676 0.8024 0.7953
C5E C 1.0728 0.7533 0.8358
C6E C 1.1316 0.7171 0.8627
C7E C 1.1372 0.707 0.9268
H6E H 1.1029 0.721 0.9552
C8E C 1.1954 0.6748 0.9547
C9E C 1.2027 0.6638 1.0227
H7E H 1.1702 0.6794 1.0524
C10E C 1.2539 0.6323 1.0451
H8E H 1.258 0.6264 1.0912
C11E C 1.3002 0.6084 1.0067
H9E H 1.335 0.5831 1.0251
C12E C 1.2985 0.6195 0.9413
H10E H 1.3329 0.6039 0.9138
C13E C 1.2443 0.6551 0.9134
C14E C 1.2384 0.6662 0.846
H11E H 1.2725 0.6527 0.817
C15E C 1.1828 0.6968 0.8213
H12E H 1.1793 0.7043 0.7753
N1K N 0.82076 0.48176 0.77958
O1K O 0.8218 0.4206 0.6893
C1K C 0.9168 0.572 0.8396
H1K H 0.9316 0.5495 0.8015
C2K C 0.8615 0.54922 0.8727
C3K C 0.8253 0.488 0.8516
H2K H 0.8482 0.449 0.8695
H3K H 0.7803 0.4889 0.8703
C4K C 0.7859 0.5356 0.7453
H4K H 0.8036 0.5781 0.761
H5K H 0.7953 0.5324 0.6976
C5K C 0.8358 0.4272 0.7467
C6K C 0.8627 0.3684 0.7829
C7K C 0.9268 0.3628 0.793
H6K H 0.9552 0.3971 0.779
C8K C 0.9547 0.3046 0.8252
C9K C 1.0227 0.2973 0.8362
H7K H 1.0524 0.3298 0.8206
C10K C 1.0451 0.2461 0.8677
H8K H 1.0912 0.242 0.8736
C11K C 1.0067 0.1998 0.8916
H9K H 1.0251 0.165 0.9169
C12K C 0.9413 0.2015 0.8805
H10K H 0.9138 0.1671 0.8961
C13K C 0.9134 0.2557 0.8449
C14K C 0.846 0.2616 0.8338
H11K H 0.817 0.2275 0.8473
C15K C 0.8213 0.3172 0.8032
H12K H 0.7753 0.3207 0.7957
N1D N 1.01824 0.77958 0.67924
O1D O 1.0794 0.6893 0.6782
C1D C 0.928 0.8396 0.5832
H1D H 0.9505 0.8015 0.5684
C2D C 0.95078 0.8727 0.6385
C3D C 1.012 0.8516 0.6747
H2D H 1.051 0.8695 0.6518
H3D H 1.0111 0.8703 0.7197
C4D C 0.9644 0.7453 0.7141
H4D H 0.9219 0.761 0.6964
H5D H 0.9676 0.6976 0.7047
C5D C 1.0728 0.7467 0.6642
C6D C 1.1316 0.7829 0.6373
C7D C 1.1372 0.793 0.5732
H6D H 1.1029 0.779 0.5448
C8D C 1.1954 0.8252 0.5453
C9D C 1.2027 0.8362 0.4773
H7D H 1.1702 0.8206 0.4476
C10D C 1.2539 0.8677 0.4549
H8D H 1.258 0.8736 0.4088
C11D C 1.3002 0.8916 0.4933
H9D H 1.335 0.9169 0.4749
C12D C 1.2985 0.8805 0.5587
H10D H 1.3329 0.8961 0.5862
C13D C 1.2443 0.8449 0.5866
C14D C 1.2384 0.8338 0.654
H11D H 1.2725 0.8473 0.683
C15D C 1.1828 0.8032 0.6787
H12D H 1.1793 0.7957 0.7247
N1G N 0.48176 0.77958 0.82076
O1G O 0.4206 0.6893 0.8218
C1G C 0.572 0.8396 0.9168
H1G H 0.5495 0.8015 0.9316
C2G C 0.54922 0.8727 0.8615
C3G C 0.488 0.8516 0.8253
H2G H 0.449 0.8695 0.8482
H3G H 0.4889 0.8703 0.7803
C4G C 0.5356 0.7453 0.7859
H4G H 0.5781 0.761 0.8036
H5G H 0.5324 0.6976 0.7953
C5G C 0.4272 0.7467 0.8358
C6G C 0.3684 0.7829 0.8627
C7G C 0.3628 0.793 0.9268
H6G H 0.3971 0.779 0.9552
C8G C 0.3046 0.8252 0.9547
C9G C 0.2973 0.8362 1.0227
H7G H 0.3298 0.8206 1.0524
C10G C 0.2461 0.8677 1.0451
H8G H 0.242 0.8736 1.0912
C11G C 0.1998 0.8916 1.0067
H9G H 0.165 0.9169 1.0251
C12G C 0.2015 0.8805 0.9413
H10G H 0.1671 0.8961 0.9138
C13G C 0.2557 0.8449 0.9134
C14G C 0.2616 0.8338 0.846
H11G H 0.2275 0.8473 0.817
C15G C 0.3172 0.8032 0.8213
H12G H 0.3207 0.7957 0.7753
N1H N 0.67924 1.01824 0.77958
O1H O 0.6782 1.0794 0.6893
C1H C 0.5832 0.928 0.8396
H1H H 0.5684 0.9505 0.8015
C2H C 0.6385 0.95078 0.8727
C3H C 0.6747 1.012 0.8516
H2H H 0.6518 1.051 0.8695
H3H H 0.7197 1.0111 0.8703
C4H C 0.7141 0.9644 0.7453
H4H H 0.6964 0.9219 0.761
H5H H 0.7047 0.9676 0.6976
C5H C 0.6642 1.0728 0.7467
C6H C 0.6373 1.1316 0.7829
C7H C 0.5732 1.1372 0.793
H6H H 0.5448 1.1029 0.779
C8H C 0.5453 1.1954 0.8252
C9H C 0.4773 1.2027 0.8362
H7H H 0.4476 1.1702 0.8206
C10H C 0.4549 1.2539 0.8677
H8H H 0.4088 1.258 0.8736
C11H C 0.4933 1.3002 0.8916
H9H H 0.4749 1.335 0.9169
C12H C 0.5587 1.2985 0.8805
H10H H 0.5862 1.3329 0.8961
C13H C 0.5866 1.2443 0.8449
C14H C 0.654 1.2384 0.8338
H11H H 0.683 1.2725 0.8473
C15H C 0.6787 1.1828 0.8032
H12H H 0.7247 1.1793 0.7957
N1I N 0.82076 1.01824 0.72042
O1I O 0.8218 1.0794 0.8107
C1I C 0.9168 0.928 0.6604
H1I H 0.9316 0.9505 0.6985
C2I C 0.8615 0.95078 0.6273
C3I C 0.8253 1.012 0.6484
H2I H 0.8482 1.051 0.6305
H3I H 0.7803 1.0111 0.6297
C4I C 0.7859 0.9644 0.7547
H4I H 0.8036 0.9219 0.739
H5I H 0.7953 0.9676 0.8024
C5I C 0.8358 1.0728 0.7533
C6I C 0.8627 1.1316 0.7171
C7I C 0.9268 1.1372 0.707
H6I H 0.9552 1.1029 0.721
C8I C 0.9547 1.1954 0.6748
C9I C 1.0227 1.2027 0.6638
H7I H 1.0524 1.1702 0.6794
C10I C 1.0451 1.2539 0.6323
H8I H 1.0912 1.258 0.6264
C11I C 1.0067 1.3002 0.6084
H9I H 1.0251 1.335 0.5831
C12I C 0.9413 1.2985 0.6195
H10I H 0.9138 1.3329 0.6039
C13I C 0.9134 1.2443 0.6551
C14I C 0.846 1.2384 0.6662
H11I H 0.817 1.2725 0.6527
C15I C 0.8213 1.1828 0.6968
H12I H 0.7753 1.1793 0.7043
N1J N 0.67924 0.48176 0.72042
O1J O 0.6782 0.4206 0.8107
C1J C 0.5832 0.572 0.6604
H1J H 0.5684 0.5495 0.6985
C2J C 0.6385 0.54922 0.6273
C3J C 0.6747 0.488 0.6484
H2J H 0.6518 0.449 0.6305
H3J H 0.7197 0.4889 0.6297
C4J C 0.7141 0.5356 0.7547
H4J H 0.6964 0.5781 0.739
H5J H 0.7047 0.5324 0.8024
C5J C 0.6642 0.4272 0.7533
C6J C 0.6373 0.3684 0.7171
C7J C 0.5732 0.3628 0.707
H6J H 0.5448 0.3971 0.721
C8J C 0.5453 0.3046 0.6748
C9J C 0.4773 0.2973 0.6638
H7J H 0.4476 0.3298 0.6794
C10J C 0.4549 0.2461 0.6323
H8J H 0.4088 0.242 0.6264
C11J C 0.4933 0.1998 0.6084
H9J H 0.4749 0.165 0.5831
C12J C 0.5587 0.2015 0.6195
H10J H 0.5862 0.1671 0.6039
C13J C 0.5866 0.2557 0.6551
C14J C 0.654 0.2616 0.6662
H11J H 0.683 0.2275 0.6527
C15J C 0.6787 0.3172 0.6968
H12J H 0.7247 0.3207 0.7043
N1B N 0.72042 0.67924 0.48176
O1B O 0.8107 0.6782 0.4206
C1B C 0.6604 0.5832 0.572
H1B H 0.6985 0.5684 0.5495
C2B C 0.6273 0.6385 0.54922
C3B C 0.6484 0.6747 0.488
H2B H 0.6305 0.6518 0.449
H3B H 0.6297 0.7197 0.4889
C4B C 0.7547 0.7141 0.5356
H4B H 0.739 0.6964 0.5781
H5B H 0.8024 0.7047 0.5324
C5B C 0.7533 0.6642 0.4272
C6B C 0.7171 0.6373 0.3684
C7B C 0.707 0.5732 0.3628
H6B H 0.721 0.5448 0.3971
C8B C 0.6748 0.5453 0.3046
C9B C 0.6638 0.4773 0.2973
H7B H 0.6794 0.4476 0.3298
C10B C 0.6323 0.4549 0.2461
H8B H 0.6264 0.4088 0.242
C11B C 0.6084 0.4933 0.1998
H9B H 0.5831 0.4749 0.165
C12B C 0.6195 0.5587 0.2015
H10B H 0.6039 0.5862 0.1671
C13B C 0.6551 0.5866 0.2557
C14B C 0.6662 0.654 0.2616
H11B H 0.6527 0.683 0.2275
C15B C 0.6968 0.6787 0.3172
H12B H 0.7043 0.7247 0.3207
N1C N 0.77958 0.82076 0.48176
O1C O 0.6893 0.8218 0.4206
C1C C 0.8396 0.9168 0.572
H1C H 0.8015 0.9316 0.5495
C2C C 0.8727 0.8615 0.54922
C3C C 0.8516 0.8253 0.488
H2C H 0.8695 0.8482 0.449
H3C H 0.8703 0.7803 0.4889
C4C C 0.7453 0.7859 0.5356
H4C H 0.761 0.8036 0.5781
H5C H 0.6976 0.7953 0.5324
C5C C 0.7467 0.8358 0.4272
C6C C 0.7829 0.8627 0.3684
C7C C 0.793 0.9268 0.3628
H6C H 0.779 0.9552 0.3971
C8C C 0.8252 0.9547 0.3046
C9C C 0.8362 1.0227 0.2973
H7C H 0.8206 1.0524 0.3298
C10C C 0.8677 1.0451 0.2461
H8C H 0.8736 1.0912 0.242
C11C C 0.8916 1.0067 0.1998
H9C H 0.9169 1.0251 0.165
C12C C 0.8805 0.9413 0.2015
H10C H 0.8961 0.9138 0.1671
C13C C 0.8449 0.9134 0.2557
C14C C 0.8338 0.846 0.2616
H11C H 0.8473 0.817 0.2275
C15C C 0.8032 0.8213 0.3172
H12C H 0.7957 0.7753 0.3207
N1F N 0.48176 0.72042 0.67924
O1F O 0.4206 0.8107 0.6782
C1F C 0.572 0.6604 0.5832
H1F H 0.5495 0.6985 0.5684
C2F C 0.54922 0.6273 0.6385
C3F C 0.488 0.6484 0.6747
H2F H 0.449 0.6305 0.6518
H3F H 0.4889 0.6297 0.7197
C4F C 0.5356 0.7547 0.7141
H4F H 0.5781 0.739 0.6964
H5F H 0.5324 0.8024 0.7047
C5F C 0.4272 0.7533 0.6642
C6F C 0.3684 0.7171 0.6373
C7F C 0.3628 0.707 0.5732
H6F H 0.3971 0.721 0.5448
C8F C 0.3046 0.6748 0.5453
C9F C 0.2973 0.6638 0.4773
H7F H 0.3298 0.6794 0.4476
C10F C 0.2461 0.6323 0.4549
H8F H 0.242 0.6264 0.4088
C11F C 0.1998 0.6084 0.4933
H9F H 0.165 0.5831 0.4749
C12F C 0.2015 0.6195 0.5587
H10F H 0.1671 0.6039 0.5862
C13F C 0.2557 0.6551 0.5866
C14F C 0.2616 0.6662 0.654
H11F H 0.2275 0.6527 0.683
C15F C 0.3172 0.6968 0.6787
H12F H 0.3207 0.7043 0.7247

#END

