
#######################################################################
#
#                 Cambridge Crystallographic Data Centre
#                                CCDC 
#
#######################################################################
#
# If this CIF has been generated directly or indirectly from an entry in the 
# Cambridge Structural Database, then it will include bibliographic, chemical, 
# crystal, experimental, refinement or atomic coordinate data resulting from 
# the CCDC's data processing and validation procedures. Files generated from 
# CSD entries are Copyright 2015 Cambridge Crystallographic Data Centre. They 
# may be used in bona fide research applications only, and may not be copied or 
# further disseminated in any form, whether machine-readable or not, except for 
# the purposes of generating routine backup copies on your local computer 
# system.
# 
# Files arising from any other source may also contain material that is the 
# copyright of third parties, including the originator, and you should check 
# with the originator concerning the permitted uses of the information 
# contained in this CIF.
#
# For further information on the CCDC and the free tools enCIFer and Mercury
# for validating and visualising CIF files, please visit www.ccdc.cam.ac.uk
#
#######################################################################

data_SATJAA
_audit_creation_date             2012-07-19
_database_code_depnum_ccdc_archive 'CCDC 860485'
_chemical_formula_moiety         'C82 H52 N6 O6,6.5(C4 H8 O1)'
_chemical_name_systematic        
"2,2':7,7':11,11'-tris((4,4'-dihydroxybiphenyl-3,3'-diyl)bis(methylylideneazanylylidene))-bis(triptycene) tetrahydrofuran solvate"
_journal_coden_Cambridge         1220
_journal_volume                  18
_journal_year                    2012
_journal_page_first              4156
_journal_name_full               Chem.-Eur.J.
loop_
_publ_author_name
M.W.Schneider
I.M.Oppel
M.Mastalerz
_chemical_absolute_configuration unk
_diffrn_ambient_temperature      100
_exptl_crystal_density_diffrn    1.202
#These two values have been output from a single CSD field.
_refine_ls_R_factor_gt           0.0644
_refine_ls_wR_factor_gt          0.0644
_diffrn_radiation_probe          x-ray
_symmetry_cell_setting           triclinic
_symmetry_space_group_name_H-M   'P -1'
_symmetry_Int_Tables_number      2
loop_
_symmetry_equiv_pos_site_id
_symmetry_equiv_pos_as_xyz
1 x,y,z
2 -x,-y,-z
_cell_length_a                   21.9901(12)
_cell_length_b                   22.3199(12)
_cell_length_c                   23.8004(12)
_cell_angle_alpha                94.648(3)
_cell_angle_beta                 116.848(3)
_cell_angle_gamma                110.901(3)
_cell_volume                     9316.66
_exptl_crystal_colour            red
_exptl_crystal_description       prism
_cell_formula_units_Z            4
loop_
_atom_site_label
_atom_site_type_symbol
_atom_site_fract_x
_atom_site_fract_y
_atom_site_fract_z
C83 C 1.10472(13) 0.22684(11) 1.35699(10)
H53 H 1.0793 0.1777 1.3345
C84 C 1.17016(13) 0.35473(10) 1.41513(10)
H54 H 1.1951 0.4039 1.4375
C85 C 1.46315(12) 0.96723(11) 1.67268(10)
H55 H 1.4897 1.0165 1.6950
C86 C 1.39384(12) 0.83883(11) 1.61447(10)
H56 H 1.3671 0.7896 1.5920
O7 O 0.84566(10) 0.32017(8) 1.46866(9)
H57 H 0.8735 0.3050 1.4639
N7 N 0.96897(12) 0.32712(10) 1.47317(9)
N8 N 1.22351(11) 0.80262(10) 1.70993(9)
O8 O 1.13680(11) 0.78058(10) 1.76446(10)
H58 H 1.1689 0.8031 1.7552
O9 O 1.14982(9) 0.42733(7) 1.10074(7)
H59 H 1.1401 0.4053 1.1251
N9 N 1.14185(10) 0.40722(9) 1.20394(8)
O10 O 1.26963(11) 0.89543(8) 1.27344(8)
H60 H 1.2909 0.9068 1.3146
N10 N 1.33299(11) 0.88208(9) 1.39362(8)
O11 O 1.51733(11) 0.32805(8) 1.68601(8)
H61 H 1.4759 0.3147 1.6504
N11 N 1.40363(12) 0.33906(10) 1.58649(9)
N12 N 1.63158(10) 0.81745(9) 1.76916(9)
O12 O 1.76148(10) 0.82102(9) 1.84972(12)
H62 H 1.7323 0.8365 1.8265
C87 C 1.00483(14) 0.30235(11) 1.44645(11)
C88 C 0.96916(15) 0.23329(12) 1.41549(11)
H63 H 0.9246 0.2051 1.4149
C89 C 0.99889(14) 0.20591(11) 1.38551(11)
H64 H 0.9750 0.1591 1.3649
C90 C 1.06358(14) 0.24764(11) 1.38608(10)
C91 C 1.09889(13) 0.31646(11) 1.41689(10)
C92 C 1.06921(14) 0.34377(11) 1.44645(10)
H65 H 1.0929 0.3907 1.4666
C93 C 1.13177(12) 0.36338(11) 1.24217(10)
C94 C 1.09634(12) 0.29462(11) 1.21135(10)
H66 H 1.0789 0.2794 1.1660
C95 C 1.08595(13) 0.24804(11) 1.24525(10)
H67 H 1.0621 0.2015 1.2234
C96 C 1.11063(12) 0.26998(11) 1.31113(10)
C97 C 1.14619(12) 0.33899(11) 1.34252(10)
C98 C 1.15780(12) 0.38557(11) 1.30955(10)
H68 H 1.1830 0.4321 1.3319
C99 C 1.33041(14) 0.31220(12) 1.52813(10)
C100 C 1.29518(14) 0.24350(11) 1.49699(11)
H69 H 1.3207 0.2171 1.5147
C101 C 1.22332(14) 0.21316(11) 1.44049(10)
H70 H 1.2004 0.1665 1.4194
C102 C 1.18538(13) 0.25116(11) 1.41518(10)
C103 C 1.22082(13) 0.32074(11) 1.44673(10)
C104 C 1.29153(14) 0.35083(11) 1.50239(10)
H71 H 1.3143 0.3974 1.5235
C105 C 1.28146(12) 0.84337(11) 1.69883(10)
C106 C 1.31871(13) 0.91150(11) 1.73038(10)
H72 H 1.3045 0.9290 1.7577
C107 C 1.37682(12) 0.95519(11) 1.72295(9)
H73 H 1.4015 1.0018 1.7447
C108 C 1.39817(12) 0.92952(11) 1.68324(10)
C109 C 1.35996(12) 0.86026(10) 1.65125(9)
C110 C 1.30189(12) 0.81724(11) 1.65752(10)
H74 H 1.2760 0.7708 1.6345
C111 C 1.36570(13) 0.90316(11) 1.46276(10)
C112 C 1.40305(14) 0.97181(11) 1.49441(11)
H75 H 1.4064 1.0027 1.4695
C113 C 1.43555(14) 0.99551(11) 1.56209(11)
H76 H 1.4612 1.0423 1.5833
C114 C 1.43028(13) 0.95027(11) 1.59837(10)
C115 C 1.39250(13) 0.88140(11) 1.56698(10)
C116 C 1.35912(13) 0.85763(11) 1.49943(10)
H77 H 1.3320 0.8108 1.4781
C117 C 1.58949(13) 0.85346(11) 1.74108(10)
C118 C 1.62753(13) 0.92247(11) 1.76887(10)
H78 H 1.6795 0.9427 1.8029
C119 C 1.59022(13) 0.96242(11) 1.74737(10)
H79 H 1.6164 1.0096 1.7668
C120 C 1.51503(12) 0.93272(11) 1.69770(10)
C121 C 1.47686(12) 0.86295(10) 1.66710(9)
C122 C 1.51354(13) 0.82323(11) 1.68823(10)
H80 H 1.4880 0.7763 1.6675
C123 C 1.00600(15) 0.38620(12) 1.51438(11)
H81 H 1.0589 0.4106 1.5311
C124 C 0.96794(14) 0.41618(11) 1.53574(10)
C125 C 0.88914(14) 0.38274(12) 1.51080(11)
C126 C 0.85511(15) 0.41552(13) 1.52968(13)
H82 H 0.8017 0.3945 1.5116
C127 C 0.89895(14) 0.47902(12) 1.57494(12)
H83 H 0.8747 0.5001 1.5878
C128 C 0.97744(13) 0.51278(11) 1.60207(10)
C129 C 1.01005(14) 0.48046(11) 1.57988(10)
H84 H 1.0628 0.5032 1.5955
C130 C 1.19130(13) 0.73837(12) 1.68587(11)
H85 H 1.2095 0.7194 1.6634
C131 C 1.12838(13) 0.69304(13) 1.69119(11)
C132 C 1.10252(14) 0.71562(13) 1.72943(12)
C133 C 1.04061(14) 0.67011(13) 1.72965(12)
H86 H 1.0243 0.6842 1.7568
C134 C 1.00208(14) 0.60438(12) 1.69088(11)
H87 H 0.9597 0.5741 1.6920
C135 C 1.02397(13) 0.58101(11) 1.64979(10)
C136 C 1.08922(13) 0.62670(12) 1.65333(10)
H88 H 1.1077 0.6117 1.6287
C137 C 1.15971(13) 0.46993(11) 1.22293(10)
H89 H 1.1627 0.4868 1.2625
C138 C 1.17538(13) 0.51540(11) 1.18603(10)
C139 C 1.17029(12) 0.49238(11) 1.12592(10)
C140 C 1.18935(12) 0.53894(11) 1.09363(10)
H90 H 1.1874 0.5243 1.0540
C141 C 1.21095(12) 0.60586(11) 1.11869(10)
H91 H 1.2234 0.6364 1.0957
C142 C 1.21498(13) 0.63003(11) 1.17764(10)
C143 C 1.19735(13) 0.58340(11) 1.20995(10)
H92 H 1.2004 0.5985 1.2500
C144 C 1.32534(13) 0.82492(11) 1.36679(10)
H93 H 1.3456 0.8002 1.3944
C145 C 1.28689(13) 0.79733(11) 1.29594(10)
C146 C 1.25976(14) 0.83293(11) 1.25206(10)
C147 C 1.22156(15) 0.80225(12) 1.18463(11)
H94 H 1.2040 0.8261 1.1546
C148 C 1.20875(13) 0.73781(12) 1.16074(10)
H95 H 1.1823 0.7181 1.1145
C149 C 1.23402(13) 0.70078(11) 1.20334(10)
C150 C 1.27373(13) 0.73210(11) 1.27074(10)
H96 H 1.2925 0.7085 1.3006
C151 C 1.44239(15) 0.40260(12) 1.61266(12)
H97 H 1.4225 0.4308 1.5908
C152 C 1.51520(14) 0.43367(12) 1.67413(12)
C153 C 1.54927(15) 0.39559(12) 1.70913(12)
C154 C 1.61779(14) 0.42882(12) 1.76884(12)
H98 H 1.6421 0.4039 1.7925
C155 C 1.65069(14) 0.49745(12) 1.79393(12)
H99 H 1.6969 0.5188 1.8353
C156 C 1.61806(14) 0.53711(12) 1.76025(12)
C157 C 1.55020(15) 0.50293(13) 1.69988(13)
H100 H 1.5270 0.5280 1.6754
C158 C 1.60108(13) 0.75336(11) 1.75597(11)
H101 H 1.5477 0.7285 1.7273
C159 C 1.64677(13) 0.71804(12) 1.78410(12)
C160 C 1.72521(15) 0.75322(13) 1.82842(15)
C161 C 1.76702(16) 0.71711(14) 1.8521(2)
H102 H 1.8200 0.7403 1.8833
C162 C 1.73196(16) 0.64795(14) 1.83047(18)
H103 H 1.7620 0.6246 1.8464
C163 C 1.65413(14) 0.61119(12) 1.78613(13)
C164 C 1.61285(13) 0.64796(11) 1.76452(11)
H104 H 1.5594 0.6244 1.7353
O1 O 0.84493(10) 1.07520(9) 1.34602(8)
H1 H 0.8276 1.0729 1.3060
N1 N 0.78192(12) 1.01556(11) 1.21728(9)
O2 O 0.84640(10) 0.64500(8) 1.40323(7)
H2 H 0.8467 0.6249 1.3720
N2 N 0.86062(12) 0.63132(11) 1.30177(9)
O3 O 1.00885(13) 1.05042(11) 0.88289(11)
H3 H 0.9737 1.0487 0.8892
N3 N 0.90294(11) 1.00149(10) 0.91211(8)
O4 O 1.11372(11) 0.66186(9) 0.96503(10)
H4 H 1.0905 0.6413 0.9827
N4 N 1.03264(11) 0.64064(10) 1.02202(9)
N5 N 0.44850(12) 0.75620(11) 0.78680(11)
O5 O 0.43469(14) 0.30009(11) 0.78385(10)
H5 H 0.4763 0.3136 0.8193
N6 N 0.56688(12) 0.38986(11) 0.88706(9)
C1 C 0.78556(14) 0.96304(13) 1.23295(12)
H6 H 0.7653 0.9234 1.1994
C2 C 0.82093(13) 0.96290(12) 1.30276(11)
C3 C 0.84869(13) 1.01729(12) 1.35552(12)
C4 C 0.88270(14) 1.01291(12) 1.41989(12)
H7 H 0.9021 1.0500 1.4558
C5 C 0.88826(14) 0.95444(12) 1.43142(11)
H8 H 0.9118 0.9522 1.4754
C6 C 0.85981(13) 0.89872(11) 1.37944(10)
C7 C 0.82667(14) 0.90502(12) 1.31593(11)
H9 H 0.8071 0.8679 1.2799
C8 C 0.87162(14) 0.69176(13) 1.30350(11)
H10 H 0.8832 0.7106 1.2731
C9 C 0.86690(13) 0.73260(12) 1.35096(10)
C10 C 0.85422(13) 0.70744(11) 1.39876(10)
C11 C 0.84763(14) 0.74669(12) 1.44233(11)
H11 H 0.8406 0.7306 1.4757
C12 C 0.85133(14) 0.80885(12) 1.43700(10)
H12 H 0.8460 0.8347 1.4667
C13 C 0.86272(13) 0.83506(11) 1.38899(10)
C14 C 0.87140(14) 0.79578(12) 1.34731(11)
H13 H 0.8807 0.8128 1.3152
C15 C 0.92020(13) 0.95194(12) 0.92076(10)
H14 H 0.8936 0.9180 0.9340
C16 C 0.97851(13) 0.94632(12) 0.91103(10)
C17 C 1.02066(15) 0.99528(14) 0.89212(12)
C18 C 1.07494(16) 0.98657(15) 0.88233(13)
H15 H 1.1022 1.0184 0.8679
C19 C 1.08974(15) 0.93208(14) 0.89336(11)
H16 H 1.1277 0.9276 0.8869
C20 C 1.05057(13) 0.88327(12) 0.91379(10)
C21 C 0.99440(13) 0.89192(12) 0.92130(10)
H17 H 0.9658 0.8591 0.9340
C22 C 1.02715(14) 0.69522(13) 1.01260(11)
H18 H 1.0012 0.7105 1.0287
C23 C 1.05888(14) 0.73392(12) 0.97847(10)
C24 C 1.09935(14) 0.71512(13) 0.95416(12)
C25 C 1.12330(15) 0.75183(13) 0.91705(13)
H19 H 1.1509 0.7397 0.9008
C26 C 1.10743(14) 0.80552(13) 0.90370(12)
H20 H 1.1231 0.8290 0.8775
C27 C 1.06836(13) 0.82595(12) 0.92841(10)
C28 C 1.04566(13) 0.78963(12) 0.96593(10)
H21 H 1.0201 0.8032 0.9838
O6 O 0.3466(3) 0.68110(18) 0.6572(2)
H22 H 0.3682 0.7130 0.6912
C29 C 0.4542(8) 0.7000(9) 0.7947(7)
H23 H 0.4902 0.7005 0.8367
C30 C 0.4056(9) 0.6349(8) 0.7396(5)
C31 C 0.3572(3) 0.6271(3) 0.6748(3)
C32 C 0.3199(4) 0.5664(3) 0.6271(3)
H24 H 0.2875 0.5624 0.5824
C33 C 0.3297(3) 0.5114(3) 0.6446(3)
H25 H 0.3024 0.4695 0.6118
C34 C 0.3802(6) 0.5165(5) 0.7110(4)
C35 C 0.4171(12) 0.5774(13) 0.7583(10)
H26 H 0.4499 0.5818 0.8031
C36 C 0.54731(16) 0.43446(15) 0.86599(13)
H27 H 0.5818 0.4802 0.8894
C37 C 0.47472(15) 0.41870(14) 0.80773(12)
C38 C 0.42198(17) 0.35313(14) 0.76852(12)
C39 C 0.35483(17) 0.34209(15) 0.71191(13)
H28 H 0.3189 0.2977 0.6845
C40 C 0.34045(15) 0.39593(14) 0.69551(12)
H29 H 0.2944 0.3876 0.6569
C41 C 0.39160(15) 0.46130(14) 0.73398(13)
C42 C 0.45913(17) 0.47162(15) 0.78935(14)
H30 H 0.4958 0.5162 0.8155
C43 C 0.67087(14) 1.02211(13) 0.95052(10)
H31 H 0.6574 1.0595 0.9390
C44 C 0.70582(14) 0.92465(13) 0.97969(10)
H32 H 0.7195 0.8874 0.9913
C45 C 0.86100(14) 0.45923(13) 1.10986(10)
H33 H 0.8742 0.4219 1.1221
C46 C 0.82682(15) 0.55624(13) 1.07819(10)
H34 H 0.8138 0.5937 1.0659
C47 C 0.75219(14) 1.01576(14) 1.15005(10)
C48 C 0.73460(14) 1.06698(14) 1.13410(11)
H35 H 0.7409 1.0996 1.1671
C49 C 0.70737(15) 1.07237(14) 1.06992(11)
H36 H 0.6953 1.1083 1.0591
C50 C 0.69846(14) 1.02414(14) 1.02239(11)
C51 C 0.71589(14) 0.97100(14) 1.03775(11)
C52 C 0.74284(14) 0.96572(14) 1.10087(11)
H37 H 0.7550 0.9298 1.1117
C53 C 0.84576(13) 1.00553(12) 0.92255(10)
C54 C 0.82773(14) 1.05843(12) 0.90781(10)
H38 H 0.8535 1.0891 0.8916
C55 C 0.77232(13) 1.06686(12) 0.91658(10)
H39 H 0.7607 1.1031 0.9065
C56 C 0.73482(13) 1.02247(12) 0.93978(10)
C57 C 0.75276(13) 0.96933(12) 0.95530(10)
C58 C 0.80772(13) 0.96100(12) 0.94680(10)
H40 H 0.8197 0.9250 0.9574
C59 C 0.50147(13) 0.82049(12) 0.83287(11)
C60 C 0.48144(13) 0.87286(12) 0.82094(11)
H41 H 0.4319 0.8632 0.7864
C61 C 0.53254(14) 0.93893(13) 0.85865(10)
H42 H 0.5183 0.9741 0.8498
C62 C 0.60435(14) 0.95277(13) 0.90914(10)
C63 C 0.62307(13) 0.89968(13) 0.92358(10)
C64 C 0.57365(13) 0.83476(13) 0.88637(11)
H43 H 0.5877 0.7997 0.8964
C65 C 0.86048(15) 0.58938(14) 1.25339(11)
C66 C 0.87448(16) 0.53538(14) 1.26859(11)
H44 H 0.8834 0.5282 1.3098
C67 C 0.87584(15) 0.49128(13) 1.22472(11)
H45 H 0.8862 0.4547 1.2361
C68 C 0.86198(15) 0.50148(13) 1.16461(11)
C69 C 0.84515(15) 0.55474(13) 1.14784(10)
C70 C 0.84434(15) 0.59911(13) 1.19169(11)
H46 H 0.8331 0.6352 1.1801
C71 C 0.99367(14) 0.59982(12) 1.04906(10)
C72 C 1.01385(14) 0.54906(12) 1.06844(10)
H47 H 1.0548 0.5459 1.0665
C73 C 0.97463(14) 0.50313(13) 1.09052(10)
H48 H 0.9889 0.4689 1.1039
C74 C 0.91467(14) 0.50777(12) 1.09288(10)
C75 C 0.89599(14) 0.55975(13) 1.07529(10)
C76 C 0.93402(14) 0.60524(12) 1.05317(10)
H49 H 0.9202 0.6399 1.0408
C77 C 0.63988(15) 0.40858(14) 0.94280(10)
C78 C 0.65817(16) 0.35609(14) 0.95977(11)
H50 H 0.6218 0.3111 0.9350
C79 C 0.72918(15) 0.36914(13) 1.01266(11)
H51 H 0.7417 0.3334 1.0230
C80 C 0.78093(14) 0.43451(13) 1.04974(10)
C81 C 0.76307(14) 0.48759(13) 1.03354(10)
C82 C 0.69294(15) 0.47450(13) 0.98067(10)
H52 H 0.6809 0.5105 0.9701
C165? C 0.4583(12) 0.7063(10) 0.7956(8)
C166? C 0.4077(11) 0.6438(11) 0.7587(6)
C167? C 0.3344(4) 0.6326(3) 0.7053(4)
C168? C 0.2817(4) 0.5672(4) 0.6649(5)
C169? C 0.3000(4) 0.5136(3) 0.6759(4)
C170? C 0.3694(8) 0.5234(8) 0.7270(7)
C171? C 0.4196(16) 0.5877(16) 0.7621(14)
H105? H 0.3509 0.7193 0.7201
H106? H 0.5056 0.7127 0.8314
H107? H 0.2332 0.5592 0.6298
H108? H 0.2639 0.4696 0.6475
H109? H 0.4696 0.5950 0.7932
O13? O 0.3149(3) 0.6828(2) 0.6924(3)

#END

