
#######################################################################
#
#                 Cambridge Crystallographic Data Centre
#                                CCDC 
#
#######################################################################
#
# If this CIF has been generated directly or indirectly from an entry in the 
# Cambridge Structural Database, then it will include bibliographic, chemical, 
# crystal, experimental, refinement or atomic coordinate data resulting from 
# the CCDC's data processing and validation procedures. Files generated from 
# CSD entries are Copyright 2015 Cambridge Crystallographic Data Centre. They 
# may be used in bona fide research applications only, and may not be copied or 
# further disseminated in any form, whether machine-readable or not, except for 
# the purposes of generating routine backup copies on your local computer 
# system.
# 
# Files arising from any other source may also contain material that is the 
# copyright of third parties, including the originator, and you should check 
# with the originator concerning the permitted uses of the information 
# contained in this CIF.
#
# For further information on the CCDC and the free tools enCIFer and Mercury
# for validating and visualising CIF files, please visit www.ccdc.cam.ac.uk
#
#######################################################################

data_QORVEA
_audit_creation_date             2015-02-02
_database_code_depnum_ccdc_archive 'CCDC 988434'
_chemical_formula_moiety         'C66 H54 N6 6+,6(F6 P1 1-),2(C2 H3 N1)'
_chemical_name_systematic        
'7,14,26,33,42,49-hexaazoniatridecacyclo[18.18.14.2^4,7^.2^9,12^.2^14,17^.2^23,26^.2^28,31^.2^33,36^.2^39,42^.2^44,47^.2^49,52^.1^3,37^.1^18,22^]doheptaconta-1,3(59),4,6,9,11,14,16,18(66),19,21,23,25,28,30,33,35,37,39,41,44,46,49,51,53,55,57,60,62,64,67,69,71-tritriacontaene hexakis(hexafluorophosphate) acetonitrile unknown solvate'
_journal_coden_Cambridge         4
_journal_volume                  136
_journal_year                    2014
_journal_page_first              10669
_journal_name_full               J.Am.Chem.Soc.
loop_
_publ_author_name
E.J.Dale
N.A.Vermeulent
A.A.Thomas
J.C.Barnes
M.Juricek
A.K.Blackburn
N.L.Strutt
A.A.Sarjeant
C.L.Stern
S.E.Denmark
'J.Fraser Stoddart'
_chemical_absolute_configuration unk
_diffrn_ambient_temperature      100
_exptl_crystal_density_meas      1.13
_exptl_crystal_density_diffrn    1.13
#These two values have been output from a single CSD field.
_refine_ls_R_factor_gt           0.0954
_refine_ls_wR_factor_gt          0.0954
_diffrn_radiation_probe          x-ray
_symmetry_cell_setting           orthorhombic
_symmetry_space_group_name_H-M   'C m c m'
_symmetry_Int_Tables_number      63
loop_
_symmetry_equiv_pos_site_id
_symmetry_equiv_pos_as_xyz
1 x,y,z
2 -x,-y,1/2+z
3 -x,y,1/2-z
4 x,-y,-z
5 1/2+x,1/2+y,z
6 1/2-x,1/2-y,1/2+z
7 1/2-x,1/2+y,1/2-z
8 1/2+x,1/2-y,-z
9 -x,-y,-z
10 x,y,1/2-z
11 x,-y,1/2+z
12 -x,y,z
13 1/2-x,1/2-y,-z
14 1/2+x,1/2+y,1/2-z
15 1/2+x,1/2-y,1/2+z
16 1/2-x,1/2+y,z
_cell_length_a                   18.0422(7)
_cell_length_b                   28.4947(14)
_cell_length_c                   21.5301(7)
_cell_angle_alpha                90
_cell_angle_beta                 90
_cell_angle_gamma                90
_cell_volume                     11068.8
_exptl_crystal_colour            'light yellow'
_exptl_crystal_description       block
_cell_formula_units_Z            4
loop_
_atom_site_label
_atom_site_type_symbol
_atom_site_fract_x
_atom_site_fract_y
_atom_site_fract_z
C1 C -0.0660(2) 0.69714(11) 0.21815(17)
H1 H -0.1117 0.6973 0.1962
C2 C 0.0000 0.69690(12) 0.1857(2)
C3 C 0.0000 0.69261(13) 0.1150(2)
H2 H -0.0445 0.7082 0.0977
C4 C -0.0640(2) 0.61894(11) 0.09209(18)
H3 H -0.1093 0.6359 0.0937
C5 C -0.0654(2) 0.57102(10) 0.08368(18)
H4 H -0.1115 0.5553 0.0788
C6 C 0.0000 0.54558(12) 0.08236(16)
C7 C 0.0000 0.49335(12) 0.07989(16)
C8 C 0.06604(16) 0.46879(9) 0.08021(12)
H5 H 0.1116 0.4855 0.0794
C9 C 0.06666(16) 0.41988(9) 0.08176(12)
C10 C 0.0000 0.39581(13) 0.08295(17)
H6 H 0.0000 0.3625 0.0846
C11 C 0.13757(17) 0.39342(9) 0.08510(12)
C12 C 0.20262(19) 0.41410(10) 0.10823(15)
H7 H 0.2029 0.4465 0.1189
C13 C 0.26509(18) 0.38814(11) 0.11549(16)
H8 H 0.3087 0.4024 0.1315
C14 C 0.20664(19) 0.32175(11) 0.07616(15)
H9 H 0.2087 0.2896 0.0647
C15 C 0.14186(18) 0.34643(11) 0.06749(16)
H10 H 0.1000 0.3314 0.0495
C16 C 0.33297(16) 0.31344(11) 0.11520(13)
H11 H 0.3779 0.3288 0.0984
H12 H 0.3288 0.2818 0.0966
C17 C 0.28606(19) 0.28494(11) 0.21785(14)
H13 H 0.2495 0.2675 0.1960
C18 C 0.33812(17) 0.30974(10) 0.18551(13)
C19 C 0.3936(2) 0.33253(17) 0.21809(17)
H14 H 0.4319 0.3483 0.1962
N1 N 0.0000 0.64203(11) 0.09800(17)
N2 N 0.26561(13) 0.34196(9) 0.09996(11)
C1I C -0.066 0.69714 0.28185
H1I H -0.1117 0.6973 0.3038
C2B C 0 0.6969 0.3143
C3B C 0 0.69261 0.385
H2I H -0.0445 0.7082 0.4023
C4I C -0.064 0.61894 0.40791
H3I H -0.1093 0.6359 0.4063
C5I C -0.0654 0.57102 0.41632
H4I H -0.1115 0.5553 0.4212
C6B C 0 0.54558 0.41764
C7B C 0 0.49335 0.42011
C8I C 0.06604 0.46879 0.41979
H5I H 0.1116 0.4855 0.4206
C9I C 0.06666 0.41988 0.41824
C10B C 0 0.39581 0.41705
H6B H 0 0.3625 0.4154
C11I C 0.13757 0.39342 0.4149
C12I C 0.20262 0.4141 0.39177
H7I H 0.2029 0.4465 0.3811
C13I C 0.26509 0.38814 0.38451
H8I H 0.3087 0.4024 0.3685
C14I C 0.20664 0.32175 0.42384
H9I H 0.2087 0.2896 0.4353
C15I C 0.14186 0.34643 0.43251
H10I H 0.1 0.3314 0.4505
C16I C 0.33297 0.31344 0.3848
H11I H 0.3779 0.3288 0.4016
H12I H 0.3288 0.2818 0.4034
C17I C 0.28606 0.28494 0.28215
H13I H 0.2495 0.2675 0.304
C18I C 0.33812 0.30974 0.31449
C19I C 0.3936 0.33253 0.28191
H14I H 0.4319 0.3483 0.3038
N1B N 0 0.64203 0.402
N2I N 0.26561 0.34196 0.40004
C1K C 0.066 0.69714 0.21815
H1K H 0.1117 0.6973 0.1962
H2K H 0.0445 0.7082 0.0977
C4K C 0.064 0.61894 0.09209
H3K H 0.1093 0.6359 0.0937
C5K C 0.0654 0.57102 0.08368
H4K H 0.1115 0.5553 0.0788
C8K C -0.06604 0.46879 0.08021
H5K H -0.1116 0.4855 0.0794
C9K C -0.06666 0.41988 0.08176
C11K C -0.13757 0.39342 0.0851
C12K C -0.20262 0.4141 0.10823
H7K H -0.2029 0.4465 0.1189
C13K C -0.26509 0.38814 0.11549
H8K H -0.3087 0.4024 0.1315
C14K C -0.20664 0.32175 0.07616
H9K H -0.2087 0.2896 0.0647
C15K C -0.14186 0.34643 0.06749
H10K H -0.1 0.3314 0.0495
C16K C -0.33297 0.31344 0.1152
H11K H -0.3779 0.3288 0.0984
H12K H -0.3288 0.2818 0.0966
C17K C -0.28606 0.28494 0.21785
H13K H -0.2495 0.2675 0.196
C18K C -0.33812 0.30974 0.18551
C19K C -0.3936 0.33253 0.21809
H14K H -0.4319 0.3483 0.1962
N2K N -0.26561 0.34196 0.09996
C1B C 0.066 0.69714 0.28185
H1B H 0.1117 0.6973 0.3038
H2B H 0.0445 0.7082 0.4023
C4B C 0.064 0.61894 0.40791
H3B H 0.1093 0.6359 0.4063
C5B C 0.0654 0.57102 0.41632
H4B H 0.1115 0.5553 0.4212
C8B C -0.06604 0.46879 0.41979
H5B H -0.1116 0.4855 0.4206
C9B C -0.06666 0.41988 0.41824
C11B C -0.13757 0.39342 0.4149
C12B C -0.20262 0.4141 0.39177
H7B H -0.2029 0.4465 0.3811
C13B C -0.26509 0.38814 0.38451
H8B H -0.3087 0.4024 0.3685
C14B C -0.20664 0.32175 0.42384
H9B H -0.2087 0.2896 0.4353
C15B C -0.14186 0.34643 0.43251
H10B H -0.1 0.3314 0.4505
C16B C -0.33297 0.31344 0.3848
H11B H -0.3779 0.3288 0.4016
H12B H -0.3288 0.2818 0.4034
C17B C -0.28606 0.28494 0.28215
H13B H -0.2495 0.2675 0.304
C18B C -0.33812 0.30974 0.31449
C19B C -0.3936 0.33253 0.28191
H14B H -0.4319 0.3483 0.3038
N2B N -0.26561 0.34196 0.40004

#END

