
#######################################################################
#
#                 Cambridge Crystallographic Data Centre
#                                CCDC 
#
#######################################################################
#
# If this CIF has been generated directly or indirectly from an entry in the 
# Cambridge Structural Database, then it will include bibliographic, chemical, 
# crystal, experimental, refinement or atomic coordinate data resulting from 
# the CCDC's data processing and validation procedures. Files generated from 
# CSD entries are Copyright 2015 Cambridge Crystallographic Data Centre. They 
# may be used in bona fide research applications only, and may not be copied or 
# further disseminated in any form, whether machine-readable or not, except for 
# the purposes of generating routine backup copies on your local computer 
# system.
# 
# Files arising from any other source may also contain material that is the 
# copyright of third parties, including the originator, and you should check 
# with the originator concerning the permitted uses of the information 
# contained in this CIF.
#
# For further information on the CCDC and the free tools enCIFer and Mercury
# for validating and visualising CIF files, please visit www.ccdc.cam.ac.uk
#
#######################################################################

data_XOTHUL
_audit_creation_date             2014-11-20
_database_code_depnum_ccdc_archive 'CCDC 1011900'
_chemical_name_common            
'BlueCage hexakis(hexafluorophosphate) unknown solvate'
_chemical_formula_moiety         'C60 H48 N12 6+,6(F6 P1 1-)'
_chemical_name_systematic        
'2,19,21,38,59,66-hexaaza-7,14,26,33,42,49-hexaazoniatridecacyclo[18.18.14.2^4,7^.2^9,12^.2^14,17^.2^23,26^.2^28,31^.2^33,36^.2^39,42^.2^44,47^.2^49,52^.1^3,37^.1^18,22^]doheptaconta-1,3(59),4,6,9,11,14,16,18(66),19,21,23,25,28,30,33,35,37,39,41,44,46,49,51,53,55,57,60,62,64,67,69,71-tritriacontaene hexakis(hexafluorophosphate) unknown solvate'
_journal_coden_Cambridge         179
_journal_year                    2014
_journal_name_full               Angew.Chem.,Int.Ed.
loop_
_publ_author_name
N.Hafezi
J.M.Holcroft
K.J.Hartlieb
E.J.Dale
N.A.Vermeulen
C.L.Stern
A.A.Sarjeant
'J.Fraser Stoddart'
_chemical_absolute_configuration unk
_diffrn_ambient_temperature      250
_exptl_crystal_density_meas      1.357
_exptl_crystal_density_diffrn    1.357
#These two values have been output from a single CSD field.
_refine_ls_R_factor_gt           0.0622
_refine_ls_wR_factor_gt          0.0622
_diffrn_radiation_probe          x-ray
_symmetry_cell_setting           orthorhombic
_symmetry_space_group_name_H-M   'C m c m'
_symmetry_Int_Tables_number      63
loop_
_symmetry_equiv_pos_site_id
_symmetry_equiv_pos_as_xyz
1 x,y,z
2 -x,-y,1/2+z
3 -x,y,1/2-z
4 x,-y,-z
5 1/2+x,1/2+y,z
6 1/2-x,1/2-y,1/2+z
7 1/2-x,1/2+y,1/2-z
8 1/2+x,1/2-y,-z
9 -x,-y,-z
10 x,y,1/2-z
11 x,-y,1/2+z
12 -x,y,z
13 1/2-x,1/2-y,-z
14 1/2+x,1/2+y,1/2-z
15 1/2+x,1/2-y,1/2+z
16 1/2-x,1/2+y,z
_cell_length_a                   26.8415(10)
_cell_length_b                   14.9670(6)
_cell_length_c                   22.0219(10)
_cell_angle_alpha                90
_cell_angle_beta                 90
_cell_angle_gamma                90
_cell_volume                     8847.01
_exptl_crystal_colour            yellow
_exptl_crystal_description       tabular
_cell_formula_units_Z            4
loop_
_atom_site_label
_atom_site_type_symbol
_atom_site_fract_x
_atom_site_fract_y
_atom_site_fract_z
N1 N 0.5000 0.7131(3) 0.4007(3)
N2 N 0.54434(16) 0.3935(3) 0.4224(2)
N3 N 0.5000 0.2580(4) 0.4120(3)
N4 N 0.67636(15) 0.1619(3) 0.3976(2)
C1 C 0.4558(2) 0.8158(3) 0.2812(3)
H1 H 0.4252 0.8159 0.3021
C2 C 0.5000 0.8157(4) 0.3140(4)
C3 C 0.5000 0.8100(4) 0.3812(4)
H2 H 0.4704 0.8400 0.3974
C4 C 0.5431(2) 0.6707(4) 0.4070(3)
H3 H 0.5731 0.7029 0.4046
C5 C 0.5441(2) 0.5800(3) 0.4170(3)
H4 H 0.5747 0.5500 0.4214
C6 C 0.5000 0.5336(4) 0.4203(3)
C7 C 0.5000 0.4343(4) 0.4228(3)
C8 C 0.54197(19) 0.3047(3) 0.4164(2)
C9 C 0.59003(18) 0.2551(3) 0.4112(2)
C10 C 0.6340(2) 0.2998(3) 0.4081(3)
H5 H 0.6349 0.3625 0.4109
C11 C 0.67753(19) 0.2518(4) 0.4008(3)
H6 H 0.7082 0.2820 0.3981
C12 C 0.6338(2) 0.1181(3) 0.4033(3)
H7 H 0.6339 0.0553 0.4027
C13 C 0.58951(19) 0.1629(3) 0.4103(3)
H8 H 0.5594 0.1313 0.4143
C14 C 0.72264(18) 0.1117(4) 0.3814(3)
H9 H 0.7212 0.0511 0.3981
H10 H 0.7519 0.1419 0.3984
C15 C 0.72649(18) 0.1081(3) 0.3134(3)
C16 C 0.7501(2) 0.1762(4) 0.2810(3)
H11 H 0.7662 0.2225 0.3021
C17 C 0.70463(19) 0.0396(3) 0.2811(3)
H12 H 0.6895 -0.0079 0.3021
N1B N 0.5 0.7131 0.0993
N2I N 0.54434 0.3935 0.0776
N3B N 0.5 0.258 0.088
N4I N 0.67636 0.1619 0.1024
C1I C 0.4558 0.8158 0.2188
H1I H 0.4252 0.8159 0.1979
C2B C 0.5 0.8157 0.186
C3B C 0.5 0.81 0.1188
H2I H 0.4704 0.84 0.1026
C4I C 0.5431 0.6707 0.093
H3I H 0.5731 0.7029 0.0954
C5I C 0.5441 0.58 0.083
H4I H 0.5747 0.55 0.0786
C6B C 0.5 0.5336 0.0797
C7B C 0.5 0.4343 0.0772
C8I C 0.54197 0.3047 0.0836
C9I C 0.59003 0.2551 0.0888
C10I C 0.634 0.2998 0.0919
H5I H 0.6349 0.3625 0.0891
C11I C 0.67753 0.2518 0.0992
H6I H 0.7082 0.282 0.1019
C12I C 0.6338 0.1181 0.0967
H7I H 0.6339 0.0553 0.0973
C13I C 0.58951 0.1629 0.0897
H8I H 0.5594 0.1313 0.0857
C14I C 0.72264 0.1117 0.1186
H9I H 0.7212 0.0511 0.1019
H10I H 0.7519 0.1419 0.1016
C15I C 0.72649 0.1081 0.1866
C16I C 0.7501 0.1762 0.219
H11I H 0.7662 0.2225 0.1979
C17I C 0.70463 0.0396 0.2189
H12I H 0.6895 -0.0079 0.1979
N2K N 0.45566 0.3935 0.4224
N4K N 0.32364 0.1619 0.3976
C1K C 0.5442 0.8158 0.2812
H1K H 0.5748 0.8159 0.3021
H2K H 0.5296 0.84 0.3974
C4K C 0.4569 0.6707 0.407
H3K H 0.4269 0.7029 0.4046
C5K C 0.4559 0.58 0.417
H4K H 0.4253 0.55 0.4214
C8K C 0.45803 0.3047 0.4164
C9K C 0.40997 0.2551 0.4112
C10K C 0.366 0.2998 0.4081
H5K H 0.3651 0.3625 0.4109
C11K C 0.32247 0.2518 0.4008
H6K H 0.2918 0.282 0.3981
C12K C 0.3662 0.1181 0.4033
H7K H 0.3661 0.0553 0.4027
C13K C 0.41049 0.1629 0.4103
H8K H 0.4406 0.1313 0.4143
C14K C 0.27736 0.1117 0.3814
H9K H 0.2788 0.0511 0.3981
H10K H 0.2481 0.1419 0.3984
C15K C 0.27351 0.1081 0.3134
C16K C 0.2499 0.1762 0.281
H11K H 0.2338 0.2225 0.3021
C17K C 0.29537 0.0396 0.2811
H12K H 0.3105 -0.0079 0.3021
N2B N 0.45566 0.3935 0.0776
N4B N 0.32364 0.1619 0.1024
C1B C 0.5442 0.8158 0.2188
H1B H 0.5748 0.8159 0.1979
H2B H 0.5296 0.84 0.1026
C4B C 0.4569 0.6707 0.093
H3B H 0.4269 0.7029 0.0954
C5B C 0.4559 0.58 0.083
H4B H 0.4253 0.55 0.0786
C8B C 0.45803 0.3047 0.0836
C9B C 0.40997 0.2551 0.0888
C10B C 0.366 0.2998 0.0919
H5B H 0.3651 0.3625 0.0891
C11B C 0.32247 0.2518 0.0992
H6B H 0.2918 0.282 0.1019
C12B C 0.3662 0.1181 0.0967
H7B H 0.3661 0.0553 0.0973
C13B C 0.41049 0.1629 0.0897
H8B H 0.4406 0.1313 0.0857
C14B C 0.27736 0.1117 0.1186
H9B H 0.2788 0.0511 0.1019
H10B H 0.2481 0.1419 0.1016
C15B C 0.27351 0.1081 0.1866
C16B C 0.2499 0.1762 0.219
H11B H 0.2338 0.2225 0.1979
C17B C 0.29537 0.0396 0.2189
H12B H 0.3105 -0.0079 0.1979

#END

