
#######################################################################
#
#                 Cambridge Crystallographic Data Centre
#                                CCDC 
#
#######################################################################
#
# If this CIF has been generated directly or indirectly from an entry in the 
# Cambridge Structural Database, then it will include bibliographic, chemical, 
# crystal, experimental, refinement or atomic coordinate data resulting from 
# the CCDC's data processing and validation procedures. Files generated from 
# CSD entries are Copyright 2015 Cambridge Crystallographic Data Centre. They 
# may be used in bona fide research applications only, and may not be copied or 
# further disseminated in any form, whether machine-readable or not, except for 
# the purposes of generating routine backup copies on your local computer 
# system.
# 
# Files arising from any other source may also contain material that is the 
# copyright of third parties, including the originator, and you should check 
# with the originator concerning the permitted uses of the information 
# contained in this CIF.
#
# For further information on the CCDC and the free tools enCIFer and Mercury
# for validating and visualising CIF files, please visit www.ccdc.cam.ac.uk
#
#######################################################################

data_UTEVIZ
_audit_creation_date             2011-10-03
_database_code_depnum_ccdc_archive 'CCDC 793897'
_chemical_formula_moiety         'C72 H84 N12,C48 H48 N12,4(C1 H1 Cl3)'
_chemical_name_systematic        
'3,6,10,13,17,20,24,27,30,33,36,39-Dodecaaza-1,8,15,22(1,3,5)-tetrabenzenatricyclo[13.13.6.6^8,22^]tetracontaphane-2,6,9,13,16,20,23,27,29,33,35,39-dodecaene 3,5,9,11,15,17,21,23,26,28,31,33-dodecaaza-1,7,13,19(1,3,5)-tetrabenzena-4,10,16,22,27,32(1,3,5)-hexacyclohexano-bicyclo[17.11.5]tetratriacontaphane-2,5,8,11,14,17,20,23,25,28,30,33-dodecaene chloroform solvate'
_journal_coden_Cambridge         6
_journal_volume                  474
_journal_year                    2011
_journal_page_first              367
_journal_name_full               'Nature (London)'
loop_
_publ_author_name
J.T.A.Jones
T.Hasell
'Xiaofeng Wu'
J.Bacsa
K.E.Jelfs
M.Schmidtmann
S.Y.Chong
D.J.Adams
A.Trewin
F.Schiffman
F.Cora
B.Slater
A.Steiner
G.M.Day
A.I.Cooper
_chemical_absolute_configuration unk
_diffrn_ambient_temperature      100
_exptl_crystal_density_meas      1.106
_exptl_crystal_density_diffrn    1.106
#These two values have been output from a single CSD field.
_refine_ls_R_factor_gt           0.0746
_refine_ls_wR_factor_gt          0.0746
_diffrn_radiation_probe          x-ray
_symmetry_cell_setting           rhombohedral
_symmetry_space_group_name_H-M   'R 3'
_symmetry_Int_Tables_number      146
loop_
_symmetry_equiv_pos_site_id
_symmetry_equiv_pos_as_xyz
1 x,y,z
2 -y,x-y,z
3 -x+y,-x,z
4 1/3+x,2/3+y,2/3+z
5 1/3-y,2/3+x-y,2/3+z
6 1/3-x+y,2/3-x,2/3+z
7 2/3+x,1/3+y,1/3+z
8 2/3-y,1/3+x-y,1/3+z
9 2/3-x+y,1/3-x,1/3+z
_cell_length_a                   17.169(2)
_cell_length_b                   17.169(2)
_cell_length_c                   42.124(8)
_cell_angle_alpha                90
_cell_angle_beta                 90
_cell_angle_gamma                120
_cell_volume                     10753.5
_exptl_crystal_colour            colorless
_exptl_crystal_description       prism
_cell_formula_units_Z            3
loop_
_atom_site_label
_atom_site_type_symbol
_atom_site_fract_x
_atom_site_fract_y
_atom_site_fract_z
N5 N 1.0942(4) 0.7709(3) 0.91590(12)
N6 N 1.2436(3) 0.9551(3) 0.92514(11)
N7 N 0.8273(3) 0.6466(3) 0.79556(13)
N8 N 0.8992(3) 0.7525(3) 0.73584(12)
C25 C 1.1586(4) 0.7978(4) 0.94146(14)
C26 C 1.2475(4) 0.8747(4) 0.93006(15)
C27 C 1.2554(3) 0.9837(4) 0.89604(15)
C28 C 1.0233(4) 0.7788(4) 0.92179(14)
C29 C 0.9541(4) 0.7575(4) 0.89900(14)
C30 C 0.8793(4) 0.7630(3) 0.90715(13)
C31 C 0.8106(3) 0.7435(3) 0.88679(13)
C32 C 0.8141(4) 0.7175(3) 0.85642(14)
C33 C 0.8876(4) 0.7046(4) 0.84709(14)
C34 C 0.8891(4) 0.6703(4) 0.81469(15)
C35 C 0.8387(4) 0.6098(4) 0.76442(14)
C36 C 0.8261(4) 0.6549(4) 0.73808(15)
C37 C 0.8743(4) 0.8089(4) 0.73600(13)
C38 C 0.9402(4) 0.9063(3) 0.73403(13)
C39 C 0.9072(4) 0.9674(4) 0.73466(14)
C40 C 0.9560(4) 0.7247(4) 0.86832(15)
H29 H 1.16610 0.74650 0.94800
H30 H 1.13700 0.81700 0.96000
H31 H 1.29460 0.88650 0.94590
H32 H 1.26440 0.85730 0.90990
H33 H 1.26360 0.94950 0.88000
H34 H 1.01800 0.79970 0.94210
H35 H 0.87550 0.78140 0.92810
H36 H 0.76860 0.70820 0.84160
H37 H 0.94040 0.66670 0.80850
H38 H 0.89970 0.61730 0.76340
H39 H 0.79450 0.54470 0.76320
H40 H 0.76710 0.65150 0.74020
H41 H 0.82530 0.62360 0.71820
H42 H 0.81190 0.78940 0.73740
H43 H 0.84420 0.94490 0.73550
H44 H 1.00480 0.71660 0.86240
N5A N 1.2291 1.3233 0.9159
N5B N 0.6767 0.9058 0.9159
N6A N 1.0449 1.2885 0.92514
N6B N 0.7115 0.7564 0.92514
N7A N 1.3534 1.1807 0.79556
N7B N 0.8193 1.1727 0.79556
N8A N 1.2475 1.1467 0.73584
N8B N 0.8533 1.1008 0.73584
C25A C 1.2022 1.3608 0.94146
C25B C 0.6392 0.8414 0.94146
C26A C 1.1253 1.3728 0.93006
C26B C 0.6272 0.7525 0.93006
C27A C 1.0163 1.2717 0.89604
C27B C 0.7283 0.7446 0.89604
C28A C 1.2212 1.2445 0.92179
C28B C 0.7555 0.9767 0.92179
C29A C 1.2425 1.1966 0.899
C29B C 0.8034 1.0459 0.899
C30A C 1.237 1.1163 0.90715
C30B C 0.8837 1.1207 0.90715
C31A C 1.2565 1.0671 0.88679
C31B C 0.9329 1.1894 0.88679
C32A C 1.2825 1.0966 0.85642
C32B C 0.9034 1.1859 0.85642
C33A C 1.2954 1.183 0.84709
C33B C 0.817 1.1124 0.84709
C34A C 1.3297 1.2188 0.81469
C34B C 0.7812 1.1109 0.81469
C35A C 1.3902 1.2289 0.76442
C35B C 0.7711 1.1613 0.76442
C36A C 1.3451 1.1712 0.73808
C36B C 0.8288 1.1739 0.73808
C37A C 1.1911 1.0654 0.736
C37B C 0.9346 1.1257 0.736
C38A C 1.0937 1.0339 0.73403
C38B C 0.9661 1.0598 0.73403
C39A C 1.0326 0.9398 0.73466
C39B C 1.0602 1.0928 0.73466
C40A C 1.2753 1.2313 0.86832
C40B C 0.7687 1.044 0.86832
H29A H 1.2535 1.4196 0.948
H29B H 0.5804 0.8339 0.948
H30A H 1.183 1.32 0.96
H30B H 0.68 0.863 0.96
H31A H 1.1135 1.4081 0.9459
H31B H 0.5919 0.7054 0.9459
H32A H 1.1427 1.4071 0.9099
H32B H 0.5929 0.7356 0.9099
H33A H 1.0505 1.3141 0.88
H33B H 0.6859 0.7364 0.88
H34A H 1.2003 1.2183 0.9421
H34B H 0.7817 0.982 0.9421
H35A H 1.2186 1.0941 0.9281
H35B H 0.9059 1.1245 0.9281
H36A H 1.2918 1.0604 0.8416
H36B H 0.9396 1.2314 0.8416
H37A H 1.3333 1.2737 0.8085
H37B H 0.7263 1.0596 0.8085
H38A H 1.3827 1.2824 0.7634
H38B H 0.7176 1.1003 0.7634
H39A H 1.4553 1.2498 0.7632
H39B H 0.7502 1.2055 0.7632
H40A H 1.3485 1.1156 0.7402
H40B H 0.8844 1.2329 0.7402
H41A H 1.3764 1.2017 0.7182
H41B H 0.7983 1.1747 0.7182
H42A H 1.2106 1.0225 0.7374
H42B H 0.9775 1.1881 0.7374
H43A H 1.0551 0.8993 0.7355
H43B H 1.1007 1.1558 0.7355
H44A H 1.2834 1.2882 0.8624
H44B H 0.7118 0.9952 0.8624
N1 N 0.6574(2) 0.7771(2) 0.68427(9)
N2 N 0.3042(2) 0.3840(2) 0.67795(9)
N3 N 0.5293(2) 0.5146(2) 0.80508(8)
N4 N 0.4830(2) 0.5667(2) 0.86383(9)
C1 C 0.6975(3) 0.8457(3) 0.66007(10)
C2 C 0.7047(3) 0.9320(3) 0.67203(10)
C3 C 0.7541(3) 1.0081(3) 0.64920(11)
C4 C 0.8475(3) 1.0219(3) 0.64151(11)
C5 C 0.8378(3) 0.9357(3) 0.62679(11)
C6 C 0.7887(3) 0.8585(3) 0.64955(11)
C7 C 0.5874(3) 0.7058(3) 0.67792(12)
C8 C 0.5455(3) 0.6344(3) 0.70046(12)
C9 C 0.4633(3) 0.5547(3) 0.69163(12)
C10 C 0.4200(3) 0.4830(3) 0.71304(12)
C11 C 0.3399(3) 0.4006(3) 0.70495(11)
C12 C 0.4572(3) 0.4921(3) 0.74317(12)
C13 C 0.5342(3) 0.5705(3) 0.75326(11)
C14 C 0.5691(3) 0.5760(3) 0.78557(12)
C15 C 0.5740(3) 0.5209(3) 0.83465(10)
C16 C 0.5058(3) 0.4985(3) 0.86246(10)
C17 C 0.3990(3) 0.5433(3) 0.86689(10)
C18 C 0.3647(3) 0.6060(3) 0.86699(13)
C19 C 0.4255(3) 0.6997(3) 0.86754(11)
C20 C 0.5499(3) 0.4964(3) 0.89388(11)
C21 C 0.5851(3) 0.4298(3) 0.89231(11)
C22 C 0.6551(3) 0.4582(3) 0.86566(11)
C23 C 0.6138(3) 0.4598(3) 0.83414(11)
C24 C 0.5741(3) 0.6377(3) 0.73175(11)
H1 H 0.65660 0.82530 0.64120
H2 H 0.73870 0.94830 0.69250
H3 H 0.76060 1.06400 0.65850
H4 H 0.71890 0.99530 0.62940
H5 H 0.88380 1.03680 0.66120
H6 H 0.87890 1.07250 0.62650
H7 H 0.80410 0.92240 0.60660
H8 H 0.89810 0.94400 0.62220
H9 H 0.82670 0.86910 0.66850
H10 H 0.77910 0.80250 0.63930
H11 H 0.56110 0.69860 0.65750
H12 H 0.43830 0.55060 0.67120
H13 H 0.31240 0.35600 0.72100
H14 H 0.42910 0.44290 0.75750
H15 H 0.62370 0.62790 0.79160
H16 H 0.62400 0.58420 0.83730
H17 H 0.45060 0.43900 0.85860
H18 H 0.35680 0.48100 0.86920
H19 H 0.48840 0.72170 0.86830
H20 H 0.50540 0.47860 0.91130
H21 H 0.60040 0.55730 0.89860
H22 H 0.61280 0.42930 0.91290
H23 H 0.53460 0.36840 0.88820
H24 H 0.70660 0.51870 0.87030
H25 H 0.67790 0.41550 0.86460
H26 H 0.56610 0.39790 0.82870
H27 H 0.66050 0.48040 0.81740
H28 H 0.62590 0.69160 0.73850
N1A N 0.2229 0.8803 0.68427
N1B N 0.1197 0.3426 0.68427
N2A N 0.616 0.9202 0.67795
N2B N 0.0798 0.6958 0.67795
N3A N 0.4854 1.0147 0.80508
N3B N -0.0147 0.4707 0.80508
N4A N 0.4333 0.9163 0.86383
N4B N 0.0837 0.517 0.86383
C1A C 0.1543 0.8518 0.66007
C1B C 0.1482 0.3025 0.66007
C2A C 0.068 0.7727 0.67203
C2B C 0.2273 0.2953 0.67203
C3A C -0.0081 0.746 0.6492
C3B C 0.254 0.2459 0.6492
C4A C -0.0219 0.8256 0.64151
C4B C 0.1744 0.1525 0.64151
C5A C 0.0643 0.9021 0.62679
C5B C 0.0979 0.1622 0.62679
C6A C 0.1415 0.9302 0.64955
C6B C 0.0698 0.2113 0.64955
C7A C 0.2942 0.8816 0.67792
C7B C 0.1184 0.4126 0.67792
C8A C 0.3656 0.9111 0.70046
C8B C 0.0889 0.4545 0.70046
C9A C 0.4453 0.9086 0.69163
C9B C 0.0914 0.5367 0.69163
C10A C 0.517 0.937 0.71304
C10B C 0.063 0.58 0.71304
C11A C 0.5994 0.9393 0.70495
C11B C 0.0607 0.6601 0.70495
C12A C 0.5079 0.9651 0.74317
C12B C 0.0349 0.5428 0.74317
C13A C 0.4295 0.9637 0.75326
C13B C 0.0363 0.4658 0.75326
C14A C 0.424 0.9931 0.78557
C14B C 0.0069 0.4309 0.78557
C15A C 0.4791 1.0531 0.83465
C15B C -0.0531 0.426 0.83465
C16A C 0.5015 1.0073 0.86246
C16B C -0.0073 0.4942 0.86246
C17A C 0.4567 0.8557 0.86689
C17B C 0.1443 0.601 0.86689
C18A C 0.394 0.7587 0.86699
C18B C 0.2413 0.6353 0.86699
C19A C 0.3003 0.7258 0.86754
C19B C 0.2742 0.5745 0.86754
C20A C 0.5036 1.0535 0.89388
C20B C -0.0535 0.4501 0.89388
C21A C 0.5702 1.1553 0.89231
C21B C -0.1553 0.4149 0.89231
C22A C 0.5418 1.1969 0.86566
C22B C -0.1969 0.3449 0.86566
C23A C 0.5402 1.154 0.83414
C23B C -0.154 0.3862 0.83414
C24A C 0.3623 0.9364 0.73175
C24B C 0.0636 0.4259 0.73175
H1A H 0.1747 0.8313 0.6412
H1B H 0.1687 0.3434 0.6412
H2A H 0.0517 0.7904 0.6925
H2B H 0.2096 0.2613 0.6925
H3A H -0.064 0.6966 0.6585
H3B H 0.3034 0.2394 0.6585
H4A H 0.0047 0.7236 0.6294
H4B H 0.2764 0.2811 0.6294
H5A H -0.0368 0.847 0.6612
H5B H 0.153 0.1162 0.6612
H6A H -0.0725 0.8064 0.6265
H6B H 0.1936 0.1211 0.6265
H7A H 0.0776 0.8817 0.6066
H7B H 0.1183 0.1959 0.6066
H8A H 0.056 0.9541 0.6222
H8B H 0.0459 0.1019 0.6222
H9A H 0.1309 0.9576 0.6685
H9B H 0.0424 0.1733 0.6685
H10A H 0.1975 0.9766 0.6393
H10B H 0.0234 0.2209 0.6393
H11A H 0.3014 0.8625 0.6575
H11B H 0.1375 0.4389 0.6575
H12A H 0.4494 0.8877 0.6712
H12B H 0.1123 0.5617 0.6712
H13A H 0.644 0.9564 0.721
H13B H 0.0436 0.6876 0.721
H14A H 0.5571 0.9862 0.7575
H14B H 0.0138 0.5709 0.7575
H15A H 0.3721 0.9958 0.7916
H15B H 0.0042 0.3763 0.7916
H16A H 0.4158 1.0398 0.8373
H16B H -0.0398 0.376 0.8373
H17A H 0.561 1.0116 0.8586
H17B H -0.0116 0.5494 0.8586
H18A H 0.519 0.8758 0.8692
H18B H 0.1242 0.6432 0.8692
H19A H 0.2783 0.7667 0.8683
H19B H 0.2333 0.5116 0.8683
H20A H 0.5214 1.0268 0.9113
H20B H -0.0268 0.4946 0.9113
H21A H 0.4427 1.0431 0.8986
H21B H -0.0431 0.3996 0.8986
H22A H 0.5707 1.1835 0.9129
H22B H -0.1835 0.3872 0.9129
H23A H 0.6316 1.1662 0.8882
H23B H -0.1662 0.4654 0.8882
H24A H 0.4813 1.1879 0.8703
H24B H -0.1879 0.2934 0.8703
H25A H 0.5845 1.2624 0.8646
H25B H -0.2624 0.3221 0.8646
H26A H 0.6021 1.1682 0.8287
H26B H -0.1682 0.4339 0.8287
H27A H 0.5196 1.1801 0.8174
H27B H -0.1801 0.3395 0.8174
H28A H 0.3084 0.9343 0.7385
H28B H 0.0657 0.3741 0.7385

#END

