
#######################################################################
#
#                 Cambridge Crystallographic Data Centre
#                                CCDC 
#
#######################################################################
#
# If this CIF has been generated directly or indirectly from an entry in the 
# Cambridge Structural Database, then it will include bibliographic, chemical, 
# crystal, experimental, refinement or atomic coordinate data resulting from 
# the CCDC's data processing and validation procedures. Files generated from 
# CSD entries are Copyright 2015 Cambridge Crystallographic Data Centre. They 
# may be used in bona fide research applications only, and may not be copied or 
# further disseminated in any form, whether machine-readable or not, except for 
# the purposes of generating routine backup copies on your local computer 
# system.
# 
# Files arising from any other source may also contain material that is the 
# copyright of third parties, including the originator, and you should check 
# with the originator concerning the permitted uses of the information 
# contained in this CIF.
#
# For further information on the CCDC and the free tools enCIFer and Mercury
# for validating and visualising CIF files, please visit www.ccdc.cam.ac.uk
#
#######################################################################

data_UTEVOF
_audit_creation_date             2011-10-03
_database_code_depnum_ccdc_archive 'CCDC 814042'
_chemical_formula_moiety         'C114 H108 N16,6(C1 H2 Cl2)'
_chemical_name_systematic        
'3,5,8,11,13,16,19,21,24,27,29,32,35,37,42,44-Hexadecaaza-1,7,9,15,17,23,25,31,33,39,40,46(1,4)-dodecabenzena-4,12,20,28,36,43(1,2)-hexacyclopentatricyclo[15.15.7.7^16,32^]tetracontaphane-2,5,10,13,18,21,26,29,34,37,41,44-dodecaene dichloromethane solvate'
_journal_coden_Cambridge         6
_journal_volume                  474
_journal_year                    2011
_journal_page_first              367
_journal_name_full               'Nature (London)'
loop_
_publ_author_name
J.T.A.Jones
T.Hasell
'Xiaofeng Wu'
J.Bacsa
K.E.Jelfs
M.Schmidtmann
S.Y.Chong
D.J.Adams
A.Trewin
F.Schiffman
F.Cora
B.Slater
A.Steiner
G.M.Day
A.I.Cooper
_chemical_absolute_configuration unk
_diffrn_ambient_temperature      100
_exptl_crystal_density_meas      1.076
_exptl_crystal_density_diffrn    1.076
#These two values have been output from a single CSD field.
_refine_ls_R_factor_gt           0.0775
_refine_ls_wR_factor_gt          0.0775
_diffrn_radiation_probe          x-ray
_symmetry_cell_setting           cubic
_symmetry_space_group_name_H-M   'F 41 3 2'
_symmetry_Int_Tables_number      210
loop_
_symmetry_equiv_pos_site_id
_symmetry_equiv_pos_as_xyz
1 x,y,z
2 1/4-y,1/4+x,1/4+z
3 -x,-y,z
4 1/4+y,1/4-x,1/4+z
5 1/4+x,1/4-z,1/4+y
6 x,-y,-z
7 1/4+x,1/4+z,1/4-y
8 1/4+z,1/4+y,1/4-x
9 -x,y,-z
10 1/4-z,1/4+y,1/4+x
11 z,x,y
12 y,z,x
13 -y,-z,x
14 z,-x,-y
15 -y,z,-x
16 -z,-x,y
17 -z,x,-y
18 y,-z,-x
19 1/4+y,1/4+x,1/4-z
20 1/4-y,1/4-x,1/4-z
21 1/4-x,1/4+z,1/4+y
22 1/4-x,1/4-z,1/4-y
23 1/4+z,1/4-y,1/4+x
24 1/4-z,1/4-y,1/4-x
25 x,1/2+y,1/2+z
26 1/4-y,3/4+x,3/4+z
27 -x,1/2-y,1/2+z
28 1/4+y,3/4-x,3/4+z
29 1/4+x,3/4-z,3/4+y
30 x,1/2-y,1/2-z
31 1/4+x,3/4+z,3/4-y
32 1/4+z,3/4+y,3/4-x
33 -x,1/2+y,1/2-z
34 1/4-z,3/4+y,3/4+x
35 z,1/2+x,1/2+y
36 y,1/2+z,1/2+x
37 -y,1/2-z,1/2+x
38 z,1/2-x,1/2-y
39 -y,1/2+z,1/2-x
40 -z,1/2-x,1/2+y
41 -z,1/2+x,1/2-y
42 y,1/2-z,1/2-x
43 1/4+y,3/4+x,3/4-z
44 1/4-y,3/4-x,3/4-z
45 1/4-x,3/4+z,3/4+y
46 1/4-x,3/4-z,3/4-y
47 1/4+z,3/4-y,3/4+x
48 1/4-z,3/4-y,3/4-x
49 1/2+x,y,1/2+z
50 3/4-y,1/4+x,3/4+z
51 1/2-x,-y,1/2+z
52 3/4+y,1/4-x,3/4+z
53 3/4+x,1/4-z,3/4+y
54 1/2+x,-y,1/2-z
55 3/4+x,1/4+z,3/4-y
56 3/4+z,1/4+y,3/4-x
57 1/2-x,y,1/2-z
58 3/4-z,1/4+y,3/4+x
59 1/2+z,x,1/2+y
60 1/2+y,z,1/2+x
61 1/2-y,-z,1/2+x
62 1/2+z,-x,1/2-y
63 1/2-y,z,1/2-x
64 1/2-z,-x,1/2+y
65 1/2-z,x,1/2-y
66 1/2+y,-z,1/2-x
67 3/4+y,1/4+x,3/4-z
68 3/4-y,1/4-x,3/4-z
69 3/4-x,1/4+z,3/4+y
70 3/4-x,1/4-z,3/4-y
71 3/4+z,1/4-y,3/4+x
72 3/4-z,1/4-y,3/4-x
73 1/2+x,1/2+y,z
74 3/4-y,3/4+x,1/4+z
75 1/2-x,1/2-y,z
76 3/4+y,3/4-x,1/4+z
77 3/4+x,3/4-z,1/4+y
78 1/2+x,1/2-y,-z
79 3/4+x,3/4+z,1/4-y
80 3/4+z,3/4+y,1/4-x
81 1/2-x,1/2+y,-z
82 3/4-z,3/4+y,1/4+x
83 1/2+z,1/2+x,y
84 1/2+y,1/2+z,x
85 1/2-y,1/2-z,x
86 1/2+z,1/2-x,-y
87 1/2-y,1/2+z,-x
88 1/2-z,1/2-x,y
89 1/2-z,1/2+x,-y
90 1/2+y,1/2-z,-x
91 3/4+y,3/4+x,1/4-z
92 3/4-y,3/4-x,1/4-z
93 3/4-x,3/4+z,1/4+y
94 3/4-x,3/4-z,1/4-y
95 3/4+z,3/4-y,1/4+x
96 3/4-z,3/4-y,1/4-x
_cell_length_a                   30.115(2)
_cell_length_b                   30.115(2)
_cell_length_c                   30.115(2)
_cell_angle_alpha                90
_cell_angle_beta                 90
_cell_angle_gamma                90
_cell_volume                     27311.7
_exptl_crystal_colour            yellow
_exptl_crystal_description       prism
_cell_formula_units_Z            8
loop_
_atom_site_label
_atom_site_type_symbol
_atom_site_fract_x
_atom_site_fract_y
_atom_site_fract_z
N1 N -0.12917(11) 0.12917(11) 0.12917(11)
N2 N -0.30079(9) 0.03533(9) 0.04015(10)
C1 C -0.26897(12) 0.02054(12) 0.06177(12)
H1 H -0.2678 -0.0105 0.0673
C2 C -0.23286(11) 0.04865(11) 0.07941(11)
C3 C -0.16303(11) 0.10140(12) 0.11302(11)
C4 C -0.16028(12) 0.05528(13) 0.11314(13)
H2 H -0.1345 0.0413 0.1247
C5 C -0.20161(12) 0.12047(12) 0.09613(12)
H3 H -0.2044 0.1519 0.0960
C6 C -0.23581(11) 0.09495(11) 0.07963(11)
H4 H -0.2617 0.1090 0.0683
C7 C -0.33399(12) 0.00323(12) 0.02571(14)
H5 H -0.3285 -0.0259 0.0406
C8 C -0.19441(14) 0.02964(12) 0.09682(14)
H6 H -0.1917 -0.0018 0.0974
C9 C -0.38096(14) 0.01847(16) 0.03522(16)
H7 H -0.3938 0.0011 0.0600
H8 H -0.3811 0.0503 0.0436
C10 C -0.4074(2) 0.0115(2) -0.00609(11)
N1E N -0.12917 -0.12917 -0.12917
N1H N 0.12917 0.12917 -0.12917
N1B N 0.12917 -0.12917 0.12917
N2E N -0.30079 -0.03533 -0.04015
N2L N -0.03533 -0.04015 -0.30079
N2K N 0.03533 0.04015 -0.30079
N2M N 0.04015 0.30079 -0.03533
N2O N -0.04015 0.30079 0.03533
N2N N -0.03533 0.04015 0.30079
N2Q N 0.03533 -0.04015 0.30079
N2J N 0.04015 -0.30079 0.03533
N2P N -0.04015 -0.30079 -0.03533
N2B N 0.30079 -0.03533 0.04015
N2H N 0.30079 0.03533 -0.04015
C1E C -0.26897 -0.02054 -0.06177
C1L C -0.02054 -0.06177 -0.26897
C1K C 0.02054 0.06177 -0.26897
C1M C 0.06177 0.26897 -0.02054
C1O C -0.06177 0.26897 0.02054
C1N C -0.02054 0.06177 0.26897
C1Q C 0.02054 -0.06177 0.26897
C1J C 0.06177 -0.26897 0.02054
C1P C -0.06177 -0.26897 -0.02054
C1B C 0.26897 -0.02054 0.06177
C1H C 0.26897 0.02054 -0.06177
H1E H -0.2678 0.0105 -0.0673
H1K H -0.0105 0.0673 -0.2678
H1O H -0.0673 0.2678 -0.0105
H1Q H -0.0105 -0.0673 0.2678
H1P H -0.0673 -0.2678 0.0105
H1J H 0.0673 -0.2678 -0.0105
H1H H 0.2678 -0.0105 -0.0673
H1B H 0.2678 0.0105 0.0673
H1N H 0.0105 0.0673 0.2678
H1M H 0.0673 0.2678 0.0105
H1L H 0.0105 -0.0673 -0.2678
C2E C -0.23286 -0.04865 -0.07941
C2L C -0.04865 -0.07941 -0.23286
C2K C 0.04865 0.07941 -0.23286
C2M C 0.07941 0.23286 -0.04865
C2O C -0.07941 0.23286 0.04865
C2N C -0.04865 0.07941 0.23286
C2Q C 0.04865 -0.07941 0.23286
C2J C 0.07941 -0.23286 0.04865
C2P C -0.07941 -0.23286 -0.04865
C2B C 0.23286 -0.04865 0.07941
C2H C 0.23286 0.04865 -0.07941
C3E C -0.16303 -0.1014 -0.11302
C3L C -0.1014 -0.11302 -0.16303
C3K C 0.1014 0.11302 -0.16303
C3M C 0.11302 0.16303 -0.1014
C3O C -0.11302 0.16303 0.1014
C3N C -0.1014 0.11302 0.16303
C3Q C 0.1014 -0.11302 0.16303
C3J C 0.11302 -0.16303 0.1014
C3P C -0.11302 -0.16303 -0.1014
C3B C 0.16303 -0.1014 0.11302
C3H C 0.16303 0.1014 -0.11302
C4L C -0.05528 -0.11314 -0.16028
C4M C 0.11314 0.16028 -0.05528
C4N C -0.05528 0.11314 0.16028
C4J C 0.11314 -0.16028 0.05528
C4P C -0.11314 -0.16028 -0.05528
C4B C 0.16028 -0.05528 0.11314
C4H C 0.16028 0.05528 -0.11314
C4Q C 0.05528 -0.11314 0.16028
C4O C -0.11314 0.16028 0.05528
C4K C 0.05528 0.11314 -0.16028
C4E C -0.16028 -0.05528 -0.11314
H2L H -0.0413 -0.1247 -0.1345
H2M H 0.1247 0.1345 -0.0413
H2N H -0.0413 0.1247 0.1345
H2J H 0.1247 -0.1345 0.0413
H2P H -0.1247 -0.1345 -0.0413
H2B H 0.1345 -0.0413 0.1247
H2H H 0.1345 0.0413 -0.1247
H2Q H 0.0413 -0.1247 0.1345
H2O H -0.1247 0.1345 0.0413
H2K H 0.0413 0.1247 -0.1345
H2E H -0.1345 -0.0413 -0.1247
C5E C -0.20161 -0.12047 -0.09613
C5K C 0.12047 0.09613 -0.20161
C5O C -0.09613 0.20161 0.12047
C5Q C 0.12047 -0.09613 0.20161
C5P C -0.09613 -0.20161 -0.12047
C5J C 0.09613 -0.20161 0.12047
C5H C 0.20161 0.12047 -0.09613
C5B C 0.20161 -0.12047 0.09613
C5N C -0.12047 0.09613 0.20161
C5M C 0.09613 0.20161 -0.12047
C5L C -0.12047 -0.09613 -0.20161
H3P H -0.096 -0.2044 -0.1519
H3J H 0.096 -0.2044 0.1519
H3H H 0.2044 0.1519 -0.096
H3B H 0.2044 -0.1519 0.096
H3Q H 0.1519 -0.096 0.2044
H3N H -0.1519 0.096 0.2044
H3O H -0.096 0.2044 0.1519
H3M H 0.096 0.2044 -0.1519
H3K H 0.1519 0.096 -0.2044
H3L H -0.1519 -0.096 -0.2044
H3E H -0.2044 -0.1519 -0.096
C6E C -0.23581 -0.09495 -0.07963
C6K C 0.09495 0.07963 -0.23581
C6O C -0.07963 0.23581 0.09495
C6Q C 0.09495 -0.07963 0.23581
C6P C -0.07963 -0.23581 -0.09495
C6J C 0.07963 -0.23581 0.09495
C6H C 0.23581 0.09495 -0.07963
C6B C 0.23581 -0.09495 0.07963
C6N C -0.09495 0.07963 0.23581
C6M C 0.07963 0.23581 -0.09495
C6L C -0.09495 -0.07963 -0.23581
H4P H -0.0683 -0.2617 -0.109
H4J H 0.0683 -0.2617 0.109
H4H H 0.2617 0.109 -0.0683
H4B H 0.2617 -0.109 0.0683
H4Q H 0.109 -0.0683 0.2617
H4N H -0.109 0.0683 0.2617
H4O H -0.0683 0.2617 0.109
H4M H 0.0683 0.2617 -0.109
H4K H 0.109 0.0683 -0.2617
H4L H -0.109 -0.0683 -0.2617
H4E H -0.2617 -0.109 -0.0683
C7E C -0.33399 -0.00323 -0.02571
C7L C -0.00323 -0.02571 -0.33399
C7K C 0.00323 0.02571 -0.33399
C7M C 0.02571 0.33399 -0.00323
C7O C -0.02571 0.33399 0.00323
C7N C -0.00323 0.02571 0.33399
C7Q C 0.00323 -0.02571 0.33399
C7J C 0.02571 -0.33399 0.00323
C7P C -0.02571 -0.33399 -0.00323
C7B C 0.33399 -0.00323 0.02571
C7H C 0.33399 0.00323 -0.02571
H5P H -0.0406 -0.3285 0.0259
H5J H 0.0406 -0.3285 -0.0259
H5H H 0.3285 -0.0259 -0.0406
H5B H 0.3285 0.0259 0.0406
H5Q H -0.0259 -0.0406 0.3285
H5N H 0.0259 0.0406 0.3285
H5O H -0.0406 0.3285 -0.0259
H5M H 0.0406 0.3285 0.0259
H5K H -0.0259 0.0406 -0.3285
H5L H 0.0259 -0.0406 -0.3285
H5E H -0.3285 0.0259 -0.0406
C8L C -0.02964 -0.09682 -0.19441
C8M C 0.09682 0.19441 -0.02964
C8N C -0.02964 0.09682 0.19441
C8J C 0.09682 -0.19441 0.02964
C8P C -0.09682 -0.19441 -0.02964
C8B C 0.19441 -0.02964 0.09682
C8H C 0.19441 0.02964 -0.09682
C8Q C 0.02964 -0.09682 0.19441
C8O C -0.09682 0.19441 0.02964
C8K C 0.02964 0.09682 -0.19441
C8E C -0.19441 -0.02964 -0.09682
H6P H -0.0974 -0.1917 0.0018
H6J H 0.0974 -0.1917 -0.0018
H6H H 0.1917 -0.0018 -0.0974
H6B H 0.1917 0.0018 0.0974
H6Q H -0.0018 -0.0974 0.1917
H6N H 0.0018 0.0974 0.1917
H6O H -0.0974 0.1917 -0.0018
H6M H 0.0974 0.1917 0.0018
H6K H -0.0018 0.0974 -0.1917
H6L H 0.0018 -0.0974 -0.1917
H6E H -0.1917 0.0018 -0.0974
C9P C -0.03522 -0.38096 -0.01847
C9J C 0.03522 -0.38096 0.01847
C9H C 0.38096 0.01847 -0.03522
C9B C 0.38096 -0.01847 0.03522
C9Q C 0.01847 -0.03522 0.38096
C9N C -0.01847 0.03522 0.38096
C9O C -0.03522 0.38096 0.01847
C9M C 0.03522 0.38096 -0.01847
C9K C 0.01847 0.03522 -0.38096
C9L C -0.01847 -0.03522 -0.38096
C9E C -0.38096 -0.01847 -0.03522
H7P H -0.06 -0.3938 -0.0011
H7J H 0.06 -0.3938 0.0011
H7H H 0.3938 0.0011 -0.06
H7B H 0.3938 -0.0011 0.06
H7Q H 0.0011 -0.06 0.3938
H7N H -0.0011 0.06 0.3938
H7O H -0.06 0.3938 0.0011
H7M H 0.06 0.3938 -0.0011
H7K H 0.0011 0.06 -0.3938
H7L H -0.0011 -0.06 -0.3938
H7E H -0.3938 -0.0011 -0.06
H8P H -0.0436 -0.3811 -0.0503
H8J H 0.0436 -0.3811 0.0503
H8H H 0.3811 0.0503 -0.0436
H8B H 0.3811 -0.0503 0.0436
H8Q H 0.0503 -0.0436 0.3811
H8N H -0.0503 0.0436 0.3811
H8O H -0.0436 0.3811 0.0503
H8M H 0.0436 0.3811 -0.0503
H8K H 0.0503 0.0436 -0.3811
H8L H -0.0503 -0.0436 -0.3811
H8E H -0.3811 -0.0503 -0.0436
C10P C 0.00609 -0.4074 -0.0115
C10J C -0.00609 -0.4074 0.0115
C10H C 0.4074 0.0115 0.00609
C10B C 0.4074 -0.0115 -0.00609
C10Q C 0.0115 0.00609 0.4074
C10N C -0.0115 -0.00609 0.4074
C10O C 0.00609 0.4074 0.0115
C10M C -0.00609 0.4074 -0.0115
C10K C 0.0115 -0.00609 -0.4074
C10L C -0.0115 0.00609 -0.4074
C10E C -0.4074 -0.0115 0.00609
Cl1 Cl -0.2762 -0.3327 0.0534
C11 C -0.2399 -0.2985 0.0856
H11 H -0.2160 -0.3173 0.0981
H12 H -0.2258 -0.2764 0.0658
Cl2 Cl -0.2669 -0.2699 0.1299
Cl1VB Cl -0.2238 -0.1673 0.0534
C11VB C -0.2601 -0.2015 0.0856
H11VB H -0.284 -0.1827 0.0981
H12VB H -0.2742 -0.2236 0.0658
Cl2VB Cl -0.2331 -0.2301 0.1299
H9? H -0.4364 -0.0022 0.0011
H10? H -0.4129 0.0402 -0.0212
Cl3? Cl -0.2611 -0.2998 0.0885
C12? C -0.3021 -0.3421 0.0835
H13? H -0.3303 -0.3285 0.0736
H14? H -0.3072 -0.3555 0.1131
Cl4? Cl -0.2867 -0.3847 0.0454

#END

