
#######################################################################
#
#                 Cambridge Crystallographic Data Centre
#                                CCDC 
#
#######################################################################
#
# If this CIF has been generated directly or indirectly from an entry in the 
# Cambridge Structural Database, then it will include bibliographic, chemical, 
# crystal, experimental, refinement or atomic coordinate data resulting from 
# the CCDC's data processing and validation procedures. Files generated from 
# CSD entries are Copyright 2015 Cambridge Crystallographic Data Centre. They 
# may be used in bona fide research applications only, and may not be copied or 
# further disseminated in any form, whether machine-readable or not, except for 
# the purposes of generating routine backup copies on your local computer 
# system.
# 
# Files arising from any other source may also contain material that is the 
# copyright of third parties, including the originator, and you should check 
# with the originator concerning the permitted uses of the information 
# contained in this CIF.
#
# For further information on the CCDC and the free tools enCIFer and Mercury
# for validating and visualising CIF files, please visit www.ccdc.cam.ac.uk
#
#######################################################################

data_VOFRIT
_audit_creation_date             2014-02-17
_database_code_depnum_ccdc_archive 'CCDC 947543'
_chemical_formula_moiety         'C180 H156 N20'
_chemical_name_systematic        
1,5,8,11,15,19,22,25,29,33,36,39,43,47,50,53,60,65,72,77-Icosa-aza-2,3,13,14,16,17,27,28,30,31,41,42,44,45,55,56,57,58,67,68,69,70,79,80(1,4)-tetracosabenzenapentacyclo[27.27.6^1,36^.6^8,29^.6^15,50^.6^22,43^]octacontaphane-4,11,18,25,32,39,46,53,59,65,71,77-dodecaene
_journal_coden_Cambridge         1147
_journal_volume                  13
_journal_year                    2013
_journal_page_first              4993
_journal_name_full               'Cryst.Growth Des.'
loop_
_publ_author_name
M.E.Briggs
K.E.Jelfs
'Samantha Y.Chong'
C.Lester
M.Schmidtmann
D.J.Adams
A.I.Cooper
_chemical_absolute_configuration unk
_diffrn_ambient_temperature      298
_exptl_crystal_density_meas      1.067
_exptl_crystal_density_diffrn    1.067
#These two values have been output from a single CSD field.
_refine_ls_R_factor_gt           0.016
_refine_ls_wR_factor_gt          0.016
_diffrn_radiation_probe          x-ray
_diffrn_source                   'synchrotron radiation'
_symmetry_cell_setting           monoclinic
_symmetry_space_group_name_H-M   'P 2/n'
_symmetry_Int_Tables_number      13
loop_
_symmetry_equiv_pos_site_id
_symmetry_equiv_pos_as_xyz
1 x,y,z
2 1/2-x,y,1/2-z
3 -x,-y,-z
4 1/2+x,-y,1/2+z
_cell_length_a                   22.33972(17)
_cell_length_b                   13.38025(16)
_cell_length_c                   27.06738(30)
_cell_angle_alpha                90
_cell_angle_beta                 91.12433(79)
_cell_angle_gamma                90
_cell_volume                     8089.18
_exptl_crystal_colour            'light yellow'
_cell_formula_units_Z            2
loop_
_atom_site_label
_atom_site_type_symbol
_atom_site_fract_x
_atom_site_fract_y
_atom_site_fract_z
N1 N 0.10695(59) -0.94254(88) 0.70818(43)
N2 N 0.29416(39) -0.57068(96) 0.63942(49)
N3 N 0.38739(45) -1.3378(11) 0.36082(48)
N4 N -0.22109(44) -0.21225(75) 0.61442(32)
N5 N 0.25634(43) -1.2193(14) 0.36108(45)
N6 N 0.45806(59) -1.15497(72) 0.37970(46)
N7 N 0.61150(79) -0.1246(13) 0.81699(42)
N8 N -0.23467(69) -0.39643(69) 0.66637(45)
N9 N -0.14449(56) -0.3020(17) 0.51941(48)
N10 N 0.11884(58) -1.4109(12) 1.02554(44)
C1 C 0.12999(96) -0.98105(85) 0.66331(39)
C2 C 0.1411(12) -0.91628(97) 0.62374(56)
C3 C 0.1602(11) -0.9533(11) 0.57867(50)
C4 C 0.16270(74) -1.05295(73) 0.57140(40)
C5 C 0.1474(10) -1.11836(98) 0.60919(60)
C6 C 0.13247(99) -1.0823(11) 0.65584(49)
C7 C 0.19040(57) -1.08909(85) 0.52828(48)
C8 C 0.23879(72) -1.0405(11) 0.51244(52)
C9 C 0.26469(63) -1.0671(12) 0.47135(54)
C10 C 0.24242(50) -1.14218(98) 0.44432(39)
C11 C 0.19621(85) -1.1993(11) 0.46261(55)
C12 C 0.16872(65) -1.1701(14) 0.50320(56)
C13 C 0.27753(47) -1.1741(14) 0.40173(42)
C14 C 0.05660(47) -0.87181(85) 0.70470(45)
C15 C 0.01210(70) -0.8767(11) 0.66575(56)
C16 C -0.03226(64) -0.8061(14) 0.66296(60)
C17 C -0.02949(46) -0.73212(70) 0.69465(54)
C18 C 0.01699(78) -0.7221(10) 0.72741(63)
C19 C 0.06108(62) -0.7899(13) 0.73079(68)
C20 C -0.06812(35) -0.64943(67) 0.68935(61)
C21 C -0.04954(57) -0.5626(12) 0.7034(12)
C22 C -0.08810(67) -0.47914(95) 0.70143(86)
C23 C -0.14773(36) -0.49122(67) 0.69059(42)
C24 C -0.16714(46) -0.58530(92) 0.68399(91)
C25 C -0.12676(42) -0.66481(74) 0.68126(79)
C26 C -0.18985(50) -0.40542(57) 0.69533(27)
C27 C 0.11584(53) -1.0020(11) 0.75181(45)
C28 C 0.07234(61) -1.0150(12) 0.78034(68)
C29 C 0.07519(60) -1.0831(15) 0.81443(48)
C30 C 0.12164(50) -1.1370(10) 0.82140(36)
C31 C 0.16797(61) -1.1243(12) 0.79338(66)
C32 C 0.16533(60) -1.0582(14) 0.75808(54)
C33 C 0.12754(46) -1.20115(92) 0.86566(34)
C34 C 0.18115(61) -1.2084(14) 0.88740(60)
C35 C 0.18994(60) -1.2519(18) 0.93467(62)
C36 C 0.14600(45) -1.2911(11) 0.95730(40)
C37 C 0.09064(61) -1.2892(13) 0.93633(53)
C38 C 0.07989(59) -1.2431(16) 0.89048(56)
C39 C 0.16138(51) -1.3549(11) 1.00023(42)
C40 C 0.32226(70) -0.64257(84) 0.61174(41)
C41 C 0.3378(10) -0.7282(13) 0.63093(47)
C42 C 0.35898(84) -0.80624(75) 0.59898(56)
C43 C 0.36633(50) -0.78789(57) 0.54984(29)
C44 C 0.35118(91) -0.7007(12) 0.53367(39)
C45 C 0.3266(12) -0.62950(95) 0.56586(58)
C46 C 0.38790(54) -0.87148(61) 0.51533(28)
C47 C 0.40604(61) -0.85523(54) 0.46624(33)
C48 C 0.42645(94) -0.93575(76) 0.43632(39)
C49 C 0.42783(57) -1.04184(70) 0.45349(39)
C50 C 0.41281(94) -1.05654(77) 0.50207(52)
C51 C 0.39062(67) -0.97631(93) 0.53269(35)
C52 C 0.46075(58) -1.12578(94) 0.42850(48)
C53 C 0.23300(40) -0.55083(61) 0.62272(66)
C54 C 0.21725(58) -0.45788(72) 0.6108(10)
C55 C 0.16263(64) -0.43724(96) 0.60103(97)
C56 C 0.12046(40) -0.50735(71) 0.59324(73)
C57 C 0.13586(57) -0.6037(10) 0.59878(89)
C58 C 0.19263(66) -0.62569(97) 0.61009(99)
C59 C 0.05852(34) -0.47337(65) 0.57668(56)
C60 C 0.04812(56) -0.37643(82) 0.55670(95)
C61 C -0.01121(71) -0.33443(86) 0.54774(96)
C62 C -0.05689(39) -0.39313(84) 0.55435(66)
C63 C -0.04619(55) -0.4912(11) 0.57111(92)
C64 C 0.00955(49) -0.53136(86) 0.58244(74)
C65 C -0.11985(45) -0.3557(12) 0.55309(56)
C66 C 0.33571(44) -0.5168(12) 0.66998(46)
C67 C 0.31856(55) -0.4742(16) 0.70992(61)
C68 C 0.35434(72) -0.4066(12) 0.73516(54)
C69 C 0.41431(43) -0.3947(11) 0.72329(41)
C70 C 0.43460(53) -0.4472(14) 0.68029(68)
C71 C 0.39414(70) -0.5138(15) 0.65705(54)
C72 C 0.45512(47) -0.3293(11) 0.75465(35)
C73 C 0.44418(60) -0.3094(15) 0.80314(55)
C74 C 0.48543(74) -0.2638(16) 0.83263(47)
C75 C 0.53148(56) -0.2241(13) 0.81399(35)
C76 C 0.54375(56) -0.2396(16) 0.76847(57)
C77 C 0.50231(75) -0.2872(15) 0.73631(47)
C78 C 0.56859(74) -0.1609(17) 0.84035(34)
C79 C 0.32813(50) -1.34907(87) 0.33595(55)
C80 C 0.29839(53) -1.25060(96) 0.32221(45)
C81 C 0.43628(63) -1.3023(15) 0.33087(49)
C82 C 0.48189(62) -1.25430(85) 0.36483(50)
C83 C 0.41071(63) -1.4305(13) 0.38586(58)
C84 C 0.36671(64) -1.4610(14) 0.42552(39)
C85 C -0.27785(48) -0.2581(11) 0.62124(45)
C86 C -0.27386(73) -0.3021(13) 0.67045(42)
C87 C -0.20798(74) -0.18515(84) 0.56234(37)
C88 C -0.20375(70) -0.2748(11) 0.52628(56)
C89 C -0.21965(48) -0.13558(83) 0.65419(50)
C90 C -0.16125(52) -0.07577(93) 0.65853(68)
H1 H 0.12168(99) -1.1263(11) 0.68095(49)
H2 H 0.1489(10) -1.18651(98) 0.60372(60)
H3 H 0.1718(11) -0.9098(11) 0.55356(50)
H4 H 0.1359(12) -0.84821(97) 0.62806(56)
H5 H 0.09340(62) -0.7812(13) 0.75301(68)
H6 H 0.01760(78) -0.6656(10) 0.74764(63)
H7 H -0.06409(64) -0.8103(14) 0.63949(60)
H8 H 0.01150(70) -0.9294(11) 0.64335(56)
H9 H 0.19753(60) -1.0498(14) 0.73787(54)
H10 H 0.20262(61) -1.1623(12) 0.79841(66)
H11 H 0.04359(60) -1.0920(15) 0.83419(48)
H12 H 0.03796(61) -0.9773(12) 0.77628(68)
H13 H 0.13605(65) -1.2054(14) 0.51504(56)
H14 H 0.18305(85) -1.2558(11) 0.44629(55)
H15 H 0.29903(63) -1.0339(12) 0.46113(54)
H16 H 0.25439(72) -0.9879(11) 0.53075(52)
H17 H -0.13982(42) -0.72909(74) 0.67551(79)
H18 H -0.20718(46) -0.59699(92) 0.68007(91)
H19 H -0.07315(67) -0.41622(95) 0.70769(86)
H20 H -0.00942(57) -0.5543(12) 0.7111(12)
H21 H 0.04128(59) -1.2387(16) 0.87797(56)
H22 H 0.05932(61) -1.3166(13) 0.95274(53)
H23 H 0.22835(60) -1.2574(18) 0.94897(62)
H24 H 0.21307(61) -1.1807(14) 0.87135(60)
H25 H 0.41707(94) -1.12129(77) 0.51426(52)
H26 H 0.37813(67) -0.99011(93) 0.56368(35)
H27 H 0.40481(61) -0.79148(54) 0.45327(33)
H28 H 0.43903(94) -0.92312(76) 0.40429(39)
H29 H -0.07890(55) -0.5291(11) 0.57736(92)
H30 H 0.01337(49) -0.59750(86) 0.59303(74)
H31 H 0.08017(56) -0.33573(82) 0.55014(95)
H32 H -0.01654(71) -0.26833(86) 0.53592(96)
H33 H 0.35295(91) -0.6866(12) 0.50079(39)
H34 H 0.3137(12) -0.56974(95) 0.55365(58)
H35 H 0.3351(10) -0.7376(13) 0.66518(47)
H36 H 0.36961(84) -0.86678(75) 0.61233(56)
H37 H 0.10769(57) -0.6545(10) 0.59441(89)
H38 H 0.20354(66) -0.69114(97) 0.61135(99)
H39 H 0.24514(58) -0.40750(72) 0.6133(10)
H40 H 0.15221(64) -0.37130(96) 0.59789(97)
H41 H 0.40672(70) -0.5530(15) 0.63137(54)
H42 H 0.47381(53) -0.4398(14) 0.66884(68)
H43 H 0.33876(72) -0.3713(12) 0.76143(54)
H44 H 0.28011(55) -0.4845(16) 0.72057(61)
H45 H 0.50888(75) -0.2911(15) 0.70278(47)
H46 H 0.57976(56) -0.2150(16) 0.75644(57)
H47 H 0.47893(74) -0.2570(16) 0.86555(47)
H48 H 0.41050(60) -0.3327(15) 0.81738(55)
H49 H 0.31723(47) -1.1551(14) 0.40148(42)
H50 H -0.18528(50) -0.35929(57) 0.72059(27)
H51 H 0.20155(51) -1.3567(11) 1.01070(42)
H52 H 0.48593(58) -1.16292(94) 0.44883(48)
H53 H -0.14303(45) -0.3715(12) 0.58016(56)
H54 H 0.56274(74) -0.1470(17) 0.87429(34)
H55 H 0.33337(50) -1.38556(87) 0.30585(55)
H56 H 0.30181(50) -1.38520(87) 0.35775(55)
H57 H 0.27630(53) -1.25872(96) 0.29130(45)
H58 H 0.32849(53) -1.19931(96) 0.31875(45)
H59 H 0.45420(63) -1.3581(15) 0.31408(49)
H60 H 0.42207(63) -1.2535(15) 0.30655(49)
H61 H 0.52038(62) -1.24638(85) 0.34870(50)
H62 H 0.48820(62) -1.29715(85) 0.39389(50)
H63 H 0.41355(63) -1.4837(13) 0.36126(58)
H64 H 0.44991(63) -1.4186(13) 0.40041(58)
H65 H -0.31289(73) -0.3188(13) 0.68205(42)
H66 H -0.25527(73) -0.2527(13) 0.69286(42)
H67 H -0.23902(74) -0.14052(84) 0.54993(37)
H68 H -0.16980(74) -0.15214(84) 0.56241(37)
H69 H -0.25429(48) -0.09115(83) 0.64902(50)
H70 H -0.22521(48) -0.17011(83) 0.68590(50)
H71 H -0.17016(52) -0.01490(93) 0.67608(68)
H72 H -0.14913(52) -0.06342(93) 0.62594(68)
H73 H 0.36891(64) -1.5338(14) 0.42933(39)
H74 H 0.32629(64) -1.4434(14) 0.41480(39)
H75 H -0.22221(70) -0.2583(11) 0.49476(56)
H76 H -0.22424(70) -0.3330(11) 0.54013(56)
H77 H -0.30967(48) -0.2082(11) 0.61894(45)
H78 H -0.28453(48) -0.3095(11) 0.59726(45)
N1A N 0.39305 -0.94254 0.79182
N2A N 0.20584 -0.57068 0.86058
N3A N 0.11261 -1.3378 1.13918
N4A N 0.72109 -0.21225 0.88558
N5A N 0.24366 -1.2193 1.13892
N6A N 0.04194 -1.15497 1.1203
N7A N -0.1115 -0.1246 0.68301
N8A N 0.73467 -0.39643 0.83363
N9A N 0.64449 -0.302 0.98059
N10A N 0.38116 -1.4109 0.47446
C1A C 0.37001 -0.98105 0.83669
C2A C 0.3589 -0.91628 0.87626
C3A C 0.3398 -0.9533 0.92133
C4A C 0.3373 -1.05295 0.9286
C5A C 0.3526 -1.11836 0.89081
C6A C 0.36753 -1.0823 0.84416
C7A C 0.3096 -1.08909 0.97172
C8A C 0.26121 -1.0405 0.98756
C9A C 0.23531 -1.0671 1.02865
C10A C 0.25758 -1.14218 1.05568
C11A C 0.30379 -1.1993 1.03739
C12A C 0.33128 -1.1701 0.9968
C13A C 0.22247 -1.1741 1.09827
C14A C 0.4434 -0.87181 0.7953
C15A C 0.4879 -0.8767 0.83425
C16A C 0.53226 -0.8061 0.83704
C17A C 0.52949 -0.73212 0.80535
C18A C 0.48301 -0.7221 0.77259
C19A C 0.43892 -0.7899 0.76921
C20A C 0.56812 -0.64943 0.81065
C21A C 0.54954 -0.5626 0.7966
C22A C 0.5881 -0.47914 0.79857
C23A C 0.64773 -0.49122 0.80941
C24A C 0.66714 -0.5853 0.81601
C25A C 0.62676 -0.66481 0.81874
C26A C 0.68985 -0.40542 0.80467
C27A C 0.38416 -1.002 0.74819
C28A C 0.42766 -1.015 0.71966
C29A C 0.42481 -1.0831 0.68557
C30A C 0.37836 -1.137 0.6786
C31A C 0.33203 -1.1243 0.70662
C32A C 0.33467 -1.0582 0.74192
C33A C 0.37246 -1.20115 0.63434
C34A C 0.31885 -1.2084 0.6126
C35A C 0.31006 -1.2519 0.56533
C36A C 0.354 -1.2911 0.5427
C37A C 0.40936 -1.2892 0.56367
C38A C 0.42011 -1.2431 0.60952
C39A C 0.33862 -1.3549 0.49977
C40A C 0.17774 -0.64257 0.88826
C41A C 0.1622 -0.7282 0.86907
C42A C 0.14102 -0.80624 0.90102
C43A C 0.13367 -0.78789 0.95016
C44A C 0.14882 -0.7007 0.96633
C45A C 0.1734 -0.6295 0.93414
C46A C 0.1121 -0.87148 0.98467
C47A C 0.09396 -0.85523 1.03376
C48A C 0.07355 -0.93575 1.06368
C49A C 0.07217 -1.04184 1.04651
C50A C 0.08719 -1.05654 0.99793
C51A C 0.10938 -0.97631 0.96731
C52A C 0.03925 -1.12578 1.0715
C53A C 0.267 -0.55083 0.87728
C54A C 0.28275 -0.45788 0.8892
C55A C 0.33737 -0.43724 0.89897
C56A C 0.37954 -0.50735 0.90676
C57A C 0.36414 -0.6037 0.90122
C58A C 0.30737 -0.62569 0.88991
C59A C 0.44148 -0.47337 0.92332
C60A C 0.45188 -0.37643 0.9433
C61A C 0.51121 -0.33443 0.95226
C62A C 0.55689 -0.39313 0.94565
C63A C 0.54619 -0.4912 0.92889
C64A C 0.49045 -0.53136 0.91756
C65A C 0.61985 -0.3557 0.94691
C66A C 0.16429 -0.5168 0.83002
C67A C 0.18144 -0.4742 0.79008
C68A C 0.14566 -0.4066 0.76484
C69A C 0.08569 -0.3947 0.77671
C70A C 0.0654 -0.4472 0.81971
C71A C 0.10586 -0.5138 0.84295
C72A C 0.04488 -0.3293 0.74535
C73A C 0.05582 -0.3094 0.69686
C74A C 0.01457 -0.2638 0.66737
C75A C -0.03148 -0.2241 0.68601
C76A C -0.04375 -0.2396 0.73153
C77A C -0.00231 -0.2872 0.76369
C78A C -0.06859 -0.1609 0.65965
C79A C 0.17187 -1.34907 1.16405
C80A C 0.20161 -1.2506 1.17779
C81A C 0.06372 -1.3023 1.16913
C82A C 0.01811 -1.2543 1.13517
C83A C 0.08929 -1.4305 1.11414
C84A C 0.13329 -1.461 1.07448
C85A C 0.77785 -0.2581 0.87876
C86A C 0.77386 -0.3021 0.82955
C87A C 0.70798 -0.18515 0.93766
C88A C 0.70375 -0.2748 0.97372
C89A C 0.71965 -0.13558 0.84581
C90A C 0.66125 -0.07577 0.84147
H1A H 0.37832 -1.1263 0.81905
H2A H 0.3511 -1.18651 0.89628
H3A H 0.3282 -0.9098 0.94644
H4A H 0.3641 -0.84821 0.87194
H5A H 0.4066 -0.7812 0.74699
H6A H 0.4824 -0.6656 0.75236
H7A H 0.56409 -0.8103 0.86051
H8A H 0.4885 -0.9294 0.85665
H9A H 0.30247 -1.0498 0.76213
H10A H 0.29738 -1.1623 0.70159
H11A H 0.45641 -1.092 0.66581
H12A H 0.46204 -0.9773 0.72372
H13A H 0.36395 -1.2054 0.98496
H14A H 0.31695 -1.2558 1.05371
H15A H 0.20097 -1.0339 1.03887
H16A H 0.24561 -0.9879 0.96925
H17A H 0.63982 -0.72909 0.82449
H18A H 0.70718 -0.59699 0.81993
H19A H 0.57315 -0.41622 0.79231
H20A H 0.50942 -0.5543 0.7889
H21A H 0.45872 -1.2387 0.62203
H22A H 0.44068 -1.3166 0.54726
H23A H 0.27165 -1.2574 0.55103
H24A H 0.28693 -1.1807 0.62865
H25A H 0.08293 -1.12129 0.98574
H26A H 0.12187 -0.99011 0.93632
H27A H 0.09519 -0.79148 1.04673
H28A H 0.06097 -0.92312 1.09571
H29A H 0.5789 -0.5291 0.92264
H30A H 0.48663 -0.5975 0.90697
H31A H 0.41983 -0.33573 0.94986
H32A H 0.51654 -0.26833 0.96408
H33A H 0.14705 -0.6866 0.99921
H34A H 0.1863 -0.56974 0.94635
H35A H 0.1649 -0.7376 0.83482
H36A H 0.13039 -0.86678 0.88767
H37A H 0.39231 -0.6545 0.90559
H38A H 0.29646 -0.69114 0.88865
H39A H 0.25486 -0.4075 0.8867
H40A H 0.34779 -0.3713 0.90211
H41A H 0.09328 -0.553 0.86863
H42A H 0.02619 -0.4398 0.83116
H43A H 0.16124 -0.3713 0.73857
H44A H 0.21989 -0.4845 0.77943
H45A H -0.00888 -0.2911 0.79722
H46A H -0.07976 -0.215 0.74356
H47A H 0.02107 -0.257 0.63445
H48A H 0.0895 -0.3327 0.68262
H49A H 0.18277 -1.1551 1.09852
H50A H 0.68528 -0.35929 0.77941
H51A H 0.29845 -1.3567 0.4893
H52A H 0.01407 -1.16292 1.05117
H53A H 0.64303 -0.3715 0.91984
H54A H -0.06274 -0.147 0.62571
H55A H 0.16663 -1.38556 1.19415
H56A H 0.19819 -1.3852 1.14225
H57A H 0.2237 -1.25872 1.2087
H58A H 0.17151 -1.19931 1.18125
H59A H 0.0458 -1.3581 1.18592
H60A H 0.07793 -1.2535 1.19345
H61A H -0.02038 -1.24638 1.1513
H62A H 0.0118 -1.29715 1.10611
H63A H 0.08645 -1.4837 1.13874
H64A H 0.05009 -1.4186 1.09959
H65A H 0.81289 -0.3188 0.81795
H66A H 0.75527 -0.2527 0.80714
H67A H 0.73902 -0.14052 0.95007
H68A H 0.6698 -0.15214 0.93759
H69A H 0.75429 -0.09115 0.85098
H70A H 0.72521 -0.17011 0.8141
H71A H 0.67016 -0.0149 0.82392
H72A H 0.64913 -0.06342 0.87406
H73A H 0.13109 -1.5338 1.07067
H74A H 0.17371 -1.4434 1.0852
H75A H 0.72221 -0.2583 1.00524
H76A H 0.72424 -0.333 0.95987
H77A H 0.80967 -0.2082 0.88106
H78A H 0.78453 -0.3095 0.90274

#END

