
#######################################################################
#
#                 Cambridge Crystallographic Data Centre
#                                CCDC 
#
#######################################################################
#
# If this CIF has been generated directly or indirectly from an entry in the 
# Cambridge Structural Database, then it will include bibliographic, chemical, 
# crystal, experimental, refinement or atomic coordinate data resulting from 
# the CCDC's data processing and validation procedures. Files generated from 
# CSD entries are Copyright 2016 Cambridge Crystallographic Data Centre. They 
# may be used in bona fide research applications only, and may not be copied or 
# further disseminated in any form, whether machine-readable or not, except for 
# the purposes of generating routine backup copies on your local computer 
# system.
# 
# Files arising from any other source may also contain material that is the 
# copyright of third parties, including the originator, and you should check 
# with the originator concerning the permitted uses of the information 
# contained in this CIF.
#
# For further information on the CCDC and the free tools enCIFer and Mercury
# for validating and visualising CIF files, please visit www.ccdc.cam.ac.uk
#
#######################################################################

data_VOLZON
_audit_creation_date             2014-08-21
_database_code_depnum_ccdc_archive 'CCDC 1020551'
_chemical_formula_moiety         'C75 H112 N12,7.5(H2 O1)'
_chemical_name_systematic        
'85,85-dimethyl-5,12,20,27,35,42,50,57,62,69,74,81-dodecaazatetradecacyclo[29.29.10.10^16,46^.1^3,59^.1^5,12^.1^14,18^.1^29,33^.1^44,48^.0^6,11^.0^21,26^.0^36,41^.0^51,56^.0^63,68^.0^75,80^]pentaoctaconta-1,3(71),14(84),15,17,29(83),30,32,44(72),45,47,59-dodecaene hydrate'
_journal_coden_Cambridge         4
_journal_volume                  136
_journal_year                    2014
_journal_page_first              7583
_journal_name_full               J.Am.Chem.Soc.
loop_
_publ_author_name
'Ming Liu'
M.A.Little
K.E.Jelfs
J.T.A.Jones
M.Schmidtmann
'Samantha Y.Chong'
T.Hasell
A.I.Cooper
_chemical_absolute_configuration unk
_diffrn_ambient_temperature      100
_exptl_crystal_density_meas      1.047
_exptl_crystal_density_diffrn    1.059
#These two values have been output from a single CSD field.
_refine_ls_R_factor_gt           0.0868
_refine_ls_wR_factor_gt          0.0868
_diffrn_radiation_probe          x-ray
_symmetry_cell_setting           cubic
_symmetry_space_group_name_H-M   'F 41 3 2'
_symmetry_Int_Tables_number      210
loop_
_symmetry_equiv_pos_site_id
_symmetry_equiv_pos_as_xyz
1 x,y,z
2 1/4-y,1/4+x,1/4+z
3 -x,-y,z
4 1/4+y,1/4-x,1/4+z
5 1/4+x,1/4-z,1/4+y
6 x,-y,-z
7 1/4+x,1/4+z,1/4-y
8 1/4+z,1/4+y,1/4-x
9 -x,y,-z
10 1/4-z,1/4+y,1/4+x
11 z,x,y
12 y,z,x
13 -y,-z,x
14 z,-x,-y
15 -y,z,-x
16 -z,-x,y
17 -z,x,-y
18 y,-z,-x
19 1/4+y,1/4+x,1/4-z
20 1/4-y,1/4-x,1/4-z
21 1/4-x,1/4+z,1/4+y
22 1/4-x,1/4-z,1/4-y
23 1/4+z,1/4-y,1/4+x
24 1/4-z,1/4-y,1/4-x
25 x,1/2+y,1/2+z
26 1/4-y,3/4+x,3/4+z
27 -x,1/2-y,1/2+z
28 1/4+y,3/4-x,3/4+z
29 1/4+x,3/4-z,3/4+y
30 x,1/2-y,1/2-z
31 1/4+x,3/4+z,3/4-y
32 1/4+z,3/4+y,3/4-x
33 -x,1/2+y,1/2-z
34 1/4-z,3/4+y,3/4+x
35 z,1/2+x,1/2+y
36 y,1/2+z,1/2+x
37 -y,1/2-z,1/2+x
38 z,1/2-x,1/2-y
39 -y,1/2+z,1/2-x
40 -z,1/2-x,1/2+y
41 -z,1/2+x,1/2-y
42 y,1/2-z,1/2-x
43 1/4+y,3/4+x,3/4-z
44 1/4-y,3/4-x,3/4-z
45 1/4-x,3/4+z,3/4+y
46 1/4-x,3/4-z,3/4-y
47 1/4+z,3/4-y,3/4+x
48 1/4-z,3/4-y,3/4-x
49 1/2+x,y,1/2+z
50 3/4-y,1/4+x,3/4+z
51 1/2-x,-y,1/2+z
52 3/4+y,1/4-x,3/4+z
53 3/4+x,1/4-z,3/4+y
54 1/2+x,-y,1/2-z
55 3/4+x,1/4+z,3/4-y
56 3/4+z,1/4+y,3/4-x
57 1/2-x,y,1/2-z
58 3/4-z,1/4+y,3/4+x
59 1/2+z,x,1/2+y
60 1/2+y,z,1/2+x
61 1/2-y,-z,1/2+x
62 1/2+z,-x,1/2-y
63 1/2-y,z,1/2-x
64 1/2-z,-x,1/2+y
65 1/2-z,x,1/2-y
66 1/2+y,-z,1/2-x
67 3/4+y,1/4+x,3/4-z
68 3/4-y,1/4-x,3/4-z
69 3/4-x,1/4+z,3/4+y
70 3/4-x,1/4-z,3/4-y
71 3/4+z,1/4-y,3/4+x
72 3/4-z,1/4-y,3/4-x
73 1/2+x,1/2+y,z
74 3/4-y,3/4+x,1/4+z
75 1/2-x,1/2-y,z
76 3/4+y,3/4-x,1/4+z
77 3/4+x,3/4-z,1/4+y
78 1/2+x,1/2-y,-z
79 3/4+x,3/4+z,1/4-y
80 3/4+z,3/4+y,1/4-x
81 1/2-x,1/2+y,-z
82 3/4-z,3/4+y,1/4+x
83 1/2+z,1/2+x,y
84 1/2+y,1/2+z,x
85 1/2-y,1/2-z,x
86 1/2+z,1/2-x,-y
87 1/2-y,1/2+z,-x
88 1/2-z,1/2-x,y
89 1/2-z,1/2+x,-y
90 1/2+y,1/2-z,-x
91 3/4+y,3/4+x,1/4-z
92 3/4-y,3/4-x,1/4-z
93 3/4-x,3/4+z,1/4+y
94 3/4-x,3/4-z,1/4-y
95 3/4+z,3/4-y,1/4+x
96 3/4-z,3/4-y,1/4-x
_cell_length_a                   25.4685(14)
_cell_length_b                   25.4685(14)
_cell_length_c                   25.4685(14)
_cell_angle_alpha                90
_cell_angle_beta                 90
_cell_angle_gamma                90
_cell_volume                     16520
_cell_formula_units_Z            8
loop_
_atom_site_label
_atom_site_type_symbol
_atom_site_fract_x
_atom_site_fract_y
_atom_site_fract_z
O1 O -0.2500 0.1733(4) 0.2500
C1 C -0.12733(14) 0.10799(13) 0.18206(15)
H1 H -0.1192 0.0867 0.2116
C2 C -0.17019(14) 0.09592(13) 0.15112(13)
C3 C -0.20354(18) 0.04753(16) 0.16108(17)
C4 C -0.23853(13) -0.01523(12) 0.22223(13)
C5 C -0.20510(16) -0.06399(14) 0.21368(16)
H2 H -0.1749 -0.0635 0.2382
H3 H -0.1912 -0.0640 0.1774
C6 C -0.23762(16) -0.11380(13) 0.22273(14)
H4 H -0.2656 -0.1160 0.1958
H5 H -0.2148 -0.1450 0.2189
H6 H -0.2385 0.0531 0.1451
H7 H -0.1871 0.0173 0.1431
H8 H -0.2682 -0.0159 0.1965
C7 C -0.2500 0.0729(12) 0.2500
N1 N -0.21060(14) 0.03426(11) 0.21634(12)
C8 C -0.2144(8) 0.1073(9) 0.2832(8)
H9 H -0.2350 0.1357 0.2991
H10 H -0.1868 0.1225 0.2610
C1N C -0.10799 0.18206 0.12733
H1N H -0.0867 0.2116 0.1192
C2N C -0.09592 0.15112 0.17019
C3N C -0.04753 0.16108 0.20354
C4N C 0.01523 0.22223 0.23853
C5N C 0.06399 0.21368 0.2051
H2N H 0.0635 0.2382 0.1749
H3N H 0.064 0.1774 0.1912
C6N C 0.1138 0.22273 0.23762
H4N H 0.116 0.1958 0.2656
H5N H 0.145 0.2189 0.2148
H6N H -0.0531 0.1451 0.2385
H7N H -0.0173 0.1431 0.1871
H8N H 0.0159 0.1965 0.2682
C7N C -0.0729 0.25 0.25
N1N N -0.03426 0.21634 0.2106
C8N C -0.1073 0.2832 0.2144
H9N H -0.1357 0.2991 0.235
H10N H -0.1225 0.261 0.1868
C1O C -0.18206 0.12733 0.10799
H1O H -0.2116 0.1192 0.0867
C2O C -0.15112 0.17019 0.09592
C3O C -0.16108 0.20354 0.04753
C4O C -0.22223 0.23853 -0.01523
C5O C -0.21368 0.2051 -0.06399
H2O H -0.2382 0.1749 -0.0635
H3O H -0.1774 0.1912 -0.064
C6O C -0.22273 0.23762 -0.1138
H4O H -0.1958 0.2656 -0.116
H5O H -0.2189 0.2148 -0.145
H6O H -0.1451 0.2385 0.0531
H7O H -0.1431 0.1871 0.0173
H8O H -0.1965 0.2682 -0.0159
C7O C -0.25 0.25 0.0729
N1O N -0.21634 0.2106 0.03426
C8O C -0.2832 0.2144 0.1073
H9O H -0.2991 0.235 0.1357
H10O H -0.261 0.1868 0.1225
C1JA C -0.10799 0.31794 0.37267
H1JA H -0.0867 0.2884 0.3808
C2JA C -0.09592 0.34888 0.32981
C3JA C -0.04753 0.33892 0.29646
C4JA C 0.01523 0.27777 0.26147
C5JA C 0.06399 0.28632 0.2949
H2JA H 0.0635 0.2618 0.3251
H3JA H 0.064 0.3226 0.3088
C6JA C 0.1138 0.27727 0.26238
H4JA H 0.116 0.3042 0.2344
H5JA H 0.145 0.2811 0.2852
H6JA H -0.0531 0.3549 0.2615
H7JA H -0.0173 0.3569 0.3129
H8JA H 0.0159 0.3035 0.2318
N1JA N -0.03426 0.28366 0.2894
C8JA C -0.1073 0.2168 0.2856
H9JA H -0.1357 0.2009 0.265
H10JA H -0.1225 0.239 0.3132
C1DB C -0.37267 0.10799 0.31794
H1DB H -0.3808 0.0867 0.2884
C2DB C -0.32981 0.09592 0.34888
C3DB C -0.29646 0.04753 0.33892
C4DB C -0.26147 -0.01523 0.27777
C5DB C -0.2949 -0.06399 0.28632
H2DB H -0.3251 -0.0635 0.2618
H3DB H -0.3088 -0.064 0.3226
C6DB C -0.26238 -0.1138 0.27727
H4DB H -0.2344 -0.116 0.3042
H5DB H -0.2852 -0.145 0.2811
H6DB H -0.2615 0.0531 0.3549
H7DB H -0.3129 0.0173 0.3569
H8DB H -0.2318 -0.0159 0.3035
N1DB N -0.2894 0.03426 0.28366
C8DB C -0.2856 0.1073 0.2168
H9DB H -0.265 0.1357 0.2009
H10DB H -0.3132 0.1225 0.239
C1CA C -0.12733 0.39201 0.31794
H1CA H -0.1192 0.4133 0.2884
C2CA C -0.17019 0.40408 0.34888
C3CA C -0.20354 0.45247 0.33892
C4CA C -0.23853 0.51523 0.27777
C5CA C -0.2051 0.56399 0.28632
H2CA H -0.1749 0.5635 0.2618
H3CA H -0.1912 0.564 0.3226
C6CA C -0.23762 0.6138 0.27727
H4CA H -0.2656 0.616 0.3042
H5CA H -0.2148 0.645 0.2811
H6CA H -0.2385 0.4469 0.3549
H7CA H -0.1871 0.4827 0.3569
H8CA H -0.2682 0.5159 0.3035
C7CA C -0.25 0.4271 0.25
N1CA N -0.2106 0.46574 0.28366
C8CA C -0.2144 0.3927 0.2168
H9CA H -0.235 0.3643 0.2009
H10CA H -0.1868 0.3775 0.239
C1NA C -0.18206 0.37267 0.39201
H1NA H -0.2116 0.3808 0.4133
C2NA C -0.15112 0.32981 0.40408
C3NA C -0.16108 0.29646 0.45247
C4NA C -0.22223 0.26147 0.51523
C5NA C -0.21368 0.2949 0.56399
H2NA H -0.2382 0.3251 0.5635
H3NA H -0.1774 0.3088 0.564
C6NA C -0.22273 0.26238 0.6138
H4NA H -0.1958 0.2344 0.616
H5NA H -0.2189 0.2852 0.645
H6NA H -0.1451 0.2615 0.4469
H7NA H -0.1431 0.3129 0.4827
H8NA H -0.1965 0.2318 0.5159
C7NA C -0.25 0.25 0.4271
N1NA N -0.21634 0.2894 0.46574
C8NA C -0.2832 0.2856 0.3927
H9NA H -0.2991 0.265 0.3643
H10NA H -0.261 0.3132 0.3775
C1GB C -0.39201 0.18206 0.37267
H1GB H -0.4133 0.2116 0.3808
C2GB C -0.40408 0.15112 0.32981
C3GB C -0.45247 0.16108 0.29646
C4GB C -0.51523 0.22223 0.26147
C5GB C -0.56399 0.21368 0.2949
H2GB H -0.5635 0.2382 0.3251
H3GB H -0.564 0.1774 0.3088
C6GB C -0.6138 0.22273 0.26238
H4GB H -0.616 0.1958 0.2344
H5GB H -0.645 0.2189 0.2852
H6GB H -0.4469 0.1451 0.2615
H7GB H -0.4827 0.1431 0.3129
H8GB H -0.5159 0.1965 0.2318
C7GB C -0.4271 0.25 0.25
N1GB N -0.46574 0.21634 0.2894
C8GB C -0.3927 0.2832 0.2856
H9GB H -0.3643 0.2991 0.265
H10GB H -0.3775 0.261 0.3132
C1IB C -0.31794 0.12733 0.39201
H1IB H -0.2884 0.1192 0.4133
C2IB C -0.34888 0.17019 0.40408
C3IB C -0.33892 0.20354 0.45247
C4IB C -0.27777 0.23853 0.51523
C5IB C -0.28632 0.2051 0.56399
H2IB H -0.2618 0.1749 0.5635
H3IB H -0.3226 0.1912 0.564
C6IB C -0.27727 0.23762 0.6138
H4IB H -0.3042 0.2656 0.616
H5IB H -0.2811 0.2148 0.645
H6IB H -0.3549 0.2385 0.4469
H7IB H -0.3569 0.1871 0.4827
H8IB H -0.3035 0.2682 0.5159
N1IB N -0.28366 0.2106 0.46574
C8IB C -0.2168 0.2144 0.3927
H9IB H -0.2009 0.235 0.3643
H10IB H -0.239 0.1868 0.3775
C1VB C -0.37267 0.39201 0.18206
H1VB H -0.3808 0.4133 0.2116
C2VB C -0.32981 0.40408 0.15112
C3VB C -0.29646 0.45247 0.16108
C4VB C -0.26147 0.51523 0.22223
C5VB C -0.2949 0.56399 0.21368
H2VB H -0.3251 0.5635 0.2382
H3VB H -0.3088 0.564 0.1774
C6VB C -0.26238 0.6138 0.22273
H4VB H -0.2344 0.616 0.1958
H5VB H -0.2852 0.645 0.2189
H6VB H -0.2615 0.4469 0.1451
H7VB H -0.3129 0.4827 0.1431
H8VB H -0.2318 0.5159 0.1965
N1VB N -0.2894 0.46574 0.21634
C8VB C -0.2856 0.3927 0.2832
H9VB H -0.265 0.3643 0.2991
H10VB H -0.3132 0.3775 0.261
C1DC C -0.31794 0.37267 0.10799
H1DC H -0.2884 0.3808 0.0867
C2DC C -0.34888 0.32981 0.09592
C3DC C -0.33892 0.29646 0.04753
C4DC C -0.27777 0.26147 -0.01523
C5DC C -0.28632 0.2949 -0.06399
H2DC H -0.2618 0.3251 -0.0635
H3DC H -0.3226 0.3088 -0.064
C6DC C -0.27727 0.26238 -0.1138
H4DC H -0.3042 0.2344 -0.116
H5DC H -0.2811 0.2852 -0.145
H6DC H -0.3549 0.2615 0.0531
H7DC H -0.3569 0.3129 0.0173
H8DC H -0.3035 0.2318 -0.0159
N1DC N -0.28366 0.2894 0.03426
C8DC C -0.2168 0.2856 0.1073
H9DC H -0.2009 0.265 0.1357
H10DC H -0.239 0.3132 0.1225
C1KC C -0.39201 0.31794 0.12733
H1KC H -0.4133 0.2884 0.1192
C2KC C -0.40408 0.34888 0.17019
C3KC C -0.45247 0.33892 0.20354
C4KC C -0.51523 0.27777 0.23853
C5KC C -0.56399 0.28632 0.2051
H2KC H -0.5635 0.2618 0.1749
H3KC H -0.564 0.3226 0.1912
C6KC C -0.6138 0.27727 0.23762
H4KC H -0.616 0.3042 0.2656
H5KC H -0.645 0.2811 0.2148
H6KC H -0.4469 0.3549 0.2385
H7KC H -0.4827 0.3569 0.1871
H8KC H -0.5159 0.3035 0.2682
N1KC N -0.46574 0.28366 0.2106
C8KC C -0.3927 0.2168 0.2144
H9KC H -0.3643 0.2009 0.235
H10KC H -0.3775 0.239 0.1868
H11? H -0.2211(18) 0.0647(9) 0.2288(18)
H12? H -0.2385 0.0531 0.1451
H13? H -0.1871 0.0173 0.1431
H14? H -0.2682 -0.0159 0.1965
N2? N -0.21060(14) 0.03426(11) 0.21634(12)
H15? H -0.1983 0.0861 0.3110
O2? O -0.1250 0.0470(9) 0.2970(9)
O3? O -0.1482(6) 0.0876(6) 0.3234(6)

#END

