
#######################################################################
#
#                 Cambridge Crystallographic Data Centre
#                                CCDC 
#
#######################################################################
#
# If this CIF has been generated directly or indirectly from an entry in the 
# Cambridge Structural Database, then it will include bibliographic, chemical, 
# crystal, experimental, refinement or atomic coordinate data resulting from 
# the CCDC's data processing and validation procedures. Files generated from 
# CSD entries are Copyright 2015 Cambridge Crystallographic Data Centre. They 
# may be used in bona fide research applications only, and may not be copied or 
# further disseminated in any form, whether machine-readable or not, except for 
# the purposes of generating routine backup copies on your local computer 
# system.
# 
# Files arising from any other source may also contain material that is the 
# copyright of third parties, including the originator, and you should check 
# with the originator concerning the permitted uses of the information 
# contained in this CIF.
#
# For further information on the CCDC and the free tools enCIFer and Mercury
# for validating and visualising CIF files, please visit www.ccdc.cam.ac.uk
#
#######################################################################

data_YUKHOD
_audit_creation_date             2015-07-01
_database_code_depnum_ccdc_archive 'CCDC 1052133'
_chemical_formula_moiety         'C204 H210 B12 N6 O12'
_chemical_name_systematic        
hexakis(\m-4,4'-(9-hexyl-9H-carbazole-3,6-diyl)bis(3,5-dimethylbenzenide))-dodecakis(\m-oxo)-dodeca-boron
_journal_coden_Cambridge         4
_journal_volume                  137
_journal_year                    2015
_journal_page_first              7015
_journal_name_full               J.Am.Chem.Soc.
loop_
_publ_author_name
K.Ono
K.Johmoto
N.Yasuda
H.Uekusa
S.Fujii
M.Kiguchi
N.Iwasawa
_chemical_absolute_configuration unk
_diffrn_ambient_temperature      90
_exptl_crystal_density_meas      0.641
_exptl_crystal_density_diffrn    0.641
#These two values have been output from a single CSD field.
_refine_ls_R_factor_gt           0.2163
_refine_ls_wR_factor_gt          0.2163
_diffrn_radiation_probe          x-ray
_diffrn_source                   synchrotron
_symmetry_cell_setting           triclinic
_symmetry_space_group_name_H-M   'P -1'
_symmetry_Int_Tables_number      2
loop_
_symmetry_equiv_pos_site_id
_symmetry_equiv_pos_as_xyz
1 x,y,z
2 -x,-y,-z
_cell_length_a                   19.4461(11)
_cell_length_b                   21.3569(11)
_cell_length_c                   40.010(2)
_cell_angle_alpha                102.1864(13)
_cell_angle_beta                 96.8631(16)
_cell_angle_gamma                98.1991(15)
_cell_volume                     15882.7
_exptl_crystal_colour            colorless
_exptl_crystal_description       block
_cell_formula_units_Z            2
loop_
_atom_site_label
_atom_site_type_symbol
_atom_site_fract_x
_atom_site_fract_y
_atom_site_fract_z
B1 B 0.5712(12) 0.9414(8) 0.4532(4)
B2 B 0.4783(12) 1.0075(9) 0.4587(5)
B3 B 0.5995(10) 1.0434(8) 0.4430(4)
B4 B 0.6285(11) 1.0593(8) 0.1167(5)
B5 B 0.5311(11) 1.0397(8) 0.0746(5)
B6 B 0.6199(11) 0.9684(9) 0.0696(6)
B7 B 0.5136(10) 0.3705(7) 0.1520(5)
B8 B 0.4028(11) 0.3321(8) 0.1751(5)
B9 B 0.5089(10) 0.3694(8) 0.2127(5)
B10 B -0.1231(9) 0.6865(8) 0.2000(5)
B11 B -0.1079(12) 0.7866(11) 0.1833(6)
B12 B -0.1296(10) 0.7858(8) 0.2407(5)
O1 O 0.5040(6) 0.9506(4) 0.4607(3)
O2 O 0.5317(6) 1.0569(4) 0.4490(2)
O3 O 0.6137(5) 0.9864(4) 0.4438(2)
O4 O 0.5661(5) 1.0771(4) 0.1040(3)
O5 O 0.5552(5) 0.9856(4) 0.0553(2)
O6 O 0.6521(5) 1.0081(5) 0.1017(3)
O7 O 0.4414(6) 0.3445(4) 0.1460(2)
O8 O 0.4389(6) 0.3442(5) 0.2064(3)
O9 O 0.5438(5) 0.3805(4) 0.1864(3)
O10 O -0.1039(6) 0.7216(4) 0.1775(2)
O11 O -0.1197(6) 0.8194(4) 0.2177(3)
O12 O -0.1321(5) 0.7186(4) 0.2335(2)
N1 N 0.7319(7) 0.5200(6) 0.4611(4)
C1 C 0.7727(10) 0.4856(10) 0.4868(5)
H1 H 0.8062 0.4611 0.4753
H2 H 0.7986 0.5179 0.5076
C2 C 0.7125(14) 0.4386(12) 0.4965(7)
H3 H 0.7185 0.4322 0.5201
H4 H 0.7076 0.3965 0.4800
H5 H 0.6703 0.4577 0.4924
C3 C 0.5926(8) 0.8747(6) 0.4574(4)
C4 C 0.6564(9) 0.8550(8) 0.4425(3)
H6 H 0.6828 0.8835 0.4316
C5 C 0.6759(9) 0.7994(6) 0.4444(3)
C6 C 0.6399(7) 0.7573(6) 0.4598(4)
C7 C 0.5777(9) 0.7758(8) 0.4736(4)
C8 C 0.5571(9) 0.8323(6) 0.4720(4)
H7 H 0.5163 0.8424 0.4813
C9 C 0.7389(9) 0.7833(6) 0.4307(4)
H8 H 0.7396 0.7949 0.4084
H9 H 0.7388 0.7366 0.4277
H10 H 0.7806 0.8076 0.4469
C10 C 0.5387(9) 0.7280(8) 0.4927(4)
H11 H 0.5612 0.6895 0.4912
H12 H 0.5411 0.7497 0.5171
H13 H 0.4894 0.7148 0.4818
C11 C 0.7103(8) 0.5804(7) 0.4656(4)
C12 C 0.7256(9) 0.6268(8) 0.4937(5)
H14 H 0.7503 0.6205 0.5144
C13 C 0.7040(10) 0.6864(8) 0.4922(5)
H15 H 0.7208 0.7224 0.5113
C14 C 0.6575(7) 0.6966(6) 0.4632(4)
C15 C 0.6463(7) 0.6439(6) 0.4357(4)
H16 H 0.6191 0.6466 0.4148
C16 C 0.6726(8) 0.5861(7) 0.4365(4)
C17 C 0.6654(8) 0.5233(7) 0.4115(4)
C18 C 0.6377(8) 0.5041(7) 0.3754(4)
H17 H 0.6148 0.5328 0.3646
C19 C 0.6443(8) 0.4429(7) 0.3559(4)
C20 C 0.6866(9) 0.4056(7) 0.3753(4)
H18 H 0.6957 0.3654 0.3628
C21 C 0.7118(9) 0.4235(8) 0.4075(4)
H19 H 0.7341 0.3950 0.4187
C22 C 0.7060(10) 0.4874(6) 0.4268(4)
C23 C 0.5443(10) 0.3878(7) 0.2518(4)
C24 C 0.5091(10) 0.3831(8) 0.2809(5)
H20 H 0.4603 0.3657 0.2759
C25 C 0.5361(11) 0.3997(8) 0.3125(4)
C26 C 0.6102(10) 0.4221(7) 0.3207(4)
C27 C 0.6518(10) 0.4235(6) 0.2947(4)
C28 C 0.6209(8) 0.4060(6) 0.2621(4)
H21 H 0.6496 0.4052 0.2444
C29 C 0.4943(9) 0.3959(9) 0.3396(4)
H22 H 0.5246 0.4108 0.3621
H23 H 0.4585 0.4236 0.3382
H24 H 0.4714 0.3508 0.3368
C30 C 0.7307(11) 0.4423(9) 0.3039(4)
H25 H 0.7439 0.4537 0.3291
H26 H 0.7527 0.4056 0.2940
H27 H 0.7467 0.4798 0.2945
N2 N -0.0154(10) 1.0583(6) 0.4783(4)
C31 C -0.0458(9) 1.0946(8) 0.5070(4)
H28 H -0.0128 1.1050 0.5291
H29 H -0.0908 1.0699 0.5100
C32 C -0.0574(16) 1.1592(11) 0.4942(6)
H30 H -0.0896 1.1810 0.5082
H31 H -0.0809 1.1462 0.4699
C33 C 0.016(2) 1.213(2) 0.4968(10)
H32 H 0.0033 1.2504 0.4885
H33 H 0.0388 1.2273 0.5209
H34 H 0.0476 1.1924 0.4825
C34 C 0.4093(8) 1.0174(7) 0.4606(4)
C35 C 0.3615(10) 0.9732(8) 0.4689(4)
H35 H 0.3770 0.9354 0.4738
C36 C 0.2916(10) 0.9782(8) 0.4708(4)
C37 C 0.2673(8) 1.0351(9) 0.4629(4)
C38 C 0.3083(9) 1.0780(7) 0.4519(4)
C39 C 0.3817(9) 1.0719(7) 0.4510(3)
H36 H 0.4120 1.1041 0.4441
C40 C 0.2439(8) 0.9269(7) 0.4842(4)
H37 H 0.1965 0.9378 0.4839
H38 H 0.2414 0.8837 0.4693
H39 H 0.2637 0.9270 0.5080
C41 C 0.2868(10) 1.1416(7) 0.4449(4)
H40 H 0.3255 1.1662 0.4369
H41 H 0.2450 1.1310 0.4272
H42 H 0.2763 1.1679 0.4663
C42 C 0.0606(11) 1.0593(8) 0.4795(4)
C43 C 0.1191(10) 1.0972(7) 0.5041(5)
H43 H 0.1109 1.1295 0.5228
C44 C 0.1890(10) 1.0872(9) 0.5012(5)
H44 H 0.2270 1.1057 0.5194
C45 C 0.1989(9) 1.0466(9) 0.4682(5)
C46 C 0.1352(9) 1.0150(7) 0.4426(4)
H45 H 0.1421 0.9878 0.4216
C47 C 0.0649(10) 1.0218(8) 0.4468(5)
C48 C -0.0019(8) 0.9946(7) 0.4243(4)
C49 C -0.0233(8) 0.9518(7) 0.3957(4)
H46 H 0.0101 0.9324 0.3835
C50 C -0.0903(10) 0.9346(7) 0.3833(4)
C51 C -0.1425(10) 0.9558(7) 0.4025(4)
H47 H -0.1909 0.9412 0.3934
C52 C -0.1224(9) 0.9986(7) 0.4352(4)
H48 H -0.1560 1.0130 0.4491
C53 C -0.0485(10) 1.0190(8) 0.4463(5)
C54 C -0.1375(9) 0.8197(6) 0.2785(4)
C55 C -0.1352(9) 0.8874(8) 0.2856(4)
H49 H -0.1426 0.9093 0.2675
C56 C -0.1206(12) 0.9232(6) 0.3223(6)
C57 C -0.1161(9) 0.8945(7) 0.3468(4)
C58 C -0.1130(9) 0.8256(6) 0.3405(4)
C59 C -0.1249(7) 0.7903(7) 0.3062(4)
H50 H -0.1244 0.7448 0.3015
C60 C -0.1178(11) 0.9976(7) 0.3274(5)
H51 H -0.1224 1.0087 0.3047
H52 H -0.1564 1.0106 0.3393
H53 H -0.0728 1.0206 0.3412
C61 C -0.1054(9) 0.7909(8) 0.3692(4)
H54 H -0.0973 0.8225 0.3915
H55 H -0.1484 0.7595 0.3676
H56 H -0.0653 0.7678 0.3673
N3 N 0.8832(8) 1.3533(5) 0.3405(4)
C62 C 0.9509(10) 1.4023(9) 0.3471(5)
H57 H 0.9798 1.4013 0.3691
H58 H 0.9786 1.3919 0.3280
C63 C 0.9306(10) 1.4685(7) 0.3491(5)
H59 H 0.9740 1.4989 0.3491
H60 H 0.8992 1.4657 0.3273
C64 C 0.8963(12) 1.4998(10) 0.3774(5)
H61 H 0.8875 1.5422 0.3739
H62 H 0.8516 1.4722 0.3776
H63 H 0.9270 1.5057 0.3995
C65 C 0.6454(10) 1.1006(7) 0.4338(4)
C66 C 0.6244(10) 1.1607(8) 0.4336(4)
H64 H 0.5824 1.1692 0.4422
C67 C 0.6638(13) 1.2088(9) 0.4210(6)
C68 C 0.7247(12) 1.1961(7) 0.4081(5)
C69 C 0.7512(13) 1.1397(8) 0.4101(4)
C70 C 0.7131(8) 1.0931(7) 0.4257(3)
H65 H 0.7334 1.0575 0.4305
C71 C 0.6442(14) 1.2776(11) 0.4263(6)
H66 H 0.6173 1.2846 0.4456
H67 H 0.6157 1.2814 0.4051
H68 H 0.6872 1.3103 0.4316
C72 C 0.8201(9) 1.1321(8) 0.3964(5)
H69 H 0.8331 1.0906 0.3992
H70 H 0.8142 1.1327 0.3718
H71 H 0.8571 1.1679 0.4093
C73 C 0.8515(8) 1.3268(7) 0.3631(6)
C74 C 0.8611(10) 1.3365(7) 0.3980(5)
H72 H 0.8962 1.3716 0.4111
C75 C 0.8218(10) 1.2973(7) 0.4160(4)
H73 H 0.8329 1.3046 0.4404
C76 C 0.7646(10) 1.2461(9) 0.3973(4)
C77 C 0.7574(8) 1.2321(7) 0.3612(4)
H74 H 0.7262 1.1938 0.3485
C78 C 0.7950(8) 1.2728(7) 0.3422(4)
C79 C 0.8014(9) 1.2705(7) 0.3074(4)
C80 C 0.7605(9) 1.2281(8) 0.2787(5)
H75 H 0.7221 1.1965 0.2803
C81 C 0.7819(9) 1.2362(7) 0.2441(4)
C82 C 0.8366(9) 1.2886(8) 0.2444(4)
H76 H 0.8491 1.2966 0.2232
C83 C 0.8735(9) 1.3299(8) 0.2776(5)
H77 H 0.9123 1.3625 0.2777
C84 C 0.8535(8) 1.3228(7) 0.3082(5)
C85 C 0.6681(8) 1.1060(6) 0.1526(4)
C86 C 0.7210(9) 1.0859(7) 0.1716(4)
H78 H 0.7318 1.0434 0.1651
C87 C 0.7599(8) 1.1334(9) 0.2025(4)
C88 C 0.7446(8) 1.1935(7) 0.2138(3)
C89 C 0.6924(9) 1.2109(6) 0.1919(4)
C90 C 0.6528(8) 1.1699(7) 0.1633(4)
H79 H 0.6155 1.1835 0.1506
C91 C 0.8180(10) 1.1060(8) 0.2252(4)
H80 H 0.8219 1.0621 0.2130
H81 H 0.8636 1.1347 0.2285
H82 H 0.8038 1.1047 0.2477
C92 C 0.6709(8) 1.2797(6) 0.2023(4)
H83 H 0.7024 1.3056 0.2231
H84 H 0.6745 1.3019 0.1834
H85 H 0.6223 1.2746 0.2070
N4 N 0.0219(7) 1.0756(4) 0.0260(3)
C93 C -0.0178(7) 1.1114(6) 0.0063(4)
H86 H -0.0666 1.0875 -0.0010
H87 H 0.0031 1.1145 -0.0148
C94 C -0.0189(12) 1.1853(7) 0.0290(5)
H88 H -0.0272 1.1835 0.0527
H89 H 0.0271 1.2133 0.0307
C95 C -0.0759(19) 1.2133(15) 0.0119(8)
H90 H -0.1219 1.1857 0.0109
H91 H -0.0684 1.2132 -0.0122
C96 C -0.077(2) 1.2832(17) 0.0313(9)
C97 C 0.4472(8) 1.0444(9) 0.0614(4)
C98 C 0.4239(9) 1.0980(6) 0.0825(4)
H92 H 0.4565 1.1301 0.0993
C99 C 0.3526(9) 1.1024(7) 0.0779(4)
C100 C 0.3081(8) 1.0626(6) 0.0512(4)
C101 C 0.3393(10) 1.0108(7) 0.0282(5)
C102 C 0.4071(8) 1.0041(6) 0.0367(4)
H93 H 0.4245 0.9686 0.0239
C103 C 0.3306(9) 1.1563(8) 0.1012(4)
H94 H 0.3705 1.1794 0.1189
H95 H 0.3145 1.1864 0.0878
H96 H 0.2922 1.1391 0.1123
C104 C 0.2912(8) 0.9680(7) -0.0034(3)
H97 H 0.2448 0.9810 -0.0046
H98 H 0.3112 0.9727 -0.0242
H99 H 0.2865 0.9225 -0.0017
C105 C 0.0953(8) 1.0815(5) 0.0298(3)
C106 C 0.1388(7) 1.1119(5) 0.0135(3)
H100 H 0.1236 1.1369 -0.0021
C107 C 0.2103(9) 1.1047(6) 0.0206(4)
H101 H 0.2432 1.1273 0.0097
C108 C 0.2352(8) 1.0688(6) 0.0415(4)
C109 C 0.1857(8) 1.0365(6) 0.0599(3)
H102 H 0.2011 1.0122 0.0759
C110 C 0.1154(8) 1.0424(6) 0.0535(3)
C111 C 0.0525(8) 1.0160(6) 0.0646(3)
C112 C 0.0387(8) 0.9756(6) 0.0866(3)
H103 H 0.0760 0.9608 0.0985
C113 C -0.0330(9) 0.9563(6) 0.0912(4)
C114 C -0.0849(9) 0.9772(6) 0.0739(4)
H104 H -0.1320 0.9631 0.0767
C115 C -0.0720(8) 1.0201(6) 0.0512(3)
H105 H -0.1093 1.0356 0.0397
C116 C -0.0043(9) 1.0375(5) 0.0470(4)
C117 C -0.0827(9) 0.8294(6) 0.1598(4)
C118 C -0.0571(8) 0.8077(6) 0.1295(3)
H106 H -0.0519 0.7634 0.1232
C119 C -0.0390(7) 0.8477(5) 0.1083(3)
C120 C -0.0504(8) 0.9119(7) 0.1138(4)
C121 C -0.0697(9) 0.9396(6) 0.1453(4)
C122 C -0.0986(9) 0.8953(6) 0.1680(4)
H107 H -0.1248 0.9096 0.1858
C123 C -0.0145(10) 0.8145(7) 0.0734(4)
H108 H -0.0028 0.8473 0.0602
H109 H 0.0271 0.7952 0.0789
H110 H -0.0525 0.7804 0.0597
C124 C -0.0838(13) 1.0097(7) 0.1560(5)
H111 H -0.0964 1.0173 0.1793
H112 H -0.0413 1.0404 0.1559
H113 H -0.1225 1.0160 0.1397
N5 N 0.7211(9) 0.5332(5) -0.0331(4)
C125 C 0.7581(17) 0.5003(16) -0.0625(8)
H114 H 0.7841 0.4685 -0.0543
H115 H 0.7928 0.5338 -0.0680
C126 C 0.6380(8) 0.9079(6) 0.0536(4)
C127 C 0.6025(8) 0.8664(8) 0.0224(4)
H116 H 0.5624 0.8786 0.0111
C128 C 0.6228(9) 0.8082(6) 0.0070(4)
C129 C 0.6750(9) 0.7854(7) 0.0215(4)
C130 C 0.7178(8) 0.8270(7) 0.0537(4)
C131 C 0.6988(7) 0.8839(6) 0.0677(4)
H117 H 0.7271 0.9101 0.0883
C132 C 0.5820(9) 0.7685(7) -0.0293(4)
H118 H 0.5448 0.7912 -0.0369
H119 H 0.6147 0.7646 -0.0462
H120 H 0.5611 0.7251 -0.0275
C133 C 0.7809(8) 0.8037(7) 0.0714(4)
H121 H 0.7868 0.7616 0.0576
H122 H 0.8237 0.8356 0.0736
H123 H 0.7726 0.7989 0.0945
C134 C 0.7125(10) 0.5979(8) -0.0259(5)
C135 C 0.7346(13) 0.6472(7) -0.0405(5)
H124 H 0.7568 0.6424 -0.0605
C136 C 0.7198(9) 0.7091(8) -0.0212(5)
H125 H 0.7308 0.7448 -0.0315
C137 C 0.6938(8) 0.7237(6) 0.0080(3)
C138 C 0.6731(7) 0.6712(6) 0.0231(4)
H126 H 0.6494 0.6779 0.0427
C139 C 0.6879(8) 0.6076(7) 0.0089(4)
C140 C 0.6725(8) 0.5453(6) 0.0158(4)
C141 C 0.6458(7) 0.5264(5) 0.0430(3)
H127 H 0.6296 0.5568 0.0599
C142 C 0.6427(9) 0.4601(8) 0.0459(4)
C143 C 0.6704(11) 0.4171(9) 0.0176(5)
H128 H 0.6712 0.3732 0.0186
C144 C 0.6957(9) 0.4392(8) -0.0107(4)
H129 H 0.7103 0.4113 -0.0292
C145 C 0.6969(10) 0.5007(7) -0.0088(4)
C146 C 0.5424(8) 0.3911(6) 0.1246(4)
C147 C 0.6141(8) 0.4168(7) 0.1279(4)
H130 H 0.6411 0.4211 0.1500
C148 C 0.6510(8) 0.4367(6) 0.1030(4)
C149 C 0.6111(8) 0.4356(6) 0.0720(4)
C150 C 0.5340(8) 0.4162(6) 0.0667(3)
C151 C 0.5037(9) 0.3905(6) 0.0938(4)
H131 H 0.4550 0.3726 0.0897
C152 C 0.7285(10) 0.4633(8) 0.1086(4)
H132 H 0.7498 0.4610 0.1317
H133 H 0.7508 0.4375 0.0911
H134 H 0.7355 0.5087 0.1067
C153 C 0.4951(9) 0.4167(7) 0.0339(4)
H135 H 0.5267 0.4363 0.0202
H136 H 0.4747 0.3719 0.0215
H137 H 0.4574 0.4420 0.0377
N6 N -0.1190(7) 0.2109(5) 0.1347(3)
C154 C -0.1741(9) 0.1547(6) 0.1206(5)
H138 H -0.2181 0.1651 0.1289
H139 H -0.1614 0.1181 0.1302
C155 C -0.1888(10) 0.1325(7) 0.0827(4)
H140 H -0.2209 0.0901 0.0759
H141 H -0.1445 0.1272 0.0733
C156 C -0.2236(8) 0.1848(7) 0.0679(4)
H142 H -0.1954 0.2283 0.0788
H143 H -0.2218 0.1768 0.0427
C157 C -0.2962(8) 0.1858(7) 0.0731(4)
H144 H -0.3002 0.1874 0.0977
H145 H -0.3266 0.1456 0.0589
C158 C -0.3210(10) 0.2456(9) 0.0629(5)
H146 H -0.3156 0.2458 0.0387
H147 H -0.2937 0.2864 0.0782
C159 C -0.4012(12) 0.2382(12) 0.0676(6)
H148 H -0.4209 0.2748 0.0616
H149 H -0.4271 0.1974 0.0524
H150 H -0.4053 0.2377 0.0917
C160 C 0.3270(10) 0.3065(7) 0.1666(4)
C161 C 0.2830(9) 0.2941(6) 0.1319(4)
H151 H 0.3060 0.3024 0.1133
C162 C 0.2115(9) 0.2716(6) 0.1248(4)
C163 C 0.1758(9) 0.2542(6) 0.1548(4)
C164 C 0.2123(10) 0.2658(9) 0.1863(5)
C165 C 0.2892(10) 0.2838(9) 0.1879(5)
H152 H 0.3162 0.2778 0.2081
C166 C 0.1680(8) 0.2584(6) 0.0912(3)
H153 H 0.1192 0.2430 0.0933
H154 H 0.1708 0.2984 0.0827
H155 H 0.1848 0.2251 0.0749
C167 C 0.1805(11) 0.2569(10) 0.2142(5)
H156 H 0.2160 0.2680 0.2350
H157 H 0.1450 0.2851 0.2173
H158 H 0.1579 0.2114 0.2102
C168 C -0.0443(10) 0.2110(6) 0.1370(4)
C169 C -0.0041(10) 0.1615(6) 0.1307(4)
H159 H -0.0272 0.1176 0.1223
C170 C 0.0656(12) 0.1746(6) 0.1363(4)
H160 H 0.0915 0.1403 0.1312
C171 C 0.0994(9) 0.2346(10) 0.1488(4)
C172 C 0.0604(8) 0.2921(7) 0.1562(4)
H161 H 0.0844 0.3358 0.1639
C173 C -0.0100(10) 0.2767(7) 0.1509(4)
C174 C -0.0655(9) 0.3160(7) 0.1557(4)
C175 C -0.0662(10) 0.3817(6) 0.1664(3)
H162 H -0.0218 0.4097 0.1726
C176 C -0.1207(9) 0.4082(6) 0.1690(3)
C177 C -0.1833(10) 0.3650(7) 0.1599(4)
H163 H -0.2253 0.3827 0.1612
C178 C -0.1902(9) 0.3014(8) 0.1495(4)
H164 H -0.2351 0.2742 0.1437
C179 C -0.1252(9) 0.2750(7) 0.1474(3)
C180 C -0.1203(9) 0.6142(6) 0.1933(4)
C181 C -0.1418(8) 0.5728(7) 0.2160(4)
H165 H -0.1559 0.5924 0.2371
C182 C -0.1429(9) 0.5094(6) 0.2089(4)
C183 C -0.1177(7) 0.4797(6) 0.1789(4)
C184 C -0.0965(7) 0.5134(6) 0.1557(4)
C185 C -0.0992(7) 0.5841(6) 0.1614(3)
H166 H -0.0875 0.6081 0.1448
C186 C -0.1542(10) 0.4713(8) 0.2381(4)
H167 H -0.1537 0.4250 0.2290
H168 H -0.1163 0.4886 0.2578
H169 H -0.1995 0.4765 0.2457
C187 C -0.0789(9) 0.4874(6) 0.1203(4)
H170 H -0.0652 0.5237 0.1097
H171 H -0.0399 0.4634 0.1225
H172 H -0.1202 0.4583 0.1059
C188 C 0.706(2) 0.465(2) -0.0964(10)
C189 C 0.651(2) 0.496(2) -0.1002(11)
C190 C 0.595(4) 0.447(6) -0.088(3)
C191 C -0.131(4) 1.317(4) 0.0195(19)
C192 C 0.527(6) 0.440(6) -0.113(3)
H173? H -0.0813 1.2824 0.0557
H174? H -0.0314 1.3098 0.0314
H175? H -0.1246 1.3602 0.0345
H176? H -0.1269 1.3199 -0.0043
H177? H -0.1771 1.2923 0.0201
H178? H 0.7308 0.4630 -0.1167
H179? H 0.6887 0.4193 -0.0952
H180? H 0.6379 0.4984 -0.1244
H181? H 0.6601 0.5399 -0.0848
H182? H 0.6099 0.4047 -0.0897
H183? H 0.5880 0.4651 -0.0643
H184? H 0.4907 0.4097 -0.1062
H185? H 0.5127 0.4820 -0.1111
H186? H 0.5345 0.4218 -0.1364

#END

