
#######################################################################
#
#                 Cambridge Crystallographic Data Centre
#                                CCDC 
#
#######################################################################
#
# If this CIF has been generated directly or indirectly from an entry in the 
# Cambridge Structural Database, then it will include bibliographic, chemical, 
# crystal, experimental, refinement or atomic coordinate data resulting from 
# the CCDC's data processing and validation procedures. Files generated from 
# CSD entries are Copyright 2015 Cambridge Crystallographic Data Centre. They 
# may be used in bona fide research applications only, and may not be copied or 
# further disseminated in any form, whether machine-readable or not, except for 
# the purposes of generating routine backup copies on your local computer 
# system.
# 
# Files arising from any other source may also contain material that is the 
# copyright of third parties, including the originator, and you should check 
# with the originator concerning the permitted uses of the information 
# contained in this CIF.
#
# For further information on the CCDC and the free tools enCIFer and Mercury
# for validating and visualising CIF files, please visit www.ccdc.cam.ac.uk
#
#######################################################################

data_PAQFES
_audit_creation_date             1998-10-19
_database_code_depnum_ccdc_journal 182/647
_database_code_NBS               693447
_chemical_name_common            
"5,5':11,11':17,17':23,23'-tetrakis(2,3-isopropylidene-butane-1,4-dioxy)-bis(6,10:12,16:18,22:24,4-O,O'-tetramethylene-2,8,14,20-tetrakis(phenylethyl)calix[4]resorcinarene) dimethyl sulfoxide clathrate ethyl acetate unknown solvate"
_chemical_formula_moiety         'C156 H152 O32,C2 H6 O1 S1,C4 H8 O2'
_chemical_name_systematic        
'53,54,55,56,57,58,59,60-octakis(2-Phenylethyl)-2,6,8,10,12,14,16,18,20,24,26,28,29,31,33,35,37,41,42,46,47,49,50,52-tetracosaoxa-1,7,11,15,19,25,32,36(1,2,3,4,5)-octabenzena-4,22,39,44(4,5)-tetrakis(2,2,dimethyl-1,3-dioxolana)tridecacyclo(13.13.13.5^11,32^.3^7,19^.3^25,36^.1^1,25^.1^1,32^.1^7,11^.1^7,19^.1^11,15^.1^15,19^.1^25,36^.1^32,26^) hexacontaphane dimethyl sulfoxide clathrate ethyl acetate unknown solvate'
_journal_coden_Cambridge         182
_journal_year                    1998
_journal_page_first              55
_journal_name_full               Chem.Commun.
loop_
_publ_author_name
'Bong Ser Park'
C.B.Knobler
'C.N.Eid Junior'
R.Warmuth
D.J.Cram
_chemical_absolute_configuration unk
_diffrn_ambient_temperature      295
_exptl_crystal_density_diffrn    1.034
#These two values have been output from a single CSD field.
_refine_ls_R_factor_gt           0.14
_refine_ls_wR_factor_gt          0.14
_diffrn_radiation_probe          x-ray
_symmetry_cell_setting           monoclinic
_symmetry_space_group_name_H-M   'P 21'
_symmetry_Int_Tables_number      4
loop_
_symmetry_equiv_pos_site_id
_symmetry_equiv_pos_as_xyz
1 x,y,z
2 -x,1/2+y,-z
_cell_length_a                   17.7483(7)
_cell_length_b                   19.5425(7)
_cell_length_c                   26.231(1)
_cell_angle_alpha                90
_cell_angle_beta                 107.200(1)
_cell_angle_gamma                90
_cell_volume                     8691.24
_exptl_crystal_colour            colorless
_exptl_crystal_description       parallelepiped
_cell_formula_units_Z            2
loop_
_atom_site_label
_atom_site_type_symbol
_atom_site_fract_x
_atom_site_fract_y
_atom_site_fract_z
O1 O -0.5573(7) -0.8746(7) -0.1127(5)
C1 C -0.6281(11) -0.8878(11) -0.1521(8)
H1 H -0.6520 -0.8446 -0.1667
H2 H -0.6171 -0.9133 -0.1809
O2 O -0.6814(7) -0.9247(7) -0.1331(5)
C2 C -0.7367(6) -0.8855(7) -0.1188(5)
C3 C -0.7197(5) -0.8554(7) -0.0685(4)
C4 C -0.7780(6) -0.8191(6) -0.0541(3)
H3 H -0.7667 -0.7991 -0.0205
C5 C -0.8534(5) -0.8130(6) -0.0901(4)
C6 C -0.8703(5) -0.8431(7) -0.1405(4)
C7 C -0.8120(7) -0.8793(7) -0.1548(4)
O3 O -0.8238(7) -0.9061(7) -0.2051(5)
C8 C -0.8515(12) -0.9738(10) -0.2082(7)
H4 H -0.9032 -0.9754 -0.2028
H5 H -0.8157 -1.0022 -0.1815
C9 C -0.8558(9) -0.9982(9) -0.2643(6)
H6 H -0.8833 -0.9637 -0.2903
O4 O -0.8943(8) -1.0612(7) -0.2777(5)
C10 C -0.8378(15) -1.1137(13) -0.2708(9)
C11 C -0.8338(18) -1.1593(16) -0.2190(11)
H7 H -0.8858 -1.1644 -0.2155
H8 H -0.8005 -1.1371 -0.1878
H9 H -0.8126 -1.2036 -0.2227
C12 C -0.8548(17) -1.1603(16) -0.3210(11)
H10 H -0.8745 -1.2037 -0.3135
H11 H -0.8070 -1.1671 -0.3304
H12 H -0.8934 -1.1388 -0.3502
O5 O -0.7649(9) -1.0837(8) -0.2637(6)
C13 C -0.7714(10) -1.0090(9) -0.2697(7)
H13 H -0.7315 -0.9856 -0.2410
C14 C -0.7663(11) -0.9886(10) -0.3226(7)
H14 H -0.7186 -1.0066 -0.3285
H15 H -0.8114 -1.0056 -0.3505
O6 O -0.7652(7) -0.9171(6) -0.3223(5)
O7 O -0.9451(8) -0.8419(7) -0.1771(5)
C15 C -0.9637(13) -0.7817(11) -0.2082(8)
H16 H -0.9974 -0.7932 -0.2436
H17 H -0.9156 -0.7617 -0.2119
O8 O -1.0029(7) -0.7331(7) -0.1844(5)
C16 C -0.9556(7) -0.6860(5) -0.1507(4)
C17 C -0.9148(7) -0.7006(5) -0.0977(4)
C18 C -0.8693(7) -0.6500(6) -0.0653(3)
H18 H -0.8421 -0.6597 -0.0299
C19 C -0.8647(7) -0.5849(6) -0.0859(4)
C20 C -0.9055(8) -0.5703(5) -0.1389(5)
C21 C -0.9509(7) -0.6209(6) -0.1714(3)
O9 O -0.9857(8) -0.6076(8) -0.2255(5)
C22 C -1.0645(11) -0.5796(11) -0.2386(7)
H19 H -1.0633 -0.5331 -0.2255
H20 H -1.0976 -0.6071 -0.2231
C23 C -1.0939(12) -0.5810(10) -0.2965(7)
H21 H -1.0550 -0.5595 -0.3113
O10 O -1.1639(9) -0.5413(9) -0.3105(6)
C24 C -1.2295(14) -0.5849(13) -0.3369(9)
C25 C -1.2625(17) -0.5524(16) -0.3932(11)
H22 H -1.3130 -0.5721 -0.4110
H23 H -1.2267 -0.5611 -0.4137
H24 H -1.2681 -0.5039 -0.3897
C26 C -1.2921(22) -0.5754(21) -0.3075(14)
H25 H -1.3438 -0.5774 -0.3328
H26 H -1.2849 -0.5317 -0.2900
H27 H -1.2868 -0.6110 -0.2815
O11 O -1.2023(9) -0.6504(8) -0.3345(6)
C27 C -1.1167(12) -0.6472(11) -0.3221(8)
H28 H -1.0948 -0.6826 -0.2954
C28 C -1.0920(11) -0.6632(11) -0.3688(7)
H29 H -1.1159 -0.7059 -0.3843
H30 H -1.1094 -0.6274 -0.3952
O12 O -1.0111(8) -0.6688(7) -0.3547(5)
O13 O -0.9048(8) -0.5046(8) -0.1604(5)
C29 C -0.8427(11) -0.4891(11) -0.1784(8)
H31 H -0.8608 -0.4603 -0.2097
H32 H -0.8220 -0.5310 -0.1890
O14 O -0.7815(8) -0.4551(7) -0.1396(5)
C30 C -0.7235(6) -0.4990(7) -0.1097(4)
C31 C -0.7322(5) -0.5320(7) -0.0646(5)
C32 C -0.6692(7) -0.5682(7) -0.0311(4)
H33 H -0.6750 -0.5901 -0.0010
C33 C -0.5974(6) -0.5715(7) -0.0426(5)
C34 C -0.5886(6) -0.5385(7) -0.0877(5)
C35 C -0.6517(7) -0.5023(7) -0.1212(4)
O15 O -0.6448(8) -0.4740(7) -0.1665(5)
C36 C -0.6080(12) -0.4062(11) -0.1594(8)
H34 H -0.5523 -0.4090 -0.1400
H35 H -0.6336 -0.3756 -0.1406
C37 C -0.6202(11) -0.3834(11) -0.2151(8)
H36 H -0.6025 -0.4193 -0.2351
O16 O -0.5735(8) -0.3206(8) -0.2142(6)
C38 C -0.6266(15) -0.2626(14) -0.2263(10)
C39 C -0.6154(18) -0.2227(17) -0.1719(12)
H37 H -0.5603 -0.2205 -0.1526
H38 H -0.6430 -0.2464 -0.1508
H39 H -0.6361 -0.1772 -0.1793
C40 C -0.6096(15) -0.2231(14) -0.2699(10)
H40 H -0.6394 -0.1813 -0.2755
H41 H -0.6241 -0.2497 -0.3021
H42 H -0.5543 -0.2127 -0.2603
O17 O -0.7043(8) -0.2889(8) -0.2399(5)
C41 C -0.6991(11) -0.3602(10) -0.2456(7)
H43 H -0.7368 -0.3815 -0.2297
C42 C -0.7237(12) -0.3792(11) -0.3042(8)
H44 H -0.7731 -0.3572 -0.3230
H45 H -0.6836 -0.3656 -0.3206
O18 O -0.7325(7) -0.4523(7) -0.3051(5)
O19 O -0.5181(7) -0.5378(7) -0.0996(5)
C43 C -0.5022(13) -0.5944(12) -0.1264(8)
H46 H -0.4717 -0.5801 -0.1496
H47 H -0.5516 -0.6132 -0.1486
O20 O -0.4595(8) -0.6474(8) -0.0913(5)
C44 C -0.5042(7) -0.6956(6) -0.0757(5)
C45 C -0.5365(7) -0.6856(5) -0.0339(5)
C46 C -0.5778(7) -0.7385(6) -0.0183(4)
H48 H -0.5993 -0.7319 0.0096
C47 C -0.5868(7) -0.8013(5) -0.0447(5)
C48 C -0.5545(7) -0.8113(5) -0.0866(5)
C49 C -0.5132(7) -0.7584(7) -0.1021(4)
O21 O -0.4872(8) -0.7672(7) -0.1455(5)
C50 C -0.4116(13) -0.7970(13) -0.1325(9)
H49 H -0.4139 -0.8454 -0.1250
H50 H -0.3759 -0.7747 -0.1017
C51 C -0.3848(12) -0.7851(11) -0.1838(8)
H51 H -0.4224 -0.8065 -0.2148
O22 O -0.3058(10) -0.8182(10) -0.1733(6)
C52 C -0.2553(18) -0.7678(17) -0.1801(12)
C53 C -0.1771(46) -0.7648(47) -0.1281(28)
H52 H -0.1587 -0.8104 -0.1179
H53 H -0.1901 -0.7430 -0.0991
H54 H -0.1364 -0.7392 -0.1369
C54 C -0.2253(23) -0.7827(22) -0.2280(14)
H55 H -0.1711 -0.7968 -0.2156
H56 H -0.2296 -0.7421 -0.2492
H57 H -0.2564 -0.8185 -0.2491
O23 O -0.2902(9) -0.7040(9) -0.1846(6)
C55 C -0.3727(11) -0.7127(10) -0.1956(8)
H58 H -0.3955 -0.6811 -0.1751
C56 C -0.4062(14) -0.7018(15) -0.2557(9)
H59 H -0.3903 -0.6575 -0.2656
H60 H -0.3867 -0.7369 -0.2748
O24 O -0.4857(9) -0.7053(8) -0.2683(6)
C57 C -0.5220(6) -0.6979(6) -0.3233(3)
C58 C -0.5480(7) -0.7567(5) -0.3535(4)
C59 C -0.5906(7) -0.7512(5) -0.4073(4)
C60 C -0.6074(6) -0.6868(6) -0.4310(3)
H61 H -0.6358 -0.6831 -0.4668
C61 C -0.5815(7) -0.6280(5) -0.4008(4)
C62 C -0.5388(7) -0.6335(5) -0.3469(4)
O25 O -0.5077(8) -0.5780(8) -0.3163(5)
C63 C -0.5598(12) -0.5378(11) -0.2966(8)
H62 H -0.6001 -0.5674 -0.2904
H63 H -0.5304 -0.5184 -0.2625
O26 O -0.5958(7) -0.4858(7) -0.3299(5)
C64 C -0.6675(5) -0.5004(7) -0.3665(4)
C65 C -0.6740(5) -0.5333(7) -0.4148(4)
C66 C -0.7483(6) -0.5452(6) -0.4508(4)
H64 H -0.7526 -0.5672 -0.4830
C67 C -0.8160(5) -0.5241(7) -0.4385(4)
C68 C -0.8095(5) -0.4912(7) -0.3902(5)
C69 C -0.7352(7) -0.4793(7) -0.3542(4)
O27 O -0.8749(7) -0.4675(7) -0.3773(5)
C70 C -0.9152(11) -0.5171(10) -0.3551(7)
H65 H -0.8779 -0.5515 -0.3363
H66 H -0.9369 -0.4950 -0.3295
O28 O -0.9764(7) -0.5489(7) -0.3947(5)
C71 C -0.9590(7) -0.6078(5) -0.4164(4)
C72 C -0.9251(7) -0.6088(5) -0.4581(4)
C73 C -0.9125(6) -0.6710(6) -0.4804(4)
H67 H -0.8899 -0.6716 -0.5081
C74 C -0.9338(7) -0.7322(5) -0.4609(5)
C75 C -0.9677(7) -0.7312(5) -0.4193(5)
C76 C -0.9803(7) -0.6690(6) -0.3970(4)
O29 O -0.9956(7) -0.7903(7) -0.4029(5)
C77 C -0.9389(12) -0.8309(11) -0.3659(8)
H68 H -0.9634 -0.8529 -0.3416
H69 H -0.8967 -0.8019 -0.3450
O30 O -0.9070(7) -0.8818(7) -0.3925(5)
C78 C -0.8380(5) -0.8639(7) -0.4037(5)
C79 C -0.8408(5) -0.8281(7) -0.4502(4)
C80 C -0.7712(6) -0.8144(6) -0.4628(4)
H70 H -0.7730 -0.7905 -0.4938
C81 C -0.6990(5) -0.8366(7) -0.4290(5)
C82 C -0.6963(5) -0.8724(7) -0.3825(4)
C83 C -0.7658(7) -0.8861(6) -0.3698(4)
O31 O -0.6277(7) -0.8996(7) -0.3498(5)
C84 C -0.5835(13) -0.8534(12) -0.3091(8)
H71 H -0.6189 -0.8202 -0.3008
H72 H -0.5579 -0.8787 -0.2768
O32 O -0.5261(8) -0.8190(7) -0.3272(5)
C85 C -0.6205(11) -0.8189(10) -0.4384(7)
H73 H -0.5828 -0.8553 -0.4228
C86 C -0.6235(12) -0.8105(11) -0.4967(7)
H74 H -0.5725 -0.7951 -0.4987
H75 H -0.6623 -0.7761 -0.5133
C87 C -0.6452(14) -0.8792(13) -0.5272(9)
H76 H -0.6067 -0.9139 -0.5105
H77 H -0.6965 -0.8944 -0.5257
C88 C -0.6470(11) -0.8702(9) -0.5855(6)
C89 C -0.7074(10) -0.8325(11) -0.6203(8)
H78 H -0.7483 -0.8152 -0.6086
C90 C -0.7066(12) -0.8208(12) -0.6726(8)
H79 H -0.7469 -0.7956 -0.6958
C91 C -0.6454(14) -0.8467(12) -0.6901(6)
H80 H -0.6448 -0.8389 -0.7250
C92 C -0.5850(12) -0.8845(11) -0.6553(8)
H81 H -0.5441 -0.9018 -0.6670
C93 C -0.5858(10) -0.8962(10) -0.6031(7)
H82 H -0.5455 -0.9213 -0.5799
C94 C -0.9188(10) -0.7999(9) -0.4854(7)
H83 H -0.9591 -0.8313 -0.4803
C95 C -0.9313(11) -0.7986(9) -0.5454(7)
H84 H -0.9769 -0.7702 -0.5620
H85 H -0.8858 -0.7773 -0.5521
C96 C -0.9436(13) -0.8676(11) -0.5715(8)
H86 H -0.8965 -0.8948 -0.5564
H87 H -0.9867 -0.8901 -0.5624
C97 C -0.9611(9) -0.8680(8) -0.6298(4)
C98 C -1.0314(8) -0.8390(8) -0.6610(5)
H88 H -1.0666 -0.8200 -0.6449
C99 C -1.0488(7) -0.8384(8) -0.7165(5)
H89 H -1.0956 -0.8190 -0.7373
C100 C -0.9959(10) -0.8669(9) -0.7407(4)
H90 H -1.0075 -0.8665 -0.7777
C101 C -0.9256(9) -0.8959(9) -0.7094(6)
H91 H -0.8903 -0.9149 -0.7256
C102 C -0.9082(7) -0.8965(8) -0.6540(6)
H92 H -0.8613 -0.9159 -0.6331
C103 C -0.9003(10) -0.5394(9) -0.4754(6)
H93 H -0.9355 -0.5047 -0.4678
C104 C -0.9095(12) -0.5352(11) -0.5379(8)
H94 H -0.8703 -0.5639 -0.5465
H95 H -0.9615 -0.5510 -0.5584
C105 C -0.8982(13) -0.4611(11) -0.5511(8)
H96 H -0.9397 -0.4345 -0.5435
H97 H -0.8486 -0.4456 -0.5268
C106 C -0.8977(9) -0.4441(7) -0.6064(4)
C107 C -0.8599(8) -0.3849(7) -0.6157(5)
H98 H -0.8342 -0.3566 -0.5874
C108 C -0.8607(9) -0.3680(7) -0.6676(6)
H99 H -0.8355 -0.3286 -0.6738
C109 C -0.8993(10) -0.4104(8) -0.7101(4)
H100 H -0.8999 -0.3992 -0.7446
C110 C -0.9371(9) -0.4696(7) -0.7007(4)
H101 H -0.9629 -0.4979 -0.7290
C111 C -0.9363(8) -0.4865(6) -0.6489(5)
H102 H -0.9615 -0.5259 -0.6426
C112 C -0.5994(12) -0.5576(10) -0.4252(7)
H103 H -0.5568 -0.5271 -0.4055
C113 C -0.6004(12) -0.5567(11) -0.4848(8)
H104 H -0.6155 -0.5117 -0.5000
H105 H -0.6382 -0.5898 -0.5051
C114 C -0.5163(23) -0.5748(22) -0.4871(15)
H108 H -0.4805 -0.5384 -0.4699
H109 H -0.4991 -0.6164 -0.4667
C115 C -0.5104(21) -0.5848(19) -0.5416(12)
C116 C -0.4768(24) -0.5362(18) -0.5673(18)
H110 H -0.4590 -0.4948 -0.5506
C117 C -0.4701(29) -0.5497(27) -0.6180(18)
H111 H -0.4478 -0.5173 -0.6351
C118 C -0.4970(32) -0.6118(32) -0.6430(14)
H112 H -0.4925 -0.6207 -0.6768
C119 C -0.5305(29) -0.6604(23) -0.6174(17)
H113 H -0.5484 -0.7017 -0.6341
C120 C -0.5372(22) -0.6469(18) -0.5667(16)
H114 H -0.5596 -0.6793 -0.5496
C128 C -0.6334(11) -0.8602(10) -0.0311(7)
H122 H -0.6112 -0.9022 -0.0411
C129 C -0.6261(11) -0.8670(10) 0.0280(7)
H123 H -0.5709 -0.8631 0.0484
H124 H -0.6540 -0.8293 0.0384
C130 C -0.6574(14) -0.9322(12) 0.0423(8)
H125 H -0.6314 -0.9692 0.0295
H126 H -0.7129 -0.9345 0.0225
C131 C -0.6503(8) -0.9468(7) 0.1002(4)
C132 C -0.6054(8) -0.9055(6) 0.1414(5)
H127 H -0.5802 -0.8669 0.1335
C133 C -0.5981(9) -0.9221(8) 0.1943(5)
H128 H -0.5681 -0.8946 0.2218
C134 C -0.6358(9) -0.9800(8) 0.2061(4)
H129 H -0.6310 -0.9911 0.2414
C135 C -0.6807(9) -1.0213(7) 0.1649(6)
H130 H -0.7059 -1.0599 0.1728
C136 C -0.6880(8) -1.0047(7) 0.1119(5)
H131 H -0.7179 -1.0323 0.0845
C137 C -0.5293(12) -0.6147(11) -0.0095(8)
H132 H -0.4807 -0.5945 -0.0133
C138 C -0.5222(12) -0.6141(11) 0.0508(7)
H133 H -0.5722 -0.6273 0.0558
H134 H -0.4826 -0.6470 0.0693
C139 C -0.4991(14) -0.5425(13) 0.0743(9)
H135 H -0.4444 -0.5341 0.0761
H136 H -0.5311 -0.5089 0.0501
C140 C -0.5083(10) -0.5320(9) 0.1277(5)
C141 C -0.4467(8) -0.5476(9) 0.1733(6)
H137 H -0.3993 -0.5644 0.1701
C142 C -0.4562(10) -0.5379(10) 0.2238(5)
H138 H -0.4151 -0.5483 0.2542
C143 C -0.5273(12) -0.5128(11) 0.2286(6)
H139 H -0.5336 -0.5063 0.2622
C144 C -0.5889(9) -0.4972(11) 0.1830(8)
H140 H -0.6363 -0.4804 0.1862
C145 C -0.5794(8) -0.5068(10) 0.1325(7)
H141 H -0.6205 -0.4965 0.1021
C146 C -0.8106(12) -0.5312(12) -0.0532(8)
H142 H -0.8348 -0.4869 -0.0658
C147 C -0.8024(13) -0.5346(13) 0.0075(8)
H143 H -0.7844 -0.5800 0.0205
H144 H -0.7620 -0.5023 0.0261
C148 C -0.8747(17) -0.5197(17) 0.0214(11)
H145 H -0.9169 -0.5499 0.0022
H146 H -0.8911 -0.4728 0.0123
C149 C -0.8556(17) -0.5310(23) 0.0824(10)
C150 C -0.8557(18) -0.5928(17) 0.1091(14)
H147 H -0.8650 -0.6336 0.0901
C151 C -0.8418(19) -0.5933(20) 0.1643(14)
H148 H -0.8419 -0.6344 0.1820
C152 C -0.8279(18) -0.5320(26) 0.1928(10)
H149 H -0.8186 -0.5323 0.2296
C153 C -0.8278(26) -0.4702(20) 0.1661(18)
H150 H -0.8185 -0.4294 0.1852
C154 C -0.8417(26) -0.4698(17) 0.1109(18)
H151 H -0.8416 -0.4286 0.0932
C155 C -0.9181(11) -0.7730(10) -0.0776(7)
H152 H -0.9677 -0.7925 -0.1000
C156 C -0.9216(11) -0.7782(10) -0.0196(7)
H153 H -0.9205 -0.8259 -0.0091
H154 H -0.8762 -0.7555 0.0043
C157 C -0.9966(18) -0.7449(17) -0.0156(11)
H155 H -1.0397 -0.7596 -0.0460
H156 H -0.9913 -0.6958 -0.0186
C158 C -1.0189(11) -0.7595(12) 0.0346(7)
C159 C -1.0297(14) -0.7031(10) 0.0642(10)
H157 H -1.0200 -0.6592 0.0540
C160 C -1.0553(17) -0.7125(16) 0.1092(10)
H158 H -1.0625 -0.6749 0.1289
C161 C -1.0699(16) -0.7784(20) 0.1245(9)
H159 H -1.0870 -0.7846 0.1544
C162 C -1.0591(16) -0.8348(14) 0.0948(11)
H160 H -1.0688 -0.8787 0.1050
C163 C -1.0335(14) -0.8254(10) 0.0499(10)
H161 H -1.0263 -0.8630 0.0301

#END

