
#######################################################################
#
#                 Cambridge Crystallographic Data Centre
#                                CCDC 
#
#######################################################################
#
# If this CIF has been generated directly or indirectly from an entry in the 
# Cambridge Structural Database, then it will include bibliographic, chemical, 
# crystal, experimental, refinement or atomic coordinate data resulting from 
# the CCDC's data processing and validation procedures. Files generated from 
# CSD entries are Copyright 2016 Cambridge Crystallographic Data Centre. They 
# may be used in bona fide research applications only, and may not be copied or 
# further disseminated in any form, whether machine-readable or not, except for 
# the purposes of generating routine backup copies on your local computer 
# system.
# 
# Files arising from any other source may also contain material that is the 
# copyright of third parties, including the originator, and you should check 
# with the originator concerning the permitted uses of the information 
# contained in this CIF.
#
# For further information on the CCDC and the free tools enCIFer and Mercury
# for validating and visualising CIF files, please visit www.ccdc.cam.ac.uk
#
#######################################################################

data_ZUYPUG
_audit_creation_date             2016-01-05
_database_code_depnum_ccdc_archive 'CCDC 1445388'
_chemical_formula_moiety         'C36 H42 N6 O6,3(C1 H1 Cl3)'
_chemical_name_systematic        
'5,12,20,27,32,39-hexaazoniaheptacyclo[14.14.10.1^3,29^.1^14,18^.0^6,11^.0^21,26^.0^33,38^]dotetraconta-1,3(41),4,12,14(42),15,17,19,27,29,31,39-dodecaene-2,15,17,30,41,42-hexolate chloroform solvate'
_journal_coden_Cambridge         1336
_journal_volume                  18
_journal_year                    2016
_journal_page_first              12
_journal_name_full               Org.Lett.
loop_
_publ_author_name
P.Kieryk
'Jan Janczak'
J.Panek
M.Miklitz
J.Lisowski
_chemical_absolute_configuration unk
_diffrn_ambient_temperature      100
_exptl_crystal_density_meas      1.432
_exptl_crystal_density_diffrn    1.432
#These two values have been output from a single CSD field.
_refine_ls_R_factor_gt           0.0844
_refine_ls_wR_factor_gt          0.0844
_diffrn_radiation_probe          x-ray
_symmetry_cell_setting           monoclinic
_symmetry_space_group_name_H-M   'C 2'
_symmetry_Int_Tables_number      5
loop_
_symmetry_equiv_pos_site_id
_symmetry_equiv_pos_as_xyz
1 x,y,z
2 -x,y,-z
3 1/2+x,1/2+y,z
4 1/2-x,1/2+y,-z
_cell_length_a                   19.477(2)
_cell_length_b                   24.208(2)
_cell_length_c                   13.2882(16)
_cell_angle_alpha                90
_cell_angle_beta                 131.418(6)
_cell_angle_gamma                90
_cell_volume                     4698.43
_exptl_crystal_colour            colorless
_exptl_crystal_description       parallelepiped
_cell_formula_units_Z            4
loop_
_atom_site_label
_atom_site_type_symbol
_atom_site_fract_x
_atom_site_fract_y
_atom_site_fract_z
O1 O 0.8690(3) 0.4551(2) 0.9062(4)
O2 O 0.5964(3) 0.5569(2) 0.6359(4)
O3 O 0.8450(2) 0.60642(15) 0.6692(4)
O4 O 0.8480(3) 0.3893(3) 0.6266(5)
O5 O 0.5426(3) 0.4258(2) 0.4155(4)
O6 O 0.7057(3) 0.5445(2) 0.3518(4)
C1 C 0.8259(4) 0.4919(2) 0.8282(6)
C2 C 0.7285(3) 0.5015(2) 0.7691(5)
C3 C 0.6730(5) 0.5487(3) 0.6759(6)
C4 C 0.7163(4) 0.5852(3) 0.6422(5)
C5 C 0.8138(4) 0.5765(3) 0.7026(6)
C6 C 0.8660(4) 0.5301(2) 0.7916(5)
C7 C 0.6822(5) 0.4607(3) 0.7720(6)
H1 H 0.6183 0.4662 0.7186
N1 N 0.7160(3) 0.4142(2) 0.8405(5)
H2 H 0.7758 0.4114 0.9045
C8 C 0.6618(4) 0.3689(3) 0.8168(6)
H3 H 0.5984 0.3826 0.7692
C9 C 0.6968(4) 0.3380(3) 0.9465(6)
H4 H 0.7015 0.3647 1.0072
H5 H 0.7590 0.3235 0.9933
C10 C 0.6327(4) 0.2886(3) 0.9174(7)
H6 H 0.6611 0.2681 1.0013
H7 H 0.5728 0.3031 0.8822
C11 C 0.6198(6) 0.2520(4) 0.8188(9)
H8 H 0.5739 0.2236 0.7925
H9 H 0.6783 0.2326 0.8623
C12 C 0.5884(4) 0.2807(3) 0.6896(7)
H10 H 0.5836 0.2531 0.6302
H11 H 0.5273 0.2976 0.6403
C13 C 0.6560(4) 0.3240(3) 0.7271(7)
H12 H 0.7175 0.3061 0.7805
N2 N 0.6351(4) 0.3532(2) 0.6088(5)
H13 H 0.5779 0.3606 0.5376
C14 C 0.7011(4) 0.3677(3) 0.6103(7)
H14 H 0.7582 0.3493 0.6720
C15 C 0.6934(5) 0.4088(3) 0.5268(7)
C16 C 0.6101(5) 0.4409(3) 0.4363(7)
C17 C 0.6226(5) 0.4864(3) 0.3834(7)
C18 C 0.7013(5) 0.5047(3) 0.4030(8)
C19 C 0.7818(4) 0.4695(3) 0.4976(5)
C20 C 0.7793(5) 0.4205(3) 0.5511(7)
C21 C 0.8618(5) 0.4853(4) 0.5336(7)
H15 H 0.8596 0.5188 0.4942
N3 N 0.9442(4) 0.4607(3) 0.6167(5)
H16 H 0.9489 0.4248 0.6292
C22 C 1.0282(4) 0.4962(3) 0.6881(7)
H17 H 1.0136 0.5287 0.6304
C23 C 1.1048(4) 0.4606(3) 0.7100(7)
H18 H 1.1243 0.4304 0.7742
H19 H 1.0807 0.4441 0.6239
C24 C 1.1885(5) 0.4990(3) 0.7664(8)
H20 H 1.2372 0.4772 0.7804
H21 H 1.1692 0.5287 0.7011
C25 C 1.2260(6) 0.5247(4) 0.9012(7)
H22 H 1.2749 0.5517 0.9329
H23 H 1.2522 0.4955 0.9700
C26 C 1.1440(5) 0.5548(3) 0.8789(7)
H24 H 1.1667 0.5704 0.9651
H25 H 1.1209 0.5856 0.8146
C27 C 1.0703(5) 0.5167(3) 0.8278(7)
H26 H 1.0941 0.4845 0.8903
N4 N 0.9933(4) 0.5448(3) 0.8117(6)
H27 H 0.9813 0.5800 0.7896
C28 C 0.9443(3) 0.5166(2) 0.8308(5)
H28 H 0.9698 0.4828 0.8786
C29 C 0.5446(4) 0.5253(3) 0.3061(6)
H29 H 0.4931 0.5156 0.2961
N5 N 0.5386(4) 0.5703(4) 0.2515(6)
H30 H 0.5748 0.5759 0.2346
C30 C 0.4739(5) 0.6121(5) 0.2169(7)
H31 H 0.4243 0.5934 0.2081
C31 C 0.4282(5) 0.6413(5) 0.0835(8)
H32 H 0.4758 0.6578 0.0860
H33 H 0.3937 0.6140 0.0096
C32 C 0.3646(8) 0.6854(6) 0.0570(14)
H34 H 0.3462 0.7081 -0.0195
H35 H 0.3087 0.6678 0.0300
C33 C 0.4004(7) 0.7195(5) 0.1636(13)
H36 H 0.3495 0.7425 0.1402
H37 H 0.4435 0.7449 0.1711
C34 C 0.4510(5) 0.6954(5) 0.3050(9)
H38 H 0.4828 0.7249 0.3739
H39 H 0.4078 0.6763 0.3086
C35 C 0.5149(5) 0.6575(4) 0.3250(7)
H40 H 0.5574 0.6796 0.3230
N6 N 0.5735(3) 0.6293(3) 0.4601(6)
H41 H 0.5476 0.6178 0.4911
C36 C 0.6636(6) 0.6210(3) 0.5347(8)
H42 H 0.6933 0.6413 0.5117
C37 C 0.8133(8) 0.6620(4) 0.4306(11)
H43 H 0.7919 0.6337 0.4593
Cl1 Cl 0.9292(3) 0.6385(2) 0.4978(4)
Cl2 Cl 0.8314(4) 0.72030(15) 0.5137(5)
Cl3 Cl 0.7445(3) 0.6574(2) 0.2654(4)
C38 C 0.8374(11) 0.3214(6) 0.4375(15)
H44 H 0.8296 0.3322 0.5021
Cl4 Cl 0.9541(3) 0.33110(16) 0.5148(5)
Cl5 Cl 0.7660(4) 0.35603(16) 0.2997(4)
Cl6 Cl 0.8090(5) 0.24680(17) 0.3953(8)
Cl7? Cl 0.6979(4) 0.6989(3) 0.2962(6)
Cl8? Cl 0.8401(5) 0.6373(3) 0.3455(9)
Cl9? Cl 0.8976(6) 0.7006(6) 0.5489(7)
C39? C 0.97119(17) 0.34563(11) 0.9122(2)
Cl10? Cl 0.97119(17) 0.34563(11) 0.9122(2)
Cl11? Cl 0.9063(2) 0.28049(13) 0.8421(4)
Cl12? Cl 1.0500(2) 0.35187(18) 0.8903(4)
C40? C 0.4638(8) 0.4588(6) 0.9365(11)
Cl13? Cl 0.5673(2) 0.49497(19) 1.0472(4)
Cl14? Cl 0.4333(3) 0.43228(18) 1.0284(4)
Cl15? Cl 0.4804(3) 0.39790(16) 0.8738(5)
C41? C 0.9321(11) 0.6836(7) 0.878(2)
Cl16? Cl 0.9153(4) 0.66259(14) 0.9816(5)
Cl17? Cl 0.9409(3) 0.76130(14) 0.8964(5)

#END

