
#######################################################################
#
#                 Cambridge Crystallographic Data Centre
#                                CCDC 
#
#######################################################################
#
# If this CIF has been generated directly or indirectly from an entry in the 
# Cambridge Structural Database, then it will include bibliographic, chemical, 
# crystal, experimental, refinement or atomic coordinate data resulting from 
# the CCDC's data processing and validation procedures. Files generated from 
# CSD entries are Copyright 2015 Cambridge Crystallographic Data Centre. They 
# may be used in bona fide research applications only, and may not be copied or 
# further disseminated in any form, whether machine-readable or not, except for 
# the purposes of generating routine backup copies on your local computer 
# system.
# 
# Files arising from any other source may also contain material that is the 
# copyright of third parties, including the originator, and you should check 
# with the originator concerning the permitted uses of the information 
# contained in this CIF.
#
# For further information on the CCDC and the free tools enCIFer and Mercury
# for validating and visualising CIF files, please visit www.ccdc.cam.ac.uk
#
#######################################################################

data_GANDAC
_audit_creation_date             2012-03-13
_database_code_depnum_ccdc_archive 'CCDC 867149'
_chemical_formula_moiety         'C120 H96 N12'
_chemical_name_systematic        
6,7,17,18,28,29,39,40,47,48,55,56-Dodecaphenyl-5,8,16,19,27,30,38,41,46,49,54,57-dodecaazaheptacyclo[21.21.6.6^12,34^.1^3,43^.1^10,14^.1^21,25^.1^32,36^]hexaconta-1,3(51),4,8,10(60),11,13,15,19,21(59),22,24,26,30,32(52),33,35,37,41,43,45,49,53,57-tetracosaene
_journal_coden_Cambridge         4
_journal_volume                  133
_journal_year                    2011
_journal_page_first              16566
_journal_name_full               J.Am.Chem.Soc.
loop_
_publ_author_name
M.J.Bojdys
M.E.Briggs
J.T.A.Jones
D.J.Adams
S.Y.Chong
M.Schmidtmann
A.I.Cooper
_chemical_absolute_configuration unk
_diffrn_ambient_temperature      298
_exptl_crystal_density_meas      1.022
_exptl_crystal_density_diffrn    1.022
#These two values have been output from a single CSD field.
_refine_ls_R_factor_gt           0.0421
_refine_ls_wR_factor_gt          0.0421
_diffrn_radiation_probe          x-ray
_diffrn_source                   'synchrotron radiation'
_symmetry_cell_setting           rhombohedral
_symmetry_space_group_name_H-M   'R 3'
_symmetry_Int_Tables_number      146
loop_
_symmetry_equiv_pos_site_id
_symmetry_equiv_pos_as_xyz
1 x,y,z
2 -y,x-y,z
3 -x+y,-x,z
4 2/3+x,1/3+y,1/3+z
5 2/3-y,1/3+x-y,1/3+z
6 2/3-x+y,1/3-x,1/3+z
7 1/3+x,2/3+y,2/3+z
8 1/3-y,2/3+x-y,2/3+z
9 1/3-x+y,2/3-x,2/3+z
_cell_length_a                   29.494(5)
_cell_length_b                   29.494(5)
_cell_length_c                   11.036(3)
_cell_angle_alpha                90
_cell_angle_beta                 90
_cell_angle_gamma                120
_cell_volume                     8313.99
_exptl_crystal_colour            colorless
_exptl_crystal_description       needle
_cell_formula_units_Z            3
loop_
_atom_site_label
_atom_site_type_symbol
_atom_site_fract_x
_atom_site_fract_y
_atom_site_fract_z
N1 N 0.45384(16) 0.79812(14) -0.0638(3)
N2 N 0.49005(12) 0.85855(13) 0.1568(3)
N3 N 0.36829(15) 0.84076(13) 0.6452(4)
N4 N 0.25831(14) 0.77711(19) 0.6116(3)
C1 C 0.38619(15) 0.6850(2) -0.0536(4)
H1 H 0.4221 0.6975 -0.0538
C2 C 0.36843(19) 0.72067(16) -0.0534(3)
C3 C 0.4051(2) 0.77717(18) -0.0545(4)
H2 H 0.3911 0.7992 -0.0478
C4 C 0.48395(16) 0.85526(17) -0.0650(4)
H3 H 0.4598 0.8688 -0.0575
C5 C 0.52143(16) 0.87410(16) 0.0443(4)
H4 H 0.5438 0.8583 0.0420
C6 C 0.49537(16) 0.82770(17) 0.2272(4)
H5 H 0.5165 0.8142 0.2029
C7 C 0.46951(17) 0.81232(16) 0.3461(4)
C8 C 0.48428(15) 0.78640(16) 0.4267(4)
H6 H 0.5079 0.7760 0.4023
C9 C 0.46422(17) 0.77540(16) 0.5454(4)
C10 C 0.42957(18) 0.79080(15) 0.5792(4)
H7 H 0.4158 0.7834 0.6573
C11 C 0.41416(16) 0.81735(16) 0.4998(4)
C12 C 0.43445(19) 0.82751(15) 0.3827(4)
H8 H 0.4242 0.8448 0.3284
C13 C 0.37933(18) 0.83723(16) 0.5357(5)
H9 H 0.3646 0.8477 0.4752
C14 C 0.3331(2) 0.8614(2) 0.6658(4)
H10 H 0.3276 0.8748 0.5894
C15 C 0.2806(2) 0.8158(2) 0.7103(4)
H11 H 0.2869 0.7995 0.7809
C16 C 0.24888(16) 0.7316(2) 0.6328(4)
H12 H 0.2578 0.7246 0.7085
C17 C 0.5148(2) 0.8758(2) -0.1807(5)
C18 C 0.5488(3) 0.8592(2) -0.2143(6)
H13 H 0.5520 0.8348 -0.1672
C19 C 0.5791(4) 0.8793(4) -0.3208(10)
H14 H 0.6008 0.8668 -0.3474
C20 C 0.5759(5) 0.9170(5) -0.3830(13)
H15 H 0.5975 0.9318 -0.4501
C21 C 0.5420(5) 0.9344(4) -0.3513(9)
H16 H 0.5403 0.9602 -0.3963
C22 C 0.5106(3) 0.9124(3) -0.2507(6)
H17 H 0.4863 0.9224 -0.2298
C23 C 0.5548(2) 0.93327(18) 0.0403(4)
C24 C 0.6063(2) 0.9564(2) 0.0063(4)
H18 H 0.6212 0.9356 -0.0077
C25 C 0.6360(3) 1.0090(3) -0.0076(5)
H19 H 0.6711 1.0238 -0.0292
C26 C 0.6152(4) 1.0403(3) 0.0096(6)
H20 H 0.6352 1.0761 -0.0043
C27 C 0.5647(4) 1.0188(3) 0.0475(7)
H21 H 0.5505 1.0401 0.0629
C28 C 0.5342(2) 0.9645(2) 0.0632(5)
H22 H 0.4997 0.9498 0.0894
C29 C 0.3570(2) 0.9057(2) 0.7588(7)
C30 C 0.3748(2) 0.8996(3) 0.8654(8)
H23 H 0.3729 0.8679 0.8834
C31 C 0.3964(3) 0.9403(5) 0.9507(9)
H24 H 0.4098 0.9362 1.0234
C32 C 0.3973(5) 0.9854(5) 0.9260(13)
H25 H 0.4104 1.0122 0.9832
C33 C 0.3799(6) 0.9920(4) 0.8213(13)
H26 H 0.3814 1.0237 0.8054
C34 C 0.3591(3) 0.9525(3) 0.7333(7)
H27 H 0.3470 0.9577 0.6597
C35 C 0.2427(2) 0.8337(2) 0.7442(6)
C36 C 0.2328(3) 0.8375(3) 0.8629(7)
H28 H 0.2502 0.8295 0.9218
C37 C 0.1972(4) 0.8531(5) 0.8993(10)
H29 H 0.1886 0.8533 0.9802
C38 C 0.1754(6) 0.8683(7) 0.8059(17)
H30 H 0.1539 0.8818 0.8272
C39 C 0.1835(5) 0.8645(5) 0.6890(14)
H31 H 0.1661 0.8725 0.6299
C40 C 0.2192(3) 0.8481(3) 0.6574(7)
H32 H 0.2269 0.8469 0.5762
N1A N 0.20188 0.65572 -0.0638
N1B N 0.34428 0.54616 -0.0638
N2A N 0.14145 0.6315 0.1568
N2B N 0.3685 0.50995 0.1568
N3A N 0.15924 0.52753 0.6452
N3B N 0.47247 0.63171 0.6452
N4A N 0.22289 0.4812 0.6116
N4B N 0.5188 0.74169 0.6116
C1A C 0.315 0.70119 -0.0536
C1B C 0.29881 0.61381 -0.0536
H1A H 0.3025 0.7246 -0.0538
H1B H 0.2754 0.5779 -0.0538
C2A C 0.27933 0.64776 -0.0534
C2B C 0.35224 0.63157 -0.0534
C3A C 0.22283 0.62793 -0.0545
C3B C 0.37207 0.5949 -0.0545
H2A H 0.2008 0.5919 -0.0478
H2B H 0.4081 0.6089 -0.0478
C4A C 0.14474 0.62869 -0.065
C4B C 0.37131 0.51605 -0.065
H3A H 0.1312 0.591 -0.0575
H3B H 0.409 0.5402 -0.0575
C5A C 0.1259 0.64733 0.0443
C5B C 0.35267 0.47857 0.0443
H4A H 0.1417 0.6855 0.042
H4B H 0.3145 0.4562 0.042
C6A C 0.1723 0.66767 0.2272
C6B C 0.33233 0.50463 0.2272
H5A H 0.1858 0.7023 0.2029
H5B H 0.2977 0.4835 0.2029
C7A C 0.18768 0.65719 0.3461
C7B C 0.34281 0.53049 0.3461
C8A C 0.2136 0.69788 0.4267
C8B C 0.30212 0.51572 0.4267
H6A H 0.224 0.7319 0.4023
H6B H 0.2681 0.4921 0.4023
C9A C 0.2246 0.68882 0.5454
C9B C 0.31118 0.53578 0.5454
C10A C 0.2092 0.63877 0.5792
C10B C 0.36123 0.57043 0.5792
H7A H 0.2166 0.6324 0.6573
H7B H 0.3676 0.5842 0.6573
C11A C 0.18265 0.59681 0.4998
C11B C 0.40319 0.58584 0.4998
C12A C 0.17249 0.60694 0.3827
C12B C 0.39306 0.56555 0.3827
H8A H 0.1552 0.5794 0.3284
H8B H 0.4206 0.5758 0.3284
C13A C 0.16277 0.5421 0.5357
C13B C 0.4579 0.62067 0.5357
H9A H 0.1523 0.5169 0.4752
H9B H 0.4831 0.6354 0.4752
C14A C 0.1386 0.4717 0.6658
C14B C 0.5283 0.6669 0.6658
H10A H 0.1252 0.4528 0.5894
H10B H 0.5472 0.6724 0.5894
C15A C 0.1842 0.4648 0.7103
C15B C 0.5352 0.7194 0.7103
H11A H 0.2005 0.4874 0.7809
H11B H 0.5126 0.7131 0.7809
C16A C 0.2684 0.51728 0.6328
C16B C 0.48272 0.75112 0.6328
H12A H 0.2754 0.5332 0.7085
H12B H 0.4668 0.7422 0.7085
C17A C 0.1242 0.639 -0.1807
C17B C 0.361 0.4852 -0.1807
C18A C 0.1408 0.6896 -0.2143
C18B C 0.3104 0.4512 -0.2143
H13A H 0.1652 0.7172 -0.1672
H13B H 0.2828 0.448 -0.1672
C19A C 0.1207 0.6998 -0.3208
C19B C 0.3002 0.4209 -0.3208
H14A H 0.1332 0.734 -0.3474
H14B H 0.266 0.3992 -0.3474
C20A C 0.083 0.6589 -0.383
C20B C 0.3411 0.4241 -0.383
H15A H 0.0682 0.6657 -0.4501
H15B H 0.3343 0.4025 -0.4501
C21A C 0.0656 0.6076 -0.3513
C21B C 0.3924 0.458 -0.3513
H16A H 0.0398 0.5801 -0.3963
H16B H 0.4199 0.4597 -0.3963
C22A C 0.0876 0.5982 -0.2507
C22B C 0.4018 0.4894 -0.2507
H17A H 0.0776 0.5639 -0.2298
H17B H 0.4361 0.5137 -0.2298
C23A C 0.06673 0.62153 0.0403
C23B C 0.37847 0.4452 0.0403
C24A C 0.0436 0.6499 0.0063
C24B C 0.3501 0.3937 0.0063
H18A H 0.0644 0.6856 -0.0077
H18B H 0.3144 0.3788 -0.0077
C25A C -0.009 0.627 -0.0076
C25B C 0.373 0.364 -0.0076
H19A H -0.0238 0.6473 -0.0292
H19B H 0.3527 0.3289 -0.0292
C26A C -0.0403 0.5749 0.0096
C26B C 0.4251 0.3848 0.0096
H20A H -0.0761 0.5591 -0.0043
H20B H 0.4409 0.3648 -0.0043
C27A C -0.0188 0.5459 0.0475
C27B C 0.4541 0.4353 0.0475
H21A H -0.0401 0.5104 0.0629
H21B H 0.4896 0.4495 0.0629
C28A C 0.0355 0.5697 0.0632
C28B C 0.4303 0.4658 0.0632
H22A H 0.0502 0.5499 0.0894
H22B H 0.4501 0.5003 0.0894
C29A C 0.0943 0.4513 0.7588
C29B C 0.5487 0.643 0.7588
C30A C 0.1004 0.4752 0.8654
C30B C 0.5248 0.6252 0.8654
H23A H 0.1321 0.505 0.8834
H23B H 0.495 0.6271 0.8834
C31A C 0.0597 0.4561 0.9507
C31B C 0.5439 0.6036 0.9507
H24A H 0.0638 0.4736 1.0234
H24B H 0.5264 0.5902 1.0234
C32A C 0.0146 0.4119 0.926
C32B C 0.5881 0.6027 0.926
H25A H -0.0122 0.3982 0.9832
H25B H 0.6018 0.5896 0.9832
C33A C 0.008 0.3879 0.8213
C33B C 0.6121 0.6201 0.8213
H26A H -0.0237 0.3577 0.8054
H26B H 0.6423 0.6186 0.8054
C34A C 0.0475 0.4066 0.7333
C34B C 0.5934 0.6409 0.7333
H27A H 0.0423 0.3893 0.6597
H27B H 0.6107 0.653 0.6597
C35A C 0.1663 0.409 0.7442
C35B C 0.591 0.7573 0.7442
C36A C 0.1625 0.3953 0.8629
C36B C 0.6047 0.7672 0.8629
H28A H 0.1705 0.4207 0.9218
H28B H 0.5793 0.7498 0.9218
C37A C 0.1469 0.3441 0.8993
C37B C 0.6559 0.8028 0.8993
H29A H 0.1467 0.3353 0.9802
H29B H 0.6647 0.8114 0.9802
C38A C 0.1317 0.3071 0.8059
C38B C 0.6929 0.8246 0.8059
H30A H 0.1182 0.2721 0.8272
H30B H 0.7279 0.8461 0.8272
C39A C 0.1355 0.319 0.689
C39B C 0.681 0.8165 0.689
H31A H 0.1275 0.2936 0.6299
H31B H 0.7064 0.8339 0.6299
C40A C 0.1519 0.3711 0.6574
C40B C 0.6289 0.7808 0.6574
H32A H 0.1531 0.38 0.5762
H32B H 0.62 0.7731 0.5762

#END

