
#######################################################################
#
#                 Cambridge Crystallographic Data Centre
#                                CCDC 
#
#######################################################################
#
# If this CIF has been generated directly or indirectly from an entry in the 
# Cambridge Structural Database, then it will include bibliographic, chemical, 
# crystal, experimental, refinement or atomic coordinate data resulting from 
# the CCDC's data processing and validation procedures. Files generated from 
# CSD entries are Copyright 2015 Cambridge Crystallographic Data Centre. They 
# may be used in bona fide research applications only, and may not be copied or 
# further disseminated in any form, whether machine-readable or not, except for 
# the purposes of generating routine backup copies on your local computer 
# system.
# 
# Files arising from any other source may also contain material that is the 
# copyright of third parties, including the originator, and you should check 
# with the originator concerning the permitted uses of the information 
# contained in this CIF.
#
# For further information on the CCDC and the free tools enCIFer and Mercury
# for validating and visualising CIF files, please visit www.ccdc.cam.ac.uk
#
#######################################################################

data_NUNRIX
_audit_creation_date             1998-09-21
_database_code_depnum_ccdc_archive 'CCDC 131990'
_journal_coeditor_code           'IUCr KA0038'
_database_code_NBS               692217
_chemical_formula_moiety         'C48 H80 O40,x(C1 H4 O1),x(H2 O1)'
_chemical_name_systematic        '\g-Cyclodextrin methanol clathrate hydrate'
_journal_coden_Cambridge         622
_journal_volume                  54
_journal_year                    1998
_journal_page_first              450
_journal_name_full               'Acta Crystallogr.,Sect.B:Struct.Sci.'
loop_
_publ_author_name
T.Steiner
W.Saenger
_chemical_absolute_configuration unk
_diffrn_ambient_temperature      295
_exptl_crystal_density_diffrn    1.023
#These two values have been output from a single CSD field.
_refine_ls_R_factor_gt           0.086
_refine_ls_wR_factor_gt          0.086
_diffrn_radiation_probe          x-ray
_symmetry_cell_setting           tetragonal
_symmetry_space_group_name_H-M   'P 4 21 2'
_symmetry_Int_Tables_number      90
loop_
_symmetry_equiv_pos_site_id
_symmetry_equiv_pos_as_xyz
1 x,y,z
2 -x,-y,z
3 1/2-y,1/2+x,z
4 1/2+y,1/2-x,z
5 1/2-x,1/2+y,-z
6 1/2+x,1/2-y,-z
7 y,x,-z
8 -y,-x,-z
_cell_length_a                   23.808(4)
_cell_length_b                   23.808(4)
_cell_length_c                   23.140(3)
_cell_angle_alpha                90
_cell_angle_beta                 90
_cell_angle_gamma                90
_cell_volume                     13116.2
_exptl_crystal_colour            colorless
_exptl_crystal_description       'square bipyramid'
_cell_formula_units_Z            6
loop_
_atom_site_label
_atom_site_type_symbol
_atom_site_fract_x
_atom_site_fract_y
_atom_site_fract_z
C13 C 0.6360(4) 0.2569(4) 0.6272(4)
H19 H 0.6725(4) 0.2744(4) 0.6193(4)
C14 C 0.6104(5) 0.2853(5) 0.6784(5)
H20 H 0.6073(5) 0.3253(5) 0.6693(5)
C15 C 0.5500(5) 0.2626(5) 0.6875(4)
H21 H 0.5515(5) 0.2230(5) 0.6992(4)
C16 C 0.5172(4) 0.2681(5) 0.6329(4)
H22 H 0.5129(4) 0.3079(5) 0.6230(4)
C17 C 0.5468(5) 0.2380(5) 0.5848(3)
H23 H 0.5501(5) 0.1984(5) 0.5958(3)
C18 C 0.5165(6) 0.2406(5) 0.5261(5)
H24 H 0.5356(6) 0.2164(5) 0.4986(5)
H25 H 0.4783(6) 0.2273(5) 0.5304(5)
O13 O 0.6428(3) 0.2804(3) 0.7300(3)
O14 O 0.5219(3) 0.2953(4) 0.7320(3)
O15 O 0.4635(3) 0.2439(3) 0.6431(3)
O16 O 0.6037(3) 0.2606(4) 0.5783(3)
O17 O 0.5160(5) 0.2959(5) 0.5050(4)
C19 C 0.4165(5) 0.2765(4) 0.6266(4)
H28 H 0.4290(5) 0.3149(4) 0.6186(4)
C20 C 0.3771(5) 0.2775(4) 0.6770(5)
H29 H 0.3456(5) 0.3022(4) 0.6670(5)
C21 C 0.3535(5) 0.2190(4) 0.6885(4)
H30 H 0.3838(5) 0.1928(4) 0.6981(4)
C22 C 0.3239(5) 0.2008(4) 0.6326(4)
H31 H 0.2933(5) 0.2269(4) 0.6233(4)
C23 C 0.3666(5) 0.2008(5) 0.5854(4)
H32 H 0.3971(5) 0.1753(5) 0.5965(4)
C24 C 0.3431(6) 0.1813(6) 0.5277(4)
H33 H 0.3729(6) 0.1805(6) 0.4992(4)
H34 H 0.3283(6) 0.1435(6) 0.5316(4)
O19 O 0.4022(3) 0.2986(3) 0.7287(3)
O20 O 0.3114(3) 0.2194(3) 0.7336(2)
O21 O 0.6452(3) 0.1980(3) 0.6415(3)
O22 O 0.3894(4) 0.2555(3) 0.5778(3)
O23 O 0.3006(5) 0.2173(5) 0.5093(4)
C22C C 0.7008 0.1761 0.6326
C21C C 0.719 0.1465 0.6885
C20C C 0.7775 0.1229 0.677
C19C C 0.7765 0.0835 0.6266
O15C O 0.7439 0.0365 0.6431
C16C C 0.7681 -0.0172 0.6329
C15C C 0.7626 -0.05 0.6875
C14C C 0.7853 -0.1104 0.6784
C13C C 0.7569 -0.136 0.6272
H19C H 0.7744 -0.1725 0.6193
O16C O 0.7606 -0.1037 0.5783
C17C C 0.738 -0.0468 0.5848
H22C H 0.8079 -0.0129 0.623
H23C H 0.6984 -0.0501 0.5958
C18C C 0.7406 -0.0165 0.5261
H24C H 0.7164 -0.0356 0.4986
H25C H 0.7273 0.0217 0.5304
O17C O 0.7959 -0.016 0.505
O21C O 0.698 -0.1452 0.6415
C22A C 0.6761 -0.2008 0.6326
C21A C 0.6465 -0.219 0.6885
C20A C 0.6229 -0.2775 0.677
C19A C 0.5835 -0.2765 0.6266
O15A O 0.5365 -0.2439 0.6431
C16A C 0.4828 -0.2681 0.6329
C15A C 0.45 -0.2626 0.6875
C14A C 0.3896 -0.2853 0.6784
C13A C 0.364 -0.2569 0.6272
H19A H 0.3275 -0.2744 0.6193
O16A O 0.3963 -0.2606 0.5783
C17A C 0.4532 -0.238 0.5848
H22A H 0.4871 -0.3079 0.623
H23A H 0.4499 -0.1984 0.5958
C18A C 0.4835 -0.2406 0.5261
H24A H 0.4644 -0.2164 0.4986
H25A H 0.5217 -0.2273 0.5304
O17A O 0.484 -0.2959 0.505
O21A O 0.3548 -0.198 0.6415
C22B C 0.2992 -0.1761 0.6326
C21B C 0.281 -0.1465 0.6885
C20B C 0.2225 -0.1229 0.677
C19B C 0.2235 -0.0835 0.6266
O15B O 0.2561 -0.0365 0.6431
C16B C 0.2319 0.0172 0.6329
C15B C 0.2374 0.05 0.6875
C14B C 0.2147 0.1104 0.6784
C13B C 0.2431 0.136 0.6272
H19B H 0.2256 0.1725 0.6193
O16B O 0.2394 0.1037 0.5783
C17B C 0.262 0.0468 0.5848
H22B H 0.1921 0.0129 0.623
H23B H 0.3016 0.0501 0.5958
C18B C 0.2594 0.0165 0.5261
H24B H 0.2836 0.0356 0.4986
H25B H 0.2727 -0.0217 0.5304
O17B O 0.2041 0.016 0.505
O21B O 0.302 0.1452 0.6415
H20B H 0.1747 0.1073 0.6693
O13B O 0.2196 0.1428 0.73
H21B H 0.277 0.0515 0.6992
O14B O 0.2047 0.0219 0.732
H28B H 0.1851 -0.071 0.6186
O22B O 0.2445 -0.1106 0.5778
C23B C 0.2992 -0.1334 0.5854
H31B H 0.2731 -0.2067 0.6233
H32B H 0.3247 -0.1029 0.5965
C24B C 0.3187 -0.1569 0.5277
H33B H 0.3195 -0.1271 0.4992
H34B H 0.3565 -0.1717 0.5316
O23B O 0.2827 -0.1994 0.5093
H29B H 0.1978 -0.1544 0.667
O19B O 0.2014 -0.0978 0.7287
H30B H 0.3072 -0.1162 0.6981
O20B O 0.2806 -0.1886 0.7336
H20A H 0.3927 -0.3253 0.6693
O13A O 0.3572 -0.2804 0.73
H21A H 0.4485 -0.223 0.6992
O14A O 0.4781 -0.2953 0.732
H28A H 0.571 -0.3149 0.6186
O22A O 0.6106 -0.2555 0.5778
C23A C 0.6334 -0.2008 0.5854
H31A H 0.7067 -0.2269 0.6233
H32A H 0.6029 -0.1753 0.5965
C24A C 0.6569 -0.1813 0.5277
H33A H 0.6271 -0.1805 0.4992
H34A H 0.6717 -0.1435 0.5316
O23A O 0.6994 -0.2173 0.5093
H29A H 0.6544 -0.3022 0.667
O19A O 0.5978 -0.2986 0.7287
H30A H 0.6162 -0.1928 0.6981
O20A O 0.6886 -0.2194 0.7336
H20C H 0.8253 -0.1073 0.6693
O13C O 0.7804 -0.1428 0.73
H21C H 0.723 -0.0515 0.6992
O14C O 0.7953 -0.0219 0.732
H28C H 0.8149 0.071 0.6186
O22C O 0.7555 0.1106 0.5778
C23C C 0.7008 0.1334 0.5854
H31C H 0.7269 0.2067 0.6233
H32C H 0.6753 0.1029 0.5965
C24C C 0.6813 0.1569 0.5277
H33C H 0.6805 0.1271 0.4992
H34C H 0.6435 0.1717 0.5316
O23C O 0.7173 0.1994 0.5093
H29C H 0.8022 0.1544 0.667
O19C O 0.7986 0.0978 0.7287
H30C H 0.6928 0.1162 0.6981
O20C O 0.7194 0.1886 0.7336
C25 C 0.7381(5) 0.1607(4) 0.2816(4)
H37 H 0.7519(5) 0.1987(4) 0.2900(4)
C26 C 0.7734(5) 0.1367(5) 0.2318(4)
H38 H 0.8133(5) 0.1389(5) 0.2420(4)
C27 C 0.7580(5) 0.0777(4) 0.2218(5)
H39 H 0.7192(5) 0.0754(4) 0.2082(5)
C28 C 0.7650(5) 0.0422(5) 0.2765(4)
H40 H 0.8043(5) 0.0421(5) 0.2889(4)
C29 C 0.7272(6) 0.0712(5) 0.3231(5)
H41 H 0.6877(6) 0.0706(5) 0.3113(5)
C30 C 0.7346(9) 0.0443(6) 0.3826(6)
H42 H 0.7104(9) 0.0634(6) 0.4099(6)
H43 H 0.7226(9) 0.0054(6) 0.3806(6)
O25 O 0.7636(4) 0.1696(3) 0.1807(3)
O26 O 0.7960(4) 0.0538(3) 0.1782(3)
O27 O 0.7470(3) -0.0117(3) 0.2661(3)
O28 O 0.7465(3) 0.1279(3) 0.3304(3)
O29 O 0.7910(8) 0.0463(6) 0.4033(5)
C31 C 0.7852(5) -0.0564(5) 0.2822(4)
H44 H 0.8221(5) -0.0402(5) 0.2908(4)
C32 C 0.7905(4) -0.0958(5) 0.2312(4)
H45 H 0.8196(4) -0.1234(5) 0.2405(4)
C33 C 0.7376(4) -0.1265(5) 0.2209(4)
H46 H 0.7086(4) -0.0991(5) 0.2105(4)
C34 C 0.7198(5) -0.1552(5) 0.2762(4)
H47 H 0.7474(5) -0.1839(5) 0.2874(4)
C35 C 0.7123(4) -0.1129(5) 0.3241(5)
H48 H 0.6838(4) -0.0855(5) 0.3124(5)
C36 C 0.6961(5) -0.1377(5) 0.3825(4)
H49 H 0.6917(5) -0.1076(5) 0.4104(4)
H50 H 0.6603(5) -0.1568(5) 0.3790(4)
O30 O 0.8084(3) -0.0655(3) 0.1820(3)
O31 O 0.7428(3) -0.1655(3) 0.1749(3)
O32 O 0.6813(3) 0.1651(3) 0.2639(3)
O33 O 0.7653(3) -0.0845(3) 0.3315(3)
O34 O 0.7368(4) -0.1757(4) 0.4024(3)
C34B C 0.6552 0.2198 0.2762
C33B C 0.6265 0.2376 0.2209
C32B C 0.5958 0.2905 0.2312
C31B C 0.5564 0.2852 0.2822
O27B O 0.5117 0.247 0.2661
C28B C 0.4578 0.265 0.2765
C27B C 0.4223 0.258 0.2218
C26B C 0.3633 0.2734 0.2318
C25B C 0.3393 0.2381 0.2816
H37B H 0.3013 0.2519 0.29
O28B O 0.3721 0.2465 0.3304
C29B C 0.4288 0.2272 0.3231
H40B H 0.4579 0.3043 0.2889
H41B H 0.4294 0.1877 0.3113
C30B C 0.4557 0.2346 0.3826
H42B H 0.4366 0.2104 0.4099
H43B H 0.4946 0.2226 0.3806
O29B O 0.4537 0.291 0.4033
O32B O 0.3349 0.1813 0.2639
C34A C 0.2802 0.1552 0.2762
C33A C 0.2624 0.1265 0.2209
C32A C 0.2095 0.0958 0.2312
C31A C 0.2148 0.0564 0.2822
O27A O 0.253 0.0117 0.2661
C28A C 0.235 -0.0422 0.2765
C27A C 0.242 -0.0777 0.2218
C26A C 0.2266 -0.1367 0.2318
C25A C 0.2619 -0.1607 0.2816
H37A H 0.2481 -0.1987 0.29
O28A O 0.2535 -0.1279 0.3304
C29A C 0.2728 -0.0712 0.3231
H40A H 0.1957 -0.0421 0.2889
H41A H 0.3123 -0.0706 0.3113
C30A C 0.2654 -0.0443 0.3826
H42A H 0.2896 -0.0634 0.4099
H43A H 0.2774 -0.0054 0.3806
O29A O 0.209 -0.0463 0.4033
O32A O 0.3187 -0.1651 0.2639
C34C C 0.3448 -0.2198 0.2762
C33C C 0.3735 -0.2376 0.2209
C32C C 0.4042 -0.2905 0.2312
C31C C 0.4436 -0.2852 0.2822
O27C O 0.4883 -0.247 0.2661
C28C C 0.5422 -0.265 0.2765
C27C C 0.5777 -0.258 0.2218
C26C C 0.6367 -0.2734 0.2318
C25C C 0.6607 -0.2381 0.2816
H37C H 0.6987 -0.2519 0.29
O28C O 0.6279 -0.2465 0.3304
C29C C 0.5712 -0.2272 0.3231
H40C H 0.5421 -0.3043 0.2889
H41C H 0.5706 -0.1877 0.3113
C30C C 0.5443 -0.2346 0.3826
H42C H 0.5634 -0.2104 0.4099
H43C H 0.5054 -0.2226 0.3806
O29C O 0.5463 -0.291 0.4033
O32C O 0.6651 -0.1813 0.2639
H38C H 0.6389 -0.3133 0.242
O25C O 0.6696 -0.2636 0.1807
H39C H 0.5754 -0.2192 0.2082
O26C O 0.5538 -0.296 0.1782
H44C H 0.4598 -0.3221 0.2908
O33C O 0.4155 -0.2653 0.3315
C35C C 0.3871 -0.2123 0.3241
H47C H 0.3161 -0.2474 0.2874
H48C H 0.4145 -0.1838 0.3124
C36C C 0.3623 -0.1961 0.3825
H49C H 0.3924 -0.1917 0.4104
H50C H 0.3432 -0.1603 0.379
O34C O 0.3243 -0.2368 0.4024
H45C H 0.3766 -0.3196 0.2405
O30C O 0.4345 -0.3084 0.182
H46C H 0.4009 -0.2086 0.2105
O31C O 0.3345 -0.2428 0.1749
H38A H 0.1867 -0.1389 0.242
O25A O 0.2364 -0.1696 0.1807
H39A H 0.2808 -0.0754 0.2082
O26A O 0.204 -0.0538 0.1782
H44A H 0.1779 0.0402 0.2908
O33A O 0.2347 0.0845 0.3315
C35A C 0.2877 0.1129 0.3241
H47A H 0.2526 0.1839 0.2874
H48A H 0.3162 0.0855 0.3124
C36A C 0.3039 0.1377 0.3825
H49A H 0.3083 0.1076 0.4104
H50A H 0.3397 0.1568 0.379
O34A O 0.2632 0.1757 0.4024
H45A H 0.1804 0.1234 0.2405
O30A O 0.1916 0.0655 0.182
H46A H 0.2914 0.0991 0.2105
O31A O 0.2572 0.1655 0.1749
H38B H 0.3611 0.3133 0.242
O25B O 0.3304 0.2636 0.1807
H39B H 0.4246 0.2192 0.2082
O26B O 0.4462 0.296 0.1782
H44B H 0.5402 0.3221 0.2908
O33B O 0.5845 0.2653 0.3315
C35B C 0.6129 0.2123 0.3241
H47B H 0.6839 0.2474 0.2874
H48B H 0.5855 0.1838 0.3124
C36B C 0.6377 0.1961 0.3825
H49B H 0.6076 0.1917 0.4104
H50B H 0.6568 0.1603 0.379
O34B O 0.6757 0.2368 0.4024
H45B H 0.6234 0.3196 0.2405
O30B O 0.5655 0.3084 0.182
H46B H 0.5991 0.2086 0.2105
O31B O 0.6655 0.2428 0.1749
C1 C 0.6663(5) 0.2384(5) 0.9516(4)
H1 H 0.6657(5) 0.2789(5) 0.9595(4)
C2 C 0.7038(4) 0.2272(5) 0.8998(4)
H2 H 0.7405(4) 0.2448(5) 0.9061(4)
C3 C 0.7116(5) 0.1628(4) 0.8917(3)
H3 H 0.6751(5) 0.1463(4) 0.8819(3)
C4 C 0.7319(4) 0.1369(5) 0.9462(4)
H4 H 0.7695(4) 0.1511(5) 0.9554(4)
C5 C 0.6913(4) 0.1504(4) 0.9962(4)
H5 H 0.6542(4) 0.1345(4) 0.9880(4)
C6 C 0.7119(6) 0.1300(5) 1.0551(4)
H6 H 0.6899(6) 0.1476(5) 1.0854(4)
H7 H 0.7068(6) 0.0897(5) 1.0579(4)
O1 O 0.6789(3) 0.2500(3) 0.8488(3)
O2 O 0.7496(3) 0.1526(3) 0.8451(3)
O3 O 0.7340(3) 0.0776(3) 0.9375(3)
O4 O 0.6876(3) 0.2103(3) 0.9998(3)
O5 O 0.7695(5) 0.1433(7) 1.0629(5)
C7 C 0.7844(5) 0.0518(5) 0.9505(4)
H10 H 0.8126(5) 0.0812(5) 0.9570(4)
C8 C 0.8039(4) 0.0156(5) 0.8996(4)
H11 H 0.8418(4) 0.0014(5) 0.9072(4)
C9 C 0.7643(5) -0.0332(5) 0.8894(4)
H12 H 0.7270(5) -0.0191(5) 0.8791(4)
C10 C 0.7609(5) -0.0684(6) 0.9467(5)
H13 H 0.7977(5) -0.0845(6) 0.9558(5)
C11 C 0.7417(4) -0.0294(5) 0.9955(3)
H14 H 0.7043(4) -0.0145(5) 0.9869(3)
C12 C 0.7416(6) -0.0576(6) 1.0542(4)
H15 H 0.7407(6) -0.0292(6) 1.0842(4)
H16 H 0.7082(6) -0.0806(6) 1.0579(4)
O7 O 0.8042(3) 0.0500(4) 0.8467(3)
O8 O 0.7854(3) -0.0683(4) 0.8443(3)
O9 O 0.6123(3) 0.2205(3) 0.9378(3)
O10 O 0.7819(3) 0.0170(4) 1.0013(3)
O11 O 0.7897(6) -0.0915(6) 1.0613(5)
C10B C 0.5684 0.2609 0.9467
C9B C 0.5332 0.2643 0.8894
C8B C 0.4844 0.3039 0.8996
C7B C 0.4482 0.2844 0.9505
O3B O 0.4224 0.234 0.9375
C4B C 0.3631 0.2319 0.9462
C3B C 0.3372 0.2116 0.8917
C2B C 0.2728 0.2038 0.8998
C1B C 0.2616 0.1663 0.9516
H1B H 0.2211 0.1657 0.9595
O4B O 0.2897 0.1876 0.9998
C5B C 0.3496 0.1913 0.9962
H4B H 0.3489 0.2695 0.9554
H5B H 0.3655 0.1542 0.988
C6B C 0.37 0.2119 1.0551
H6B H 0.3524 0.1899 1.0854
H7B H 0.4103 0.2068 1.0579
O5B O 0.3567 0.2695 1.0629
O9B O 0.2795 0.1123 0.9378
C10A C 0.2391 0.0684 0.9467
C9A C 0.2357 0.0332 0.8894
C8A C 0.1961 -0.0156 0.8996
C7A C 0.2156 -0.0518 0.9505
O3A O 0.266 -0.0776 0.9375
C4A C 0.2681 -0.1369 0.9462
C3A C 0.2884 -0.1628 0.8917
C2A C 0.2962 -0.2272 0.8998
C1A C 0.3337 -0.2384 0.9516
H1A H 0.3343 -0.2789 0.9595
O4A O 0.3124 -0.2103 0.9998
C5A C 0.3087 -0.1504 0.9962
H4A H 0.2305 -0.1511 0.9554
H5A H 0.3458 -0.1345 0.988
C6A C 0.2881 -0.13 1.0551
H6A H 0.3101 -0.1476 1.0854
H7A H 0.2932 -0.0897 1.0579
O5A O 0.2305 -0.1433 1.0629
O9A O 0.3877 -0.2205 0.9378
C10C C 0.4316 -0.2609 0.9467
C9C C 0.4668 -0.2643 0.8894
C8C C 0.5156 -0.3039 0.8996
C7C C 0.5518 -0.2844 0.9505
O3C O 0.5776 -0.234 0.9375
C4C C 0.6369 -0.2319 0.9462
C3C C 0.6628 -0.2116 0.8917
C2C C 0.7272 -0.2038 0.8998
C1C C 0.7384 -0.1663 0.9516
H1C H 0.7789 -0.1657 0.9595
O4C O 0.7103 -0.1876 0.9998
C5C C 0.6504 -0.1913 0.9962
H4C H 0.6511 -0.2695 0.9554
H5C H 0.6345 -0.1542 0.988
C6C C 0.63 -0.2119 1.0551
H6C H 0.6476 -0.1899 1.0854
H7C H 0.5897 -0.2068 1.0579
O5C O 0.6433 -0.2695 1.0629
O9C O 0.7205 -0.1123 0.9378
H2C H 0.7448 -0.2405 0.9061
O1C O 0.75 -0.1789 0.8488
H3C H 0.6463 -0.1751 0.8819
O2C O 0.6526 -0.2496 0.8451
H10C H 0.5812 -0.3126 0.957
O10C O 0.517 -0.2819 1.0013
C11C C 0.4706 -0.2417 0.9955
H13C H 0.4155 -0.2977 0.9558
H14C H 0.4855 -0.2043 0.9869
C12C C 0.4424 -0.2416 1.0542
H15C H 0.4708 -0.2407 1.0842
H16C H 0.4194 -0.2082 1.0579
O11C O 0.4085 -0.2897 1.0613
H11C H 0.5014 -0.3418 0.9072
O7C O 0.55 -0.3042 0.8467
H12C H 0.4809 -0.227 0.8791
O8C O 0.4317 -0.2854 0.8443
H2A H 0.2595 -0.2448 0.9061
O1A O 0.3211 -0.25 0.8488
H3A H 0.3249 -0.1463 0.8819
O2A O 0.2504 -0.1526 0.8451
H10A H 0.1874 -0.0812 0.957
O10A O 0.2181 -0.017 1.0013
C11A C 0.2583 0.0294 0.9955
H13A H 0.2023 0.0845 0.9558
H14A H 0.2957 0.0145 0.9869
C12A C 0.2584 0.0576 1.0542
H15A H 0.2593 0.0292 1.0842
H16A H 0.2918 0.0806 1.0579
O11A O 0.2103 0.0915 1.0613
H11A H 0.1582 -0.0014 0.9072
O7A O 0.1958 -0.05 0.8467
H12A H 0.273 0.0191 0.8791
O8A O 0.2146 0.0683 0.8443
H2B H 0.2552 0.2405 0.9061
O1B O 0.25 0.1789 0.8488
H3B H 0.3537 0.1751 0.8819
O2B O 0.3474 0.2496 0.8451
H10B H 0.4188 0.3126 0.957
O10B O 0.483 0.2819 1.0013
C11B C 0.5294 0.2417 0.9955
H13B H 0.5845 0.2977 0.9558
H14B H 0.5145 0.2043 0.9869
C12B C 0.5576 0.2416 1.0542
H15B H 0.5292 0.2407 1.0842
H16B H 0.5806 0.2082 1.0579
O11B O 0.5915 0.2897 1.0613
H11B H 0.4986 0.3418 0.9072
O7B O 0.45 0.3042 0.8467
H12B H 0.5191 0.227 0.8791
O8B O 0.5683 0.2854 0.8443

#END

