
#######################################################################
#
#                 Cambridge Crystallographic Data Centre
#                                CCDC 
#
#######################################################################
#
# If this CIF has been generated directly or indirectly from an entry in the 
# Cambridge Structural Database, then it will include bibliographic, chemical, 
# crystal, experimental, refinement or atomic coordinate data resulting from 
# the CCDC's data processing and validation procedures. Files generated from 
# CSD entries are Copyright 2016 Cambridge Crystallographic Data Centre. They 
# may be used in bona fide research applications only, and may not be copied or 
# further disseminated in any form, whether machine-readable or not, except for 
# the purposes of generating routine backup copies on your local computer 
# system.
# 
# Files arising from any other source may also contain material that is the 
# copyright of third parties, including the originator, and you should check 
# with the originator concerning the permitted uses of the information 
# contained in this CIF.
#
# For further information on the CCDC and the free tools enCIFer and Mercury
# for validating and visualising CIF files, please visit www.ccdc.cam.ac.uk
#
#######################################################################

data_EQEXIJ
_audit_creation_date             2016-06-27
_database_code_depnum_ccdc_archive 'CCDC 1475472'
_chemical_formula_moiety         'C106 H56 N6 O2,x(C7 H8),x(C6 H14)'
_chemical_name_systematic        
'1,28-bis(4-methoxyphenyl)-83,84,89,90,95,96-hexaazatetradecacyclo[26.26.26.2^2,5^.2^24,27^.2^29,32^.2^51,54^.2^55,58^.2^77,80^.1^8,12^.1^17,21^.1^35,39^.1^44,48^.1^61,65^.1^70,74^]octanonaconta-2,4,8(96),9,11,17(95),18,20,24,26,29,31,35(90),36,38,44(89),45,47,51,53,55,57,61(84),62,64,70(83),71,73,77,79,81,85,87,91,93,97-hexatriacontaene-6,13,15,22,33,40,42,49,59,66,68,75-dodecayne hexane toluene solvate'
_journal_coden_Cambridge         182
_journal_volume                  52
_journal_year                    2016
_journal_page_first              8850
_journal_name_full               Chem.Commun.
loop_
_publ_author_name
A.Burgun
P.Valente
J.D.Evans
D.M.Huang
C.J.Sumby
C.J.Doonan
_chemical_absolute_configuration unk
_diffrn_ambient_temperature      100
_exptl_crystal_density_diffrn    0.811
#These two values have been output from a single CSD field.
_refine_ls_R_factor_gt           0.1241
_refine_ls_wR_factor_gt          0.1241
_diffrn_radiation_probe          x-ray
_diffrn_source                   synchrotron
_symmetry_cell_setting           triclinic
_symmetry_space_group_name_H-M   'P -1'
_symmetry_Int_Tables_number      2
loop_
_symmetry_equiv_pos_site_id
_symmetry_equiv_pos_as_xyz
1 x,y,z
2 -x,-y,-z
_cell_length_a                   16.792(3)
_cell_length_b                   19.978(4)
_cell_length_c                   23.171(5)
_cell_angle_alpha                102.93(3)
_cell_angle_beta                 101.11(3)
_cell_angle_gamma                112.55(3)
_cell_volume                     6653.53
_exptl_crystal_colour            'pale brown'
_exptl_crystal_description       rod
_cell_formula_units_Z            2
_exptl_crystal_recrystallization_method toluene/hexane
loop_
_atom_site_label
_atom_site_type_symbol
_atom_site_fract_x
_atom_site_fract_y
_atom_site_fract_z
C1 C 1.4354(6) 0.3312(5) 0.8814(3)
H1 H 1.4327 0.2805 0.8646
H2 H 1.4472 0.3446 0.9266
H3 H 1.4841 0.3695 0.8722
O1 O 1.3498(3) 0.3296(3) 0.8529(2)
C2 C 1.3255(5) 0.3106(4) 0.7868(3)
C3 C 1.3728(5) 0.2963(4) 0.7510(3)
H4 H 1.4312 0.3003 0.7685
C4 C 1.3360(5) 0.2754(3) 0.6874(3)
H5 H 1.3698 0.2639 0.6615
C5 C 1.2524(4) 0.2703(3) 0.6593(3)
C6 C 1.2066(4) 0.2910(3) 0.6995(3)
H6 H 1.1511 0.2918 0.6819
C7 C 1.2383(5) 0.3099(4) 0.7624(3)
H7 H 1.2056 0.3220 0.7889
C8 C 1.2221(4) 0.2573(3) 0.5897(3)
C9 C 1.2821(4) 0.3352(4) 0.5835(3)
C10 C 1.2661(4) 0.3963(4) 0.6042(3)
H8 H 1.2169 0.3897 0.6205
C11 C 1.3198(5) 0.4692(4) 0.6022(3)
H9 H 1.3059 0.5109 0.6154
C12 C 1.3939(5) 0.4790(4) 0.5805(3)
C13 C 1.4129(4) 0.4187(4) 0.5605(3)
H10 H 1.4639 0.4263 0.5460
C14 C 1.3582(4) 0.3460(3) 0.5611(3)
H11 H 1.3713 0.3041 0.5469
C15 C 1.4493(5) 0.5565(5) 0.5794(3)
C16 C 1.4854(5) 0.6216(4) 0.5815(4)
C17 C 1.5259(5) 0.7012(4) 0.5857(5)
C18 C 1.5679(6) 0.7539(5) 0.6455(5)
H12 H 1.5692 0.7373 0.6809
C19 C 1.6086(6) 0.8325(5) 0.6526(4)
H13 H 1.6397 0.8711 0.6923
C20 C 1.6007(6) 0.8497(5) 0.5993(5)
H14 H 1.6273 0.9019 0.6013
C21 C 1.5549(5) 0.7934(5) 0.5421(4)
N1 N 1.5184(4) 0.7158(3) 0.5337(3)
C22 C 1.5460(4) 0.8111(4) 0.4833(4)
C23 C 1.5412(5) 0.8239(4) 0.4349(5)
C24 C 1.5336(5) 0.8353(4) 0.3806(5)
C25 C 1.5285(5) 0.8427(4) 0.3289(5)
C26 C 1.5133(6) 0.8446(6) 0.2647(4)
C27 C 1.5536(6) 0.9117(5) 0.2530(5)
H15 H 1.5921 0.9588 0.2857
C28 C 1.5360(7) 0.9081(5) 0.1917(6)
H16 H 1.5640 0.9534 0.1818
C29 C 1.4799(6) 0.8414(6) 0.1453(4)
H17 H 1.4667 0.8386 0.1028
C30 C 1.4412(5) 0.7753(5) 0.1639(4)
N2 N 1.4576(4) 0.7754(4) 0.2223(3)
C31 C 1.3811(7) 0.7010(7) 0.1199(4)
C32 C 1.3259(7) 0.6357(7) 0.0868(4)
C33 C 1.2206(5) 0.4236(4) 0.0084(4)
H18 H 1.2356 0.3823 0.0081
C34 C 1.2812(4) 0.4975(4) 0.0476(3)
H19 H 1.3377 0.5066 0.0742
C35 C 1.2593(5) 0.5579(3) 0.0480(3)
C36 C 1.1767(5) 0.5445(4) 0.0092(4)
H20 H 1.1617 0.5859 0.0094
C37 C 1.1161(4) 0.4707(4) -0.0301(3)
H21 H 1.0596 0.4615 -0.0567
C38 C 1.1380(4) 0.4102(3) -0.0305(3)
C39 C 1.0679(4) 0.3281(5) -0.0724(3)
C40 C 1.2299(4) 0.1890(3) 0.5500(3)
C41 C 1.2213(4) 0.1784(4) 0.4864(3)
H22 H 1.2147 0.2155 0.4691
C42 C 1.2225(4) 0.1151(4) 0.4493(3)
H23 H 1.2184 0.1093 0.4068
C43 C 1.2298(4) 0.0573(4) 0.4747(3)
C44 C 1.2322(4) 0.0666(4) 0.5347(3)
H24 H 1.2328 0.0271 0.5509
C45 C 1.2336(4) 0.1294(4) 0.5726(3)
H25 H 1.2372 0.1338 0.6149
C46 C 1.2352(4) -0.0047(5) 0.4350(4)
C47 C 1.2430(4) -0.0587(5) 0.4007(4)
C48 C 1.2560(4) -0.1165(5) 0.3600(3)
N3 N 1.2694(3) -0.0985(3) 0.3087(3)
C49 C 1.2837(4) -0.1503(6) 0.2706(4)
C50 C 1.2852(5) -0.2177(4) 0.2806(4)
H26 H 1.2995 -0.2506 0.2525
C51 C 1.2662(6) -0.2327(5) 0.3301(4)
H27 H 1.2609 -0.2793 0.3365
C52 C 1.2538(5) -0.1786(5) 0.3734(4)
H28 H 1.2441 -0.1862 0.4109
C53 C 1.3022(5) -0.1280(4) 0.2152(4)
C54 C 1.3178(6) -0.1039(5) 0.1730(4)
C55 C 1.3314(6) -0.0792(5) 0.1277(4)
C56 C 1.3373(6) -0.0585(5) 0.0846(4)
C57 C 1.3074(5) 0.0357(4) -0.0308(3)
N4 N 1.3066(4) 0.0119(3) 0.0211(3)
C58 C 1.3463(5) -0.0358(4) 0.0310(3)
C59 C 1.3868(5) -0.0597(4) -0.0110(4)
H29 H 1.4139 -0.0923 -0.0042
C60 C 1.3875(6) -0.0358(5) -0.0629(4)
H30 H 1.4152 -0.0521 -0.0916
C61 C 1.3478(6) 0.0119(5) -0.0728(3)
H31 H 1.3484 0.0282 -0.1083
C62 C 1.2658(8) 0.0832(7) -0.0372(5)
C63 C 1.2321(8) 0.1214(7) -0.0439(5)
C64 C 1.0686(4) 0.2102(5) -0.0433(4)
H32 H 1.0161 0.2041 -0.0310
C65 C 1.1078(6) 0.1613(5) -0.0368(5)
H33 H 1.0820 0.1216 -0.0201
C66 C 1.1846(6) 0.1703(5) -0.0548(4)
C67 C 1.2223(4) 0.2283(5) -0.0792(3)
H34 H 1.2749 0.2344 -0.0914
C68 C 1.1832(5) 0.2772(3) -0.0857(3)
H35 H 1.2090 0.3169 -0.1024
C69 C 1.1064(5) 0.2682(4) -0.0677(3)
C70 C 1.1195(4) 0.2338(3) 0.5625(3)
C71 C 1.0864(4) 0.2606(3) 0.5182(3)
H36 H 1.1276 0.2991 0.5065
C72 C 0.9950(5) 0.2325(4) 0.4908(3)
H37 H 0.9731 0.2504 0.4596
C73 C 0.9339(4) 0.1767(4) 0.5093(3)
C74 C 0.9654(4) 0.1478(3) 0.5514(3)
H38 H 0.9242 0.1090 0.5629
C75 C 1.0604(4) 0.1761(3) 0.5780(3)
H39 H 1.0831 0.1551 0.6064
C76 C 0.8349(6) 0.1469(4) 0.4793(3)
C77 C 0.7544(5) 0.1191(4) 0.4547(3)
C78 C 0.6616(4) 0.0865(4) 0.4232(3)
N5 N 0.6382(4) 0.1028(3) 0.3714(2)
C79 C 0.5478(5) 0.0716(4) 0.3415(3)
C80 C 0.4832(4) 0.0242(4) 0.3610(3)
H40 H 0.4209 0.0033 0.3383
C81 C 0.5083(5) 0.0071(4) 0.4131(3)
H41 H 0.4638 -0.0258 0.4269
C82 C 0.5981(4) 0.0376(4) 0.4451(3)
H42 H 0.6174 0.0261 0.4814
C83 C 0.5274(4) 0.0906(4) 0.2870(4)
C84 C 0.5129(5) 0.1086(4) 0.2399(4)
C85 C 0.5057(4) 0.1329(4) 0.1915(4)
C86 C 0.5055(5) 0.1560(4) 0.1480(4)
C87 C 0.5149(6) 0.1965(4) 0.1008(3)
N6 N 0.5904(4) 0.2098(4) 0.0858(3)
C88 C 0.6051(5) 0.2468(5) 0.0445(3)
C89 C 0.5447(5) 0.2718(5) 0.0185(4)
H43 H 0.5566 0.2987 -0.0102
C90 C 0.4668(7) 0.2564(7) 0.0355(5)
H44 H 0.4240 0.2725 0.0184
C91 C 0.4514(6) 0.2175(6) 0.0775(4)
H45 H 0.3981 0.2059 0.0897
C92 C 0.6863(6) 0.2584(5) 0.0275(4)
C93 C 0.7512(6) 0.2692(5) 0.0108(4)
C94 C 0.8991(5) 0.2895(4) -0.0909(2)
H46 H 0.8933 0.2859 -0.1332
C95 C 0.8240(3) 0.2754(4) -0.0699(3)
H47 H 0.7668 0.2622 -0.0979
C96 C 0.8326(4) 0.2805(4) -0.0080(4)
C97 C 0.9163(5) 0.2998(5) 0.0330(3)
H48 H 0.9222 0.3033 0.0753
C98 C 0.9914(4) 0.3139(5) 0.0120(3)
H49 H 1.0486 0.3270 0.0400
C99 C 0.9828(4) 0.3087(4) -0.0499(3)
C100 C 1.0773(4) 0.3821(3) -0.1634(3)
H50 H 1.1136 0.4323 -0.1343
C101 C 1.0537(5) 0.3713(5) -0.2268(4)
H51 H 1.0739 0.4141 -0.2411
C102 C 1.0006(5) 0.2978(6) -0.2694(2)
C103 C 0.9710(4) 0.2352(4) -0.2485(4)
H52 H 0.9346 0.1850 -0.2776
C104 C 0.9946(4) 0.2461(4) -0.1851(4)
H53 H 0.9744 0.2033 -0.1708
C105 C 1.0477(4) 0.3195(5) -0.1425(2)
O2 O 0.9707(5) 0.2782(7) -0.3340(3)
C106 C 0.9972(13) 0.3492(10) -0.3548(6)
H54 H 0.9523 0.3690 -0.3528
H55 H 0.9992 0.3353 -0.3977
H56 H 1.0571 0.3888 -0.3272

#END

