
#######################################################################
#
#                 Cambridge Crystallographic Data Centre
#                                CCDC 
#
#######################################################################
#
# If this CIF has been generated directly or indirectly from an entry in the 
# Cambridge Structural Database, then it will include bibliographic, chemical, 
# crystal, experimental, refinement or atomic coordinate data resulting from 
# the CCDC's data processing and validation procedures. Files generated from 
# CSD entries are Copyright 2015 Cambridge Crystallographic Data Centre. They 
# may be used in bona fide research applications only, and may not be copied or 
# further disseminated in any form, whether machine-readable or not, except for 
# the purposes of generating routine backup copies on your local computer 
# system.
# 
# Files arising from any other source may also contain material that is the 
# copyright of third parties, including the originator, and you should check 
# with the originator concerning the permitted uses of the information 
# contained in this CIF.
#
# For further information on the CCDC and the free tools enCIFer and Mercury
# for validating and visualising CIF files, please visit www.ccdc.cam.ac.uk
#
#######################################################################

data_XOTJAT
_audit_creation_date             2014-11-20
_database_code_depnum_ccdc_archive 'CCDC 1011901'
_chemical_name_common            
'BlueCage Coronene hexakis(hexafluorophosphate) unknown solvate'
_chemical_formula_moiety         'C60 H48 N12 6+,C24 H12,6(F6 P1 1-)'
_chemical_name_systematic        
'2,19,21,38,59,66-hexaaza-7,14,26,33,42,49-hexaazoniatridecacyclo[18.18.14.2^4,7^.2^9,12^.2^14,17^.2^23,26^.2^28,31^.2^33,36^.2^39,42^.2^44,47^.2^49,52^.1^3,37^.1^18,22^]doheptaconta-1,3(59),4,6,9,11,14,16,18(66),19,21,23,25,28,30,33,35,37,39,41,44,46,49,51,53,55,57,60,62,64,67,69,71-tritriacontaene coronene hexakis(hexafluorophosphate) unknown solvate'
_journal_coden_Cambridge         179
_journal_year                    2014
_journal_name_full               Angew.Chem.,Int.Ed.
loop_
_publ_author_name
N.Hafezi
J.M.Holcroft
K.J.Hartlieb
E.J.Dale
N.A.Vermeulen
C.L.Stern
A.A.Sarjeant
'J.Fraser Stoddart'
_chemical_absolute_configuration unk
_diffrn_ambient_temperature      100
_exptl_crystal_density_meas      1.294
_exptl_crystal_density_diffrn    1.294
#These two values have been output from a single CSD field.
_refine_ls_R_factor_gt           0.0931
_refine_ls_wR_factor_gt          0.0931
_diffrn_radiation_probe          x-ray
_symmetry_cell_setting           rhombohedral
_symmetry_space_group_name_H-M   'R -3 c'
_symmetry_Int_Tables_number      167
loop_
_symmetry_equiv_pos_site_id
_symmetry_equiv_pos_as_xyz
1 x,y,z
2 -y,x-y,z
3 -x+y,-x,z
4 x-y,-y,1/2-z
5 -x,-x+y,1/2-z
6 y,x,1/2-z
7 2/3+x,1/3+y,1/3+z
8 2/3-y,1/3+x-y,1/3+z
9 2/3-x+y,1/3-x,1/3+z
10 2/3+x-y,1/3-y,5/6-z
11 2/3-x,1/3-x+y,5/6-z
12 2/3+y,1/3+x,5/6-z
13 1/3+x,2/3+y,2/3+z
14 1/3-y,2/3+x-y,2/3+z
15 1/3-x+y,2/3-x,2/3+z
16 1/3+x-y,2/3-y,1/6-z
17 1/3-x,2/3-x+y,1/6-z
18 1/3+y,2/3+x,1/6-z
19 -x,-y,-z
20 y,-x+y,-z
21 x-y,x,-z
22 -x+y,y,1/2+z
23 x,x-y,1/2+z
24 -y,-x,1/2+z
25 1/3-x,2/3-y,2/3-z
26 1/3+y,2/3-x+y,2/3-z
27 1/3+x-y,2/3+x,2/3-z
28 1/3-x+y,2/3+y,1/6+z
29 1/3+x,2/3+x-y,1/6+z
30 1/3-y,2/3-x,1/6+z
31 2/3-x,1/3-y,1/3-z
32 2/3+y,1/3-x+y,1/3-z
33 2/3+x-y,1/3+x,1/3-z
34 2/3-x+y,1/3+y,5/6+z
35 2/3+x,1/3+x-y,5/6+z
36 2/3-y,1/3-x,5/6+z
_cell_length_a                   30.1019(10)
_cell_length_b                   30.1019(10)
_cell_length_c                   41.3504(18)
_cell_angle_alpha                90
_cell_angle_beta                 90
_cell_angle_gamma                120
_cell_volume                     32448.8
_exptl_crystal_colour            purple
_exptl_crystal_description       prism
_cell_formula_units_Z            12
loop_
_atom_site_label
_atom_site_type_symbol
_atom_site_fract_x
_atom_site_fract_y
_atom_site_fract_z
N1 N 0.87723(17) 0.4285(2) 0.03424(13)
N2 N 0.69505(17) 0.38591(16) 0.04291(12)
N3 N 0.87514(19) 0.4092(2) -0.11983(12)
N4 N 0.70011(17) 0.38523(16) -0.12652(12)
C1 C 0.8502(2) 0.3779(3) 0.03814(15)
H1 H 0.8670 0.3583 0.0385
C2 C 0.7977(2) 0.3539(2) 0.04165(15)
H2 H 0.7784 0.3177 0.0442
C3 C 0.7731(2) 0.3818(2) 0.04143(14)
C4 C 0.8020(2) 0.4350(2) 0.03864(15)
H3 H 0.7857 0.4552 0.0395
C5 C 0.8549(2) 0.4583(2) 0.03460(15)
H4 H 0.8752 0.4944 0.0321
C6 C 0.71754(19) 0.35658(19) 0.04289(14)
C7 C 0.9334(2) 0.4532(3) 0.02670(17)
H5 H 0.9485 0.4349 0.0380
H6 H 0.9514 0.4894 0.0339
C8 C 0.9389(2) 0.4504(3) -0.00953(17)
C9 C 0.9365(2) 0.4060(3) -0.02292(18)
H7 H 0.9353 0.3802 -0.0091
C10 C 0.9360(2) 0.4003(3) -0.05670(18)
H8 H 0.9336 0.3703 -0.0660
C11 C 0.9390(2) 0.4395(3) -0.07638(17)
C12 C 0.9443(2) 0.4848(3) -0.06312(18)
H9 H 0.9481 0.5118 -0.0768
C13 C 0.9441(2) 0.4896(3) -0.02954(17)
H10 H 0.9475 0.5201 -0.0203
C14 C 0.9313(2) 0.4298(3) -0.11290(16)
H11 H 0.9524 0.4622 -0.1249
H12 H 0.9415 0.4047 -0.1196
C15 C 0.8436(2) 0.3578(3) -0.12075(16)
H13 H 0.8575 0.3356 -0.1195
C16 C 0.7916(2) 0.3375(3) -0.12340(16)
H14 H 0.7692 0.3015 -0.1238
C17 C 0.7722(2) 0.3712(2) -0.12546(15)
C18 C 0.8060(2) 0.4238(2) -0.12526(16)
H15 H 0.7937 0.4472 -0.1268
C19 C 0.8576(2) 0.4410(2) -0.12282(16)
H16 H 0.8811 0.4769 -0.1233
C20 C 0.7163(2) 0.3514(2) -0.12645(14)
N1A N 0.5715 0.44873 0.03424
N2A N 0.61409 0.30914 0.04291
N3A N 0.5908 0.46594 -0.11983
N4A N 0.61477 0.31488 -0.12652
C1A C 0.6221 0.4723 0.03814
H1A H 0.6417 0.5087 0.0385
C2A C 0.6461 0.4438 0.04165
H2A H 0.6823 0.4607 0.0442
C3A C 0.6182 0.3913 0.04143
C4A C 0.565 0.367 0.03864
H3A H 0.5448 0.3305 0.0395
C5A C 0.5417 0.3966 0.0346
H4A H 0.5056 0.3808 0.0321
C6A C 0.64342 0.36096 0.04289
C7A C 0.5468 0.4802 0.0267
H5A H 0.5651 0.5136 0.038
H6A H 0.5106 0.462 0.0339
C8A C 0.5496 0.4885 -0.00953
C9A C 0.594 0.5305 -0.02292
H7A H 0.6198 0.5551 -0.0091
C10A C 0.5997 0.5357 -0.0567
H8A H 0.6297 0.5633 -0.066
C11A C 0.5605 0.4995 -0.07638
C12A C 0.5152 0.4595 -0.06312
H9A H 0.4882 0.4363 -0.0768
C13A C 0.5104 0.4545 -0.02954
H10A H 0.4799 0.4274 -0.0203
C14A C 0.5702 0.5015 -0.1129
H11A H 0.5378 0.4902 -0.1249
H12A H 0.5953 0.5368 -0.1196
C15A C 0.6422 0.4858 -0.12075
H13A H 0.6644 0.5219 -0.1195
C16A C 0.6625 0.4541 -0.1234
H14A H 0.6985 0.4677 -0.1238
C17A C 0.6288 0.401 -0.12546
C18A C 0.5762 0.3822 -0.12526
H15A H 0.5528 0.3465 -0.1268
C19A C 0.559 0.4166 -0.12282
H16A H 0.5231 0.4042 -0.1233
C20A C 0.6486 0.3649 -0.12645
N1B N 0.55127 0.12277 0.03424
N2B N 0.69086 0.30495 0.04291
N3B N 0.53406 0.12486 -0.11983
N4B N 0.68512 0.29989 -0.12652
C1B C 0.5277 0.1498 0.03814
H1B H 0.4913 0.133 0.0385
C2B C 0.5562 0.2023 0.04165
H2B H 0.5393 0.2216 0.0442
C3B C 0.6087 0.2269 0.04143
C4B C 0.633 0.198 0.03864
H3B H 0.6695 0.2143 0.0395
C5B C 0.6034 0.1451 0.0346
H4B H 0.6192 0.1248 0.0321
C6B C 0.63904 0.28246 0.04289
C7B C 0.5198 0.0666 0.0267
H5B H 0.4864 0.0515 0.038
H6B H 0.538 0.0486 0.0339
C8B C 0.5115 0.0611 -0.00953
C9B C 0.4695 0.0635 -0.02292
H7B H 0.4449 0.0647 -0.0091
C10B C 0.4643 0.064 -0.0567
H8B H 0.4367 0.0664 -0.066
C11B C 0.5005 0.061 -0.07638
C12B C 0.5405 0.0557 -0.06312
H9B H 0.5637 0.0519 -0.0768
C13B C 0.5455 0.0559 -0.02954
H10B H 0.5726 0.0525 -0.0203
C14B C 0.4985 0.0687 -0.1129
H11B H 0.5098 0.0476 -0.1249
H12B H 0.4632 0.0585 -0.1196
C15B C 0.5142 0.1564 -0.12075
H13B H 0.4781 0.1425 -0.1195
C16B C 0.5459 0.2084 -0.1234
H14B H 0.5323 0.2308 -0.1238
C17B C 0.599 0.2278 -0.12546
C18B C 0.6178 0.194 -0.12526
H15B H 0.6535 0.2063 -0.1268
C19B C 0.5834 0.1424 -0.12282
H16B H 0.5958 0.1189 -0.1233
C20B C 0.6351 0.2837 -0.12645
C21 C 0.7944(3) 0.4541(3) -0.04166(17)
H17 H 0.8305 0.4765 -0.0413
C22 C 0.7738(3) 0.4015(3) -0.04215(18)
C23 C 0.8082(3) 0.3832(3) -0.04205(16)
H18 H 0.8441 0.4063 -0.0423
C24 C 0.7870(3) 0.3260(3) -0.04155(17)
H19 H 0.8094 0.3122 -0.0411
C25 C 0.7350(3) 0.2944(3) -0.04173(19)
C26 C 0.7175(3) 0.2422(3) -0.04166(17)
H20 H 0.7408 0.2295 -0.0416
C27 C 0.7003(3) 0.3134(3) -0.04202(17)
C28 C 0.7201(2) 0.3674(3) -0.04182(16)
C21A C 0.5459 0.3403 -0.04166
H17A H 0.5235 0.354 -0.0413
C22A C 0.5985 0.3723 -0.04215
C23A C 0.6168 0.425 -0.04205
H18A H 0.5937 0.4378 -0.0423
C24A C 0.674 0.461 -0.04155
H19A H 0.6878 0.4972 -0.0411
C25A C 0.7056 0.4406 -0.04173
C26A C 0.7578 0.4753 -0.04166
H20A H 0.7705 0.5113 -0.0416
C27A C 0.6866 0.3869 -0.04202
C28A C 0.6326 0.3527 -0.04182
C21B C 0.6597 0.2056 -0.04166
H17B H 0.646 0.1695 -0.0413
C22B C 0.6277 0.2262 -0.04215
C23B C 0.575 0.1918 -0.04205
H18B H 0.5622 0.1559 -0.0423
C24B C 0.539 0.213 -0.04155
H19B H 0.5028 0.1906 -0.0411
C25B C 0.5594 0.265 -0.04173
C26B C 0.5247 0.2825 -0.04166
H20B H 0.4887 0.2592 -0.0416
C27B C 0.6131 0.2997 -0.04202
C28B C 0.6473 0.2799 -0.04182

#END

