
#######################################################################
#
#                 Cambridge Crystallographic Data Centre
#                                CCDC 
#
#######################################################################
#
# If this CIF has been generated directly or indirectly from an entry in the 
# Cambridge Structural Database, then it will include bibliographic, chemical, 
# crystal, experimental, refinement or atomic coordinate data resulting from 
# the CCDC's data processing and validation procedures. Files generated from 
# CSD entries are Copyright 2015 Cambridge Crystallographic Data Centre. They 
# may be used in bona fide research applications only, and may not be copied or 
# further disseminated in any form, whether machine-readable or not, except for 
# the purposes of generating routine backup copies on your local computer 
# system.
# 
# Files arising from any other source may also contain material that is the 
# copyright of third parties, including the originator, and you should check 
# with the originator concerning the permitted uses of the information 
# contained in this CIF.
#
# For further information on the CCDC and the free tools enCIFer and Mercury
# for validating and visualising CIF files, please visit www.ccdc.cam.ac.uk
#
#######################################################################

data_FIFTAR
_audit_creation_date             2013-08-09
_database_code_depnum_ccdc_archive 'CCDC 955292'
_chemical_formula_moiety         'C132 H108 Br12 N12 O12,7(C1 H2 Cl2)'
_chemical_name_systematic        
'5,8,16,19,27,30,38,41,46,49,54,57-dodecakis(4-Bromobenzoyl)-5,8,16,19,27,30,38,41,46,49,54,57-dodecaazaheptacyclo[21.21.6.6^12,34^.1^3,43^.1^10,14^.1^21,25^.1^32,36^]hexaconta-1,3(51),10(60),11,13,21(59),22,24,32(52),33,35,43-dodecaene dichloromethane solvate'
_journal_coden_Cambridge         4
_journal_volume                  135
_journal_year                    2013
_journal_page_first              10007
_journal_name_full               J.Am.Chem.Soc.
loop_
_publ_author_name
J.L.Culshaw
'Ge Cheng'
M.Schmidtmann
T.Hasell
'Ming Liu'
D.J.Adams
A.I.Cooper
_chemical_absolute_configuration unk
_diffrn_ambient_temperature      100
_exptl_crystal_density_meas      1.561
_exptl_crystal_density_diffrn    1.561
#These two values have been output from a single CSD field.
_refine_ls_R_factor_gt           0.0587
_refine_ls_wR_factor_gt          0.0587
_diffrn_radiation_probe          x-ray
_symmetry_cell_setting           cubic
_symmetry_space_group_name_H-M   'I 2 3'
_symmetry_Int_Tables_number      197
loop_
_symmetry_equiv_pos_site_id
_symmetry_equiv_pos_as_xyz
1 x,y,z
2 -x,-y,z
3 -x,y,-z
4 x,-y,-z
5 z,x,y
6 z,-x,-y
7 -z,-x,y
8 -z,x,-y
9 y,z,x
10 -y,z,-x
11 y,-z,-x
12 -y,-z,x
13 1/2+x,1/2+y,1/2+z
14 1/2-x,1/2-y,1/2+z
15 1/2-x,1/2+y,1/2-z
16 1/2+x,1/2-y,1/2-z
17 1/2+z,1/2+x,1/2+y
18 1/2+z,1/2-x,1/2-y
19 1/2-z,1/2-x,1/2+y
20 1/2-z,1/2+x,1/2-y
21 1/2+y,1/2+z,1/2+x
22 1/2-y,1/2+z,1/2-x
23 1/2+y,1/2-z,1/2-x
24 1/2-y,1/2-z,1/2+x
_cell_length_a                   19.7269(4)
_cell_length_b                   19.7269(4)
_cell_length_c                   19.7269(4)
_cell_angle_alpha                90
_cell_angle_beta                 90
_cell_angle_gamma                90
_cell_volume                     7676.73
_exptl_crystal_colour            colorless
_exptl_crystal_description       rhombohedron
_cell_formula_units_Z            2
_chemical_properties_physical    air-sensitive
loop_
_atom_site_label
_atom_site_type_symbol
_atom_site_fract_x
_atom_site_fract_y
_atom_site_fract_z
O1 O 0.42682(18) 0.15818(18) 0.56128(16)
N1 N 0.42855(16) 0.22444(16) 0.46719(16)
C1 C 0.40617(18) 0.32813(19) 0.31428(18)
H1 H 0.4452 0.3136 0.2901
C2 C 0.38511(18) 0.29265(17) 0.37063(18)
C3 C 0.4254(2) 0.23119(19) 0.39329(19)
H2 H 0.4044 0.1899 0.3740
H3 H 0.4720 0.2346 0.3752
C4 C 0.4617(2) 0.2801(2) 0.5035(2)
H4 H 0.4499 0.2770 0.5522
H5 H 0.4438 0.3237 0.4862
C5 C 0.41403(19) 0.1665(2) 0.5009(2)
C6 C 0.38088(19) 0.11047(18) 0.4620(2)
C7 C 0.3862(2) 0.0059(2) 0.3994(2)
H6 H 0.4111 -0.0262 0.3735
Br1 Br 0.27966(9) -0.07795(8) 0.36724(10)
C8 C 0.3204(6) -0.0028(5) 0.4128(5)
C9 C 0.2825(4) 0.0398(6) 0.4485(5)
H7 H 0.2359 0.0296 0.4556
C10 C 0.3116(8) 0.1041(6) 0.4779(4)
H8 H 0.2864 0.1361 0.5037
C11 C 0.4153(11) 0.0518(11) 0.4352(6)
H9 H 0.4623 0.0468 0.4446
O1B O 0.57318 0.15818 0.43872
N1B N 0.57145 0.22444 0.53281
C1B C 0.59383 0.32813 0.68572
H1B H 0.5548 0.3136 0.7099
C2B C 0.61489 0.29265 0.62937
C3B C 0.5746 0.23119 0.60671
H2B H 0.5956 0.1899 0.626
H3B H 0.528 0.2346 0.6248
C4B C 0.5383 0.2801 0.4965
H4B H 0.5501 0.277 0.4478
H5B H 0.5562 0.3237 0.5138
C5B C 0.58597 0.1665 0.4991
C6B C 0.61912 0.11047 0.538
C7B C 0.6138 0.0059 0.6006
H6B H 0.5889 -0.0262 0.6265
Br1B Br 0.72034 -0.07795 0.63276
C8B C 0.6796 -0.0028 0.5872
C9B C 0.7175 0.0398 0.5515
H7B H 0.7641 0.0296 0.5444
C10B C 0.6884 0.1041 0.5221
H8B H 0.7136 0.1361 0.4963
C11B C 0.5847 0.0518 0.5648
H9B H 0.5377 0.0468 0.5554
O1D O 0.56128 0.42682 0.15818
N1D N 0.46719 0.42855 0.22444
C1D C 0.31428 0.40617 0.32813
H1D H 0.2901 0.4452 0.3136
C2D C 0.37063 0.38511 0.29265
C3D C 0.39329 0.4254 0.23119
H2D H 0.374 0.4044 0.1899
H3D H 0.3752 0.472 0.2346
C4D C 0.5035 0.4617 0.2801
H4D H 0.5522 0.4499 0.277
H5D H 0.4862 0.4438 0.3237
C5D C 0.5009 0.41403 0.1665
C6D C 0.462 0.38088 0.11047
C7D C 0.3994 0.3862 0.0059
H6D H 0.3735 0.4111 -0.0262
Br1D Br 0.36724 0.27966 -0.07795
C8D C 0.4128 0.3204 -0.0028
C9D C 0.4485 0.2825 0.0398
H7D H 0.4556 0.2359 0.0296
C10D C 0.4779 0.3116 0.1041
H8D H 0.5037 0.2864 0.1361
C11D C 0.4352 0.4153 0.0518
H9D H 0.4446 0.4623 0.0468
O1G O 0.43872 0.42682 0.84182
N1G N 0.53281 0.42855 0.77556
C1G C 0.68572 0.40617 0.67187
H1G H 0.7099 0.4452 0.6864
C2G C 0.62937 0.38511 0.70735
C3G C 0.60671 0.4254 0.76881
H2G H 0.626 0.4044 0.8101
H3G H 0.6248 0.472 0.7654
C4G C 0.4965 0.4617 0.7199
H4G H 0.4478 0.4499 0.723
H5G H 0.5138 0.4438 0.6763
C5G C 0.4991 0.41403 0.8335
C6G C 0.538 0.38088 0.88953
C7G C 0.6006 0.3862 0.9941
H6G H 0.6265 0.4111 1.0262
Br1G Br 0.63276 0.27966 1.07795
C8G C 0.5872 0.3204 1.0028
C9G C 0.5515 0.2825 0.9602
H7G H 0.5444 0.2359 0.9704
C10G C 0.5221 0.3116 0.8959
H8G H 0.4963 0.2864 0.8639
C11G C 0.5648 0.4153 0.9482
H9G H 0.5554 0.4623 0.9532
O1H O 0.15818 0.56128 0.42682
N1H N 0.22444 0.46719 0.42855
C1H C 0.32813 0.31428 0.40617
H1H H 0.3136 0.2901 0.4452
C2H C 0.29265 0.37063 0.38511
C3H C 0.23119 0.39329 0.4254
H2H H 0.1899 0.374 0.4044
H3H H 0.2346 0.3752 0.472
C4H C 0.2801 0.5035 0.4617
H4H H 0.277 0.5522 0.4499
H5H H 0.3237 0.4862 0.4438
C5H C 0.1665 0.5009 0.41403
C6H C 0.11047 0.462 0.38088
C7H C 0.0059 0.3994 0.3862
H6H H -0.0262 0.3735 0.4111
Br1H Br -0.07795 0.36724 0.27966
C8H C -0.0028 0.4128 0.3204
C9H C 0.0398 0.4485 0.2825
H7H H 0.0296 0.4556 0.2359
C10H C 0.1041 0.4779 0.3116
H8H H 0.1361 0.5037 0.2864
C11H C 0.0518 0.4352 0.4153
H9H H 0.0468 0.4446 0.4623
O1J O 0.15818 0.43872 0.57318
N1J N 0.22444 0.53281 0.57145
C1J C 0.32813 0.68572 0.59383
H1J H 0.3136 0.7099 0.5548
C2J C 0.29265 0.62937 0.61489
C3J C 0.23119 0.60671 0.5746
H2J H 0.1899 0.626 0.5956
H3J H 0.2346 0.6248 0.528
C4J C 0.2801 0.4965 0.5383
H4J H 0.277 0.4478 0.5501
H5J H 0.3237 0.5138 0.5562
C5J C 0.1665 0.4991 0.58597
C6J C 0.11047 0.538 0.61912
C7J C 0.0059 0.6006 0.6138
H6J H -0.0262 0.6265 0.5889
Br1J Br -0.07795 0.63276 0.72034
C8J C -0.0028 0.5872 0.6796
C9J C 0.0398 0.5515 0.7175
H7J H 0.0296 0.5444 0.7641
C10J C 0.1041 0.5221 0.6884
H8J H 0.1361 0.4963 0.7136
C11J C 0.0518 0.5648 0.5847
H9J H 0.0468 0.5554 0.5377
O1C O 0.42682 0.84182 0.43872
N1C N 0.42855 0.77556 0.53281
C1C C 0.40617 0.67187 0.68572
H1C H 0.4452 0.6864 0.7099
C2C C 0.38511 0.70735 0.62937
C3C C 0.4254 0.76881 0.60671
H2C H 0.4044 0.8101 0.626
H3C H 0.472 0.7654 0.6248
C4C C 0.4617 0.7199 0.4965
H4C H 0.4499 0.723 0.4478
H5C H 0.4438 0.6763 0.5138
C5C C 0.41403 0.8335 0.4991
C6C C 0.38088 0.88953 0.538
C7C C 0.3862 0.9941 0.6006
H6C H 0.4111 1.0262 0.6265
Br1C Br 0.27966 1.07795 0.63276
C8C C 0.3204 1.0028 0.5872
C9C C 0.2825 0.9602 0.5515
H7C H 0.2359 0.9704 0.5444
C10C C 0.3116 0.8959 0.5221
H8C H 0.2864 0.8639 0.4963
C11C C 0.4153 0.9482 0.5648
H9C H 0.4623 0.9532 0.5554
O1E O 0.56128 0.57318 0.84182
N1E N 0.46719 0.57145 0.77556
C1E C 0.31428 0.59383 0.67187
H1E H 0.2901 0.5548 0.6864
C2E C 0.37063 0.61489 0.70735
C3E C 0.39329 0.5746 0.76881
H2E H 0.374 0.5956 0.8101
H3E H 0.3752 0.528 0.7654
C4E C 0.5035 0.5383 0.7199
H4E H 0.5522 0.5501 0.723
H5E H 0.4862 0.5562 0.6763
C5E C 0.5009 0.58597 0.8335
C6E C 0.462 0.61912 0.88953
C7E C 0.3994 0.6138 0.9941
H6E H 0.3735 0.5889 1.0262
Br1E Br 0.36724 0.72034 1.07795
C8E C 0.4128 0.6796 1.0028
C9E C 0.4485 0.7175 0.9602
H7E H 0.4556 0.7641 0.9704
C10E C 0.4779 0.6884 0.8959
H8E H 0.5037 0.7136 0.8639
C11E C 0.4352 0.5847 0.9482
H9E H 0.4446 0.5377 0.9532
O1F O 0.43872 0.57318 0.15818
N1F N 0.53281 0.57145 0.22444
C1F C 0.68572 0.59383 0.32813
H1F H 0.7099 0.5548 0.3136
C2F C 0.62937 0.61489 0.29265
C3F C 0.60671 0.5746 0.23119
H2F H 0.626 0.5956 0.1899
H3F H 0.6248 0.528 0.2346
C4F C 0.4965 0.5383 0.2801
H4F H 0.4478 0.5501 0.277
H5F H 0.5138 0.5562 0.3237
C5F C 0.4991 0.58597 0.1665
C6F C 0.538 0.61912 0.11047
C7F C 0.6006 0.6138 0.0059
H6F H 0.6265 0.5889 -0.0262
Br1F Br 0.63276 0.72034 -0.07795
C8F C 0.5872 0.6796 -0.0028
C9F C 0.5515 0.7175 0.0398
H7F H 0.5444 0.7641 0.0296
C10F C 0.5221 0.6884 0.1041
H8F H 0.4963 0.7136 0.1361
C11F C 0.5648 0.5847 0.0518
H9F H 0.5554 0.5377 0.0468
O1I O 0.84182 0.56128 0.57318
N1I N 0.77556 0.46719 0.57145
C1I C 0.67187 0.31428 0.59383
H1I H 0.6864 0.2901 0.5548
C2I C 0.70735 0.37063 0.61489
C3I C 0.76881 0.39329 0.5746
H2I H 0.8101 0.374 0.5956
H3I H 0.7654 0.3752 0.528
C4I C 0.7199 0.5035 0.5383
H4I H 0.723 0.5522 0.5501
H5I H 0.6763 0.4862 0.5562
C5I C 0.8335 0.5009 0.58597
C6I C 0.88953 0.462 0.61912
C7I C 0.9941 0.3994 0.6138
H6I H 1.0262 0.3735 0.5889
Br1I Br 1.07795 0.36724 0.72034
C8I C 1.0028 0.4128 0.6796
C9I C 0.9602 0.4485 0.7175
H7I H 0.9704 0.4556 0.7641
C10I C 0.8959 0.4779 0.6884
H8I H 0.8639 0.5037 0.7136
C11I C 0.9482 0.4352 0.5847
H9I H 0.9532 0.4446 0.5377
O1K O 0.84182 0.43872 0.42682
N1K N 0.77556 0.53281 0.42855
C1K C 0.67187 0.68572 0.40617
H1K H 0.6864 0.7099 0.4452
C2K C 0.70735 0.62937 0.38511
C3K C 0.76881 0.60671 0.4254
H2K H 0.8101 0.626 0.4044
H3K H 0.7654 0.6248 0.472
C4K C 0.7199 0.4965 0.4617
H4K H 0.723 0.4478 0.4499
H5K H 0.6763 0.5138 0.4438
C5K C 0.8335 0.4991 0.41403
C6K C 0.88953 0.538 0.38088
C7K C 0.9941 0.6006 0.3862
H6K H 1.0262 0.6265 0.4111
Br1K Br 1.07795 0.63276 0.27966
C8K C 1.0028 0.5872 0.3204
C9K C 0.9602 0.5515 0.2825
H7K H 0.9704 0.5444 0.2359
C10K C 0.8959 0.5221 0.3116
H8K H 0.8639 0.4963 0.2864
C11K C 0.9482 0.5648 0.4153
H9K H 0.9532 0.5554 0.4623
O1A O 0.57318 0.84182 0.56128
N1A N 0.57145 0.77556 0.46719
C1A C 0.59383 0.67187 0.31428
H1A H 0.5548 0.6864 0.2901
C2A C 0.61489 0.70735 0.37063
C3A C 0.5746 0.76881 0.39329
H2A H 0.5956 0.8101 0.374
H3A H 0.528 0.7654 0.3752
C4A C 0.5383 0.7199 0.5035
H4A H 0.5501 0.723 0.5522
H5A H 0.5562 0.6763 0.4862
C5A C 0.58597 0.8335 0.5009
C6A C 0.61912 0.88953 0.462
C7A C 0.6138 0.9941 0.3994
H6A H 0.5889 1.0262 0.3735
Br1A Br 0.72034 1.07795 0.36724
C8A C 0.6796 1.0028 0.4128
C9A C 0.7175 0.9602 0.4485
H7A H 0.7641 0.9704 0.4556
C10A C 0.6884 0.8959 0.4779
H8A H 0.7136 0.8639 0.5037
C11A C 0.5847 0.9482 0.4352
H9A H 0.5377 0.9532 0.4446
C12 C 0.3853(8) 0.2062(8) 0.7197(8)
H10 H 0.4189 0.1732 0.7370
H11 H 0.3762 0.1961 0.6714
Cl1 Cl 0.4144(2) 0.2867(2) 0.7290(3)
Cl2 Cl 0.3081(4) 0.2024(3) 0.7686(2)
C13? C 0.4195(15) 0.0692(11) 0.4269(8)
H12? H 0.4661 0.0786 0.4193
Br2? Br 0.27382(7) -0.06371(8) 0.33844(8)
C14? C 0.3197(6) 0.0097(5) 0.3840(4)
C15? C 0.2799(4) 0.0645(5) 0.4069(5)
H13? H 0.2330 0.0683 0.3968
C16? C 0.3123(5) 0.1102(5) 0.4436(4)
H14? H 0.2860 0.1473 0.4593
C17? C 0.330(5) 0.235(4) 0.688(2)
H15? H 0.2904 0.2586 0.6687
H16? H 0.3415 0.1965 0.6577
Cl3? Cl 0.4056(4) 0.2962(5) 0.6927(6)
C18? C 0.4652(6) 0.4652(6) 0.4652(6)
H17? H 0.4261 0.4629 0.4339
H18? H 0.5093 0.4511 0.4458
Cl4? Cl 0.4514(3) 0.4514(3) 0.5486(3)
Cl5? Cl 0.4652(6) 0.4652(6) 0.4652(6)

#END

