
#######################################################################
#
#                 Cambridge Crystallographic Data Centre
#                                CCDC 
#
#######################################################################
#
# If this CIF has been generated directly or indirectly from an entry in the 
# Cambridge Structural Database, then it will include bibliographic, chemical, 
# crystal, experimental, refinement or atomic coordinate data resulting from 
# the CCDC's data processing and validation procedures. Files generated from 
# CSD entries are Copyright 2015 Cambridge Crystallographic Data Centre. They 
# may be used in bona fide research applications only, and may not be copied or 
# further disseminated in any form, whether machine-readable or not, except for 
# the purposes of generating routine backup copies on your local computer 
# system.
# 
# Files arising from any other source may also contain material that is the 
# copyright of third parties, including the originator, and you should check 
# with the originator concerning the permitted uses of the information 
# contained in this CIF.
#
# For further information on the CCDC and the free tools enCIFer and Mercury
# for validating and visualising CIF files, please visit www.ccdc.cam.ac.uk
#
#######################################################################

data_YUTYAO
_audit_creation_date             2010-12-14
_database_code_depnum_ccdc_archive 'CCDC 786301'
_chemical_formula_moiety         'C138 H112 B4 O24,C16 H14 O4,C6 H6'
_chemical_name_systematic        
"(4,12-bis(5-(2-(1,3,2-benzodioxaborol-5-yl)ethyl)-1,3,2-benzodioxaborol-2-yl)-20,20',22,22',24,24'-hexabenzyl-20H,22H,24H-3,3',17,17'-bis((epoxymethanooxy)benzo[4,5][1,3]-benzodioxocino[9,8-d][1,3]-benzodioxocino[5,4-i][1,3]benzodioxocine)) 4,4'-diacetoxybiphenyl clathrate benzene solvate"
_journal_coden_Cambridge         4
_journal_volume                  132
_journal_year                    2010
_journal_page_first              777
_journal_name_full               J.Am.Chem.Soc.
loop_
_publ_author_name
N.Nishimura
K.Yoza
K.Kobayashi
_chemical_absolute_configuration unk
_diffrn_ambient_temperature      100
_exptl_crystal_density_diffrn    1.551
#These two values have been output from a single CSD field.
_refine_ls_R_factor_gt           0.0867
_refine_ls_wR_factor_gt          0.0867
_diffrn_radiation_probe          x-ray
_symmetry_cell_setting           triclinic
_symmetry_space_group_name_H-M   'P -1'
_symmetry_Int_Tables_number      2
loop_
_symmetry_equiv_pos_site_id
_symmetry_equiv_pos_as_xyz
1 x,y,z
2 -x,-y,-z
_cell_length_a                   15.453(2)
_cell_length_b                   16.161(2)
_cell_length_c                   24.311(3)
_cell_angle_alpha                76.646(2)
_cell_angle_beta                 86.741(2)
_cell_angle_gamma                67.404(2)
_cell_volume                     5450.28
_exptl_crystal_colour            colorless
_exptl_crystal_description       plate
_cell_formula_units_Z            2
_exptl_crystal_recrystallization_method benzene
loop_
_atom_site_label
_atom_site_type_symbol
_atom_site_fract_x
_atom_site_fract_y
_atom_site_fract_z
C35 C 0.9126(5) 0.0338(4) 0.0222(3)
H23 H 0.8522 0.0571 0.0373
C40 C 0.9798(5) 0.0660(4) 0.0310(3)
H29 H 0.9661 0.1114 0.0525
C44 C 0.9335(5) -0.0326(4) -0.0088(3)
H33 H 0.8874 -0.0553 -0.0149
C35A C 1.0874 -0.0338 -0.0222
H23A H 1.1478 -0.0571 -0.0373
C40A C 1.0202 -0.066 -0.031
H29A H 1.0339 -0.1114 -0.0525
C44A C 1.0665 0.0326 0.0088
H33A H 1.1126 0.0553 0.0149
C46 C 0.0286(5) 0.4937(6) 0.0539(3)
H34 H 0.0488 0.4891 0.0911
C47 C -0.0038(5) 0.5775(6) 0.0164(3)
H35 H -0.0068 0.6311 0.0276
C61 C 0.0321(5) 0.4161(6) 0.0381(3)
H46 H 0.0538 0.3583 0.0644
C46A C -0.0286 0.5063 -0.0539
H34A H -0.0488 0.5109 -0.0911
C47A C 0.0038 0.4225 -0.0164
H35A H 0.0068 0.3689 -0.0276
C61A C -0.0321 0.5839 -0.0381
H46A H -0.0538 0.6417 -0.0644
C84 C 0.1857(3) 0.0774(3) 0.23541(13)
H66 H 0.2019 0.0586 0.2747
C85 C 0.1339(3) 0.0390(2) 0.21243(17)
H67 H 0.1146 -0.0060 0.2360
C86 C 0.1102(3) 0.0666(3) 0.15492(18)
H68 H 0.0748 0.0403 0.1392
C87 C 0.1385(3) 0.1325(3) 0.12039(13)
H69 H 0.1223 0.1513 0.0811
C88 C 0.1903(3) 0.1708(2) 0.14337(16)
H70 H 0.2096 0.2159 0.1198
C89 C 0.2140(3) 0.1433(3) 0.20088(17)
H71 H 0.2494 0.1695 0.2166
C90 C 0.1901(3) 0.6386(3) 0.19239(19)
H72 H 0.2380 0.6030 0.2208
C91 C 0.1203(3) 0.6081(3) 0.18392(19)
H73 H 0.1204 0.5516 0.2065
C92 C 0.0502(3) 0.6603(3) 0.1424(2)
H74 H 0.0025 0.6394 0.1366
C93 C 0.0500(3) 0.7429(3) 0.10931(17)
H75 H 0.0022 0.7786 0.0809
C94 C 0.1199(4) 0.7734(3) 0.11778(19)
H76 H 0.1198 0.8299 0.0952
C95 C 0.1899(3) 0.7213(3) 0.1593(2)
H77 H 0.2377 0.7421 0.1651
C96 C 0.5153(2) 0.8314(3) 0.10457(18)
H78 H 0.5799 0.8160 0.0968
C97 C 0.4654(3) 0.7878(2) 0.08500(16)
H79 H 0.4959 0.7426 0.0638
C98 C 0.3710(3) 0.8104(3) 0.09641(17)
H80 H 0.3369 0.7806 0.0830
C99 C 0.3264(2) 0.8765(3) 0.12740(17)
H81 H 0.2619 0.8919 0.1352
C100 C 0.3763(3) 0.9201(2) 0.14698(16)
H82 H 0.3459 0.9653 0.1682
C101 C 0.4708(3) 0.8976(3) 0.13556(17)
H83 H 0.5049 0.9274 0.1489
C102 C 0.5744(4) 0.9057(4) 0.3089(3)
H84 H 0.5421 0.8682 0.3277
C103 C 0.5285(3) 0.9830(5) 0.2666(3)
H85 H 0.4648 0.9984 0.2565
C104 C 0.5757(4) 1.0378(4) 0.2391(3)
H86 H 0.5443 1.0907 0.2102
C105 C 0.6689(4) 1.0152(4) 0.2539(3)
H87 H 0.7012 1.0527 0.2351
C106 C 0.7149(3) 0.9379(4) 0.2962(3)
H88 H 0.7786 0.9224 0.3063
C107 C 0.6677(4) 0.8831(3) 0.3237(2)
H89 H 0.6991 0.8302 0.3526
C110 C 0.0439(6) -0.0148(5) 0.5382(4)
H95 H -0.2145 0.4117 0.2753
H96 H -0.3156 0.4070 0.2877
C115 C -0.222(3) 0.333(2) 0.3479(13)
C134 C -0.0409(7) 0.2233(5) 0.4379(4)
H117 H -0.0340 0.2802 0.4342
C135 C 0.0049(7) 0.1495(6) 0.4823(4)
H118 H 0.0431 0.1560 0.5089
C136 C -0.0053(7) 0.0662(5) 0.4878(3)
C137 C 0.0612(8) -0.0567(5) 0.5512(4)
C138 C 0.1070(7) -0.1304(6) 0.5956(4)
H120 H 0.1453 -0.1239 0.6222
C139 C -0.0969(7) 0.2137(5) 0.3989(3)
C140 C -0.253(2) 0.411(3) 0.301(2)
H123 H -0.2229 0.4557 0.2962
O17 O -0.1340(6) 0.2889(7) 0.3517(4)
O18 O -0.2733(8) 0.3079(9) 0.3880(5)
C110A C -0.0439 0.0148 0.4618
H95A H 0.2145 -0.4117 0.7247
H96A H 0.3156 -0.407 0.7123
C115A C 0.222 -0.333 0.6521
C134A C 0.0409 -0.2233 0.5621
H117A H 0.034 -0.2802 0.5658
C135A C -0.0049 -0.1495 0.5177
H118A H -0.0431 -0.156 0.4911
C136A C 0.0053 -0.0662 0.5122
C137A C -0.0612 0.0567 0.4488
C138A C -0.107 0.1304 0.4044
H120A H -0.1453 0.1239 0.3778
C139A C 0.0969 -0.2137 0.6011
C140A C 0.253 -0.411 0.699
H123A H 0.2229 -0.4557 0.7038
O17A O 0.134 -0.2889 0.6483
O18A O 0.2733 -0.3079 0.612
B1 B 0.1863(4) -0.1679(3) 0.7976(2)
B2 B 0.2248(9) -0.5558(8) 0.5436(4)
C1 C 0.2436(3) -0.4256(3) 0.8600(2)
C2 C 0.1989(3) -0.3312(3) 0.8417(2)
C3 C 0.3392(3) -0.4627(3) 0.8519(2)
H1 H 0.3716 -0.5274 0.8639
C4 C 0.1516(3) -0.5064(3) 0.8353(2)
C5 C 0.1877(3) -0.4840(3) 0.8845(2)
H2 H 0.1315 -0.4438 0.9016
C6 C 0.1020(3) -0.0317(3) 0.7466(2)
C7 C 0.2446(4) -0.2747(3) 0.8165(2)
C8 C 0.0535(4) 0.0421(3) 0.7041(2)
H3 H 0.0491 0.0349 0.6668
C9 C 0.3410(4) -0.3155(3) 0.8100(2)
C10 C 0.4947(4) -0.4534(4) 0.8173(3)
H4 H 0.5217 -0.4066 0.8183
C11 C 0.2389(4) -0.5678(4) 0.9317(2)
H5 H 0.2000 -0.6051 0.9424
H6 H 0.2988 -0.6065 0.9177
C12 C 0.0325(4) -0.4608(4) 0.7601(2)
C13 C 0.1668(4) -0.6051(4) 0.7699(2)
C14 C 0.3902(3) -0.4101(3) 0.8271(2)
C15 C 0.1090(4) -0.0236(3) 0.8004(2)
C16 C 0.1985(4) -0.5854(3) 0.8157(2)
H7 H 0.2557 -0.6285 0.8345
C17 C 0.0680(4) -0.4446(3) 0.8061(2)
C18 C 0.0412(4) -0.2889(3) 0.8071(2)
H8 H -0.0152 -0.2311 0.8008
H9 H 0.0736 -0.2919 0.7709
C19 C 0.5058(4) -0.4698(4) 0.7574(3)
C20 C 0.0108(4) 0.1284(3) 0.7175(2)
C21 C 0.0675(4) 0.0591(4) 0.8155(3)
H10 H 0.0718 0.0648 0.8531
C22 C 0.5494(4) -0.5400(4) 0.8618(3)
H11 H 0.5214 -0.5864 0.8639
H12 H 0.6151 -0.5663 0.8502
C23 C 0.2237(5) -0.6911(4) 0.7478(3)
H13 H 0.1774 -0.7077 0.7303
C24 C 0.0185(4) 0.1344(4) 0.7727(2)
H14 H -0.0111 0.1928 0.7818
C25 C 0.2587(4) -0.5389(4) 0.9835(2)
H15 H 0.3043 -0.5091 0.9731
H16 H 0.1997 -0.4917 0.9925
C26 C 0.5486(4) -0.5195(4) 0.9196(3)
H17 H 0.5748 -0.4717 0.9170
H18 H 0.4828 -0.4942 0.9312
C27 C 0.0826(5) -0.5414(4) 0.7435(3)
C28 C 0.4073(4) -0.2506(4) 0.7293(3)
H19 H 0.3597 -0.2620 0.7100
H20 H 0.4037 -0.1876 0.7116
C29 C 0.7009(5) -0.6383(4) 0.9657(3)
H21 H 0.7330 -0.6111 0.9373
C30 C 0.3753(6) -0.6757(4) 0.7088(3)
H22 H 0.4038 -0.7045 0.7455
C31 C 0.6035(4) -0.6023(4) 0.9645(3)
C32 C 0.2825(6) -0.6647(4) 0.7005(3)
C33 C 0.2960(4) -0.6134(5) 1.0365(3)
C34 C 0.5209(5) -0.5659(4) 0.6895(3)
C36 C 0.2504(4) -0.8665(4) 0.8899(3)
C37 C 0.2768(5) -0.7741(4) 0.7948(3)
H24 H 0.3166 -0.7576 0.8173
H25 H 0.3182 -0.8253 0.7780
C38 C 0.4379(9) -0.4894(7) 0.5633(4)
H26 H 0.3827 -0.4507 0.5811
H27 H 0.4358 -0.4587 0.5228
C39 C 0.5157(4) -0.5525(4) 0.7446(3)
H28 H 0.5190 -0.6026 0.7750
C41 C 0.3010(5) -0.9598(5) 0.8957(4)
H30 H 0.3060 -0.9862 0.8640
C42 C 0.2071(5) -0.8051(4) 0.8336(3)
H31 H 0.1542 -0.7499 0.8402
H32 H 0.1813 -0.8384 0.8140
C43 C 0.5013(4) -0.3976(5) 0.7117(4)
C45 C 0.4281(6) -0.6467(4) 0.6661(3)
C48 C 0.5611(5) -0.6433(5) 1.0055(3)
H36 H 0.4946 -0.6196 1.0053
C49 C 0.3532(5) -0.7026(6) 1.0346(3)
H37 H 0.3659 -0.7197 0.9993
C50 C 0.7520(6) -0.7137(5) 1.0078(4)
H38 H 0.8186 -0.7379 1.0081
C51 C 0.5167(6) -0.4908(5) 0.6464(3)
C52 C 0.2435(7) -0.6247(5) 0.6460(3)
C53 C 0.3837(8) -0.6063(5) 0.6129(3)
C54 C 0.3446(6) -1.0156(6) 0.9468(4)
H39 H 0.3780 -1.0799 0.9510
C55 C 0.3694(6) -0.7355(7) 1.1364(4)
H40 H 0.3977 -0.7763 1.1711
C56 C 0.3107(6) -0.6515(7) 1.1381(3)
H41 H 0.2933 -0.6342 1.1731
C57 C 0.0785(6) -0.5400(5) 0.6448(3)
H42 H 0.0277 -0.5203 0.6159
H43 H 0.1003 -0.4890 0.6414
C58 C 0.2759(5) -0.5905(6) 1.0883(3)
H44 H 0.2357 -0.5292 1.0891
C59 C 0.2936(8) -0.5936(5) 0.6013(3)
C60 C 0.7065(6) -0.7525(6) 1.0484(4)
H45 H 0.7415 -0.8035 1.0774
C62 C 0.2434(5) -0.8290(6) 0.9358(4)
H47 H 0.2082 -0.7650 0.9322
C63 C 0.5072(5) -0.4060(5) 0.6561(4)
C64 C 0.3936(5) -0.7693(7) 1.0858(4)
H48 H 0.4333 -0.8312 1.0862
C65 C 0.6103(6) -0.7186(5) 1.0479(3)
H49 H 0.5781 -0.7461 1.0760
C66 C 0.3375(7) -0.9742(7) 0.9910(4)
H50 H 0.3693 -1.0109 1.0258
C67 C 0.2869(7) -0.8828(7) 0.9874(4)
H51 H 0.2816 -0.8567 1.0193
C68 C -0.0440(12) 0.2125(9) 0.6741(8)
H52 H -0.0474 0.1933 0.6387
H53 H -0.1089 0.2376 0.6871
C69 C -0.0090(7) 0.2887(6) 0.6601(4)
H54 H 0.0534 0.2667 0.6433
H55 H -0.0013 0.3064 0.6954
C70 C -0.0740(7) 0.3714(6) 0.6197(4)
C71 C -0.0665(9) 0.3848(8) 0.5617(5)
H56 H -0.0142 0.3441 0.5460
C72 C -0.1333(8) 0.4558(6) 0.5270(4)
C73 C -0.2084(16) 0.515(2) 0.5487(4)
C74 C -0.2222(14) 0.5092(13) 0.6063(9)
H57 H -0.2744 0.5503 0.6218
C75 C -0.1472(13) 0.4321(14) 0.6395(10)
H58 H -0.1502 0.4237 0.6794
O1 O 0.1629(3) -0.1089(2) 0.83376(16)
O2 O 0.1513(2) -0.1229(2) 0.74351(15)
O3 O 0.0133(2) -0.3647(2) 0.82371(15)
O4 O 0.1021(2) -0.2870(2) 0.84827(15)
O5 O 0.3862(3) -0.2560(2) 0.78751(19)
O6 O 0.4972(3) -0.3146(3) 0.7216(2)
O7 O 0.0423(4) -0.5575(3) 0.6994(2)
O8 O 0.1530(5) -0.6171(3) 0.6340(2)
O9 O 0.4344(5) -0.5774(4) 0.56808(19)
O10 O 0.5220(5) -0.4986(3) 0.5902(2)
O11 O 0.257(2) -0.586(2) 0.4984(16)
O12 O 0.1419(5) -0.4808(5) 0.5317(3)
B1A B -0.1863 0.1679 0.2024
B2A B -0.2248 0.5558 0.4564
C1A C -0.2436 0.4256 0.14
C2A C -0.1989 0.3312 0.1583
C3A C -0.3392 0.4627 0.1481
H1A H -0.3716 0.5274 0.1361
C4A C -0.1516 0.5064 0.1647
C5A C -0.1877 0.484 0.1155
H2A H -0.1315 0.4438 0.0984
C6A C -0.102 0.0317 0.2534
C7A C -0.2446 0.2747 0.1835
C8A C -0.0535 -0.0421 0.2959
H3A H -0.0491 -0.0349 0.3332
C9A C -0.341 0.3155 0.19
C10A C -0.4947 0.4534 0.1827
H4A H -0.5217 0.4066 0.1817
C11A C -0.2389 0.5678 0.0683
H5A H -0.2 0.6051 0.0576
H6A H -0.2988 0.6065 0.0823
C12A C -0.0325 0.4608 0.2399
C13A C -0.1668 0.6051 0.2301
C14A C -0.3902 0.4101 0.1729
C15A C -0.109 0.0236 0.1996
C16A C -0.1985 0.5854 0.1843
H7A H -0.2557 0.6285 0.1655
C17A C -0.068 0.4446 0.1939
C18A C -0.0412 0.2889 0.1929
H8A H 0.0152 0.2311 0.1992
H9A H -0.0736 0.2919 0.2291
C19A C -0.5058 0.4698 0.2426
C20A C -0.0108 -0.1284 0.2825
C21A C -0.0675 -0.0591 0.1845
H10A H -0.0718 -0.0648 0.1469
C22A C -0.5494 0.54 0.1382
H11A H -0.5214 0.5864 0.1361
H12A H -0.6151 0.5663 0.1498
C23A C -0.2237 0.6911 0.2522
H13A H -0.1774 0.7077 0.2697
C24A C -0.0185 -0.1344 0.2273
H14A H 0.0111 -0.1928 0.2182
C25A C -0.2587 0.5389 0.0165
H15A H -0.3043 0.5091 0.0269
H16A H -0.1997 0.4917 0.0075
C26A C -0.5486 0.5195 0.0804
H17A H -0.5748 0.4717 0.083
H18A H -0.4828 0.4942 0.0688
C27A C -0.0826 0.5414 0.2565
C28A C -0.4073 0.2506 0.2707
H19A H -0.3597 0.262 0.29
H20A H -0.4037 0.1876 0.2884
C29A C -0.7009 0.6383 0.0343
H21A H -0.733 0.6111 0.0627
C30A C -0.3753 0.6757 0.2912
H22A H -0.4038 0.7045 0.2545
C31A C -0.6035 0.6023 0.0355
C32A C -0.2825 0.6647 0.2995
C33A C -0.296 0.6134 -0.0365
C34A C -0.5209 0.5659 0.3105
C36A C -0.2504 0.8665 0.1101
C37A C -0.2768 0.7741 0.2052
H24A H -0.3166 0.7576 0.1827
H25A H -0.3182 0.8253 0.222
C38A C -0.4379 0.4894 0.4367
H26A H -0.3827 0.4507 0.4189
H27A H -0.4358 0.4587 0.4772
C39A C -0.5157 0.5525 0.2554
H28A H -0.519 0.6026 0.225
C41A C -0.301 0.9598 0.1043
H30A H -0.306 0.9862 0.136
C42A C -0.2071 0.8051 0.1664
H31A H -0.1542 0.7499 0.1598
H32A H -0.1813 0.8384 0.186
C43A C -0.5013 0.3976 0.2883
C45A C -0.4281 0.6467 0.3339
C48A C -0.5611 0.6433 -0.0055
H36A H -0.4946 0.6196 -0.0053
C49A C -0.3532 0.7026 -0.0346
H37A H -0.3659 0.7197 0.0007
C50A C -0.752 0.7137 -0.0078
H38A H -0.8186 0.7379 -0.0081
C51A C -0.5167 0.4908 0.3536
C52A C -0.2435 0.6247 0.354
C53A C -0.3837 0.6063 0.3871
C54A C -0.3446 1.0156 0.0532
H39A H -0.378 1.0799 0.049
C55A C -0.3694 0.7355 -0.1364
H40A H -0.3977 0.7763 -0.1711
C56A C -0.3107 0.6515 -0.1381
H41A H -0.2933 0.6342 -0.1731
C57A C -0.0785 0.54 0.3552
H42A H -0.0277 0.5203 0.3841
H43A H -0.1003 0.489 0.3586
C58A C -0.2759 0.5905 -0.0883
H44A H -0.2357 0.5292 -0.0891
C59A C -0.2936 0.5936 0.3987
C60A C -0.7065 0.7525 -0.0484
H45A H -0.7415 0.8035 -0.0774
C62A C -0.2434 0.829 0.0642
H47A H -0.2082 0.765 0.0678
C63A C -0.5072 0.406 0.3439
C64A C -0.3936 0.7693 -0.0858
H48A H -0.4333 0.8312 -0.0862
C65A C -0.6103 0.7186 -0.0479
H49A H -0.5781 0.7461 -0.076
C66A C -0.3375 0.9742 0.009
H50A H -0.3693 1.0109 -0.0258
C67A C -0.2869 0.8828 0.0126
H51A H -0.2816 0.8567 -0.0193
C68A C 0.044 -0.2125 0.3259
H52A H 0.0474 -0.1933 0.3613
H53A H 0.1089 -0.2376 0.3129
C69A C 0.009 -0.2887 0.3399
H54A H -0.0534 -0.2667 0.3567
H55A H 0.0013 -0.3064 0.3046
C70A C 0.074 -0.3714 0.3803
C71A C 0.0665 -0.3848 0.4383
H56A H 0.0142 -0.3441 0.454
C72A C 0.1333 -0.4558 0.473
C73A C 0.2084 -0.515 0.4513
C74A C 0.2222 -0.5092 0.3937
H57A H 0.2744 -0.5503 0.3782
C75A C 0.1472 -0.4321 0.3605
H58A H 0.1502 -0.4237 0.3206
O1A O -0.1629 0.1089 0.16624
O2A O -0.1513 0.1229 0.25649
O3A O -0.0133 0.3647 0.17629
O4A O -0.1021 0.287 0.15173
O5A O -0.3862 0.256 0.21249
O6A O -0.4972 0.3146 0.2784
O7A O -0.0423 0.5575 0.3006
O8A O -0.153 0.6171 0.366
O9A O -0.4344 0.5774 0.43192
O10A O -0.522 0.4986 0.4098
O11A O -0.257 0.586 0.5016
O12A O -0.1419 0.4808 0.4683
B3? B -0.2765(11) 0.5399(8) 0.4641(4)
B4? B -0.0613(5) -0.3912(6) 0.7306(6)
B5? B -0.5054(8) 0.3219(4) 0.3890(4)
B6? B -0.0550(19) -0.379(2) 0.732(3)
B7? B -0.491(2) 0.344(2) 0.4073(15)
C76? C -0.0406(10) 0.2140(9) 0.6741(7)
H59? H -0.0011 0.2510 0.6669
H60? H -0.0441 0.1952 0.6386
C77? C -0.1368(8) 0.2763(7) 0.6844(5)
H61? H -0.1360 0.2941 0.7207
H62? H -0.1794 0.2427 0.6880
C78? C -0.1742(9) 0.3613(7) 0.6383(4)
C79? C -0.2084(9) 0.3588(9) 0.5867(5)
H63? H -0.2145 0.3049 0.5813
C80? C -0.2326(9) 0.4372(7) 0.5441(4)
C81? C -0.2257(16) 0.517(2) 0.5508(5)
C82? C -0.1993(13) 0.5227(14) 0.6010(8)
H64? H -0.2000 0.5797 0.6058
C83? C -0.1715(13) 0.4473(14) 0.6451(10)
H65? H -0.1504 0.4510 0.6800
C108? C 0.0441(6) -0.1486(6) 0.6070(4)
H90? H 0.0123 -0.1866 0.6255
C109? C -0.0027(5) -0.0705(6) 0.5653(4)
H91? H -0.0664 -0.0552 0.5554
C111? C 0.1372(6) -0.0372(6) 0.5527(4)
H92? H 0.1690 0.0009 0.5341
C112? C 0.1840(4) -0.1153(6) 0.5943(4)
H93? H 0.2477 -0.1306 0.6042
C113? C 0.1374(5) -0.1710(5) 0.6215(4)
C114? C 0.261(2) -0.410(2) 0.6957(17)
H94? H 0.2805 -0.4659 0.6809
C116? C 0.6239(5) -0.7891(6) 0.5948(4)
H97? H 0.5578 -0.7577 0.5949
C117? C 0.6688(6) -0.7941(6) 0.5437(3)
H98? H 0.6335 -0.7661 0.5090
C118? C 0.7655(6) -0.8400(7) 0.5435(3)
H99? H 0.7962 -0.8434 0.5087
C119? C 0.8173(5) -0.8809(7) 0.5944(4)
H100? H 0.8834 -0.9123 0.5942
C120? C 0.7723(6) -0.8760(6) 0.6454(3)
H101? H 0.8077 -0.9040 0.6801
C121? C 0.6757(6) -0.8301(6) 0.6456(3)
C122? C 0.6227(9) -0.8229(8) 0.7010(5)
H102? H 0.5636 -0.8313 0.6962
H103? H 0.6610 -0.8752 0.7312
C123? C 0.599(2) -0.739(2) 0.7210(13)
H104? H 0.6566 -0.7270 0.7246
H105? H 0.5716 -0.7458 0.7587
C124? C 0.5266(5) -0.6556(18) 0.678(3)
H106? H 0.5571 -0.6576 0.6404
C125? C 0.7187(5) -0.6971(4) 0.6101(3)
H107? H 0.6987 -0.6384 0.6189
C126? C 0.7490(6) -0.7076(5) 0.5563(3)
H108? H 0.7498 -0.6560 0.5283
C127? C 0.7783(7) -0.7935(6) 0.5434(3)
H109? H 0.7990 -0.8006 0.5066
C128? C 0.7772(7) -0.8689(5) 0.5843(4)
H110? H 0.7972 -0.9276 0.5755
C129? C 0.7469(6) -0.8585(4) 0.6382(3)
H111? H 0.7462 -0.9101 0.6662
C130? C 0.7176(5) -0.7726(5) 0.6510(2)
C131? C 0.6799(7) -0.7609(7) 0.7096(4)
H112? H 0.7168 -0.8166 0.7381
H113? H 0.6895 -0.7080 0.7182
C132? C 0.5793(14) -0.7456(17) 0.7150(10)
H114? H 0.5601 -0.7435 0.7544
H115? H 0.5667 -0.7956 0.7043
C133? C 0.5269(5) -0.6538(15) 0.675(2)
H116? H 0.5574 -0.6559 0.6375
H119? H -0.0681 -0.0003 0.4525
H121? H -0.3206 0.4423 0.3030
H122? H -0.2393 0.3823 0.2681
C141? C -0.212(3) 0.333(3) 0.3575(15)
C142? C -0.3562(6) -0.0415(5) 0.6107(4)
H124? H -0.4122 -0.0130 0.6320
H125? H -0.3156 -0.0061 0.6080
C143? C -0.3847(5) -0.0403(4) 0.5540(3)
H126? H -0.4230 -0.0781 0.5572
H127? H -0.3282 -0.0679 0.5329
C144? C -0.4403(4) 0.0556(2) 0.5218(2)
C145? C -0.4074(4) 0.0921(3) 0.4715(2)
H128? H -0.3523 0.0548 0.4561
C146? C -0.4552(4) 0.1832(3) 0.4436(2)
C147? C -0.5358(4) 0.2378(3) 0.4661(2)
C148? C -0.5687(4) 0.2013(3) 0.5165(3)
H129? H -0.6239 0.2386 0.5318
C149? C -0.5210(4) 0.1102(3) 0.5443(2)
H130? H -0.5435 0.0853 0.5788
C150? C -0.2102(3) -0.3137(3) 0.7071(4)
C151? C -0.3069(3) -0.2801(3) 0.6986(3)
H131? H -0.3409 -0.3169 0.7157
C152? C -0.3540(3) -0.1926(4) 0.6653(3)
H132? H -0.4201 -0.1696 0.6595
C153? C -0.3042(4) -0.1387(4) 0.6404(3)
C154? C -0.2075(4) -0.1723(4) 0.6488(4)
H133? H -0.1735 -0.1355 0.6318
C155? C -0.1604(3) -0.2598(4) 0.6822(4)
C156? C -0.392(2) -0.0643(13) 0.6206(15)
H134? H -0.4029 -0.0776 0.5845
H135? H -0.4512 -0.0531 0.6408
C157? C -0.384(2) 0.0266(15) 0.6044(12)
H136? H -0.3171 0.0143 0.5954
H137? H -0.3948 0.0513 0.6389
C158? C -0.4406(15) 0.1029(13) 0.5579(8)
C159? C -0.3924(12) 0.1462(13) 0.5197(9)
H138? H -0.3258 0.1231 0.5219
C160? C -0.4416(13) 0.2234(13) 0.4781(9)
C161? C -0.5390(13) 0.2573(15) 0.4748(10)
C162? C -0.5872(11) 0.2140(17) 0.5131(12)
H139? H -0.6538 0.2371 0.5108
C163? C -0.5380(15) 0.1367(15) 0.5546(10)
H140? H -0.5710 0.1071 0.5808
C164? C -0.2001(14) -0.3307(14) 0.7005(17)
C165? C -0.2955(15) -0.3119(14) 0.6966(14)
H141? H -0.3181 -0.3596 0.7100
C166? C -0.3578(13) -0.2231(16) 0.6733(14)
H142? H -0.4230 -0.2101 0.6707
C167? C -0.3247(16) -0.1531(14) 0.6539(14)
C168? C -0.2293(17) -0.1720(16) 0.6577(17)
H143? H -0.2066 -0.1243 0.6443
C169? C -0.1669(13) -0.2608(18) 0.6810(18)
O13? O -0.269(2) 0.577(2) 0.5039(16)
O14? O -0.2647(6) 0.4490(5) 0.4895(3)
O15? O 0.1816(6) -0.2499(5) 0.6615(3)
O16? O 0.2047(9) -0.3425(7) 0.5995(5)
O19? O -0.0680(9) -0.3079(8) 0.6943(4)
O20? O -0.1492(6) -0.3939(6) 0.7386(4)
O21? O -0.5668(15) 0.3270(12) 0.4332(8)
O22? O -0.4374(4) 0.2321(4) 0.3939(3)
O23? O -0.074(4) -0.295(3) 0.7050(19)
O24? O -0.134(3) -0.413(3) 0.7274(16)
O25? O -0.575(6) 0.316(5) 0.426(3)
O26? O -0.4150(16) 0.2745(15) 0.4326(11)
C170? C 0.0437(8) 0.3232(8) 0.5471(4)
H144? H -0.0034 0.3410 0.5737
C171? C 0.0311(7) 0.3747(7) 0.4917(5)
H145? H -0.0247 0.4276 0.4805
C172? C 0.1000(10) 0.3486(9) 0.4528(4)
H146? H 0.0913 0.3838 0.4149
C173? C 0.1816(9) 0.2711(10) 0.4693(5)
H147? H 0.2287 0.2534 0.4427
C174? C 0.1943(8) 0.2197(8) 0.5247(6)
H148? H 0.2501 0.1667 0.5360
C175? C 0.1254(9) 0.2457(7) 0.5636(4)
H149? H 0.1340 0.2105 0.6015
C176? C 0.0432(15) 0.1846(13) 0.5210(8)
H150? H -0.0049 0.1630 0.5347
C177? C 0.0268(15) 0.2524(13) 0.4740(8)
H151? H -0.0338 0.2778 0.4561
C178? C 0.0914(15) 0.2869(15) 0.4506(8)
H152? H 0.0796 0.3327 0.4164
C179? C 0.1752(17) 0.2499(16) 0.4807(9)
H153? H 0.2229 0.2719 0.4668
C180? C 0.1947(17) 0.1805(14) 0.5318(9)
H154? H 0.2527 0.1606 0.5519
C181? C 0.1345(14) 0.1438(13) 0.5513(8)
H155? H 0.1487 0.0936 0.5833

#END

