####################################################################### 
# 
# This file contains crystal structure data downloaded from the 
# Cambridge Structural Database (CSD) hosted by the Cambridge 
# Crystallographic Data Centre (CCDC).
# 
# Full information about CCDC data access policies and citation 
# guidelines are available at http://www.ccdc.cam.ac.uk/access/V1 
# 
# Audit and citation data items may have been added by the CCDC. 
# Please retain this information to preserve the provenance of 
# this file and to allow appropriate attribution of the data. 
# 
#######################################################################

data_cutappabs97
_audit_block_doi                 10.5517/cc406t4
_database_code_depnum_ccdc_archive 'CCDC 119375'
loop_
_citation_id
_citation_doi
_citation_year
1 10.1021/ja990016t 1999
_audit_update_record             
;
1999-04-27 deposited with the CCDC.	2019-02-14 downloaded from the CCDC.
;

_audit_creation_method           SHELXL-97
_chemical_name_systematic        
; 
Octakis(2,4,6-triphenylazo-phloroglucinato)dodecacopper(II).solvate 
;
_chemical_name_common            ?
_chemical_formula_moiety         ?
_chemical_formula_sum            'C264 H288 Cu12 N72 O48'
_chemical_formula_weight         6000.15

loop_
_atom_type_symbol
_atom_type_description
_atom_type_scat_dispersion_real
_atom_type_scat_dispersion_imag
_atom_type_scat_source
C C 0.0181 0.0091 'International Tables Vol C Tables 4.2.6.8 and 6.1.1.4'
H H 0.0000 0.0000 'International Tables Vol C Tables 4.2.6.8 and 6.1.1.4'
N N 0.0311 0.0180 'International Tables Vol C Tables 4.2.6.8 and 6.1.1.4'
O O 0.0492 0.0322 'International Tables Vol C Tables 4.2.6.8 and 6.1.1.4'
Cu Cu -1.9646 0.5888 'International Tables Vol C Tables 4.2.6.8 and 6.1.1.4'

_symmetry_cell_setting           orthorhombic
_symmetry_space_group_name_H-M   'P b a a'

loop_
_symmetry_equiv_pos_as_xyz
'x, y, z'
'x, -y+1/2, -z'
'-x+1/2, y+1/2, -z'
'-x+1/2, -y, z'
'-x, -y, -z'
'-x, y-1/2, z'
'x-1/2, -y-1/2, z'
'x-1/2, y, -z'

_cell_length_a                   23.939(5)
_cell_length_b                   31.949(2)
_cell_length_c                   40.837(8)
_cell_angle_alpha                90.00
_cell_angle_beta                 90.00
_cell_angle_gamma                90.00
_cell_volume                     31233(9)
_cell_formula_units_Z            4
_cell_measurement_temperature    130(1)
_cell_measurement_reflns_used    25
_cell_measurement_theta_min      14.6
_cell_measurement_theta_max      26.8

_exptl_crystal_description       'truncated octahedron'
_exptl_crystal_colour            'dark brown'
_exptl_crystal_size_max          0.70
_exptl_crystal_size_mid          0.63
_exptl_crystal_size_min          0.35
_exptl_crystal_density_meas      ?
_exptl_crystal_density_diffrn    1.276
_exptl_crystal_density_method    'not measured'
_exptl_crystal_F_000             12432
_exptl_absorpt_coefficient_mu    1.493
_exptl_absorpt_correction_type   'analytical, indexed crystal faces'
_exptl_absorpt_correction_T_min  0.3928
_exptl_absorpt_correction_T_max  0.6412

_exptl_special_details           
;  
The crystals are sensitive to solvent loss and deteriorate if exposed to
air. As a consequence crystals were transferred directly from
dimethylformamide (DMF) solution to a viscous oil which provided a protective
coating. The crystal was then mounted on a diffractometer and flash cooled
to 130 K.  
;

_diffrn_ambient_temperature      293(2)
_diffrn_radiation_wavelength     1.54180
_diffrn_radiation_type           'CuK\a nickel filtered'
_diffrn_radiation_source         'fine-focus sealed tube'
_diffrn_radiation_monochromator  none
_diffrn_measurement_device_type  'Enraf-Nonius CAD-4 Mach S diffractometer'
_diffrn_measurement_method       \w:2\q
_diffrn_detector_area_resol_mean ?
_diffrn_standards_number         3
_diffrn_standards_interval_count ?
_diffrn_standards_interval_time  160
_diffrn_standards_decay_%        2
_diffrn_reflns_number            33137
_diffrn_reflns_av_R_equivalents  0.0281
_diffrn_reflns_av_sigmaI/netI    0.0862
_diffrn_reflns_limit_h_min       0
_diffrn_reflns_limit_h_max       30
_diffrn_reflns_limit_k_min       0
_diffrn_reflns_limit_k_max       39
_diffrn_reflns_limit_l_min       -1
_diffrn_reflns_limit_l_max       51
_diffrn_reflns_theta_min         2.16
_diffrn_reflns_theta_max         75.22
_reflns_number_total             32195
_reflns_number_gt                17930
_reflns_threshold_expression     >2sigma(I)

_computing_data_collection       'CAD-4 Software (Enraf-Nonius, 1989)'
_computing_cell_refinement       'CAD-4 Software (Enraf-Nonius, 1989)'
_computing_data_reduction        ?
_computing_structure_solution    'SHELXS-97 (Sheldrick, 1990)'
_computing_structure_refinement  'SHELXL-97 (Sheldrick, 1997)'
_computing_molecular_graphics    ?
_computing_publication_material  ?

_refine_special_details          
; 
Refinement of F^2^ against ALL reflections.  The weighted R-factor wR and 
goodness of fit S are based on F^2^, conventional R-factors R are based 
on F, with F set to zero for negative F^2^. The threshold expression of 
F^2^ > 2sigma(F^2^) is used only for calculating R-factors(gt) etc. and is 
not relevant to the choice of reflections for refinement.  R-factors based 
on F^2^ are statistically about twice as large as those based on F, and R- 
factors based on ALL data will be even larger. 
The vast majority of Cu~12~tapp~8~ atoms are well defined and these atoms
were refined with anisotropic displacement parameters. Some carbon atoms of 
the peripheral phenyl rings display a small degree of disorder. The 
disordered atoms were refined over two sites with a refinable isotropic
displacement parameter common to both sites. For each ring where disorder
occurs the difference in orientation of the rings is only minor.
According to an estimation using the PLATON program (Spek, 1990) the potential 
solvent regions of the crystal represent over 50 % of the volume (16014 \A^3^
of unit cell volume 31233 \A^3^). The solvent molecules which occupy this 
space display considerable variation in the extent of disorder. The atoms of 
two DMF molecules in the asymmetric unit are very clearly defined and these 
were refined with full site occupancies and isotropic displacement parameters.
Analysis of Fourier electron difference maps revealed many other DMF molecules
but generally these molecules made unreasonably close contact with
neighbouring solvent molecules. In these cases a partial site occupancy 
(usually 0.5) was applied to the DMF molecule and its position was refined.
Continued refinement of the structure revealed peaks of density which were
more difficult to model as DMF molecules because of disorder, nevertheless 
assignment as disordered DMF was attempted. The atomic assignment of such
peaks may at best be described as tentative. Fourier difference maps also
revealed other peaks of electron density which could not be modelled in 
terms of disordered DMF. Such peaks were refined as either carbon or oxygen
atoms. In general these atoms were refined with a fixed isotropic displacement
parameter of 0.12 \A^2^ and their site occupancies were allowed to refine.
Microanalysis of a crystalline sample (which had been exposed to the air)
is consistent with a small amount of water in the crystal and it is possible
that some of these peaks represent disordered water molecules.
The sum of site occupancies of atoms assigned as solvent atoms is calculated
to be 124 per Cu~12~tapp~8~ unit. This is consistent with ~25 DMF molecules
or 24 DMF molecules and 4 water molecules per cage. Correlation between 
displacement parameters and site occupancies means that this estimation is
only very crude but it is consistent with the microanalysis. 
;

_refine_ls_structure_factor_coef Fsqd
_refine_ls_matrix_type           fullcycle
_refine_ls_weighting_scheme      
'calc w=1/[\s^2^(Fo^2^)+(0.1949P)^2^+115.6675P] where P=(Fo^2^+2Fc^2^)/3'
_atom_sites_solution_primary     direct
_atom_sites_solution_secondary   difmap
_atom_sites_solution_hydrogens   'not located'
_refine_ls_hydrogen_treatment    none
_refine_ls_extinction_method     none
_refine_ls_extinction_coef       none
_refine_ls_number_reflns         32195
_refine_ls_number_parameters     1665
_refine_ls_number_restraints     0
_refine_ls_R_factor_all          0.1865
_refine_ls_R_factor_gt           0.1170
_refine_ls_wR_factor_ref         0.3666
_refine_ls_wR_factor_gt          0.3121
_refine_ls_goodness_of_fit_ref   1.033
_refine_ls_restrained_S_all      1.033
_refine_ls_shift/su_max          0.001
_refine_ls_shift/su_mean         0.000

loop_
_atom_site_label
_atom_site_type_symbol
_atom_site_fract_x
_atom_site_fract_y
_atom_site_fract_z
_atom_site_U_iso_or_equiv
_atom_site_adp_type
_atom_site_occupancy
_atom_site_calc_flag
_atom_site_refinement_flags
_atom_site_disorder_assembly
_atom_site_disorder_group
Cu1 Cu 0.04356(4) 0.11124(3) 0.33562(3) 0.0322(2) Uani 1 d . . .
Cu2 Cu -0.02845(8) -0.07641(4) 0.25469(3) 0.0615(5) Uani 1 d . . .
Cu3 Cu 0.31721(4) 0.18570(4) 0.33498(3) 0.0396(3) Uani 1 d . . .
Cu4 Cu 0.04911(5) 0.10156(3) 0.16479(3) 0.0362(3) Uani 1 d . . .
Cu5 Cu 0.31958(5) 0.17573(4) 0.16505(3) 0.0433(3) Uani 1 d . . .
Cu6 Cu 0.2500 0.0000 0.41790(4) 0.0331(3) Uani 1 d S . .
Cu7 Cu 0.2500 0.0000 0.07035(6) 0.0569(5) Uani 1 d S . .
N1 N 0.1458(3) 0.0419(2) 0.08518(16) 0.0408(15) Uani 1 d . . .
N2 N 0.1698(3) 0.0131(2) 0.06819(16) 0.0407(15) Uani 1 d . . .
N3 N 0.1355(3) 0.16213(18) 0.15462(15) 0.0335(13) Uani 1 d . . .
N4 N 0.0846(3) 0.15675(18) 0.16256(15) 0.0325(13) Uani 1 d . . .
N5 N 0.3123(3) 0.1217(2) 0.10822(17) 0.0428(16) Uani 1 d . . .
N6 N 0.3409(3) 0.1491(2) 0.12384(18) 0.0471(17) Uani 1 d . . .
C1 C 0.2338(3) 0.0792(2) 0.0991(2) 0.0404(18) Uani 1 d . . .
C2 C 0.1756(3) 0.0707(2) 0.10231(19) 0.0358(16) Uani 1 d . . .
C3 C 0.1408(3) 0.0962(2) 0.12324(17) 0.0318(15) Uani 1 d . . .
C4 C 0.1658(3) 0.1313(2) 0.13968(18) 0.0329(15) Uani 1 d . . .
C5 C 0.2242(3) 0.1401(2) 0.13696(17) 0.0330(15) Uani 1 d . . .
C6 C 0.2578(3) 0.1140(2) 0.11677(18) 0.0332(15) Uani 1 d . . .
O1 O 0.2653(2) 0.05695(19) 0.08049(15) 0.0496(15) Uani 1 d . . .
O2 O 0.0892(2) 0.08757(16) 0.12557(13) 0.0369(12) Uani 1 d . . .
O3 O 0.2436(2) 0.17124(16) 0.15240(13) 0.0381(12) Uani 1 d . . .
N7 N -0.0202(3) 0.03223(19) 0.18601(15) 0.0354(14) Uani 1 d . . .
N8 N -0.0058(3) 0.05575(18) 0.16171(14) 0.0350(14) Uani 1 d . . .
N9 N -0.0319(2) -0.00648(17) 0.29955(15) 0.0309(12) Uani 1 d . . .
N10 N -0.0440(3) -0.04537(18) 0.29489(15) 0.0338(13) Uani 1 d . . .
N11 N 0.0194(2) 0.13356(17) 0.26874(14) 0.0278(12) Uani 1 d . . .
N12 N 0.0267(2) 0.14694(17) 0.29792(14) 0.0281(12) Uani 1 d . . .
C25 C 0.0101(3) 0.0835(2) 0.22762(18) 0.0302(14) Uani 1 d . . .
C26 C -0.0072(3) 0.0428(2) 0.21673(18) 0.0350(16) Uani 1 d . . .
C27 C -0.0195(3) 0.0102(2) 0.24070(18) 0.0344(16) Uani 1 d . . .
C28 C -0.0164(3) 0.0191(2) 0.27491(17) 0.0281(14) Uani 1 d . . .
C29 C -0.0007(3) 0.0610(2) 0.28580(17) 0.0285(14) Uani 1 d . . .
C30 C 0.0112(3) 0.09237(19) 0.26231(17) 0.0261(13) Uani 1 d . . .
O4 O 0.0221(2) 0.11245(15) 0.20779(13) 0.0406(13) Uani 1 d . . .
O5 O -0.0346(3) -0.02554(15) 0.22974(13) 0.0466(15) Uani 1 d . . .
O6 O 0.0002(2) 0.06723(15) 0.31669(12) 0.0350(11) Uani 1 d . . .
N13 N 0.0962(2) 0.07247(17) 0.39108(13) 0.0261(11) Uani 1 d . . .
N14 N 0.0496(2) 0.08218(18) 0.37766(14) 0.0291(12) Uani 1 d . . .
N15 N 0.2945(2) 0.08274(18) 0.40760(14) 0.0299(12) Uani 1 d . . .
N16 N 0.2998(2) 0.04803(18) 0.42289(14) 0.0294(12) Uani 1 d . . .
N17 N 0.1981(2) 0.18614(18) 0.34284(15) 0.0318(13) Uani 1 d . . .
N18 N 0.2414(2) 0.20709(19) 0.33538(16) 0.0351(13) Uani 1 d . . .
C49 C 0.1486(3) 0.1277(2) 0.36217(17) 0.0290(14) Uani 1 d . . .
C50 C 0.1446(3) 0.0908(2) 0.38114(17) 0.0274(14) Uani 1 d . . .
C51 C 0.1942(3) 0.0715(2) 0.39506(16) 0.0278(14) Uani 1 d . . .
C52 C 0.2467(3) 0.0932(2) 0.39178(16) 0.0277(14) Uani 1 d . . .
C53 C 0.2510(3) 0.1314(2) 0.37265(17) 0.0308(14) Uani 1 d . . .
C54 C 0.2018(3) 0.1484(2) 0.35843(17) 0.0285(14) Uani 1 d . . .
O7 O 0.1060(2) 0.14402(15) 0.34796(13) 0.0360(12) Uani 1 d . . .
O8 O 0.18975(19) 0.03748(16) 0.41040(13) 0.0335(11) Uani 1 d . . .
O9 O 0.2994(2) 0.14784(17) 0.36956(13) 0.0387(12) Uani 1 d . . .
N19 N 0.4817(3) 0.13165(18) 0.20714(16) 0.0352(14) Uani 1 d . . .
N20 N 0.5236(3) 0.10914(18) 0.21392(18) 0.0395(15) Uani 1 d . . .
N21 N 0.4289(3) 0.16213(19) 0.31824(15) 0.0342(13) Uani 1 d . . .
N22 N 0.3969(3) 0.1759(2) 0.34034(16) 0.0372(14) Uani 1 d . . .
N23 N 0.3205(3) 0.21618(19) 0.22849(15) 0.0358(14) Uani 1 d . . .
N24 N 0.3056(3) 0.2186(2) 0.19842(16) 0.0399(15) Uani 1 d . . .
C73 C 0.3961(3) 0.1656(2) 0.21703(18) 0.0324(15) Uani 1 d . . .
C74 C 0.4440(3) 0.1440(2) 0.23024(18) 0.0320(15) Uani 1 d . . .
C75 C 0.4519(3) 0.1413(2) 0.26460(19) 0.0325(15) Uani 1 d . . .
C76 C 0.4132(3) 0.1623(2) 0.28610(17) 0.0302(15) Uani 1 d . . .
C77 C 0.3672(3) 0.1852(2) 0.27319(18) 0.0325(15) Uani 1 d . . .
C78 C 0.3602(3) 0.1875(2) 0.23799(18) 0.0328(15) Uani 1 d . . .
O10 O 0.3892(2) 0.16468(18) 0.18563(12) 0.0393(12) Uani 1 d . . .
O11 O 0.4932(2) 0.12192(16) 0.27728(13) 0.0388(12) Uani 1 d . . .
O12 O 0.3324(2) 0.20459(17) 0.29144(13) 0.0415(13) Uani 1 d . . .
C7 C 0.1314(4) -0.0125(3) 0.0506(2) 0.047(2) Uani 1 d . . .
C8 C 0.1537(5) -0.0401(3) 0.0280(2) 0.070(3) Uani 1 d . . .
C9 C 0.1159(7) -0.0652(3) 0.0089(3) 0.090(5) Uani 1 d . . .
C10 C 0.0582(7) -0.0618(4) 0.0129(3) 0.082(4) Uani 1 d . . .
C11 C 0.0377(6) -0.0344(4) 0.0355(3) 0.088(4) Uani 1 d . . .
C12 C 0.0738(5) -0.0089(4) 0.0549(3) 0.068(3) Uani 1 d . . .
C13 C 0.0570(3) 0.1940(2) 0.17279(18) 0.0345(16) Uani 1 d . . .
C14 C 0.0857(4) 0.2299(2) 0.1812(2) 0.0428(18) Uani 1 d . . .
C15 C 0.0556(4) 0.2661(3) 0.1877(2) 0.053(2) Uani 1 d . . .
C16 C -0.0023(4) 0.2662(3) 0.1868(2) 0.049(2) Uani 1 d . . .
C17 C -0.0308(4) 0.2296(3) 0.1802(2) 0.046(2) Uani 1 d . . .
C18 C -0.0013(4) 0.1935(3) 0.1731(2) 0.0410(18) Uani 1 d . . .
C19 C 0.3942(4) 0.1560(4) 0.1104(2) 0.061(3) Uani 1 d . . .
C20 C 0.4206(4) 0.1940(4) 0.1181(2) 0.061(3) Uani 1 d . . .
C21 C 0.4729(5) 0.2032(5) 0.1045(3) 0.090(4) Uani 1 d . . .
C22A C 0.4908(11) 0.1879(9) 0.0784(7) 0.057(3) Uiso 0.406(15) d P . .
C22B C 0.5022(8) 0.1689(6) 0.0865(4) 0.057(3) Uiso 0.594(15) d P . .
C23A C 0.4683(10) 0.1485(8) 0.0705(6) 0.054(3) Uiso 0.406(15) d P . .
C23B C 0.4751(7) 0.1293(6) 0.0805(4) 0.054(3) Uiso 0.594(15) d P . .
C24A C 0.4175(10) 0.1356(8) 0.0840(6) 0.047(3) Uiso 0.406(15) d P . .
C24B C 0.4230(7) 0.1205(5) 0.0935(4) 0.047(3) Uiso 0.594(15) d P . .
C31 C -0.0288(4) 0.0434(2) 0.13099(18) 0.0397(18) Uani 1 d . . .
C32 C -0.0321(4) 0.0738(3) 0.1074(2) 0.048(2) Uani 1 d . . .
C33 C -0.0563(5) 0.0640(3) 0.0773(2) 0.064(3) Uani 1 d . . .
C34 C -0.0760(6) 0.0236(4) 0.0706(2) 0.077(4) Uani 1 d . . .
C35 C -0.0712(6) -0.0071(4) 0.0959(3) 0.083(4) Uani 1 d . . .
C36 C -0.0480(5) 0.0022(3) 0.1254(2) 0.065(3) Uani 1 d . . .
C37 C -0.0622(3) -0.0659(2) 0.32417(18) 0.0312(15) Uani 1 d . . .
C38 C -0.0880(3) -0.1048(2) 0.3203(2) 0.0360(16) Uani 1 d . . .
C39 C -0.1086(3) -0.1250(2) 0.3475(2) 0.0433(19) Uani 1 d . . .
C40 C -0.1032(4) -0.1089(3) 0.3783(2) 0.050(2) Uani 1 d . . .
C41 C -0.0759(4) -0.0697(3) 0.3820(2) 0.053(2) Uani 1 d . . .
C42 C -0.0549(4) -0.0485(2) 0.3550(2) 0.045(2) Uani 1 d . . .
C43 C 0.0291(3) 0.1919(2) 0.30056(18) 0.0310(14) Uani 1 d . . .
C44 C 0.0247(3) 0.2087(2) 0.33127(19) 0.0348(16) Uani 1 d . . .
C45 C 0.0239(3) 0.2524(2) 0.3352(2) 0.0389(17) Uani 1 d . . .
C46 C 0.0288(3) 0.2781(2) 0.3084(2) 0.0386(18) Uani 1 d . . .
C47 C 0.0333(3) 0.2607(2) 0.2769(2) 0.0407(18) Uani 1 d . . .
C48 C 0.0334(3) 0.2171(2) 0.27243(19) 0.0372(16) Uani 1 d . . .
C55 C 0.0018(3) 0.0642(2) 0.39301(17) 0.0292(14) Uani 1 d . . .
C56 C -0.0502(3) 0.0812(2) 0.3844(2) 0.0399(18) Uani 1 d . . .
C57 C -0.0979(3) 0.0653(3) 0.3996(2) 0.051(2) Uani 1 d . . .
C58 C -0.0942(4) 0.0332(3) 0.4224(2) 0.053(2) Uani 1 d . . .
C59 C -0.0425(3) 0.0164(3) 0.4302(2) 0.0417(18) Uani 1 d . . .
C60 C 0.0062(3) 0.0314(2) 0.41577(18) 0.0340(15) Uani 1 d . . .
C61 C 0.3511(3) 0.0450(2) 0.44099(18) 0.0340(16) Uani 1 d . . .
C62 C 0.3540(3) 0.0147(2) 0.46558(18) 0.0366(16) Uani 1 d . . .
C63 C 0.4008(4) 0.0116(3) 0.4851(2) 0.045(2) Uani 1 d . . .
C64 C 0.4462(3) 0.0379(3) 0.4797(2) 0.047(2) Uani 1 d . . .
C65 C 0.4436(3) 0.0683(3) 0.4546(2) 0.051(2) Uani 1 d . . .
C66 C 0.3965(3) 0.0720(3) 0.4354(2) 0.0431(19) Uani 1 d . . .
C67 C 0.2290(3) 0.2472(2) 0.3213(2) 0.0436(19) Uani 1 d . . .
C68 C 0.2688(4) 0.2778(3) 0.3251(3) 0.061(3) Uani 1 d . . .
C69A C 0.2633(7) 0.3190(5) 0.3214(5) 0.035(2) Uiso 0.49(2) d P . .
C69B C 0.2566(7) 0.3181(5) 0.3061(5) 0.035(2) Uiso 0.51(2) d P . .
C70 C 0.2107(4) 0.3264(3) 0.2965(4) 0.077(4) Uani 1 d . . .
C71 C 0.1706(4) 0.2955(3) 0.2926(3) 0.062(3) Uani 1 d . . .
C72 C 0.1797(3) 0.2553(3) 0.3049(3) 0.051(2) Uani 1 d . . .
C79 C 0.5612(4) 0.1038(2) 0.1875(3) 0.053(2) Uani 1 d . . .
C80A C 0.6112(6) 0.0826(5) 0.2012(4) 0.041(3) Uiso 0.567(10) d P . .
C80B C 0.6061(8) 0.0781(6) 0.1830(5) 0.041(3) Uiso 0.433(10) d P . .
C81A C 0.6509(7) 0.0733(5) 0.1748(4) 0.046(3) Uiso 0.567(10) d P . .
C81B C 0.6451(10) 0.0752(7) 0.1551(7) 0.046(3) Uiso 0.433(10) d P . .
C82A C 0.6403(7) 0.0847(5) 0.1436(5) 0.041(3) Uiso 0.567(10) d P . .
C82B C 0.6345(8) 0.0973(6) 0.1282(5) 0.041(3) Uiso 0.433(10) d P . .
C83A C 0.5934(7) 0.1063(6) 0.1351(4) 0.049(3) Uiso 0.567(10) d P . .
C83B C 0.5844(9) 0.1232(7) 0.1265(6) 0.049(3) Uiso 0.433(10) d P . .
C84 C 0.5507(4) 0.1192(4) 0.1567(3) 0.070(3) Uani 1 d . . .
C85 C 0.4221(3) 0.1796(3) 0.3721(2) 0.048(2) Uani 1 d . . .
C86 C 0.4690(3) 0.1571(3) 0.38106(19) 0.045(2) Uani 1 d . . .
C87 C 0.4923(4) 0.1632(4) 0.4117(2) 0.060(3) Uani 1 d . . .
C88A C 0.4679(8) 0.2054(7) 0.4298(5) 0.045(3) Uiso 0.449(10) d P . .
C88B C 0.4672(7) 0.1812(5) 0.4356(4) 0.045(3) Uiso 0.551(10) d P . .
C89A C 0.4228(8) 0.2288(6) 0.4180(5) 0.047(3) Uiso 0.449(10) d P . .
C89B C 0.4164(7) 0.2019(5) 0.4282(4) 0.047(3) Uiso 0.551(10) d P . .
C90A C 0.3995(8) 0.2178(6) 0.3900(4) 0.038(3) Uiso 0.449(10) d P . .
C90B C 0.3951(6) 0.1975(5) 0.3966(4) 0.038(3) Uiso 0.551(10) d P . .
C91 C 0.2674(4) 0.2524(3) 0.1924(2) 0.048(2) Uani 1 d . . .
C92 C 0.2370(4) 0.2714(3) 0.2177(3) 0.058(3) Uani 1 d . . .
C93 C 0.1999(5) 0.3041(3) 0.2093(3) 0.081(4) Uani 1 d . . .
C94 C 0.1944(6) 0.3169(3) 0.1780(4) 0.085(4) Uani 1 d . . .
C95 C 0.2244(6) 0.2981(4) 0.1527(3) 0.085(4) Uani 1 d . . .
C96 C 0.2623(5) 0.2650(3) 0.1598(2) 0.063(3) Uani 1 d . . .
CD1 C 0.3981(4) 0.1832(3) 0.6857(3) 0.062(3) Uiso 1 d . . .
CD2 C 0.3750(5) 0.1232(4) 0.7197(3) 0.077(3) Uiso 1 d . . .
CD3 C 0.3901(6) 0.1958(5) 0.7442(3) 0.091(4) Uiso 1 d . . .
ND1 N 0.3894(3) 0.1682(3) 0.7155(2) 0.057(2) Uiso 1 d . . .
OD1 O 0.3988(4) 0.1620(3) 0.6603(2) 0.084(2) Uiso 1 d . . .
CD4 C 0.6988(6) 0.0430(5) 0.3136(4) 0.097(4) Uiso 1 d . . .
CD5 C 0.6606(6) -0.0228(4) 0.3290(3) 0.081(3) Uiso 1 d . . .
CD6 C 0.6733(5) -0.0088(4) 0.2688(3) 0.077(3) Uiso 1 d . . .
ND2 N 0.6771(4) 0.0059(3) 0.3036(2) 0.072(2) Uiso 1 d . . .
OD2 O 0.7130(5) 0.0676(4) 0.2926(3) 0.132(4) Uiso 1 d . . .
CD7 C 0.7730(9) 0.0946(7) 0.2097(5) 0.060(5) Uiso 0.50 d P . .
CD8 C 0.8606(14) 0.1096(10) 0.1850(8) 0.109(10) Uiso 0.50 d P . .
CD9 C 0.8277(11) 0.0400(8) 0.1875(6) 0.079(7) Uiso 0.50 d P . .
ND3 N 0.8210(7) 0.0805(5) 0.1935(4) 0.054(4) Uiso 0.50 d P . .
OD3 O 0.7305(9) 0.0674(6) 0.2132(5) 0.109(6) Uiso 0.50 d P . .
CD10 C 0.4652(13) 0.1931(10) 0.5182(8) 0.098(9) Uiso 0.50 d P . .
CD11 C 0.4195(12) 0.1274(9) 0.5376(7) 0.089(8) Uiso 0.50 d P . .
CD12 C 0.4400(15) 0.1866(11) 0.5763(9) 0.123(11) Uiso 0.50 d P . .
ND4 N 0.4433(9) 0.1716(7) 0.5424(5) 0.081(6) Uiso 0.50 d P . .
OD4 O 0.4869(8) 0.2252(6) 0.5177(5) 0.098(6) Uiso 0.50 d P . .
CD13 C 0.7382(8) 0.0953(6) 0.5149(5) 0.051(4) Uiso 0.50 d P . .
CD14 C 0.8133(8) 0.1534(6) 0.5326(5) 0.126(6) Uiso 1 d . . .
CD15 C 0.8284(10) 0.1018(7) 0.4882(6) 0.073(6) Uiso 0.50 d P . .
ND5 N 0.7855(6) 0.1141(5) 0.5115(4) 0.051(4) Uiso 0.50 d P . .
OD5 O 0.7223(7) 0.0642(5) 0.4976(4) 0.078(4) Uiso 0.50 d P . .
CD16 C 0.7222(7) 0.2349(5) 0.5849(4) 0.045(4) Uiso 0.50 d P . .
CD17 C 0.6416(9) 0.2730(7) 0.6132(5) 0.062(5) Uiso 0.50 d P . .
CD18 C 0.7096(10) 0.3098(7) 0.5952(5) 0.067(5) Uiso 0.50 d P . .
ND6 N 0.6928(7) 0.2635(5) 0.5938(4) 0.055(4) Uiso 0.50 d P . .
OD6 O 0.7761(6) 0.2403(4) 0.5773(3) 0.060(3) Uiso 0.50 d P . .
OS1 O 0.6454(7) 0.2460(6) 0.5967(4) 0.086(5) Uiso 0.50 d P . .
CS1 C 0.6053(11) 0.2142(8) 0.5866(6) 0.079(7) Uiso 0.50 d P . .
CS2 C 0.7133(10) 0.2070(8) 0.5628(6) 0.075(6) Uiso 0.50 d P . .
CD19 C 0.2500 0.0000 0.5789(5) 0.078(5) Uiso 1 d S . .
CD20 C 0.2681(10) -0.0666(7) 0.5866(6) 0.069(6) Uiso 0.50 d P . .
CD21 C 0.2478(11) -0.0337(8) 0.5312(7) 0.084(7) Uiso 0.50 d P . .
ND7 N 0.2533(7) -0.0303(5) 0.5663(4) 0.056(4) Uiso 0.50 d P . .
OD7 O 0.2522(8) 0.0161(5) 0.6098(4) 0.090(5) Uiso 0.50 d P . .
CD22 C 0.8268(10) 0.1710(7) 0.4078(6) 0.071(6) Uiso 0.50 d P . .
CD23 C 0.7699(9) 0.1208(7) 0.3751(5) 0.065(5) Uiso 0.50 d P . .
CD24 C 0.7345(10) 0.1425(8) 0.4306(6) 0.074(6) Uiso 0.50 d P . .
ND8 N 0.7769(6) 0.1455(5) 0.4045(4) 0.048(3) Uiso 0.50 d P . .
OD8 O 0.8313(9) 0.1940(7) 0.4332(5) 0.108(6) Uiso 0.50 d P . .
CD25 C 0.0987(10) 0.1346(7) 0.4535(6) 0.067(6) Uiso 0.50 d P . .
CD26 C 0.0069(12) 0.1175(9) 0.4732(7) 0.092(8) Uiso 0.50 d P . .
CD27 C 0.0202(16) 0.1821(12) 0.4279(10) 0.137(13) Uiso 0.50 d P . .
ND9 N 0.0448(8) 0.1432(6) 0.4544(4) 0.067(5) Uiso 0.50 d P . .
OD9 O 0.1342(7) 0.1566(5) 0.4389(4) 0.078(4) Uiso 0.50 d P . .
CD28 C 0.7884(10) 0.1778(8) 0.4776(6) 0.074(6) Uiso 0.50 d P . .
CD29 C 0.8317(9) 0.2331(7) 0.5090(6) 0.068(6) Uiso 0.50 d P . .
ND10 N 0.8152(7) 0.1889(5) 0.5043(4) 0.056(4) Uiso 0.50 d P . .
OD10 O 0.7708(8) 0.1414(6) 0.4701(5) 0.093(5) Uiso 0.50 d P . .
CD31 C 0.0935(10) 0.2052(7) 0.5205(6) 0.068(6) Uiso 0.50 d P . .
CD32 C 0.1903(11) 0.2095(8) 0.5014(6) 0.079(7) Uiso 0.50 d P . .
CD33 C 0.1309(5) 0.2285(3) 0.5060(3) 0.078(3) Uiso 0.50 d P . .
ND11 N 0.1309(5) 0.2285(3) 0.5060(3) 0.078(3) Uiso 0.50 d P . .
OD11 O 0.1033(7) 0.1691(5) 0.5327(4) 0.086(5) Uiso 0.50 d P . .
CD34 C 0.1203(11) 0.1196(8) 0.5219(6) 0.026(5) Uiso 0.25 d P . .
CD35 C 0.1771(12) 0.1130(9) 0.4722(7) 0.034(6) Uiso 0.25 d P . .
CD36 C 0.0742(11) 0.1074(8) 0.4709(6) 0.024(5) Uiso 0.25 d P . .
ND12 N 0.1229(7) 0.1138(6) 0.4905(4) 0.014(3) Uiso 0.25 d P . .
OD12 O 0.0785(11) 0.1192(8) 0.5385(6) 0.053(6) Uiso 0.25 d P . .
OS2 O 0.1058(8) 0.0805(6) 0.5336(5) 0.120 Uiso 0.588(18) d P . .
OS3 O 0.2547(14) -0.0206(9) -0.0458(7) 0.120 Uiso 0.354(17) d P . .
OS4 O 0.1390(9) 0.0954(7) 0.7478(5) 0.120 Uiso 0.54(2) d P . .
OS5 O 0.2500 0.0000 0.0077(8) 0.120 Uiso 0.50(2) d SP . .
0S6 O 0.691(3) -0.098(2) 0.8087(19) 0.120 Uiso 0.148(18) d P . .
CS3 C 0.742(2) -0.0608(18) 0.8052(14) 0.120 Uiso 0.31(3) d P . .
CS4 C 0.749(2) -0.0134(14) 0.8052(10) 0.120 Uiso 0.39(3) d P . .
CS5 C 0.7500 0.0000 0.8504 0.120 Uiso 0.63(4) d SP . .
CS6 C 0.7500 0.0000 0.7565(9) 0.120 Uiso 0.71(4) d SP . .
CD37 C 0.162(3) 0.105(2) 0.2280(18) 0.26(3) Uiso 0.50 d P . .
CD38 C 0.2439(9) 0.1454(6) 0.2736(5) 0.058(5) Uiso 0.50 d P . .
CD39 C 0.1658(14) 0.0908(11) 0.2730(8) 0.112(10) Uiso 0.50 d P . .
ND13 N 0.1946(12) 0.1325(7) 0.2617(6) 0.082(6) Uiso 0.50 d P . .
OD13 O 0.2728(6) 0.1252(4) 0.2948(3) 0.058(3) Uiso 0.50 d P . .
CD40 C 0.2319(10) 0.1320(7) 0.2195(6) 0.067(6) Uiso 0.50 d P . .
CD41 C 0.2563(15) 0.1048(11) 0.2731(9) 0.112(10) Uiso 0.50 d P . .
CD42 C 0.155(2) 0.1346(14) 0.2606(11) 0.140(14) Uiso 0.50 d P . .
ND14 N 0.2165(10) 0.1259(7) 0.2480(6) 0.078(6) Uiso 0.50 d P . .
OD14 O 0.2777(7) 0.1216(5) 0.2071(4) 0.070(4) Uiso 0.50 d P . .
CD43 C 0.0915(16) -0.0568(12) 0.3019(10) 0.124(11) Uiso 0.50 d P . .
CD44 C 0.104(2) -0.0255(16) 0.3558(13) 0.173(18) Uiso 0.50 d P . .
CD45 C 0.1069(15) 0.0159(12) 0.3187(9) 0.115(11) Uiso 0.50 d P . .
ND15 N 0.1250(9) -0.0267(7) 0.3253(6) 0.179(7) Uiso 1 d . . .
OD15 O 0.0828(7) -0.0493(5) 0.2682(4) 0.076(4) Uiso 0.50 d P . .
CS7 C 0.115(2) -0.0657(16) 0.3357(12) 0.159(16) Uiso 0.50 d P . .
CS8 C 0.198(2) -0.0168(14) 0.3270(12) 0.159(16) Uiso 0.50 d P . .
OS7 O 0.1173(9) 0.0553(8) 0.3115(6) 0.120 Uiso 0.500(19) d P . .
OS8 O 0.2335(16) -0.0050(15) 0.3534(8) 0.120 Uiso 0.300(17) d P . .
CD46 C 0.8817(11) -0.0155(9) 0.8039(6) 0.080(7) Uiso 0.50 d P . .
CD47 C 0.8917(11) 0.0610(9) 0.8114(7) 0.084(7) Uiso 0.50 d P . .
CD48 C 0.8882(13) 0.0135(10) 0.8575(8) 0.103(9) Uiso 0.50 d P . .
ND16 N 0.8911(6) 0.0209(5) 0.8223(4) 0.121(5) Uiso 1 d . . .
OD16 O 0.8811(4) -0.0530(3) 0.8099(2) 0.099(3) Uiso 1 d . . .
CS9 C 0.854(3) 0.0473(19) 0.8326(15) 0.120 Uiso 0.30(3) d P . .
CS10 C 0.9013(17) 0.0379(13) 0.7768(10) 0.120 Uiso 0.43(3) d P . .
CS11 C 0.6238(10) 0.2506(8) 0.8996(6) 0.076(6) Uiso 0.50 d P . .
CS12 C 0.6017(13) 0.2294(10) 0.9265(8) 0.100(9) Uiso 0.50 d P . .
CS13 C 0.5613(14) 0.1940(10) 0.9187(8) 0.107(10) Uiso 0.50 d P . .
CS14 C 0.6034(17) 0.2434(13) 0.9574(10) 0.139(13) Uiso 0.50 d P . .
CS15 C 0.8118(13) 0.1602(10) 0.9697(8) 0.120 Uiso 0.58(3) d P . .
CS16 C 0.7760(10) 0.1937(8) 0.9507(6) 0.120 Uiso 0.72(3) d P . .
CS17 C 0.7852(8) 0.2351(6) 0.9239(5) 0.120 Uiso 0.95(3) d P . .
CS18 C 0.069(2) 0.1127(15) 0.0369(13) 0.120 Uiso 0.37(3) d P . .
CS19 C 0.1322(13) 0.0872(9) -0.0093(7) 0.120 Uiso 0.62(3) d P . .
CS20 C 0.0942(13) 0.1063(9) 0.0034(8) 0.120 Uiso 0.65(3) d P . .
CS21 C 0.9319(8) 0.1582(6) 0.0320(5) 0.120 Uiso 0.92(3) d P . .
CS22 C 0.8272(13) 0.1505(10) 0.0884(7) 0.120 Uiso 0.59(3) d P . .
CS23 C 0.8725(11) 0.1815(8) 0.1062(7) 0.120 Uiso 0.67(3) d P . .
CS24 C 0.7974(13) 0.1029(10) 0.1101(8) 0.120 Uiso 0.56(3) d P . .
CS25 C 0.9437(17) 0.2170(13) 0.0108(10) 0.120 Uiso 0.43(3) d P . .
CS26 C 0.1707 0.1570 0.2340 0.120 Uiso 0.57 d P . .

loop_
_atom_site_aniso_label
_atom_site_aniso_U_11
_atom_site_aniso_U_22
_atom_site_aniso_U_33
_atom_site_aniso_U_23
_atom_site_aniso_U_13
_atom_site_aniso_U_12
Cu1 0.0259(5) 0.0339(5) 0.0369(6) 0.0085(5) -0.0071(4) -0.0048(4)
Cu2 0.1209(13) 0.0228(6) 0.0408(7) 0.0046(5) 0.0302(8) 0.0172(7)
Cu3 0.0221(5) 0.0509(7) 0.0458(7) 0.0154(5) 0.0000(5) -0.0060(5)
Cu4 0.0486(7) 0.0247(5) 0.0354(6) -0.0003(4) 0.0076(5) -0.0069(5)
Cu5 0.0380(6) 0.0509(7) 0.0410(6) -0.0123(6) -0.0114(5) 0.0085(5)
Cu6 0.0198(7) 0.0334(8) 0.0462(9) 0.000 0.000 0.0008(6)
Cu7 0.0393(10) 0.0374(9) 0.0942(16) 0.000 0.000 0.0091(8)
N1 0.044(4) 0.043(4) 0.036(3) -0.006(3) 0.000(3) 0.007(3)
N2 0.048(4) 0.038(3) 0.036(3) -0.003(3) -0.001(3) 0.008(3)
N3 0.036(3) 0.029(3) 0.036(3) 0.003(2) 0.000(3) 0.003(3)
N4 0.036(3) 0.026(3) 0.035(3) 0.003(2) 0.005(3) 0.000(2)
N5 0.038(4) 0.051(4) 0.039(4) -0.013(3) 0.002(3) 0.000(3)
N6 0.032(3) 0.059(5) 0.050(4) -0.016(4) -0.002(3) -0.004(3)
C1 0.039(4) 0.038(4) 0.044(4) -0.001(3) -0.004(3) 0.013(3)
C2 0.035(4) 0.035(4) 0.037(4) -0.002(3) -0.008(3) 0.003(3)
C3 0.035(4) 0.032(4) 0.029(3) 0.002(3) -0.004(3) 0.003(3)
C4 0.034(4) 0.030(4) 0.034(4) 0.002(3) 0.003(3) 0.003(3)
C5 0.039(4) 0.032(4) 0.028(3) 0.003(3) -0.007(3) 0.000(3)
C6 0.025(3) 0.038(4) 0.037(4) -0.006(3) -0.003(3) 0.005(3)
O1 0.033(3) 0.057(4) 0.059(4) -0.024(3) 0.002(3) 0.004(3)
O2 0.034(3) 0.036(3) 0.040(3) -0.006(2) 0.001(2) -0.001(2)
O3 0.036(3) 0.033(3) 0.046(3) -0.007(2) 0.000(2) -0.002(2)
N7 0.046(4) 0.028(3) 0.032(3) 0.000(2) 0.006(3) -0.004(3)
N8 0.048(4) 0.027(3) 0.030(3) 0.001(2) 0.002(3) -0.009(3)
N9 0.035(3) 0.024(3) 0.034(3) 0.005(2) 0.006(3) 0.001(2)
N10 0.044(3) 0.024(3) 0.033(3) 0.008(2) 0.009(3) 0.004(3)
N11 0.024(3) 0.026(3) 0.033(3) -0.003(2) 0.001(2) -0.001(2)
N12 0.024(3) 0.025(3) 0.036(3) 0.000(2) -0.002(2) 0.001(2)
C25 0.032(4) 0.022(3) 0.037(4) 0.003(3) 0.004(3) 0.002(3)
C26 0.044(4) 0.029(4) 0.032(4) -0.005(3) 0.004(3) 0.005(3)
C27 0.041(4) 0.025(3) 0.036(4) 0.000(3) 0.009(3) 0.000(3)
C28 0.033(4) 0.020(3) 0.031(3) -0.001(3) 0.011(3) 0.004(3)
C29 0.029(3) 0.023(3) 0.033(3) -0.004(3) 0.003(3) 0.003(3)
C30 0.027(3) 0.018(3) 0.033(3) -0.004(3) 0.002(3) 0.002(2)
O4 0.064(4) 0.024(2) 0.034(3) 0.005(2) 0.010(3) -0.006(2)
O5 0.084(4) 0.019(2) 0.037(3) 0.000(2) 0.011(3) -0.012(3)
O6 0.047(3) 0.027(2) 0.031(3) -0.001(2) 0.004(2) -0.005(2)
N13 0.020(3) 0.033(3) 0.025(3) -0.001(2) -0.003(2) 0.002(2)
N14 0.017(3) 0.034(3) 0.036(3) 0.001(2) -0.001(2) -0.004(2)
N15 0.022(3) 0.036(3) 0.032(3) 0.003(2) 0.001(2) -0.003(2)
N16 0.026(3) 0.033(3) 0.029(3) 0.003(2) -0.003(2) 0.001(2)
N17 0.027(3) 0.029(3) 0.040(3) -0.005(3) 0.002(2) -0.004(2)
N18 0.027(3) 0.031(3) 0.047(4) 0.001(3) 0.005(3) -0.003(2)
C49 0.027(3) 0.031(3) 0.030(3) 0.000(3) 0.002(3) -0.001(3)
C50 0.019(3) 0.033(3) 0.030(3) 0.002(3) -0.002(3) 0.001(3)
C51 0.029(3) 0.030(3) 0.025(3) -0.002(3) 0.003(3) 0.000(3)
C52 0.021(3) 0.037(4) 0.025(3) 0.003(3) 0.002(3) -0.001(3)
C53 0.023(3) 0.037(4) 0.033(3) -0.002(3) 0.001(3) -0.002(3)
C54 0.023(3) 0.029(3) 0.034(3) 0.003(3) -0.002(3) -0.003(3)
O7 0.025(2) 0.033(3) 0.050(3) 0.010(2) -0.006(2) -0.002(2)
O8 0.020(2) 0.038(3) 0.042(3) 0.007(2) -0.001(2) 0.001(2)
O9 0.022(2) 0.052(3) 0.042(3) 0.012(3) -0.003(2) -0.007(2)
N19 0.035(3) 0.028(3) 0.043(4) 0.009(3) 0.002(3) -0.010(3)
N20 0.035(3) 0.022(3) 0.061(4) 0.010(3) -0.005(3) -0.005(2)
N21 0.037(3) 0.032(3) 0.033(3) 0.006(3) -0.002(3) -0.013(3)
N22 0.028(3) 0.048(4) 0.036(3) 0.005(3) 0.000(3) -0.008(3)
N23 0.042(4) 0.029(3) 0.037(3) -0.004(3) -0.009(3) -0.005(3)
N24 0.050(4) 0.033(3) 0.037(3) 0.003(3) -0.015(3) 0.002(3)
C73 0.032(4) 0.034(4) 0.031(4) 0.009(3) 0.000(3) -0.010(3)
C74 0.033(4) 0.025(3) 0.038(4) 0.010(3) 0.000(3) -0.006(3)
C75 0.032(4) 0.025(3) 0.041(4) 0.008(3) -0.006(3) -0.009(3)
C76 0.032(4) 0.027(3) 0.031(3) 0.005(3) -0.009(3) -0.011(3)
C77 0.030(4) 0.034(4) 0.033(4) 0.001(3) -0.005(3) -0.004(3)
C78 0.034(4) 0.031(4) 0.033(4) 0.006(3) -0.008(3) -0.004(3)
O10 0.037(3) 0.052(3) 0.029(3) 0.007(2) -0.001(2) 0.009(2)
O11 0.041(3) 0.032(3) 0.044(3) 0.003(2) -0.014(2) 0.001(2)
O12 0.043(3) 0.040(3) 0.041(3) 0.001(2) -0.004(2) 0.006(2)
C7 0.059(5) 0.037(4) 0.046(5) -0.008(4) -0.013(4) 0.011(4)
C8 0.104(9) 0.064(6) 0.041(5) -0.020(5) -0.028(5) 0.032(6)
C9 0.166(14) 0.053(6) 0.051(6) -0.018(5) -0.048(8) 0.025(8)
C10 0.133(12) 0.061(7) 0.052(6) -0.017(5) -0.032(7) -0.003(8)
C11 0.110(10) 0.078(8) 0.077(8) -0.027(7) -0.025(8) -0.026(7)
C12 0.061(6) 0.080(8) 0.062(6) -0.025(6) -0.005(5) -0.017(6)
C13 0.046(4) 0.020(3) 0.038(4) 0.003(3) 0.003(3) 0.004(3)
C14 0.050(5) 0.031(4) 0.047(5) -0.001(3) 0.001(4) 0.001(3)
C15 0.066(6) 0.034(4) 0.060(6) -0.006(4) 0.004(5) 0.009(4)
C16 0.062(6) 0.039(4) 0.045(5) -0.004(4) 0.002(4) 0.022(4)
C17 0.048(5) 0.045(5) 0.044(5) 0.006(4) 0.001(4) 0.015(4)
C18 0.041(4) 0.039(4) 0.043(4) 0.003(3) 0.001(4) 0.007(3)
C19 0.052(6) 0.082(7) 0.049(5) -0.018(5) 0.001(4) -0.024(5)
C20 0.058(6) 0.082(7) 0.045(5) -0.005(5) 0.002(4) -0.029(5)
C21 0.079(8) 0.128(11) 0.064(7) -0.033(7) 0.018(6) -0.054(8)
C31 0.055(5) 0.034(4) 0.030(4) 0.003(3) 0.004(3) -0.008(4)
C32 0.057(5) 0.047(5) 0.039(4) 0.004(4) -0.003(4) -0.003(4)
C33 0.087(8) 0.062(6) 0.042(5) 0.006(4) 0.000(5) -0.022(6)
C34 0.125(11) 0.066(7) 0.040(5) 0.001(5) -0.011(6) -0.039(7)
C35 0.138(11) 0.065(7) 0.046(5) 0.003(5) -0.014(7) -0.051(7)
C36 0.105(9) 0.050(5) 0.041(5) -0.002(4) 0.000(5) -0.032(6)
C37 0.036(4) 0.026(3) 0.031(3) 0.003(3) 0.009(3) -0.004(3)
C38 0.037(4) 0.028(3) 0.043(4) 0.000(3) 0.007(3) -0.001(3)
C39 0.041(4) 0.034(4) 0.055(5) 0.000(4) 0.018(4) -0.011(3)
C40 0.060(6) 0.038(4) 0.052(5) 0.004(4) 0.022(4) -0.006(4)
C41 0.077(7) 0.045(5) 0.036(4) 0.000(4) 0.017(4) -0.009(5)
C42 0.064(5) 0.030(4) 0.039(4) -0.002(3) 0.018(4) -0.010(4)
C43 0.030(3) 0.024(3) 0.039(4) -0.001(3) -0.002(3) 0.004(3)
C44 0.026(3) 0.034(4) 0.045(4) -0.010(3) 0.002(3) 0.004(3)
C45 0.029(4) 0.038(4) 0.050(4) -0.014(4) -0.001(3) 0.006(3)
C46 0.026(3) 0.029(4) 0.061(5) -0.007(3) -0.006(3) 0.000(3)
C47 0.046(4) 0.024(4) 0.053(5) -0.001(3) -0.006(4) -0.002(3)
C48 0.043(4) 0.028(4) 0.040(4) -0.001(3) -0.001(3) -0.001(3)
C55 0.025(3) 0.033(3) 0.030(3) -0.001(3) 0.000(3) -0.003(3)
C56 0.025(4) 0.040(4) 0.055(5) -0.007(4) -0.001(3) 0.001(3)
C57 0.021(4) 0.058(5) 0.073(6) -0.002(5) 0.007(4) 0.001(3)
C58 0.031(4) 0.064(6) 0.064(6) -0.001(5) 0.014(4) -0.002(4)
C59 0.032(4) 0.052(5) 0.041(4) -0.001(4) 0.013(3) -0.009(3)
C60 0.027(3) 0.039(4) 0.036(4) 0.001(3) -0.001(3) -0.007(3)
C61 0.028(4) 0.041(4) 0.032(4) 0.004(3) -0.003(3) 0.004(3)
C62 0.036(4) 0.043(4) 0.031(4) 0.003(3) -0.006(3) 0.004(3)
C63 0.048(5) 0.056(5) 0.032(4) 0.000(4) -0.010(4) 0.006(4)
C64 0.036(4) 0.061(5) 0.044(5) 0.000(4) -0.014(4) 0.003(4)
C65 0.031(4) 0.076(6) 0.046(5) -0.004(4) -0.015(4) -0.007(4)
C66 0.020(3) 0.061(5) 0.048(5) 0.012(4) -0.013(3) -0.006(3)
C67 0.034(4) 0.024(3) 0.072(6) 0.004(4) 0.013(4) 0.001(3)
C68 0.031(4) 0.033(4) 0.119(9) -0.003(5) 0.021(5) -0.007(3)
C70 0.045(5) 0.034(5) 0.152(12) 0.025(6) 0.044(7) 0.011(4)
C71 0.046(5) 0.036(5) 0.105(8) 0.026(5) 0.026(5) 0.011(4)
C72 0.031(4) 0.040(4) 0.081(7) 0.018(4) 0.017(4) 0.008(3)
C79 0.042(5) 0.021(4) 0.095(8) -0.009(4) 0.000(5) -0.006(3)
C84 0.053(6) 0.097(8) 0.059(6) -0.040(6) 0.023(5) -0.010(6)
C85 0.027(4) 0.079(6) 0.038(4) -0.008(4) -0.003(3) -0.012(4)
C86 0.035(4) 0.071(6) 0.030(4) 0.013(4) -0.006(3) -0.023(4)
C87 0.034(4) 0.123(9) 0.025(4) 0.003(5) -0.001(3) -0.013(5)
C91 0.056(5) 0.031(4) 0.057(5) 0.001(4) -0.023(4) 0.006(4)
C92 0.055(6) 0.042(5) 0.077(7) -0.006(5) -0.018(5) 0.017(4)
C93 0.100(9) 0.037(5) 0.105(9) -0.006(6) -0.050(8) 0.027(6)
C94 0.086(9) 0.044(6) 0.125(11) -0.005(7) -0.037(8) 0.029(6)
C95 0.092(9) 0.054(6) 0.107(10) 0.037(7) -0.048(8) -0.008(6)
C96 0.091(8) 0.037(5) 0.061(6) 0.015(4) -0.035(6) 0.003(5)

_geom_special_details            
; 
All esds (except the esd in the dihedral angle between two l.s. planes) 
are estimated using the full covariance matrix.  The cell esds are taken 
into account individually in the estimation of esds in distances, angles 
and torsion angles; correlations between esds in cell parameters are only 
used when they are defined by crystal symmetry.  An approximate (isotropic) 
treatment of cell esds is used for estimating esds involving l.s. planes. 
;

loop_
_geom_bond_atom_site_label_1
_geom_bond_atom_site_label_2
_geom_bond_distance
_geom_bond_site_symmetry_2
_geom_bond_publ_flag
Cu1 O7 1.894(5) . ?
Cu1 O6 1.911(5) . ?
Cu1 N14 1.957(6) . ?
Cu1 N12 1.958(6) . ?
Cu2 O11 1.917(6) 4 ?
Cu2 O5 1.924(5) . ?
Cu2 N10 1.954(6) . ?
Cu2 N20 1.969(7) 4 ?
Cu3 O9 1.907(5) . ?
Cu3 O12 1.913(6) . ?
Cu3 N18 1.939(6) . ?
Cu3 N22 1.946(6) . ?
Cu4 O4 1.903(5) . ?
Cu4 O2 1.920(5) . ?
Cu4 N4 1.960(6) . ?
Cu4 N8 1.970(6) . ?
Cu5 O3 1.897(5) . ?
Cu5 O10 1.900(5) . ?
Cu5 N6 1.953(7) . ?
Cu5 N24 1.960(7) . ?
Cu6 O8 1.899(5) . ?
Cu6 O8 1.899(5) 4 ?
Cu6 N16 1.954(6) 4 ?
Cu6 N16 1.954(6) . ?
Cu7 O1 1.901(6) . ?
Cu7 O1 1.902(6) 4 ?
Cu7 N2 1.967(7) . ?
Cu7 N2 1.967(7) 4 ?
N1 N2 1.287(9) . ?
N1 C2 1.360(10) . ?
N2 C7 1.425(11) . ?
N3 N4 1.271(8) . ?
N3 C4 1.366(9) . ?
N4 C13 1.425(9) . ?
N5 N6 1.282(9) . ?
N5 C6 1.371(9) . ?
N6 C19 1.407(11) . ?
C1 O1 1.283(9) . ?
C1 C2 1.424(11) . ?
C1 C6 1.445(11) . ?
C2 C3 1.445(10) . ?
C3 O2 1.269(9) . ?
C3 C4 1.438(10) . ?
C4 C5 1.431(10) . ?
C5 O3 1.267(8) . ?
C5 C6 1.423(10) . ?
N7 N8 1.292(8) . ?
N7 C26 1.335(9) . ?
N8 C31 1.427(9) . ?
N9 N10 1.290(8) . ?
N9 C28 1.349(8) . ?
N10 C37 1.432(8) . ?
N11 N12 1.278(8) . ?
N11 C30 1.356(8) . ?
N12 C43 1.442(8) . ?
C25 O4 1.263(8) . ?
C25 C26 1.436(10) . ?
C25 C30 1.445(10) . ?
C26 C27 1.459(10) . ?
C27 O5 1.278(9) . ?
C27 C28 1.428(10) . ?
C28 C29 1.458(9) . ?
C29 O6 1.277(8) . ?
C29 C30 1.417(9) . ?
N13 N14 1.281(7) . ?
N13 C50 1.360(8) . ?
N14 C55 1.426(8) . ?
N15 N16 1.279(8) . ?
N15 C52 1.355(8) . ?
N16 C61 1.438(9) . ?
N17 N18 1.271(8) . ?
N17 C54 1.367(9) . ?
N18 C67 1.435(10) . ?
C49 O7 1.283(8) . ?
C49 C50 1.415(9) . ?
C49 C54 1.441(9) . ?
C50 C51 1.454(9) . ?
C51 O8 1.260(8) . ?
C51 C52 1.442(9) . ?
C52 C53 1.452(10) . ?
C53 O9 1.279(8) . ?
C53 C54 1.421(9) . ?
N19 N20 1.264(9) . ?
N19 C74 1.364(9) . ?
N20 C79 1.415(12) . ?
N20 Cu2 1.969(7) 4 ?
N21 N22 1.264(9) . ?
N21 C76 1.366(9) . ?
N22 C85 1.434(10) . ?
N23 N24 1.282(8) . ?
N23 C78 1.377(9) . ?
N24 C91 1.438(10) . ?
C73 O10 1.293(9) . ?
C73 C78 1.399(11) . ?
C73 C74 1.443(10) . ?
C74 C75 1.419(11) . ?
C75 O11 1.276(9) . ?
C75 C76 1.443(11) . ?
C76 C77 1.423(10) . ?
C77 O12 1.278(9) . ?
C77 C78 1.449(10) . ?
O11 Cu2 1.917(6) 4 ?
C7 C8 1.384(12) . ?
C7 C12 1.393(14) . ?
C8 C9 1.436(16) . ?
C9 C10 1.40(2) . ?
C10 C11 1.362(17) . ?
C11 C12 1.429(14) . ?
C13 C14 1.381(11) . ?
C13 C18 1.394(11) . ?
C14 C15 1.388(11) . ?
C15 C16 1.387(13) . ?
C16 C17 1.380(13) . ?
C17 C18 1.385(11) . ?
C19 C24A 1.37(2) . ?
C19 C20 1.408(13) . ?
C19 C24B 1.495(19) . ?
C20 C21 1.400(14) . ?
C21 C22A 1.25(3) . ?
C21 C22B 1.50(2) . ?
C22A C23A 1.41(4) . ?
C22B C23A 1.23(3) . ?
C22B C23B 1.44(2) . ?
C23A C24A 1.40(3) . ?
C23B C24B 1.38(2) . ?
C31 C32 1.370(11) . ?
C31 C36 1.412(12) . ?
C32 C33 1.393(13) . ?
C33 C34 1.400(14) . ?
C34 C35 1.430(15) . ?
C35 C36 1.360(14) . ?
C37 C42 1.388(11) . ?
C37 C38 1.399(10) . ?
C38 C39 1.374(11) . ?
C39 C40 1.364(12) . ?
C40 C41 1.423(12) . ?
C41 C42 1.388(11) . ?
C43 C44 1.368(10) . ?
C43 C48 1.406(10) . ?
C44 C45 1.405(10) . ?
C45 C46 1.375(12) . ?
C46 C47 1.404(11) . ?
C47 C48 1.406(10) . ?
C55 C60 1.403(10) . ?
C55 C56 1.404(10) . ?
C56 C57 1.396(11) . ?
C57 C58 1.386(13) . ?
C58 C59 1.384(12) . ?
C59 C60 1.390(10) . ?
C61 C62 1.396(10) . ?
C61 C66 1.404(10) . ?
C62 C63 1.378(10) . ?
C63 C64 1.390(12) . ?
C64 C65 1.414(13) . ?
C65 C66 1.378(10) . ?
C67 C68 1.373(11) . ?
C67 C72 1.380(12) . ?
C68 C69A 1.334(18) . ?
C68 C69B 1.532(19) . ?
C69A C70 1.63(2) . ?
C69B C70 1.19(2) . ?
C70 C71 1.388(14) . ?
C71 C72 1.397(11) . ?
C79 C80B 1.37(2) . ?
C79 C84 1.372(15) . ?
C79 C80A 1.486(17) . ?
C80A C81A 1.47(2) . ?
C80B C81B 1.47(3) . ?
C81A C82A 1.35(2) . ?
C81B C82B 1.33(3) . ?
C82A C83A 1.36(2) . ?
C82B C83B 1.46(3) . ?
C83A C84 1.41(2) . ?
C83B C84 1.48(2) . ?
C85 C90B 1.324(17) . ?
C85 C86 1.383(12) . ?
C85 C90A 1.52(2) . ?
C86 C87 1.385(11) . ?
C87 C88B 1.280(18) . ?
C87 C88A 1.64(2) . ?
C88A C89A 1.40(3) . ?
C88B C89B 1.42(2) . ?
C89A C90A 1.32(3) . ?
C89B C90B 1.39(2) . ?
C91 C96 1.395(12) . ?
C91 C92 1.402(14) . ?
C92 C93 1.414(12) . ?
C93 C94 1.346(19) . ?
C94 C95 1.395(19) . ?
C95 C96 1.423(14) . ?
CD1 OD1 1.237(12) . ?
CD1 ND1 1.325(13) . ?
CD2 ND1 1.486(14) . ?
CD3 ND1 1.470(16) . ?
CD4 OD2 1.212(17) . ?
CD4 ND2 1.358(17) . ?
CD5 ND2 1.439(15) . ?
CD6 ND2 1.500(15) . ?
CD7 OD3 1.34(3) . ?
CD7 ND3 1.40(2) . ?
CD8 ND3 1.37(3) . ?
CD9 ND3 1.33(3) . ?
CD10 OD4 1.15(3) . ?
CD10 ND4 1.31(3) . ?
CD11 ND4 1.54(3) . ?
CD12 ND4 1.47(4) . ?
CD13 OD5 1.28(2) . ?
CD13 ND5 1.29(2) . ?
CD14 ND10 1.62(2) . ?
CD14 ND5 1.66(2) . ?
CD15 ND5 1.45(3) . ?
CD16 ND6 1.21(2) . ?
CD16 OD6 1.34(2) . ?
CD17 ND6 1.49(3) . ?
CD18 ND6 1.54(3) . ?
CD19 ND7 1.099(17) . ?
CD19 OD7 1.37(2) . ?
CD20 ND7 1.47(3) . ?
CD21 ND7 1.44(3) . ?
ND7 OD7 1.84(2) 4 ?
CD22 OD8 1.28(3) . ?
CD22 ND8 1.45(3) . ?
CD23 ND8 1.45(2) . ?
CD24 ND8 1.47(3) . ?
CD25 OD9 1.25(3) . ?
CD25 ND9 1.32(3) . ?
CD26 ND9 1.45(3) . ?
CD27 ND9 1.75(4) . ?
CD28 OD10 1.27(3) . ?
CD28 ND10 1.31(3) . ?
CD29 ND10 1.48(3) . ?
CD31 OD11 1.28(3) . ?
CD31 ND11 1.31(2) . ?
CD32 ND11 1.56(3) . ?
ND11 CD33 1.46(2) 2_556 ?
OD11 CD34 1.69(3) . ?
CD34 OD12 1.21(3) . ?
CD34 ND12 1.30(3) . ?
CD35 ND12 1.50(3) . ?
CD36 ND12 1.43(3) . ?
OD12 OS2 1.41(3) . ?
CD37 ND13 1.80(8) . ?
CD37 CD40 1.90(7) . ?
CD38 OD13 1.28(2) . ?
CD38 ND13 1.34(3) . ?
CD38 ND14 1.38(3) . ?
CD39 ND13 1.57(4) . ?
CD40 ND14 1.24(3) . ?
CD40 OD14 1.25(3) . ?
CD41 ND14 1.55(4) . ?
CD42 ND14 1.59(5) . ?
CD43 OD15 1.41(4) . ?
CD43 ND15 1.57(4) . ?
CD44 ND15 1.34(5) . ?
CD45 ND15 1.45(4) . ?
CD46 OD16 1.22(3) . ?
CD46 ND16 1.40(3) . ?
CD47 ND16 1.36(3) . ?
CD48 ND16 1.46(3) . ?

loop_
_geom_angle_atom_site_label_1
_geom_angle_atom_site_label_2
_geom_angle_atom_site_label_3
_geom_angle
_geom_angle_site_symmetry_1
_geom_angle_site_symmetry_3
_geom_angle_publ_flag
O7 Cu1 O6 160.6(2) . . ?
O7 Cu1 N14 88.3(2) . . ?
O6 Cu1 N14 92.6(2) . . ?
O7 Cu1 N12 92.8(2) . . ?
O6 Cu1 N12 89.9(2) . . ?
N14 Cu1 N12 168.9(2) . . ?
O11 Cu2 O5 158.3(3) 4 . ?
O11 Cu2 N10 93.7(2) 4 . ?
O5 Cu2 N10 90.1(2) . . ?
O11 Cu2 N20 88.8(3) 4 4 ?
O5 Cu2 N20 90.3(3) . 4 ?
N10 Cu2 N20 172.4(3) . 4 ?
O9 Cu3 O12 158.6(3) . . ?
O9 Cu3 N18 90.5(2) . . ?
O12 Cu3 N18 94.3(3) . . ?
O9 Cu3 N22 92.0(2) . . ?
O12 Cu3 N22 88.2(3) . . ?
N18 Cu3 N22 166.7(3) . . ?
O4 Cu4 O2 169.1(3) . . ?
O4 Cu4 N4 91.5(2) . . ?
O2 Cu4 N4 87.4(2) . . ?
O4 Cu4 N8 88.2(2) . . ?
O2 Cu4 N8 96.1(2) . . ?
N4 Cu4 N8 162.7(3) . . ?
O3 Cu5 O10 161.4(2) . . ?
O3 Cu5 N6 89.0(3) . . ?
O10 Cu5 N6 94.1(3) . . ?
O3 Cu5 N24 94.5(3) . . ?
O10 Cu5 N24 88.4(3) . . ?
N6 Cu5 N24 161.4(3) . . ?
O8 Cu6 O8 161.5(3) . 4 ?
O8 Cu6 N16 92.8(2) . 4 ?
O8 Cu6 N16 89.1(2) 4 4 ?
O8 Cu6 N16 89.1(2) . . ?
O8 Cu6 N16 92.8(2) 4 . ?
N16 Cu6 N16 168.0(3) 4 . ?
O1 Cu7 O1 154.8(4) . 4 ?
O1 Cu7 N2 89.6(3) . . ?
O1 Cu7 N2 91.5(3) 4 . ?
O1 Cu7 N2 91.5(3) . 4 ?
O1 Cu7 N2 89.6(3) 4 4 ?
N2 Cu7 N2 174.9(4) . 4 ?
N2 N1 C2 121.9(7) . . ?
N1 N2 C7 113.2(7) . . ?
N1 N2 Cu7 124.3(6) . . ?
C7 N2 Cu7 122.0(5) . . ?
N4 N3 C4 121.7(6) . . ?
N3 N4 C13 114.0(6) . . ?
N3 N4 Cu4 123.3(5) . . ?
C13 N4 Cu4 122.5(5) . . ?
N6 N5 C6 120.3(7) . . ?
N5 N6 C19 113.3(7) . . ?
N5 N6 Cu5 125.9(6) . . ?
C19 N6 Cu5 120.4(6) . . ?
O1 C1 C2 121.6(8) . . ?
O1 C1 C6 119.2(7) . . ?
C2 C1 C6 119.2(7) . . ?
N1 C2 C1 126.4(7) . . ?
N1 C2 C3 112.6(7) . . ?
C1 C2 C3 120.8(7) . . ?
O2 C3 C4 122.6(7) . . ?
O2 C3 C2 118.9(7) . . ?
C4 C3 C2 118.4(7) . . ?
N3 C4 C5 114.4(7) . . ?
N3 C4 C3 123.4(7) . . ?
C5 C4 C3 121.5(7) . . ?
O3 C5 C6 122.8(7) . . ?
O3 C5 C4 118.2(7) . . ?
C6 C5 C4 119.0(7) . . ?
N5 C6 C5 125.4(7) . . ?
N5 C6 C1 112.9(7) . . ?
C5 C6 C1 121.0(7) . . ?
C1 O1 Cu7 123.1(6) . . ?
C3 O2 Cu4 119.9(5) . . ?
C5 O3 Cu5 123.1(5) . . ?
N8 N7 C26 120.9(6) . . ?
N7 N8 C31 114.3(6) . . ?
N7 N8 Cu4 124.1(5) . . ?
C31 N8 Cu4 121.3(5) . . ?
N10 N9 C28 122.4(6) . . ?
N9 N10 C37 112.7(6) . . ?
N9 N10 Cu2 124.8(5) . . ?
C37 N10 Cu2 121.8(5) . . ?
N12 N11 C30 121.7(6) . . ?
N11 N12 C43 114.1(6) . . ?
N11 N12 Cu1 124.5(4) . . ?
C43 N12 Cu1 120.9(5) . . ?
O4 C25 C26 122.1(7) . . ?
O4 C25 C30 118.7(6) . . ?
C26 C25 C30 119.1(6) . . ?
N7 C26 C25 125.9(7) . . ?
N7 C26 C27 113.8(7) . . ?
C25 C26 C27 119.8(7) . . ?
O5 C27 C28 122.4(6) . . ?
O5 C27 C26 117.3(7) . . ?
C28 C27 C26 120.2(6) . . ?
N9 C28 C27 126.4(6) . . ?
N9 C28 C29 113.6(6) . . ?
C27 C28 C29 119.7(6) . . ?
O6 C29 C30 123.7(6) . . ?
O6 C29 C28 116.7(6) . . ?
C30 C29 C28 119.6(6) . . ?
N11 C30 C29 125.8(6) . . ?
N11 C30 C25 112.5(6) . . ?
C29 C30 C25 121.4(6) . . ?
C25 O4 Cu4 122.3(5) . . ?
C27 O5 Cu2 123.2(5) . . ?
C29 O6 Cu1 121.6(5) . . ?
N14 N13 C50 120.7(6) . . ?
N13 N14 C55 114.4(6) . . ?
N13 N14 Cu1 123.7(4) . . ?
C55 N14 Cu1 121.2(4) . . ?
N16 N15 C52 122.0(6) . . ?
N15 N16 C61 113.2(6) . . ?
N15 N16 Cu6 124.7(5) . . ?
C61 N16 Cu6 121.5(5) . . ?
N18 N17 C54 121.6(6) . . ?
N17 N18 C67 113.4(6) . . ?
N17 N18 Cu3 125.4(5) . . ?
C67 N18 Cu3 120.3(5) . . ?
O7 C49 C50 122.1(6) . . ?
O7 C49 C54 117.9(6) . . ?
C50 C49 C54 120.0(6) . . ?
N13 C50 C49 125.5(6) . . ?
N13 C50 C51 113.4(6) . . ?
C49 C50 C51 120.8(6) . . ?
O8 C51 C52 122.4(6) . . ?
O8 C51 C50 119.4(6) . . ?
C52 C51 C50 118.2(6) . . ?
N15 C52 C51 125.0(6) . . ?
N15 C52 C53 113.9(6) . . ?
C51 C52 C53 121.0(6) . . ?
O9 C53 C54 123.6(7) . . ?
O9 C53 C52 117.5(6) . . ?
C54 C53 C52 118.9(6) . . ?
N17 C54 C53 125.6(6) . . ?
N17 C54 C49 113.3(6) . . ?
C53 C54 C49 120.9(6) . . ?
C49 O7 Cu1 121.6(5) . . ?
C51 O8 Cu6 124.0(4) . . ?
C53 O9 Cu3 122.4(5) . . ?
N20 N19 C74 122.5(7) . . ?
N19 N20 C79 113.9(7) . . ?
N19 N20 Cu2 122.3(5) . 4 ?
C79 N20 Cu2 122.9(6) . 4 ?
N22 N21 C76 121.2(7) . . ?
N21 N22 C85 114.8(6) . . ?
N21 N22 Cu3 124.8(5) . . ?
C85 N22 Cu3 120.1(5) . . ?
N24 N23 C78 120.2(7) . . ?
N23 N24 C91 112.7(7) . . ?
N23 N24 Cu5 125.3(5) . . ?
C91 N24 Cu5 121.0(5) . . ?
O10 C73 C78 122.7(7) . . ?
O10 C73 C74 117.4(7) . . ?
C78 C73 C74 119.8(7) . . ?
N19 C74 C75 125.3(7) . . ?
N19 C74 C73 114.0(7) . . ?
C75 C74 C73 120.4(7) . . ?
O11 C75 C74 122.4(7) . . ?
O11 C75 C76 118.5(7) . . ?
C74 C75 C76 119.1(7) . . ?
N21 C76 C77 124.9(7) . . ?
N21 C76 C75 113.9(7) . . ?
C77 C76 C75 120.7(7) . . ?
O12 C77 C76 122.5(7) . . ?
O12 C77 C78 118.6(7) . . ?
C76 C77 C78 118.8(7) . . ?
N23 C78 C73 125.7(7) . . ?
N23 C78 C77 113.1(7) . . ?
C73 C78 C77 120.8(7) . . ?
C73 O10 Cu5 123.1(5) . . ?
C75 O11 Cu2 120.9(5) . 4 ?
C77 O12 Cu3 120.9(5) . . ?
C8 C7 C12 121.3(9) . . ?
C8 C7 N2 116.9(9) . . ?
C12 C7 N2 121.8(8) . . ?
C7 C8 C9 118.3(12) . . ?
C10 C9 C8 121.1(11) . . ?
C11 C10 C9 119.0(11) . . ?
C10 C11 C12 121.6(13) . . ?
C7 C12 C11 118.7(11) . . ?
C14 C13 C18 120.4(7) . . ?
C14 C13 N4 122.4(7) . . ?
C18 C13 N4 117.2(7) . . ?
C13 C14 C15 118.7(8) . . ?
C16 C15 C14 121.0(9) . . ?
C17 C16 C15 119.9(8) . . ?
C16 C17 C18 119.6(8) . . ?
C17 C18 C13 120.2(8) . . ?
C24A C19 N6 127.0(12) . . ?
C24A C19 C20 113.7(13) . . ?
N6 C19 C20 117.0(9) . . ?
N6 C19 C24B 118.8(10) . . ?
C20 C19 C24B 123.4(10) . . ?
C21 C20 C19 119.6(11) . . ?
C22A C21 C20 124.3(16) . . ?
C20 C21 C22B 117.4(12) . . ?
C21 C22A C23A 114(2) . . ?
C23B C22B C21 121.1(15) . . ?
C24A C23A C22A 120(2) . . ?
C24B C23B C22B 121.1(16) . . ?
C19 C24A C23A 122(2) . . ?
C23B C24B C19 116.1(14) . . ?
C32 C31 C36 121.9(8) . . ?
C32 C31 N8 116.4(7) . . ?
C36 C31 N8 121.7(7) . . ?
C31 C32 C33 118.9(8) . . ?
C32 C33 C34 121.4(9) . . ?
C33 C34 C35 117.5(9) . . ?
C36 C35 C34 121.7(9) . . ?
C35 C36 C31 118.6(9) . . ?
C42 C37 C38 121.0(7) . . ?
C42 C37 N10 122.5(6) . . ?
C38 C37 N10 116.6(7) . . ?
C39 C38 C37 118.8(7) . . ?
C40 C39 C38 122.4(7) . . ?
C39 C40 C41 118.2(8) . . ?
C42 C41 C40 120.7(8) . . ?
C41 C42 C37 118.7(7) . . ?
C44 C43 C48 122.0(7) . . ?
C44 C43 N12 117.2(7) . . ?
C48 C43 N12 120.8(6) . . ?
C43 C44 C45 119.7(7) . . ?
C46 C45 C44 120.1(7) . . ?
C45 C46 C47 119.9(7) . . ?
C46 C47 C48 120.8(8) . . ?
C47 C48 C43 117.4(7) . . ?
C60 C55 C56 121.4(7) . . ?
C60 C55 N14 122.2(6) . . ?
C56 C55 N14 116.5(6) . . ?
C57 C56 C55 118.2(8) . . ?
C58 C57 C56 121.1(8) . . ?
C59 C58 C57 119.8(8) . . ?
C58 C59 C60 121.2(8) . . ?
C59 C60 C55 118.4(7) . . ?
C62 C61 C66 120.3(7) . . ?
C62 C61 N16 117.3(7) . . ?
C66 C61 N16 122.4(7) . . ?
C63 C62 C61 120.3(8) . . ?
C62 C63 C64 120.0(8) . . ?
C63 C64 C65 119.8(7) . . ?
C66 C65 C64 120.3(8) . . ?
C65 C66 C61 119.3(8) . . ?
C68 C67 C72 121.0(8) . . ?
C68 C67 N18 116.5(8) . . ?
C72 C67 N18 122.5(7) . . ?
C69A C68 C67 128.4(11) . . ?
C69A C68 C69B 24.9(8) . . ?
C67 C68 C69B 114.1(11) . . ?
C68 C69A C70 106.8(13) . . ?
C70 C69B C68 121.9(13) . . ?
C69B C70 C71 121.0(11) . . ?
C71 C70 C69A 120.2(10) . . ?
C70 C71 C72 120.3(10) . . ?
C67 C72 C71 118.7(9) . . ?
C80B C79 C84 103.6(13) . . ?
C80B C79 N20 132.6(12) . . ?
C84 C79 N20 122.7(9) . . ?
C84 C79 C80A 130.9(11) . . ?
N20 C79 C80A 106.3(10) . . ?
C81A C80A C79 109.8(13) . . ?
C79 C80B C81B 129.8(19) . . ?
C82A C81A C80A 121.2(14) . . ?
C82B C81B C80B 119(2) . . ?
C81A C82A C83A 122.1(16) . . ?
C81B C82B C83B 120(2) . . ?
C82A C83A C84 125.8(17) . . ?
C82B C83B C84 111.0(18) . . ?
C79 C84 C83A 109.7(12) . . ?
C79 C84 C83B 134.1(13) . . ?
C90B C85 C86 114.8(10) . . ?
C90B C85 N22 121.0(9) . . ?
C86 C85 N22 122.6(8) . . ?
C86 C85 C90A 125.2(10) . . ?
N22 C85 C90A 110.6(10) . . ?
C85 C86 C87 119.6(9) . . ?
C88B C87 C86 124.1(11) . . ?
C86 C87 C88A 112.2(11) . . ?
C89A C88A C87 124.0(16) . . ?
C87 C88B C89B 116.9(14) . . ?
C90A C89A C88A 118.7(19) . . ?
C90B C89B C88B 117.6(15) . . ?
C89A C90A C85 118.8(16) . . ?
C85 C90B C89B 124.4(14) . . ?
C96 C91 C92 122.3(9) . . ?
C96 C91 N24 115.8(9) . . ?
C92 C91 N24 121.9(8) . . ?
C91 C92 C93 117.9(10) . . ?
C94 C93 C92 121.0(12) . . ?
C93 C94 C95 121.4(10) . . ?
C94 C95 C96 119.9(11) . . ?
C91 C96 C95 117.5(11) . . ?
OD1 CD1 ND1 124.8(10) . . ?
CD1 ND1 CD3 121.0(10) . . ?
CD1 ND1 CD2 119.5(9) . . ?
CD3 ND1 CD2 119.4(10) . . ?
OD2 CD4 ND2 117.3(15) . . ?
CD4 ND2 CD5 116.5(11) . . ?
CD4 ND2 CD6 125.6(11) . . ?
CD5 ND2 CD6 117.8(10) . . ?
OD3 CD7 ND3 117.7(19) . . ?
CD9 ND3 CD8 122(2) . . ?
CD9 ND3 CD7 120.0(19) . . ?
CD8 ND3 CD7 118(2) . . ?
OD4 CD10 ND4 131(3) . . ?
CD10 ND4 CD12 124(3) . . ?
CD10 ND4 CD11 122(2) . . ?
CD12 ND4 CD11 114(2) . . ?
OD5 CD13 ND5 124.3(19) . . ?
CD13 ND5 CD15 124.5(17) . . ?
CD13 ND5 CD14 130.3(16) . . ?
CD15 ND5 CD14 105.0(15) . . ?
ND6 CD16 OD6 122.3(17) . . ?
CD16 ND6 CD17 142.6(18) . . ?
CD16 ND6 CD18 125.9(17) . . ?
CD17 ND6 CD18 89.9(15) . . ?
ND7 CD19 OD7 139.6(17) . . ?
CD19 ND7 CD21 121(2) . . ?
CD19 ND7 CD20 116.6(18) . . ?
CD21 ND7 CD20 121.7(18) . . ?
OD8 CD22 ND8 118(2) . . ?
CD23 ND8 CD22 118.6(17) . . ?
CD23 ND8 CD24 119.0(17) . . ?
CD22 ND8 CD24 122.4(17) . . ?
OD9 CD25 ND9 124(2) . . ?
CD25 ND9 CD26 121(2) . . ?
CD25 ND9 CD27 118(2) . . ?
CD26 ND9 CD27 121(2) . . ?
OD10 CD28 ND10 127(2) . . ?
CD28 ND10 CD29 119.9(19) . . ?
OD11 CD31 ND11 124(2) . . ?
CD31 ND11 ND11 133.4(12) . 2_556 ?
CD31 ND11 CD33 133.4(12) . 2_556 ?
CD31 ND11 CD32 117.5(16) . . ?
CD33 ND11 CD32 109.0(11) 2_556 . ?
OD12 CD34 ND12 126(3) . . ?
CD34 ND12 CD36 122(2) . . ?
CD34 ND12 CD35 122(2) . . ?
CD36 ND12 CD35 115.3(19) . . ?
OD13 CD38 ND13 125(2) . . ?
CD38 ND13 CD39 123(2) . . ?
CD38 ND13 CD37 143(3) . . ?
CD39 ND13 CD37 68(3) . . ?
ND14 CD40 OD14 127(2) . . ?
CD40 ND14 CD41 120(2) . . ?
CD40 ND14 CD42 124(3) . . ?
CD41 ND14 CD42 116(3) . . ?
OD15 CD43 ND15 124(3) . . ?
CD44 ND15 CD45 92(3) . . ?
CD44 ND15 CD43 113(3) . . ?
CD45 ND15 CD43 108(3) . . ?
OD16 CD46 ND16 135(2) . . ?
CD47 ND16 CD46 128(2) . . ?
CD47 ND16 CD48 118(2) . . ?
CD46 ND16 CD48 113(2) . . ?

_diffrn_measured_fraction_theta_max 0.943
_diffrn_reflns_theta_full        75.22
_diffrn_measured_fraction_theta_full 0.943
_refine_diff_density_max         1.252
_refine_diff_density_min         -1.710
_refine_diff_density_rms         0.152
#===END

