####################################################################### 
# 
# This file contains crystal structure data downloaded from the 
# Cambridge Structural Database (CSD) hosted by the Cambridge 
# Crystallographic Data Centre (CCDC).
# 
# Full information about CCDC data access policies and citation 
# guidelines are available at http://www.ccdc.cam.ac.uk/access/V1 
# 
# Audit and citation data items may have been added by the CCDC. 
# Please retain this information to preserve the provenance of 
# this file and to allow appropriate attribution of the data. 
# 
#######################################################################

data_1_sqd
_audit_block_doi                 10.5517/ccdc.csd.cc1p3z6z
_database_code_depnum_ccdc_archive 'CCDC 1552951'
loop_
_citation_id
_citation_doi
_citation_year
1 10.1021/jacs.8b10866 2018
_audit_update_record             
;
2017-05-29 deposited with the CCDC.	2019-02-14 downloaded from the CCDC.
;

_audit_creation_method           SHELXL-2016/6
_shelx_SHELXL_version_number     2016/6
_chemical_name_systematic        ?
_chemical_name_common            ?
_chemical_melting_point          ?
_chemical_formula_moiety         ?
_chemical_formula_sum            'C480 H0.50 N60 O304 S12 V60 W12'
_chemical_formula_weight         17117.22

loop_
_atom_type_symbol
_atom_type_description
_atom_type_scat_dispersion_real
_atom_type_scat_dispersion_imag
_atom_type_scat_source
C C 0.0033 0.0016 'International Tables Vol C Tables 4.2.6.8 and 6.1.1.4'
N N 0.0061 0.0033 'International Tables Vol C Tables 4.2.6.8 and 6.1.1.4'
O O 0.0106 0.0060 'International Tables Vol C Tables 4.2.6.8 and 6.1.1.4'
S S 0.1246 0.1234 'International Tables Vol C Tables 4.2.6.8 and 6.1.1.4'
V V 0.3005 0.5294 'International Tables Vol C Tables 4.2.6.8 and 6.1.1.4'
W W -0.8490 6.8722 'International Tables Vol C Tables 4.2.6.8 and 6.1.1.4'
H H 0.0000 0.0000 'International Tables Vol C Tables 4.2.6.8 and 6.1.1.4'

_space_group_crystal_system      tetragonal
_space_group_IT_number           131
_space_group_name_H-M_alt        'P 42/m m c'
_space_group_name_Hall           '-P 4c 2'

_shelx_space_group_comment       
;
The symmetry employed for this shelxl refinement is uniquely defined
by the following loop, which should always be used as a source of
symmetry information in preference to the above space-group names.
They are only intended as comments.
;

loop_
_space_group_symop_operation_xyz
'x, y, z'
'-x, -y, z'
'-y, x, z+1/2'
'y, -x, z+1/2'
'-x, y, -z'
'x, -y, -z'
'y, x, -z+1/2'
'-y, -x, -z+1/2'
'-x, -y, -z'
'x, y, -z'
'y, -x, -z-1/2'
'-y, x, -z-1/2'
'x, -y, z'
'-x, y, z'
'-y, -x, z-1/2'
'y, x, z-1/2'

_cell_length_a                   41.174(5)
_cell_length_b                   41.174(5)
_cell_length_c                   53.404(14)
_cell_angle_alpha                90
_cell_angle_beta                 90
_cell_angle_gamma                90
_cell_volume                     90535(34)
_cell_formula_units_Z            2
_cell_measurement_temperature    293(2)
_cell_measurement_reflns_used    ?
_cell_measurement_theta_min      ?
_cell_measurement_theta_max      ?

_exptl_crystal_description       ?
_exptl_crystal_colour            ?
_exptl_crystal_density_meas      ?
_exptl_crystal_density_method    ?
_exptl_crystal_density_diffrn    0.628
_exptl_crystal_F_000             16385
_exptl_transmission_factor_min   ?
_exptl_transmission_factor_max   ?
_exptl_crystal_size_max          ?
_exptl_crystal_size_mid          ?
_exptl_crystal_size_min          ?
_exptl_absorpt_coefficient_mu    1.100
_shelx_estimated_absorpt_T_min   ?
_shelx_estimated_absorpt_T_max   ?
_exptl_absorpt_correction_type   ?
_exptl_absorpt_correction_T_min  ?
_exptl_absorpt_correction_T_max  ?
_exptl_absorpt_process_details   ?
_exptl_absorpt_special_details   ?
_diffrn_ambient_temperature      293(2)
_diffrn_radiation_wavelength     0.71073
_diffrn_radiation_type           MoK\a
_diffrn_source                   ?
_diffrn_measurement_device_type  ?
_diffrn_measurement_method       ?
_diffrn_detector_area_resol_mean ?
_diffrn_reflns_number            686994
_diffrn_reflns_av_unetI/netI     0.2038
_diffrn_reflns_av_R_equivalents  0.2601
_diffrn_reflns_limit_h_min       -48
_diffrn_reflns_limit_h_max       48
_diffrn_reflns_limit_k_min       -49
_diffrn_reflns_limit_k_max       48
_diffrn_reflns_limit_l_min       -63
_diffrn_reflns_limit_l_max       61
_diffrn_reflns_theta_min         2.120
_diffrn_reflns_theta_max         25.150
_diffrn_reflns_theta_full        25.150
_diffrn_measured_fraction_theta_max 0.995
_diffrn_measured_fraction_theta_full 0.995
_diffrn_reflns_Laue_measured_fraction_max 0.995
_diffrn_reflns_Laue_measured_fraction_full 0.995
_diffrn_reflns_point_group_measured_fraction_max 0.995
_diffrn_reflns_point_group_measured_fraction_full 0.995
_reflns_number_total             42068
_reflns_number_gt                14755
_reflns_threshold_expression     'I > 2\s(I)'
_reflns_Friedel_coverage         0.000
_reflns_Friedel_fraction_max     .
_reflns_Friedel_fraction_full    .

_reflns_special_details          
;
 Reflections were merged by SHELXL according to the crystal
 class for the calculation of statistics and refinement.
 
 _reflns_Friedel_fraction is defined as the number of unique
 Friedel pairs measured divided by the number that would be
 possible theoretically, ignoring centric projections and
 systematic absences.
;

_computing_data_collection       ?
_computing_cell_refinement       ?
_computing_data_reduction        ?
_computing_structure_solution    ?
_computing_structure_refinement  'SHELXL-2016/6 (Sheldrick, 2016)'
_computing_molecular_graphics    ?
_computing_publication_material  ?
_refine_special_details          ?
_refine_ls_structure_factor_coef Fsqd
_refine_ls_matrix_type           full
_refine_ls_weighting_scheme      calc
_refine_ls_weighting_details     
'w=1/[\s^2^(Fo^2^)+(0.2000P)^2^] where P=(Fo^2^+2Fc^2^)/3'
_atom_sites_solution_primary     ?
_atom_sites_solution_secondary   ?
_atom_sites_solution_hydrogens   geom
_refine_ls_hydrogen_treatment    constr
_refine_ls_extinction_method     none
_refine_ls_extinction_coef       .
_refine_ls_number_reflns         42068
_refine_ls_number_parameters     526
_refine_ls_number_restraints     847
_refine_ls_R_factor_all          0.3956
_refine_ls_R_factor_gt           0.2123
_refine_ls_wR_factor_ref         0.5385
_refine_ls_wR_factor_gt          0.4745
_refine_ls_goodness_of_fit_ref   1.412
_refine_ls_restrained_S_all      1.437
_refine_ls_shift/su_max          0.001
_refine_ls_shift/su_mean         0.000

loop_
_atom_site_label
_atom_site_type_symbol
_atom_site_fract_x
_atom_site_fract_y
_atom_site_fract_z
_atom_site_U_iso_or_equiv
_atom_site_adp_type
_atom_site_occupancy
_atom_site_site_symmetry_order
_atom_site_calc_flag
_atom_site_refinement_flags_posn
_atom_site_refinement_flags_adp
_atom_site_refinement_flags_occupancy
_atom_site_disorder_assembly
_atom_site_disorder_group
W1 W 0.40416(3) 0.500000 0.69294(2) 0.0822(5) Uani 1 2 d DS T P . .
W2 W 0.25101(3) 0.09501(3) 0.500000 0.1020(5) Uani 1 2 d DS T P . .
V1 V 0.35637(7) 0.45665(7) 0.72411(6) 0.0795(10) Uani 1 1 d D . . . .
V2 V 0.39877(7) 0.42989(8) 0.66959(6) 0.0808(10) Uani 1 1 d D . . . .
V3 V 0.42610(10) 0.500000 0.63664(9) 0.0822(14) Uani 1 2 d DS T P . .
V4 V 0.29175(9) 0.14259(8) 0.53324(7) 0.0974(12) Uani 1 1 d D . . . .
V5 V 0.17717(14) 0.07406(12) 0.500000 0.1078(18) Uani 1 2 d DS T P . .
V6 V 0.22062(9) 0.10053(8) 0.44663(7) 0.0963(11) Uani 1 1 d D . . . .
S1 S 0.3338(3) 0.500000 0.6690(3) 0.192(3) Uiso 1 2 d DS U P . .
S2 S 0.2056(4) 0.1637(4) 0.500000 0.199(3) Uiso 1 2 d DS U P . .
O1 O 0.3891(4) 0.5468(4) 0.6997(3) 0.135(4) Uiso 1 1 d . U . . .
O2 O 0.4396(3) 0.500000 0.7087(3) 0.122(6) Uiso 1 2 d DS U P . .
O3 O 0.0934(3) 0.2737(3) 0.7761(2) 0.127(4) Uiso 1 1 d D U . . .
O4 O 0.3722(5) 0.500000 0.6351(11) 0.161(9) Uiso 0.4 2 d DS U P . .
O5 O 0.3721(6) 0.500000 0.7222(4) 0.145(4) Uiso 1 2 d S U P . .
O6 O 0.4631(6) 0.500000 0.6300(4) 0.148(7) Uiso 1 2 d S U P . .
O7 O 0.4183(4) 0.4699(4) 0.6639(3) 0.132(3) Uiso 1 1 d . U . . .
O8 O 0.3900(3) 0.4258(3) 0.63187(14) 0.126(4) Uiso 1 1 d D U . . .
O9 O 0.4260(3) 0.4047(3) 0.6737(2) 0.109(4) Uiso 1 1 d . U . . .
O10 O 0.2940(9) 0.500000 0.6539(7) 0.239(10) Uiso 1 2 d S U P . .
O11 O 0.3299(9) 0.5237(9) 0.6922(5) 0.153(4) Uiso 0.4 1 d D U P . .
O12 O 0.3557(7) 0.5400(9) 0.6598(7) 0.151(4) Uiso 0.4 1 d . U P . .
O13 O 0.3688(4) 0.4386(4) 0.7494(3) 0.131(5) Uiso 1 1 d . U . . .
O14 O 0.3592(3) 0.4038(3) 0.6733(3) 0.135(3) Uiso 1 1 d D U . . .
O15 O 0.3329(3) 0.4201(3) 0.7070(3) 0.134(3) Uiso 1 1 d D U . . .
O16 O 0.3139(2) 0.4742(2) 0.7329(3) 0.154(4) Uiso 1 1 d D U . . .
O17 O 0.4081(3) 0.5319(3) 0.6131(2) 0.145(4) Uiso 1 1 d D U . . .
O18 O 0.2281(4) 0.0733(4) 0.4267(3) 0.125(5) Uiso 1 1 d . U . . .
O19 O 0.2256(4) 0.1419(3) 0.4263(3) 0.143(4) Uiso 1 1 d D U . . .
O20 O 0.2124(4) 0.0809(4) 0.4775(3) 0.144(3) Uiso 1 1 d . U . . .
O21 O 0.1809(15) 0.1275(5) 0.500000 0.160(4) Uiso 0.4 2 d DS U P . .
O22 O 0.2047(10) 0.1439(6) 0.4674(7) 0.157(4) Uiso 0.4 1 d D U P . .
O23 O 0.2725(6) 0.0601(4) 0.500000 0.174(9) Uiso 1 2 d DS U P . .
O24 O 0.2235(3) 0.1411(3) 0.500000 0.153(4) Uiso 1 2 d DS U P . .
O25 O 0.2908(5) 0.1262(6) 0.500000 0.142(4) Uiso 1 2 d S U P . .
O26 O 0.2606(4) 0.1088(4) 0.5348(3) 0.144(3) Uiso 1 1 d . U . . .
O27 O 0.2480(6) 0.1670(10) 0.4818(7) 0.156(4) Uiso 0.4 1 d D U P . .
O28 O 0.1958(12) 0.1980(7) 0.500000 0.166(5) Uiso 0.5 2 d DS U P . .
O29 O 0.1700(6) 0.1665(12) 0.500000 0.165(4) Uiso 0.5 2 d DS U P . .
O30 O 0.3046(3) 0.1866(3) 0.51998(15) 0.143(4) Uiso 1 1 d D U . . .
O31 O 0.2704(4) 0.1669(3) 0.5610(2) 0.135(3) Uiso 1 1 d D U . . .
O32 O 0.1666(6) 0.0349(6) 0.500000 0.150(8) Uiso 1 2 d S U P . .
O33 O 0.1466(3) 0.0923(4) 0.4749(3) 0.152(3) Uiso 1 1 d D U . . .
O34 O 0.1726(3) 0.1080(4) 0.4427(3) 0.149(3) Uiso 1 1 d D U . . .
O50 O 0.0791(3) 0.2291(3) 0.7555(2) 0.130(4) Uiso 1 1 d D U . . .
O51 O 0.3235(4) 0.1294(4) 0.5461(3) 0.155(6) Uiso 1 1 d . U . . .
O52 O 0.3617(3) 0.500000 0.6714(3) 0.151(4) Uiso 1 2 d DS U P . .
N1 N 0.1546(4) 0.47081(18) 0.7776(3) 0.168(8) Uiso 1 1 d D . . . .
N2 N 0.3726(4) 0.6075(5) 0.500000 0.167(12) Uiso 1 2 d S . P . .
N3 N 0.3548(3) 0.6551(4) 0.52227(15) 0.173(8) Uiso 1 1 d . . . . .
N7 N 0.000000 0.1258(4) 0.4186(3) 0.182(13) Uiso 1 2 d DS . P . .
N8 N 0.02909(17) 0.1442(3) 0.3824(3) 0.175(9) Uiso 1 1 d D . . . .
N9 N 0.1079(5) 0.500000 0.7926(4) 0.152(11) Uiso 1 2 d DS . P . .
C1 C 0.2990(4) 0.500000 0.7368(3) 0.152(5) Uiso 1 2 d DS U P . .
C2 C 0.2662(3) 0.500000 0.7455(2) 0.156(5) Uiso 1 2 d DS U P . .
C3 C 0.2486(3) 0.4712(2) 0.7500(3) 0.160(5) Uiso 1 1 d D U . . .
H3 H 0.258751 0.451425 0.747088 0.192 Uiso 1 1 calc R U . . .
C4 C 0.2175(4) 0.4711(2) 0.7583(4) 0.158(5) Uiso 1 1 d D U . . .
H4 H 0.206895 0.451431 0.761108 0.189 Uiso 1 1 calc R U . . .
C5 C 0.2014(5) 0.500000 0.7628(4) 0.164(6) Uiso 1 2 d DS U P . .
C6 C 0.1700(5) 0.500000 0.7725(3) 0.168(6) Uiso 1 2 d DS U P . .
C8 C 0.1234(5) 0.47089(18) 0.7879(3) 0.171(7) Uiso 1 1 d D U . . .
C9 C 0.0853(4) 0.1017(5) 0.4514(3) 0.156(4) Uiso 1 1 d D U . . .
H9 H 0.085110 0.091089 0.466801 0.188 Uiso 1 1 calc R U . . .
C10 C 0.3960(2) 0.5598(3) 0.6117(3) 0.147(4) Uiso 1 1 d D U . . .
C11 C 0.3892(2) 0.5760(4) 0.5890(2) 0.144(4) Uiso 1 1 d D U . . .
C12 C 0.3777(4) 0.6082(4) 0.5881(3) 0.148(4) Uiso 1 1 d D U . . .
H12 H 0.375349 0.619510 0.603030 0.177 Uiso 1 1 calc R U . . .
C13 C 0.3699(5) 0.6234(4) 0.5663(3) 0.151(4) Uiso 1 1 d D U . . .
H13 H 0.362560 0.644761 0.566388 0.181 Uiso 1 1 calc R U . . .
C14 C 0.3730(4) 0.6065(4) 0.5437(3) 0.145(5) Uiso 1 1 d D U . . .
C15 C 0.3886(5) 0.5773(5) 0.5438(3) 0.145(4) Uiso 1 1 d D U . . .
H15 H 0.396470 0.568612 0.528935 0.175 Uiso 1 1 calc R U . . .
C16 C 0.3929(5) 0.5608(4) 0.5659(3) 0.148(4) Uiso 1 1 d D U . . .
H16 H 0.398294 0.538868 0.565418 0.178 Uiso 1 1 calc R U . . .
C18 C 0.3664(3) 0.6235(4) 0.52234(12) 0.152(5) Uiso 1 1 d . U . . .
C19 C 0.000000 0.1503(5) 0.3703(3) 0.159(7) Uiso 1 2 d DS U P . .
C20 C 0.3486(5) 0.6707(4) 0.500000 0.150(7) Uiso 1 2 d S U P . .
C21 C 0.3368(4) 0.3998(4) 0.6885(3) 0.137(4) Uiso 1 1 d D U . . .
C22 C 0.3099(3) 0.3754(3) 0.6850(2) 0.136(4) Uiso 1 1 d DG U . . .
C23 C 0.3124(3) 0.3555(3) 0.6642(2) 0.139(4) Uiso 1 1 d DG U . . .
H23 H 0.329900 0.357724 0.653336 0.167 Uiso 1 1 calc R U . . .
C24 C 0.2889(4) 0.3324(3) 0.6597(3) 0.141(4) Uiso 1 1 d DG U . . .
H24 H 0.290612 0.318844 0.645844 0.169 Uiso 1 1 calc R U . . .
C25 C 0.2629(3) 0.3292(3) 0.6758(3) 0.137(4) Uiso 1 1 d DG U . . .
C26 C 0.2605(3) 0.3491(4) 0.6965(3) 0.140(4) Uiso 1 1 d DG U . . .
H26 H 0.242972 0.346928 0.707391 0.168 Uiso 1 1 calc R U . . .
C27 C 0.2839(4) 0.3723(3) 0.7011(2) 0.139(4) Uiso 1 1 d DG U . . .
H27 H 0.282169 0.385830 0.714977 0.167 Uiso 1 1 calc R U . . .
C29 C 0.02897(17) 0.1321(3) 0.4065(3) 0.163(5) Uiso 1 1 d D U . . .
C32 C 0.1952(3) 0.2734(4) 0.6878(2) 0.135(4) Uiso 1 1 d DG U . . .
N4 N 0.2457(3) 0.2817(4) 0.6545(2) 0.145(7) Uiso 1 1 d DG . . . .
N5 N 0.1993(3) 0.2517(3) 0.6685(3) 0.136(7) Uiso 1 1 d DG . . . .
N6 N 0.2161(4) 0.2993(3) 0.6905(2) 0.127(6) Uiso 1 1 d DG . . . .
C28 C 0.2414(3) 0.3034(3) 0.6738(3) 0.137(4) Uiso 1 1 d DG U . . .
C30 C 0.2248(4) 0.2558(3) 0.6517(2) 0.133(4) Uiso 1 1 d DG U . . .
C34 C 0.1705(3) 0.2698(4) 0.7049(2) 0.129(4) Uiso 1 1 d DG U . . .
C35 C 0.1497(3) 0.2434(3) 0.7026(2) 0.135(4) Uiso 1 1 d DG U . . .
H35 H 0.152282 0.228873 0.689486 0.162 Uiso 1 1 calc R U . . .
C36 C 0.1251(3) 0.2388(3) 0.7201(3) 0.133(4) Uiso 1 1 d DG U . . .
H36 H 0.111251 0.221021 0.718636 0.160 Uiso 1 1 calc R U . . .
C37 C 0.1211(3) 0.2605(3) 0.7398(2) 0.129(4) Uiso 1 1 d DG U . . .
C38 C 0.1416(3) 0.2871(3) 0.7420(2) 0.131(4) Uiso 1 1 d DG U . . .
H38 H 0.138884 0.301754 0.755022 0.158 Uiso 1 1 calc R U . . .
C39 C 0.1664(3) 0.2918(3) 0.7245(3) 0.135(4) Uiso 1 1 d DG U . . .
H39 H 0.180200 0.309556 0.726017 0.162 Uiso 1 1 calc R U . . .
C40 C 0.0961(4) 0.2542(4) 0.7589(3) 0.132(4) Uiso 1 1 d D U . . .
C44 C 0.2414(4) 0.1897(3) 0.5952(2) 0.135(4) Uiso 1 1 d DG U . . .
C7 C 0.2636(3) 0.2140(3) 0.5995(2) 0.134(4) Uiso 1 1 d DG U . . .
H7 H 0.282379 0.215211 0.589953 0.161 Uiso 1 1 calc R U . . .
C41 C 0.2301(4) 0.2348(3) 0.6322(2) 0.136(4) Uiso 1 1 d DG U . . .
C42 C 0.2579(4) 0.2366(3) 0.6181(3) 0.139(4) Uiso 1 1 d DG U . . .
H42 H 0.272965 0.253009 0.621029 0.167 Uiso 1 1 calc R U . . .
C45 C 0.2135(3) 0.1880(3) 0.6092(3) 0.141(4) Uiso 1 1 d DG U . . .
H45 H 0.198471 0.171621 0.606168 0.169 Uiso 1 1 calc R U . . .
C46 C 0.2078(3) 0.2105(4) 0.6278(3) 0.140(4) Uiso 1 1 d DG U . . .
H46 H 0.188924 0.209307 0.637320 0.167 Uiso 1 1 calc R U . . .
C47 C 0.2467(6) 0.1646(5) 0.5754(4) 0.134(4) Uiso 1 1 d D U . . .
C48 C 0.3090(3) 0.2017(4) 0.500000 0.147(5) Uiso 1 2 d DS U P . .
C49 C 0.3182(8) 0.2334(4) 0.500000 0.145(5) Uiso 1 2 d DS U P . .
C50 C 0.3239(5) 0.2497(4) 0.47779(14) 0.149(5) Uiso 1 1 d D U . . .
H50 H 0.322197 0.238691 0.462656 0.179 Uiso 1 1 calc R U . . .
C51 C 0.3322(5) 0.2822(4) 0.47782(15) 0.148(6) Uiso 1 1 d D U . . .
H51 H 0.334072 0.293180 0.462674 0.178 Uiso 1 1 calc R U . . .
C52 C 0.3377(6) 0.2987(4) 0.500000 0.148(6) Uiso 1 2 d DS U P . .
C53 C 0.1464(5) 0.1018(6) 0.4529(4) 0.155(4) Uiso 1 1 d D U . . .
C54 C 0.1144(3) 0.1098(4) 0.4405(3) 0.153(4) Uiso 1 1 d D U . . .
C55 C 0.1143(4) 0.1244(6) 0.4170(3) 0.159(4) Uiso 1 1 d D U . . .
H55 H 0.133884 0.128830 0.409047 0.191 Uiso 1 1 calc R U . . .
C56 C 0.0855(4) 0.1324(4) 0.4054(3) 0.161(4) Uiso 1 1 d D U . . .
H56 H 0.085572 0.141980 0.389632 0.194 Uiso 1 1 calc R U . . .
C57 C 0.0566(3) 0.1262(4) 0.4175(3) 0.160(5) Uiso 1 1 d D U . . .
C58 C 0.0568(4) 0.1093(5) 0.4399(4) 0.162(4) Uiso 1 1 d D U . . .
H58 H 0.037211 0.103153 0.447215 0.194 Uiso 1 1 calc R U . . .
W3 W 0.24862(4) 0.000000 0.31223(2) 0.1137(6) Uani 1 2 d DS T P . .
V7 V 0.27860(10) 0.06929(9) 0.30760(6) 0.1045(12) Uani 1 1 d D . . . .
V8 V 0.32095(14) 0.000000 0.32997(9) 0.1062(17) Uani 1 2 d DS T P . .
V9 V 0.20803(9) -0.04347(9) 0.27542(7) 0.1032(12) Uani 1 1 d D . . . .
S3 S 0.3052(3) 0.000000 0.2714(3) 0.208(4) Uiso 1 2 d DS U P . .
O35 O 0.1747(4) -0.0574(4) 0.2854(3) 0.164(6) Uiso 1 1 d . U . . .
O36 O 0.2392(3) -0.0495(3) 0.3000(3) 0.153(4) Uiso 1 1 d D U . . .
O37 O 0.2088(6) 0.000000 0.2877(5) 0.155(5) Uiso 1 2 d S U P . .
O38 O 0.2284(6) 0.000000 0.3399(3) 0.164(8) Uiso 1 2 d DS U P . .
O39 O 0.3272(7) 0.000000 0.3652(3) 0.195(10) Uiso 1 2 d DS U P . .
O40 O 0.2714(4) 0.0952(4) 0.3309(3) 0.156(6) Uiso 1 1 d D U . . .
O41 O 0.2881(5) 0.0311(5) 0.3232(4) 0.173(4) Uiso 1 1 d . U . . .
O42 O 0.3256(3) 0.0730(4) 0.3036(3) 0.172(4) Uiso 1 1 d D U . . .
O43 O 0.3530(4) -0.0319(4) 0.3188(3) 0.182(5) Uiso 1 1 d . U . . .
O44 O 0.2751(3) 0.000000 0.2758(2) 0.166(4) Uiso 1 2 d DS U P . .
O45 O 0.2971(5) 0.0448(5) 0.2735(3) 0.204(4) Uiso 1 1 d D U . . .
O46 O 0.3323(6) 0.000000 0.2897(3) 0.190(4) Uiso 1 2 d DS U P . .
O47 O 0.3223(9) 0.000000 0.2460(5) 0.252(11) Uiso 1 2 d DS U P . .
O48 O 0.1950(4) -0.0281(3) 0.2413(3) 0.152(4) Uiso 1 1 d D U . . .
C64 C 0.1926(8) 0.000000 0.2321(5) 0.160(5) Uiso 1 2 d DS U P . .
C65 C 0.1814(5) 0.000000 0.2054(4) 0.158(6) Uiso 1 2 d DS U P . .
C66 C 0.1765(5) 0.0293(2) 0.1931(4) 0.165(6) Uiso 1 1 d D U . . .
H66 H 0.180768 0.048877 0.201202 0.198 Uiso 1 1 calc R U . . .
C67 C 0.1650(5) 0.0292(2) 0.1687(4) 0.159(6) Uiso 1 1 d D U . . .
H67 H 0.158701 0.048489 0.161094 0.191 Uiso 1 1 calc R U . . .
C68 C 0.1631(6) 0.000000 0.1558(4) 0.161(7) Uiso 1 2 d DS U P . .
C75 C 0.3522(4) -0.0590(5) 0.3078(4) 0.183(6) Uiso 1 1 d . U . . .
C69 C 0.3827(4) 0.0757(4) 0.3032(3) 0.163(5) Uiso 1 1 d D U . . .
C70 C 0.4123(4) 0.0605(5) 0.3092(4) 0.170(5) Uiso 1 1 d D U . . .
H70 H 0.412648 0.039823 0.316186 0.204 Uiso 1 1 calc R U . . .
C71 C 0.4411(4) 0.0769(6) 0.3044(4) 0.170(5) Uiso 1 1 d D U . . .
H71 H 0.460776 0.066988 0.308202 0.205 Uiso 1 1 calc R U . . .
C72 C 0.4410(4) 0.1074(6) 0.2943(5) 0.167(5) Uiso 1 1 d D U . . .
C73 C 0.4118(5) 0.1223(4) 0.2883(4) 0.168(5) Uiso 1 1 d D U . . .
H73 H 0.411725 0.142197 0.280037 0.201 Uiso 1 1 calc R U . . .
C74 C 0.3829(4) 0.1078(5) 0.2947(5) 0.170(5) Uiso 1 1 d D U . . .
H74 H 0.363532 0.119347 0.293439 0.204 Uiso 1 1 calc R U . . .

loop_
_atom_site_aniso_label
_atom_site_aniso_U_11
_atom_site_aniso_U_22
_atom_site_aniso_U_33
_atom_site_aniso_U_23
_atom_site_aniso_U_13
_atom_site_aniso_U_12
W1 0.0644(8) 0.0726(8) 0.1095(10) 0.000 -0.0418(7) 0.000
W2 0.1175(11) 0.0462(7) 0.1423(12) 0.000 0.000 0.0186(7)
V1 0.077(2) 0.077(2) 0.085(2) -0.0072(18) -0.0283(18) -0.0187(17)
V2 0.064(2) 0.076(2) 0.102(2) -0.0021(19) -0.0226(18) -0.0144(17)
V3 0.063(3) 0.066(3) 0.117(4) 0.000 0.004(3) 0.000
V4 0.098(3) 0.074(2) 0.120(3) 0.011(2) -0.013(2) 0.005(2)
V5 0.126(5) 0.075(4) 0.122(4) 0.000 0.000 -0.015(3)
V6 0.117(3) 0.061(2) 0.111(3) -0.004(2) 0.005(2) 0.0060(19)
W3 0.1263(12) 0.1240(12) 0.0907(9) 0.000 0.0587(9) 0.000
V7 0.128(3) 0.096(3) 0.090(3) -0.007(2) 0.018(2) 0.007(2)
V8 0.148(5) 0.092(4) 0.079(3) 0.000 -0.008(3) 0.000
V9 0.091(3) 0.109(3) 0.110(3) 0.004(2) 0.044(2) -0.004(2)

_geom_special_details            
;
 All esds (except the esd in the dihedral angle between two l.s. planes)
 are estimated using the full covariance matrix.  The cell esds are taken
 into account individually in the estimation of esds in distances, angles
 and torsion angles; correlations between esds in cell parameters are only
 used when they are defined by crystal symmetry.  An approximate (isotropic)
 treatment of cell esds is used for estimating esds involving l.s. planes.
;

loop_
_geom_bond_atom_site_label_1
_geom_bond_atom_site_label_2
_geom_bond_distance
_geom_bond_site_symmetry_2
_geom_bond_publ_flag
W1 O2 1.686(12) . ?
W1 O5 2.05(2) . ?
W1 O1 2.058(16) 13_565 ?
W1 O1 2.058(16) . ?
W1 O7 2.069(15) 13_565 ?
W1 O7 2.069(15) . ?
W1 O52 2.095(14) . ?
W1 V1 3.135(3) . ?
W1 V1 3.135(3) 13_565 ?
W1 V3 3.140(5) . ?
W1 V2 3.153(3) . ?
W1 V2 3.153(3) 13_565 ?
W2 O23 1.689(13) . ?
W2 O26 1.982(16) 10_556 ?
W2 O26 1.982(16) . ?
W2 O20 2.076(16) 10_556 ?
W2 O20 2.076(16) . ?
W2 O25 2.08(2) . ?
W2 O24 2.209(11) . ?
W2 V6 3.121(4) . ?
W2 V6 3.121(4) 10_556 ?
W2 V4 3.131(4) . ?
W2 V4 3.131(4) 10_556 ?
W2 V5 3.160(6) . ?
V1 O13 1.623(15) . ?
V1 O1 1.880(15) 13_565 ?
V1 O5 1.901(9) . ?
V1 O16 1.948(9) . ?
V1 O15 2.011(11) . ?
V1 O11 2.182(18) 13_565 ?
V2 O9 1.542(14) . ?
V2 O7 1.860(16) . ?
V2 O1 1.914(15) 13_565 ?
V2 O14 1.960(12) . ?
V2 O8 2.053(7) . ?
V2 O12 2.227(18) 13_565 ?
V3 O6 1.56(2) . ?
V3 O7 1.936(15) . ?
V3 O7 1.936(15) 13_565 ?
V3 O17 1.964(10) 13_565 ?
V3 O17 1.964(10) . ?
V3 O4 2.222(19) . ?
V4 O51 1.573(18) . ?
V4 O26 1.895(17) . ?
V4 O25 1.900(9) . ?
V4 O31 1.992(11) . ?
V4 O30 2.015(11) . ?
V4 O27 2.211(10) 10_556 ?
V5 O32 1.67(2) . ?
V5 O20 1.906(16) 10_556 ?
V5 O20 1.906(16) . ?
V5 O33 1.985(12) . ?
V5 O33 1.985(12) 10_556 ?
V5 O21 2.207(19) . ?
V6 O18 1.576(15) . ?
V6 O20 1.865(16) . ?
V6 O26 1.952(17) 10_556 ?
V6 O34 2.013(12) . ?
V6 O19 2.031(12) . ?
V6 O22 2.202(11) . ?
S1 O52 1.154(13) . ?
S1 O11 1.58(3) 13_565 ?
S1 O11 1.58(3) . ?
S1 O10 1.83(4) . ?
S1 O12 1.94(3) . ?
S1 O12 1.94(3) 13_565 ?
S2 O24 1.188(13) . ?
S2 O28 1.470(19) . ?
S2 O29 1.473(19) . ?
S2 O21 1.81(4) . ?
S2 O22 1.92(3) . ?
S2 O22 1.92(3) 10_556 ?
S2 O27 2.00(3) 10_556 ?
S2 O27 2.00(3) . ?
O3 C40 1.224(14) . ?
O3 V7 1.966(12) 16_556 ?
O8 C10 1.254(10) 13_565 ?
O12 O52 1.78(4) . ?
O14 C21 1.244(15) . ?
O15 C21 1.301(14) . ?
O16 C1 1.245(8) . ?
O17 C10 1.254(10) . ?
O19 C47 1.28(2) 10_556 ?
O21 O29 1.67(5) . ?
O24 O27 1.76(4) 10_556 ?
O24 O27 1.76(4) . ?
O28 O29 1.68(6) . ?
O30 C48 1.250(8) . ?
O31 C47 1.25(2) . ?
O33 C53 1.242(15) . ?
O34 C53 1.233(15) . ?
O50 C40 1.261(19) . ?
O50 V9 2.008(12) 3 ?
N1 C6 1.386(9) . ?
N1 C8 1.396(11) . ?
N2 C18 1.389(9) . ?
N2 C18 1.389(9) 10_556 ?
N3 C20 1.377(9) . ?
N3 C18 1.382(9) . ?
N7 C29 1.381(8) 14 ?
N7 C29 1.381(8) . ?
N8 C29 1.380(9) . ?
N8 C19 1.383(8) . ?
N9 C8 1.381(9) 13_565 ?
N9 C8 1.381(9) . ?
C1 C2 1.430(15) . ?
C2 C3 1.410(9) . ?
C2 C3 1.410(9) 13_565 ?
C3 C4 1.356(11) . ?
C4 C5 1.382(10) . ?
C5 C6 1.39(3) . ?
C8 C72 1.438(18) 16_556 ?
C9 C58 1.363(12) . ?
C9 C54 1.374(12) . ?
C10 C11 1.409(13) . ?
C11 C16 1.392(11) . ?
C11 C12 1.408(11) . ?
C12 C13 1.362(12) . ?
C13 C14 1.395(14) . ?
C14 C15 1.365(14) . ?
C14 C18 1.367(8) . ?
C15 C16 1.373(12) . ?
C19 C68 1.49(3) 7 ?
C20 C52 1.337(16) 13_565 ?
C21 C22 1.507(14) . ?
C22 C27 1.379(4) . ?
C22 C23 1.381(4) . ?
C23 C24 1.380(4) . ?
C24 C25 1.379(4) . ?
C25 C26 1.380(4) . ?
C25 C28 1.387(15) . ?
C26 C27 1.379(4) . ?
C29 C57 1.305(11) . ?
C32 N5 1.375(4) . ?
C32 C34 1.375(12) . ?
C32 N6 1.381(4) . ?
N4 C28 1.376(4) . ?
N4 C30 1.381(4) . ?
N5 C30 1.386(4) . ?
N6 C28 1.379(4) . ?
C30 C41 1.374(14) . ?
C34 C35 1.386(3) . ?
C34 C39 1.397(3) . ?
C35 C36 1.392(3) . ?
C36 C37 1.389(3) . ?
C37 C38 1.389(3) . ?
C37 C40 1.473(11) . ?
C38 C39 1.393(3) . ?
C44 C7 1.373(4) . ?
C44 C45 1.374(4) . ?
C44 C47 1.493(14) . ?
C7 C42 1.378(4) . ?
C41 C42 1.372(4) . ?
C41 C46 1.379(4) . ?
C45 C46 1.377(4) . ?
C48 C49 1.357(15) . ?
C49 C50 1.384(7) 10_556 ?
C49 C50 1.384(7) . ?
C50 C51 1.379(9) . ?
C51 C52 1.385(8) . ?
C53 C54 1.512(16) . ?
C54 C55 1.390(11) . ?
C55 C56 1.377(12) . ?
C56 C57 1.379(14) . ?
C57 C58 1.382(12) . ?
W3 O38 1.694(13) . ?
W3 O37 2.10(2) . ?
W3 O41 2.150(19) 13 ?
W3 O41 2.151(19) . ?
W3 O36 2.176(13) 13 ?
W3 O36 2.176(13) . ?
W3 O44 2.230(11) . ?
W3 V7 3.118(4) . ?
W3 V7 3.118(4) 13 ?
W3 V8 3.125(6) . ?
W3 V9 3.140(4) . ?
W3 V9 3.140(4) 13 ?
V7 O40 1.665(11) . ?
V7 O41 1.823(19) . ?
V7 O36 1.860(12) 13 ?
V7 O42 1.953(13) . ?
V7 O45 2.218(12) . ?
V8 O41 1.896(19) . ?
V8 O41 1.896(19) 13 ?
V8 O39 1.898(17) . ?
V8 O43 1.956(13) 13 ?
V8 O43 1.956(13) . ?
V8 O46 2.202(16) . ?
V9 O35 1.578(18) . ?
V9 O36 1.854(12) . ?
V9 O37 1.907(9) . ?
V9 O48 2.004(12) . ?
S3 O44 1.259(13) . ?
S3 O46 1.484(16) . ?
S3 O47 1.529(18) . ?
S3 O45 1.877(19) 13 ?
S3 O45 1.877(19) . ?
O42 C75 1.257(15) 13 ?
O43 C75 1.263(15) . ?
O48 C64 1.259(11) . ?
C64 C65 1.499(18) . ?
C65 C66 1.389(10) 13 ?
C65 C66 1.389(10) . ?
C66 C67 1.384(12) . ?
C67 C68 1.389(10) . ?
C75 C69 1.450(13) 13 ?
C69 C74 1.401(15) . ?
C69 C70 1.407(15) . ?
C70 C71 1.386(14) . ?
C71 C72 1.366(15) . ?
C72 C73 1.390(15) . ?
C73 C74 1.373(14) . ?

loop_
_geom_angle_atom_site_label_1
_geom_angle_atom_site_label_2
_geom_angle_atom_site_label_3
_geom_angle
_geom_angle_site_symmetry_1
_geom_angle_site_symmetry_3
_geom_angle_publ_flag
O2 W1 O5 100.1(10) . . ?
O2 W1 O1 99.9(5) . 13_565 ?
O5 W1 O1 70.8(4) . 13_565 ?
O2 W1 O1 99.9(5) . . ?
O5 W1 O1 70.8(4) . . ?
O1 W1 O1 139.2(9) 13_565 . ?
O2 W1 O7 97.6(7) . 13_565 ?
O5 W1 O7 139.0(5) . 13_565 ?
O1 W1 O7 141.0(6) 13_565 13_565 ?
O1 W1 O7 69.9(6) . 13_565 ?
O2 W1 O7 97.6(7) . . ?
O5 W1 O7 139.0(5) . . ?
O1 W1 O7 69.9(6) 13_565 . ?
O1 W1 O7 141.0(6) . . ?
O7 W1 O7 73.5(8) 13_565 . ?
O2 W1 O52 176.7(8) . . ?
O5 W1 O52 83.2(7) . . ?
O1 W1 O52 81.1(4) 13_565 . ?
O1 W1 O52 81.1(4) . . ?
O7 W1 O52 79.7(5) 13_565 . ?
O7 W1 O52 79.7(5) . . ?
O2 W1 V1 106.1(6) . . ?
O5 W1 V1 35.84(17) . . ?
O1 W1 V1 35.3(4) 13_565 . ?
O1 W1 V1 104.5(4) . . ?
O7 W1 V1 156.3(4) 13_565 . ?
O7 W1 V1 103.6(4) . . ?
O52 W1 V1 76.6(3) . . ?
O2 W1 V1 106.1(5) . 13_565 ?
O5 W1 V1 35.84(16) . 13_565 ?
O1 W1 V1 104.5(4) 13_565 13_565 ?
O1 W1 V1 35.3(4) . 13_565 ?
O7 W1 V1 103.6(4) 13_565 13_565 ?
O7 W1 V1 156.2(4) . 13_565 ?
O52 W1 V1 76.6(3) . 13_565 ?
V1 W1 V1 69.41(12) . 13_565 ?
O2 W1 V3 103.3(7) . . ?
O5 W1 V3 156.5(6) . . ?
O1 W1 V3 104.8(4) 13_565 . ?
O1 W1 V3 104.8(4) . . ?
O7 W1 V3 36.9(4) 13_565 . ?
O7 W1 V3 36.9(4) . . ?
O52 W1 V3 73.3(4) . . ?
V1 W1 V3 133.56(8) . . ?
V1 W1 V3 133.56(8) 13_565 . ?
O2 W1 V2 105.0(2) . . ?
O5 W1 V2 104.9(2) . . ?
O1 W1 V2 35.9(4) 13_565 . ?
O1 W1 V2 155.0(4) . . ?
O7 W1 V2 105.7(4) 13_565 . ?
O7 W1 V2 34.4(4) . . ?
O52 W1 V2 73.95(13) . . ?
V1 W1 V2 69.18(8) . . ?
V1 W1 V2 133.41(9) 13_565 . ?
V3 W1 V2 68.98(6) . . ?
O2 W1 V2 105.0(2) . 13_565 ?
O5 W1 V2 104.9(2) . 13_565 ?
O1 W1 V2 155.0(4) 13_565 13_565 ?
O1 W1 V2 35.9(4) . 13_565 ?
O7 W1 V2 34.4(4) 13_565 13_565 ?
O7 W1 V2 105.7(4) . 13_565 ?
O52 W1 V2 73.95(13) . 13_565 ?
V1 W1 V2 133.41(9) . 13_565 ?
V1 W1 V2 69.18(8) 13_565 13_565 ?
V3 W1 V2 68.98(6) . 13_565 ?
V2 W1 V2 132.61(12) . 13_565 ?
O23 W2 O26 97.9(6) . 10_556 ?
O23 W2 O26 97.9(6) . . ?
O26 W2 O26 139.2(10) 10_556 . ?
O23 W2 O20 99.4(9) . 10_556 ?
O26 W2 O20 140.9(7) 10_556 10_556 ?
O26 W2 O20 71.9(7) . 10_556 ?
O23 W2 O20 99.4(9) . . ?
O26 W2 O20 71.9(7) 10_556 . ?
O26 W2 O20 140.9(7) . . ?
O20 W2 O20 70.8(9) 10_556 . ?
O23 W2 O25 96.4(11) . . ?
O26 W2 O25 70.5(5) 10_556 . ?
O26 W2 O25 70.5(5) . . ?
O20 W2 O25 140.8(5) 10_556 . ?
O20 W2 O25 140.8(5) . . ?
O23 W2 O24 179.2(10) . . ?
O26 W2 O24 81.8(5) 10_556 . ?
O26 W2 O24 81.8(5) . . ?
O20 W2 O24 81.2(5) 10_556 . ?
O20 W2 O24 81.2(5) . . ?
O25 W2 O24 82.8(7) . . ?
O23 W2 V6 105.8(3) . . ?
O26 W2 V6 37.2(5) 10_556 . ?
O26 W2 V6 156.2(5) . . ?
O20 W2 V6 104.0(5) 10_556 . ?
O20 W2 V6 35.3(5) . . ?
O25 W2 V6 105.7(2) . . ?
O24 W2 V6 74.45(12) . . ?
O23 W2 V6 105.8(3) . 10_556 ?
O26 W2 V6 156.2(5) 10_556 10_556 ?
O26 W2 V6 37.2(5) . 10_556 ?
O20 W2 V6 35.3(5) 10_556 10_556 ?
O20 W2 V6 104.0(5) . 10_556 ?
O25 W2 V6 105.7(2) . 10_556 ?
O24 W2 V6 74.45(12) . 10_556 ?
V6 W2 V6 131.91(14) . 10_556 ?
O23 W2 V4 104.6(7) . . ?
O26 W2 V4 104.2(5) 10_556 . ?
O26 W2 V4 35.2(5) . . ?
O20 W2 V4 104.9(5) 10_556 . ?
O20 W2 V4 156.0(5) . . ?
O25 W2 V4 36.14(18) . . ?
O24 W2 V4 74.8(3) . . ?
V6 W2 V4 133.39(9) . . ?
V6 W2 V4 69.60(9) 10_556 . ?
O23 W2 V4 104.6(7) . 10_556 ?
O26 W2 V4 35.2(5) 10_556 10_556 ?
O26 W2 V4 104.2(5) . 10_556 ?
O20 W2 V4 156.0(5) 10_556 10_556 ?
O20 W2 V4 104.9(5) . 10_556 ?
O25 W2 V4 36.14(18) . 10_556 ?
O24 W2 V4 74.8(3) . 10_556 ?
V6 W2 V4 69.60(9) . 10_556 ?
V6 W2 V4 133.39(9) 10_556 10_556 ?
V4 W2 V4 69.08(14) . 10_556 ?
O23 W2 V5 105.8(9) . . ?
O26 W2 V5 105.7(5) 10_556 . ?
O26 W2 V5 105.7(5) . . ?
O20 W2 V5 35.6(4) 10_556 . ?
O20 W2 V5 35.6(4) . . ?
O25 W2 V5 157.8(6) . . ?
O24 W2 V5 75.0(3) . . ?
V6 W2 V5 68.54(7) . . ?
V6 W2 V5 68.54(7) 10_556 . ?
V4 W2 V5 133.32(9) . . ?
V4 W2 V5 133.32(9) 10_556 . ?
O13 V1 O1 108.3(7) . 13_565 ?
O13 V1 O5 111.5(9) . . ?
O1 V1 O5 77.9(8) 13_565 . ?
O13 V1 O16 104.6(7) . . ?
O1 V1 O16 147.0(6) 13_565 . ?
O5 V1 O16 88.3(7) . . ?
O13 V1 O15 100.8(7) . . ?
O1 V1 O15 88.4(6) 13_565 . ?
O5 V1 O15 147.4(8) . . ?
O16 V1 O15 87.5(5) . . ?
O13 V1 O11 168.0(13) . 13_565 ?
O1 V1 O11 81.1(12) 13_565 13_565 ?
O5 V1 O11 77.3(13) . 13_565 ?
O16 V1 O11 66.5(12) . 13_565 ?
O15 V1 O11 71.5(12) . 13_565 ?
O13 V1 W1 120.2(5) . . ?
O1 V1 W1 39.3(5) 13_565 . ?
O5 V1 W1 39.1(7) . . ?
O16 V1 W1 118.7(3) . . ?
O15 V1 W1 119.1(4) . . ?
O11 V1 W1 71.8(11) 13_565 . ?
O9 V2 O7 107.8(7) . . ?
O9 V2 O1 111.6(7) . 13_565 ?
O7 V2 O1 77.5(7) . 13_565 ?
O9 V2 O14 102.7(7) . . ?
O7 V2 O14 149.4(7) . . ?
O1 V2 O14 91.0(7) 13_565 . ?
O9 V2 O8 102.3(6) . . ?
O7 V2 O8 89.2(6) . . ?
O1 V2 O8 146.0(6) 13_565 . ?
O14 V2 O8 84.7(6) . . ?
O9 V2 O12 170.6(12) . 13_565 ?
O7 V2 O12 79.2(12) . 13_565 ?
O1 V2 O12 75.7(11) 13_565 13_565 ?
O14 V2 O12 70.5(12) . 13_565 ?
O8 V2 O12 71.1(11) . 13_565 ?
O9 V2 W1 120.6(5) . . ?
O7 V2 W1 39.0(5) . . ?
O1 V2 W1 39.1(5) 13_565 . ?
O14 V2 W1 121.4(5) . . ?
O8 V2 W1 118.3(4) . . ?
O12 V2 W1 68.8(11) 13_565 . ?
O6 V3 O7 109.4(8) . . ?
O6 V3 O7 109.4(8) . 13_565 ?
O7 V3 O7 79.4(9) . 13_565 ?
O6 V3 O17 102.8(7) . 13_565 ?
O7 V3 O17 89.4(6) . 13_565 ?
O7 V3 O17 147.7(7) 13_565 13_565 ?
O6 V3 O17 102.8(7) . . ?
O7 V3 O17 147.7(7) . . ?
O7 V3 O17 89.4(6) 13_565 . ?
O17 V3 O17 84.0(8) 13_565 . ?
O6 V3 O4 164.8(18) . . ?
O7 V3 O4 82.0(13) . . ?
O7 V3 O4 82.0(13) 13_565 . ?
O17 V3 O4 66.4(11) 13_565 . ?
O17 V3 O4 66.4(11) . . ?
O6 V3 W1 119.8(9) . . ?
O7 V3 W1 39.9(5) . . ?
O7 V3 W1 39.9(5) 13_565 . ?
O17 V3 W1 120.3(4) 13_565 . ?
O17 V3 W1 120.3(4) . . ?
O4 V3 W1 75.4(16) . . ?
O51 V4 O26 106.8(8) . . ?
O51 V4 O25 107.5(9) . . ?
O26 V4 O25 76.5(8) . . ?
O51 V4 O31 102.6(8) . . ?
O26 V4 O31 92.2(7) . . ?
O25 V4 O31 149.8(8) . . ?
O51 V4 O30 104.2(7) . . ?
O26 V4 O30 148.6(6) . . ?
O25 V4 O30 89.8(7) . . ?
O31 V4 O30 85.7(6) . . ?
O51 V4 O27 172.5(13) . 10_556 ?
O26 V4 O27 78.4(13) . 10_556 ?
O25 V4 O27 78.8(13) . 10_556 ?
O31 V4 O27 71.4(12) . 10_556 ?
O30 V4 O27 71.2(12) . 10_556 ?
O51 V4 W2 118.4(6) . . ?
O26 V4 W2 37.1(5) . . ?
O25 V4 W2 40.3(7) . . ?
O31 V4 W2 119.9(5) . . ?
O30 V4 W2 120.2(3) . . ?
O27 V4 W2 69.0(11) 10_556 . ?
O32 V5 O20 110.0(8) . 10_556 ?
O32 V5 O20 110.0(8) . . ?
O20 V5 O20 78.3(10) 10_556 . ?
O32 V5 O33 101.5(8) . . ?
O20 V5 O33 148.5(7) 10_556 . ?
O20 V5 O33 90.1(7) . . ?
O32 V5 O33 101.5(8) . 10_556 ?
O20 V5 O33 90.1(7) 10_556 10_556 ?
O20 V5 O33 148.5(7) . 10_556 ?
O33 V5 O33 84.7(10) . 10_556 ?
O32 V5 O21 168.8(18) . . ?
O20 V5 O21 78.5(13) 10_556 . ?
O20 V5 O21 78.5(13) . . ?
O33 V5 O21 70.5(12) . . ?
O33 V5 O21 70.5(12) 10_556 . ?
O32 V5 W2 121.0(8) . . ?
O20 V5 W2 39.4(5) 10_556 . ?
O20 V5 W2 39.4(5) . . ?
O33 V5 W2 120.5(5) . . ?
O33 V5 W2 120.5(5) 10_556 . ?
O21 V5 W2 70.2(16) . . ?
O18 V6 O20 108.8(7) . . ?
O18 V6 O26 107.5(7) . 10_556 ?
O20 V6 O26 77.3(7) . 10_556 ?
O18 V6 O34 103.4(7) . . ?
O20 V6 O34 88.8(7) . . ?
O26 V6 O34 148.8(7) 10_556 . ?
O18 V6 O19 102.5(7) . . ?
O20 V6 O19 148.7(7) . . ?
O26 V6 O19 92.4(7) 10_556 . ?
O34 V6 O19 85.2(7) . . ?
O18 V6 O22 167.4(12) . . ?
O20 V6 O22 81.5(12) . . ?
O26 V6 O22 81.6(12) 10_556 . ?
O34 V6 O22 68.7(12) . . ?
O19 V6 O22 67.7(12) . . ?
O18 V6 W2 119.0(5) . . ?
O20 V6 W2 40.1(5) . . ?
O26 V6 W2 37.8(5) 10_556 . ?
O34 V6 W2 120.0(5) . . ?
O19 V6 W2 120.6(5) . . ?
O22 V6 W2 73.6(11) . . ?
O52 S1 O11 90.9(17) . 13_565 ?
O52 S1 O11 90.9(17) . . ?
O11 S1 O11 76(3) 13_565 . ?
O52 S1 O10 160.3(18) . . ?
O11 S1 O10 104.6(17) 13_565 . ?
O11 S1 O10 104.6(17) . . ?
O52 S1 O12 64.4(12) . . ?
O11 S1 O12 140(2) 13_565 . ?
O11 S1 O12 73.9(19) . . ?
O10 S1 O12 107.8(13) . . ?
O52 S1 O12 64.4(12) . 13_565 ?
O11 S1 O12 73.9(19) 13_565 13_565 ?
O11 S1 O12 140(2) . 13_565 ?
O10 S1 O12 107.8(13) . 13_565 ?
O12 S1 O12 116(3) . 13_565 ?
O24 S2 O28 158(3) . . ?
O24 S2 O29 133(3) . . ?
O28 S2 O29 69(3) . . ?
O24 S2 O21 73(2) . . ?
O28 S2 O21 130(3) . . ?
O29 S2 O21 60(3) . . ?
O24 S2 O22 71.2(12) . . ?
O28 S2 O22 113.8(12) . . ?
O29 S2 O22 90.8(16) . . ?
O21 S2 O22 68.8(14) . . ?
O24 S2 O22 71.2(12) . 10_556 ?
O28 S2 O22 113.8(12) . 10_556 ?
O29 S2 O22 90.8(16) . 10_556 ?
O21 S2 O22 68.8(14) . 10_556 ?
O22 S2 O22 130(2) . 10_556 ?
O24 S2 O27 60.8(13) . 10_556 ?
O28 S2 O27 100(2) . 10_556 ?
O29 S2 O27 149.7(13) . 10_556 ?
O21 S2 O27 123(2) . 10_556 ?
O22 S2 O27 119.0(18) . 10_556 ?
O22 S2 O27 66.7(17) 10_556 10_556 ?
O24 S2 O27 60.8(13) . . ?
O28 S2 O27 100(2) . . ?
O29 S2 O27 149.7(13) . . ?
O21 S2 O27 123(2) . . ?
O22 S2 O27 66.7(17) . . ?
O22 S2 O27 119.0(18) 10_556 . ?
O27 S2 O27 58(2) 10_556 . ?
V1 O1 V2 140.3(9) 13_565 13_565 ?
V1 O1 W1 105.4(7) 13_565 . ?
V2 O1 W1 105.0(7) 13_565 . ?
C40 O3 V7 138.9(12) . 16_556 ?
V1 O5 V1 139.7(13) . 13_565 ?
V1 O5 W1 105.1(7) . . ?
V1 O5 W1 105.1(7) 13_565 . ?
V2 O7 V3 139.7(9) . . ?
V2 O7 W1 106.6(7) . . ?
V3 O7 W1 103.2(7) . . ?
C10 O8 V2 140.4(10) 13_565 . ?
S1 O11 V1 142(2) . 13_565 ?
O52 O12 S1 35.9(8) . . ?
O52 O12 V2 108.9(17) . 13_565 ?
S1 O12 V2 142(2) . 13_565 ?
C21 O14 V2 139.1(12) . . ?
C21 O15 V1 140.1(12) . . ?
C1 O16 V1 143.1(10) . . ?
C10 O17 V3 143.3(10) . . ?
C47 O19 V6 136.0(14) 10_556 . ?
V6 O20 V5 139.4(9) . . ?
V6 O20 W2 104.6(7) . . ?
V5 O20 W2 105.0(8) . . ?
O29 O21 S2 50.0(11) . . ?
O29 O21 V5 160(4) . . ?
S2 O21 V5 150(3) . . ?
S2 O22 V6 143(2) . . ?
S2 O24 O27 83.1(11) . 10_556 ?
S2 O24 O27 83.1(11) . . ?
O27 O24 O27 67(3) 10_556 . ?
S2 O24 W2 172.6(13) . . ?
O27 O24 W2 103.0(8) 10_556 . ?
O27 O24 W2 103.0(8) . . ?
V4 O25 V4 138.3(13) . 10_556 ?
V4 O25 W2 103.6(7) . . ?
V4 O25 W2 103.6(7) 10_556 . ?
V4 O26 V6 136.1(9) . 10_556 ?
V4 O26 W2 107.7(8) . . ?
V6 O26 W2 105.0(8) 10_556 . ?
O24 O27 S2 36.1(7) . . ?
O24 O27 V4 113.1(18) . 10_556 ?
S2 O27 V4 149(2) . 10_556 ?
S2 O28 O29 55.3(15) . . ?
S2 O29 O21 70(3) . . ?
S2 O29 O28 55.2(15) . . ?
O21 O29 O28 125(3) . . ?
C48 O30 V4 141.9(10) . . ?
C47 O31 V4 140.1(12) . . ?
C53 O33 V5 139.6(14) . . ?
C53 O34 V6 141.3(14) . . ?
C40 O50 V9 133.0(11) . 3 ?
S1 O52 O12 79.8(10) . 13_565 ?
S1 O52 O12 79.8(10) . . ?
O12 O52 O12 136(2) 13_565 . ?
S1 O52 W1 153.0(14) . . ?
O12 O52 W1 107.9(8) 13_565 . ?
O12 O52 W1 107.9(8) . . ?
C6 N1 C8 119.7(8) . . ?
C18 N2 C18 118.4(12) . 10_556 ?
C20 N3 C18 120.4(8) . . ?
C29 N7 C29 119.4(9) 14 . ?
C29 N8 C19 119.8(7) . . ?
C8 N9 C8 120.4(10) 13_565 . ?
O16 C1 O16 117.2(16) 13_565 . ?
O16 C1 C2 121.4(8) 13_565 . ?
O16 C1 C2 121.4(8) . . ?
C3 C2 C3 114.3(11) . 13_565 ?
C3 C2 C1 122.8(6) . . ?
C3 C2 C1 122.8(6) 13_565 . ?
C4 C3 C2 123.1(9) . . ?
C3 C4 C5 120.2(9) . . ?
C4 C5 C4 119.0(14) 13_565 . ?
C4 C5 C6 120.5(7) 13_565 . ?
C4 C5 C6 120.5(7) . . ?
N1 C6 N1 120.2(10) . 13_565 ?
N1 C6 C5 119.9(5) . . ?
N1 C6 C5 119.9(5) 13_565 . ?
N9 C8 N1 119.9(8) . . ?
N9 C8 C72 119.1(14) . 16_556 ?
N1 C8 C72 120.9(14) . 16_556 ?
C58 C9 C54 120.3(12) . . ?
O8 C10 O17 117.2(13) 13_565 . ?
O8 C10 C11 118.5(12) 13_565 . ?
O17 C10 C11 124.3(12) . . ?
C16 C11 C12 115.4(9) . . ?
C16 C11 C10 121.9(13) . . ?
C12 C11 C10 122.8(13) . . ?
C13 C12 C11 122.9(12) . . ?
C12 C13 C14 119.2(11) . . ?
C15 C14 C18 123.3(17) . . ?
C15 C14 C13 118.6(10) . . ?
C18 C14 C13 116.6(15) . . ?
C14 C15 C16 120.0(12) . . ?
C15 C16 C11 121.7(12) . . ?
C14 C18 N3 123.5(12) . . ?
C14 C18 N2 115.8(12) . . ?
N3 C18 N2 120.7(7) . . ?
N8 C19 N8 120.0(9) . 14 ?
N8 C19 C68 120.0(5) . 7 ?
N8 C19 C68 120.0(5) 14 7 ?
C52 C20 N3 120.2(6) 13_565 . ?
C52 C20 N3 120.2(6) 13_565 10_556 ?
N3 C20 N3 119.5(12) . 10_556 ?
O14 C21 O15 120.1(15) . . ?
O14 C21 C22 123.6(13) . . ?
O15 C21 C22 115.6(14) . . ?
C27 C22 C23 120.3 . . ?
C27 C22 C21 123.6(10) . . ?
C23 C22 C21 116.1(10) . . ?
C24 C23 C22 119.7 . . ?
C25 C24 C23 120.1 . . ?
C24 C25 C26 119.9 . . ?
C24 C25 C28 121.4(13) . . ?
C26 C25 C28 118.1(13) . . ?
C27 C26 C25 120.2 . . ?
C22 C27 C26 119.7 . . ?
C57 C29 N8 119.0(11) . . ?
C57 C29 N7 120.5(11) . . ?
N8 C29 N7 120.5(7) . . ?
N5 C32 C34 121.4(15) . . ?
N5 C32 N6 120.3 . . ?
C34 C32 N6 118.3(15) . . ?
C28 N4 C30 120.1 . . ?
C32 N5 C30 119.9 . . ?
C28 N6 C32 119.8 . . ?
N4 C28 N6 120.2 . . ?
N4 C28 C25 118.1(15) . . ?
N6 C28 C25 121.7(15) . . ?
C41 C30 N4 117.9(15) . . ?
C41 C30 N5 122.3(15) . . ?
N4 C30 N5 119.8 . . ?
C32 C34 C35 118.8(13) . . ?
C32 C34 C39 121.3(14) . . ?
C35 C34 C39 119.9 . . ?
C34 C35 C36 120.0 . . ?
C37 C36 C35 120.3 . . ?
C36 C37 C38 119.8 . . ?
C36 C37 C40 119.6(9) . . ?
C38 C37 C40 120.5(9) . . ?
C37 C38 C39 120.0 . . ?
C38 C39 C34 120.0 . . ?
O3 C40 O50 126.7(15) . . ?
O3 C40 C37 117.7(14) . . ?
O50 C40 C37 115.6(13) . . ?
C7 C44 C45 120.0 . . ?
C7 C44 C47 121.8(12) . . ?
C45 C44 C47 118.2(12) . . ?
C44 C7 C42 120.2 . . ?
C42 C41 C30 121.2(14) . . ?
C42 C41 C46 120.2 . . ?
C30 C41 C46 118.6(14) . . ?
C41 C42 C7 119.9 . . ?
C44 C45 C46 120.1 . . ?
C45 C46 C41 119.7 . . ?
O31 C47 O19 122.9(16) . 10_556 ?
O31 C47 C44 119.9(15) . . ?
O19 C47 C44 117.1(18) 10_556 . ?
O30 C48 O30 117.3(16) 10_556 . ?
O30 C48 C49 121.3(8) 10_556 . ?
O30 C48 C49 121.3(8) . . ?
C48 C49 C50 120.9(6) . 10_556 ?
C48 C49 C50 120.9(6) . . ?
C50 C49 C50 118.0(11) 10_556 . ?
C51 C50 C49 120.8(8) . . ?
C50 C51 C52 121.2(8) . . ?
C20 C52 C51 121.2(6) 6_566 . ?
C20 C52 C51 121.2(6) 6_566 10_556 ?
C51 C52 C51 117.6(12) . 10_556 ?
O34 C53 O33 118.7(18) . . ?
O34 C53 C54 121.5(16) . . ?
O33 C53 C54 119.2(15) . . ?
C9 C54 C55 119.0(10) . . ?
C9 C54 C53 121.4(13) . . ?
C55 C54 C53 119.5(13) . . ?
C56 C55 C54 120.8(12) . . ?
C55 C56 C57 119.1(12) . . ?
C29 C57 C56 120.4(14) . . ?
C29 C57 C58 119.3(14) . . ?
C56 C57 C58 119.8(11) . . ?
C9 C58 C57 120.6(12) . . ?
O38 W3 O37 99.2(11) . . ?
O38 W3 O41 97.7(8) . 13 ?
O37 W3 O41 139.6(6) . 13 ?
O38 W3 O41 97.7(8) . . ?
O37 W3 O41 139.6(6) . . ?
O41 W3 O41 73.0(10) 13 . ?
O38 W3 O36 100.0(5) . 13 ?
O37 W3 O36 71.0(3) . 13 ?
O41 W3 O36 140.7(6) 13 13 ?
O41 W3 O36 70.1(6) . 13 ?
O38 W3 O36 100.0(5) . . ?
O37 W3 O36 71.0(3) . . ?
O41 W3 O36 70.1(6) 13 . ?
O41 W3 O36 140.7(6) . . ?
O36 W3 O36 139.2(7) 13 . ?
O38 W3 O44 179.9(9) . . ?
O37 W3 O44 80.7(7) . . ?
O41 W3 O44 82.4(6) 13 . ?
O41 W3 O44 82.4(6) . . ?
O36 W3 O44 80.0(4) 13 . ?
O36 W3 O44 80.0(4) . . ?
O38 W3 V7 105.3(3) . . ?
O37 W3 V7 105.1(2) . . ?
O41 W3 V7 105.5(5) 13 . ?
O41 W3 V7 34.7(5) . . ?
O36 W3 V7 35.8(3) 13 . ?
O36 W3 V7 154.7(4) . . ?
O44 W3 V7 74.75(12) . . ?
O38 W3 V7 105.3(3) . 13 ?
O37 W3 V7 105.1(2) . 13 ?
O41 W3 V7 34.7(5) 13 13 ?
O41 W3 V7 105.5(5) . 13 ?
O36 W3 V7 154.7(4) 13 13 ?
O36 W3 V7 35.8(3) . 13 ?
O44 W3 V7 74.75(12) . 13 ?
V7 W3 V7 132.38(15) . 13 ?
O38 W3 V8 101.8(9) . . ?
O37 W3 V8 159.0(7) . . ?
O41 W3 V8 36.6(5) 13 . ?
O41 W3 V8 36.6(5) . . ?
O36 W3 V8 105.1(3) 13 . ?
O36 W3 V8 105.1(3) . . ?
O44 W3 V8 78.3(3) . . ?
V7 W3 V8 69.32(8) . . ?
V7 W3 V8 69.32(8) 13 . ?
O38 W3 V9 106.5(7) . . ?
O37 W3 V9 36.24(19) . . ?
O41 W3 V9 103.5(5) 13 . ?
O41 W3 V9 155.8(5) . . ?
O36 W3 V9 104.6(3) 13 . ?
O36 W3 V9 35.3(3) . . ?
O44 W3 V9 73.4(3) . . ?
V7 W3 V9 133.03(10) . . ?
V7 W3 V9 68.87(10) 13 . ?
V8 W3 V9 134.19(9) . . ?
O38 W3 V9 106.5(7) . 13 ?
O37 W3 V9 36.24(19) . 13 ?
O41 W3 V9 155.8(5) 13 13 ?
O41 W3 V9 103.5(5) . 13 ?
O36 W3 V9 35.3(3) 13 13 ?
O36 W3 V9 104.6(3) . 13 ?
O44 W3 V9 73.4(3) . 13 ?
V7 W3 V9 68.87(10) . 13 ?
V7 W3 V9 133.03(10) 13 13 ?
V8 W3 V9 134.19(9) . 13 ?
V9 W3 V9 69.49(14) . 13 ?
O40 V7 O41 104.5(9) . . ?
O40 V7 O36 106.7(8) . 13 ?
O41 V7 O36 84.8(7) . 13 ?
O40 V7 O42 102.0(9) . . ?
O41 V7 O42 84.5(8) . . ?
O36 V7 O42 151.1(8) 13 . ?
O40 V7 O3 107.3(7) . 16 ?
O41 V7 O3 148.2(7) . 16 ?
O36 V7 O3 86.9(6) 13 16 ?
O42 V7 O3 88.3(6) . 16 ?
O40 V7 O45 165.1(9) . . ?
O41 V7 O45 84.8(8) . . ?
O36 V7 O45 85.5(8) 13 . ?
O42 V7 O45 66.9(8) . . ?
O3 V7 O45 64.0(7) 16 . ?
O40 V7 W3 117.2(6) . . ?
O41 V7 W3 42.2(6) . . ?
O36 V7 W3 43.2(4) 13 . ?
O42 V7 W3 118.2(5) . . ?
O3 V7 W3 119.3(4) 16 . ?
O45 V7 W3 77.6(6) . . ?
O41 V8 O41 84.9(12) . 13 ?
O41 V8 O39 106.6(9) . . ?
O41 V8 O39 106.6(9) 13 . ?
O41 V8 O43 88.3(7) . 13 ?
O41 V8 O43 151.2(8) 13 13 ?
O39 V8 O43 102.1(9) . 13 ?
O41 V8 O43 151.2(8) . . ?
O41 V8 O43 88.3(7) 13 . ?
O39 V8 O43 102.1(9) . . ?
O43 V8 O43 84.4(11) 13 . ?
O41 V8 O46 88.0(7) . . ?
O41 V8 O46 88.0(7) 13 . ?
O39 V8 O46 159.9(11) . . ?
O43 V8 O46 63.8(7) 13 . ?
O43 V8 O46 63.8(7) . . ?
O41 V8 W3 42.5(6) . . ?
O41 V8 W3 42.5(6) 13 . ?
O39 V8 W3 115.5(9) . . ?
O43 V8 W3 123.5(5) 13 . ?
O43 V8 W3 123.5(5) . . ?
O46 V8 W3 84.6(6) . . ?
O35 V9 O36 108.3(8) . . ?
O35 V9 O37 103.9(10) . . ?
O36 V9 O37 82.5(8) . . ?
O35 V9 O48 100.9(8) . . ?
O36 V9 O48 150.9(7) . . ?
O37 V9 O48 91.2(8) . . ?
O35 V9 O50 106.7(8) . 4_554 ?
O36 V9 O50 88.8(6) . 4_554 ?
O37 V9 O50 149.4(8) . 4_554 ?
O48 V9 O50 82.2(6) . 4_554 ?
O35 V9 W3 117.4(7) . . ?
O36 V9 W3 42.6(4) . . ?
O37 V9 W3 40.6(7) . . ?
O48 V9 W3 122.1(5) . . ?
O50 V9 W3 121.2(4) 4_554 . ?
O44 S3 O46 128.1(17) . . ?
O44 S3 O47 128(2) . . ?
O46 S3 O47 103.7(18) . . ?
O44 S3 O45 79.3(8) . 13 ?
O46 S3 O45 95.5(8) . 13 ?
O47 S3 O45 97.7(7) . 13 ?
O44 S3 O45 79.3(8) . . ?
O46 S3 O45 95.5(8) . . ?
O47 S3 O45 97.7(7) . . ?
O45 S3 O45 158.3(15) 13 . ?
V9 O36 V7 144.8(9) . 13 ?
V9 O36 W3 102.1(6) . . ?
V7 O36 W3 100.9(6) 13 . ?
V9 O37 V9 139.6(14) . 13 ?
V9 O37 W3 103.2(7) . . ?
V9 O37 W3 103.2(7) 13 . ?
V7 O41 V8 145.3(11) . . ?
V7 O41 W3 103.1(9) . . ?
V8 O41 W3 100.9(9) . . ?
C75 O42 V7 144.0(13) 13 . ?
C75 O43 V8 135.9(13) . . ?
S3 O44 W3 130.1(11) . . ?
S3 O45 V7 123.8(11) . . ?
S3 O46 V8 118.9(15) . . ?
C64 O48 V9 131.7(17) . . ?
O48 C64 O48 133(3) 13 . ?
O48 C64 C65 113.2(14) 13 . ?
O48 C64 C65 113.2(14) . . ?
C66 C65 C66 120.8(14) 13 . ?
C66 C65 C64 119.6(7) 13 . ?
C66 C65 C64 119.6(7) . . ?
C67 C66 C65 119.3(9) . . ?
C66 C67 C68 119.4(9) . . ?
C67 C68 C67 119.9(14) . 13 ?
C67 C68 C19 119.1(8) . 11_556 ?
C67 C68 C19 119.1(8) 13 11_556 ?
O42 C75 O43 120.7(15) 13 . ?
O42 C75 C69 120.6(14) 13 13 ?
O43 C75 C69 118.2(13) . 13 ?
C74 C69 C70 119.2(10) . . ?
C74 C69 C75 120.4(12) . 13 ?
C70 C69 C75 120.2(12) . 13 ?
C71 C70 C69 118.9(11) . . ?
C72 C71 C70 121.2(11) . . ?
C71 C72 C73 120.0(10) . . ?
C71 C72 C8 121.0(19) . 16 ?
C73 C72 C8 118.9(19) . 16 ?
C74 C73 C72 120.0(11) . . ?
C73 C74 C69 119.8(12) . . ?

_refine_diff_density_max         2.886
_refine_diff_density_min         -2.350
_refine_diff_density_rms         0.227
