####################################################################### 
# 
# This file contains crystal structure data downloaded from the 
# Cambridge Structural Database (CSD) hosted by the Cambridge 
# Crystallographic Data Centre (CCDC).
# 
# Full information about CCDC data access policies and citation 
# guidelines are available at http://www.ccdc.cam.ac.uk/access/V1 
# 
# Audit and citation data items may have been added by the CCDC. 
# Please retain this information to preserve the provenance of 
# this file and to allow appropriate attribution of the data. 
# 
#######################################################################

data_sqzdIRMOP-52
_audit_block_doi                 10.5517/cc95qgm
_database_code_depnum_ccdc_archive 'CCDC 273620'
loop_
_citation_id
_citation_doi
_citation_year
1 10.1021/ja042802q 2005
_audit_update_record             
;
2005-06-01 deposited with the CCDC.	2019-02-14 downloaded from the CCDC.
;

_audit_creation_method           SHELXL-97
_chemical_name_systematic        
;
?
;
_chemical_name_common            IRMOP-52
_chemical_melting_point          ?
_chemical_formula_moiety         'C168 H132 Fe12 N12 O76 S12'
_chemical_formula_sum            'C168 H132 Fe12 N12 O76 S12'
_chemical_formula_weight         4589.78

loop_
_atom_type_symbol
_atom_type_description
_atom_type_scat_dispersion_real
_atom_type_scat_dispersion_imag
_atom_type_scat_source
C C 0.0033 0.0016 'International Tables Vol C Tables 4.2.6.8 and 6.1.1.4'
H H 0.0000 0.0000 'International Tables Vol C Tables 4.2.6.8 and 6.1.1.4'
N N 0.0061 0.0033 'International Tables Vol C Tables 4.2.6.8 and 6.1.1.4'
O O 0.0106 0.0060 'International Tables Vol C Tables 4.2.6.8 and 6.1.1.4'
S S 0.1246 0.1234 'International Tables Vol C Tables 4.2.6.8 and 6.1.1.4'
Fe Fe 0.3463 0.8444 'International Tables Vol C Tables 4.2.6.8 and 6.1.1.4'

_symmetry_cell_setting           Monoclinic
_symmetry_space_group_name_H-M   C2/c
_symmetry_space_group_name_Hall  -C2yc

loop_
_symmetry_equiv_pos_as_xyz
'x, y, z'
'-x, y, -z+1/2'
'x+1/2, y+1/2, z'
'-x+1/2, y+1/2, -z+1/2'
'-x, -y, -z'
'x, -y, z-1/2'
'-x+1/2, -y+1/2, -z'
'x+1/2, -y+1/2, z-1/2'

_cell_length_a                   43.730(4)
_cell_length_b                   22.671(2)
_cell_length_c                   41.328(4)
_cell_angle_alpha                90.00
_cell_angle_beta                 120.182(2)
_cell_angle_gamma                90.00
_cell_volume                     35418(6)
_cell_formula_units_Z            4
_cell_measurement_temperature    258(2)
_cell_measurement_reflns_used    1677
_cell_measurement_theta_min      2.22
_cell_measurement_theta_max      14.5

_exptl_crystal_description       block
_exptl_crystal_colour            orange
_exptl_crystal_size_max          0.22
_exptl_crystal_size_mid          0.15
_exptl_crystal_size_min          0.04
_exptl_crystal_density_meas      ?
_exptl_crystal_density_diffrn    0.861
_exptl_crystal_density_method    'not measured'
_exptl_crystal_F_000             9344
_exptl_absorpt_coefficient_mu    0.598
_exptl_absorpt_correction_type   multi-scan
_exptl_absorpt_correction_T_min  0.880
_exptl_absorpt_correction_T_max  0.977
_exptl_absorpt_process_details   'Blessing, Acta Cryst. (1995) A51 33-58'
_exptl_special_details           
;
The only optimal crystals suitable for analysis were small and weakly
diffracting. Optimization of synthetic conditions could yield larger
crystals, however these specimens had only a very low degree of
crystallinity and presented little coherent scattering compared to
that of smaller crystals. Owing to these challenges observed strong
(high intensity) scattering was limited to 1.0 angstrom, with higher
resolution data present but weak (low intensity). Increasing the exposure
time of the crystal to X-rays did not ameliorate the quality of the data
as this woulThe only optimal crystals suitable for analysis were small
and weakly diffracting. Optimization of synthetic conditions could yield larger
crystals, however these specimens had only a very low degree of
crystallinity and presented little coherent scattering compared to
that of smaller crystals. Additionally, diffuse scattering from the highly
disordered solvent in the large void spaces within the crystal and from
the capillary used mount the crystal contributes to the background
noise and the 'washing out' of high angle data.

This model has been treated with the SQUEEZE subroutine of PLATON.
;

_diffrn_ambient_temperature      258(2)
_diffrn_radiation_wavelength     0.71073
_diffrn_radiation_type           MoK\a
_diffrn_radiation_source         'fine-focus sealed tube'
_diffrn_radiation_monochromator  graphite
_diffrn_measurement_device_type  'CCD area detector'
_diffrn_measurement_method       'phi and omega scans'
_diffrn_detector_area_resol_mean ?
_diffrn_standards_number         ?
_diffrn_standards_interval_count ?
_diffrn_standards_interval_time  ?
_diffrn_standards_decay_%        ?
_diffrn_reflns_number            85543
_diffrn_reflns_av_R_equivalents  0.1664
_diffrn_reflns_av_sigmaI/netI    0.3732
_diffrn_reflns_limit_h_min       -51
_diffrn_reflns_limit_h_max       48
_diffrn_reflns_limit_k_min       -26
_diffrn_reflns_limit_k_max       26
_diffrn_reflns_limit_l_min       -40
_diffrn_reflns_limit_l_max       48
_diffrn_reflns_theta_min         1.05
_diffrn_reflns_theta_max         24.71
_reflns_number_total             29968
_reflns_number_gt                6839
_reflns_threshold_expression     >2sigma(I)

_computing_data_collection       'Bruker SMART'
_computing_cell_refinement       'Bruker SMART'
_computing_data_reduction        'Bruker SAINT'
_computing_structure_solution    'SHELXS-97 (Sheldrick, 1990)'
_computing_structure_refinement  'SHELXL-97 (Sheldrick, 1997)'
_computing_molecular_graphics    'Bruker SHELXTL'
_computing_publication_material  'Bruker SHELXTL'

_refine_special_details          
;
Refinement of F^2^ against ALL reflections. The weighted R-factor wR and
goodness of fit S are based on F^2^, conventional R-factors R are based
on F, with F set to zero for negative F^2^. The threshold expression of
F^2^ > 2sigma(F^2^) is used only for calculating R-factors(gt) etc. and is
not relevant to the choice of reflections for refinement. R-factors based
on F^2^ are statistically about twice as large as those based on F, and R-
factors based on ALL data will be even larger.

Due to the large void space in the structure, solvent in the structure
is highly disordered. Complete assignment of scattering factors to all residual
electron density was therfore not possible.
Assigment of the largest peaks in the Fourier difference map to carbon
and nitrogen was made; these were refined anisotropically if possible.
All other electron density in the void space was treated as separated
oxygen atoms with large thermal parameters. Cations in the structure could
not be resolved as they are components of the highly disordered
portion of the structure.

Fourier difference maps revealed the presence of disordered solvent
molecules within the lattice which were ulitmately modeled through the
use of the PLATON software suite: Spek, A.L. (1990), Acta Crystallogr.
A46, C-34. A sum total of 5964 electrons were accounted for in void
space 20548.7 A^3.
;

_refine_ls_structure_factor_coef Fsqd
_refine_ls_matrix_type           full
_refine_ls_weighting_scheme      calc
_refine_ls_weighting_details     
'calc w=1/[\s^2^(Fo^2^)+(0.0185P)^2^+0.0000P] where P=(Fo^2^+2Fc^2^)/3'
_atom_sites_solution_primary     direct
_atom_sites_solution_secondary   difmap
_atom_sites_solution_hydrogens   geom
_refine_ls_hydrogen_treatment    constr
_refine_ls_extinction_method     SHELXL
_refine_ls_extinction_coef       0.00007(3)
_refine_ls_extinction_expression Fc^*^=kFc[1+0.001xFc^2^\l^3^/sin(2\q)]^-1/4^
_refine_ls_number_reflns         29968
_refine_ls_number_parameters     1180
_refine_ls_number_restraints     6
_refine_ls_R_factor_all          0.2271
_refine_ls_R_factor_gt           0.0736
_refine_ls_wR_factor_ref         0.1612
_refine_ls_wR_factor_gt          0.1451
_refine_ls_goodness_of_fit_ref   0.853
_refine_ls_restrained_S_all      0.853
_refine_ls_shift/su_max          0.002
_refine_ls_shift/su_mean         0.000

loop_
_atom_site_label
_atom_site_type_symbol
_atom_site_fract_x
_atom_site_fract_y
_atom_site_fract_z
_atom_site_U_iso_or_equiv
_atom_site_adp_type
_atom_site_occupancy
_atom_site_symmetry_multiplicity
_atom_site_calc_flag
_atom_site_refinement_flags
_atom_site_disorder_assembly
_atom_site_disorder_group
Fe1 Fe 0.31476(3) -0.10900(5) 0.07938(3) 0.0551(4) Uani 1 1 d . . .
Fe2 Fe 0.36410(3) -0.10902(5) 0.03856(3) 0.0564(4) Uani 1 1 d . . .
Fe3 Fe 0.30636(3) -0.00174(5) 0.02060(3) 0.0561(4) Uani 1 1 d . . .
Fe4 Fe 0.34684(3) 0.46330(5) 0.29204(3) 0.0559(4) Uani 1 1 d . . .
Fe5 Fe 0.35559(3) 0.36132(5) 0.35471(3) 0.0584(4) Uani 1 1 d . . .
Fe6 Fe 0.41860(3) 0.46041(6) 0.37639(3) 0.0654(4) Uani 1 1 d . . .
O1C O 0.32733(11) -0.07495(19) 0.04464(12) 0.0476(14) Uani 1 1 d . . .
O2C O 0.37284(12) 0.4295(2) 0.34113(12) 0.0524(15) Uani 1 1 d . . .
S1 S 0.33898(8) -0.22952(12) 0.05869(9) 0.0679(8) Uani 1 1 d . . .
S2 S 0.31269(8) -0.06288(14) -0.04584(8) 0.0782(8) Uani 1 1 d . . .
S3 S 0.23853(7) -0.06040(13) 0.01786(8) 0.0721(8) Uani 1 1 d . . .
S4 S 0.38441(9) 0.58319(15) 0.33526(10) 0.0990(10) Uani 1 1 d . . .
S5 S 0.39708(9) 0.41689(17) 0.43620(9) 0.0917(10) Uani 1 1 d . . .
S6 S 0.28060(8) 0.42323(14) 0.30042(9) 0.0777(8) Uani 1 1 d . . .
O1 O 0.31281(13) -0.1928(2) 0.06375(14) 0.0585(16) Uani 1 1 d . . .
O2 O 0.35004(14) -0.1927(2) 0.03564(15) 0.0667(17) Uani 1 1 d . . .
O3 O 0.36973(16) -0.2463(2) 0.09466(17) 0.092(2) Uani 1 1 d . . .
O4 O 0.31915(15) -0.2792(2) 0.03505(17) 0.085(2) Uani 1 1 d . . .
O5 O 0.33611(14) -0.1070(2) -0.01699(15) 0.0665(17) Uani 1 1 d . . .
O6 O 0.30222(17) -0.0187(2) -0.02754(15) 0.100(2) Uani 1 1 d . . .
O7 O 0.3289(2) -0.0385(4) -0.0647(3) 0.211(5) Uani 1 1 d . . .
O8 O 0.28023(19) -0.0918(3) -0.07327(17) 0.144(3) Uani 1 1 d . . .
O9 O 0.25704(14) -0.0283(2) 0.00107(15) 0.0741(18) Uani 1 1 d . . .
O10 O 0.26342(13) -0.1043(2) 0.04502(15) 0.0669(17) Uani 1 1 d . . .
O11 O 0.22835(16) -0.0194(3) 0.03668(19) 0.108(2) Uani 1 1 d . . .
O12 O 0.20809(15) -0.0902(3) -0.01290(17) 0.109(2) Uani 1 1 d . . .
O13 O 0.35364(15) 0.5462(2) 0.30683(15) 0.0793(19) Uani 1 1 d . . .
O14 O 0.40568(15) 0.5455(3) 0.36934(16) 0.0854(19) Uani 1 1 d . . .
O15 O 0.4074(2) 0.6016(3) 0.3197(2) 0.154(3) Uani 1 1 d . . .
O16 O 0.3705(2) 0.6331(3) 0.34526(19) 0.176(4) Uani 1 1 d . . .
O17 O 0.41304(15) 0.4602(3) 0.42141(15) 0.0819(19) Uani 1 1 d . . .
O18 O 0.36552(14) 0.3883(2) 0.40368(14) 0.0719(18) Uani 1 1 d . . .
O19 O 0.42202(19) 0.3704(3) 0.45814(18) 0.131(3) Uani 1 1 d . . .
O20 O 0.38406(17) 0.4485(3) 0.45702(17) 0.133(3) Uani 1 1 d . . .
O21 O 0.30727(14) 0.3920(2) 0.33579(15) 0.0709(17) Uani 1 1 d . . .
O22 O 0.30109(14) 0.4667(2) 0.29060(15) 0.0731(17) Uani 1 1 d . . .
O23 O 0.26280(16) 0.3801(3) 0.27057(19) 0.107(2) Uani 1 1 d . . .
O24 O 0.25790(16) 0.4598(3) 0.30852(18) 0.125(3) Uani 1 1 d . . .
O25 O 0.30796(18) 0.0374(3) 0.06408(18) 0.085(2) Uani 1 1 d . . .
O26 O 0.31433(16) -0.0339(3) 0.10564(16) 0.079(2) Uani 1 1 d . . .
O27 O 0.34106(15) 0.3180(2) 0.30661(16) 0.0674(19) Uani 1 1 d . . .
O28 O 0.33494(15) 0.3858(3) 0.26482(14) 0.0656(18) Uani 1 1 d . . .
O29 O 0.36646(15) -0.1174(2) 0.12039(13) 0.0644(17) Uani 1 1 d . . .
O30 O 0.3994(2) -0.1157(4) 0.09246(19) 0.091(3) Uani 1 1 d . . .
O31 O 0.38975(19) -0.0351(3) 0.0426(2) 0.086(3) Uani 1 1 d . . .
O32 O 0.35400(16) 0.0375(2) 0.03742(16) 0.078(2) Uani 1 1 d . . .
O33 O 0.38739(16) 0.4669(3) 0.28247(16) 0.0714(19) Uani 1 1 d . . .
O34 O 0.43467(15) 0.4642(3) 0.33895(16) 0.071(2) Uani 1 1 d . . .
O35 O 0.44213(14) 0.3803(3) 0.38965(16) 0.0696(19) Uani 1 1 d . . .
O36 O 0.40008(16) 0.3136(3) 0.37652(18) 0.077(2) Uani 1 1 d . . .
C1 C 0.3153(4) 0.0525(4) 0.1529(4) 0.156(6) Uani 1 1 d . . .
H1A H 0.3178 0.0130 0.1597 0.187 Uiso 1 1 calc R . .
C2 C 0.3103(3) 0.0686(5) 0.1198(3) 0.083(4) Uani 1 1 d . . .
C3 C 0.3031(4) 0.1229(6) 0.1093(4) 0.207(9) Uani 1 1 d . . .
H3A H 0.2941 0.1329 0.0843 0.249 Uiso 1 1 calc R . .
C4 C 0.2982(7) 0.2272(8) 0.1221(5) 0.433(19) Uani 1 1 d . . .
H4A H 0.3098 0.2376 0.1082 0.520 Uiso 1 1 calc R . .
H4B H 0.2730 0.2265 0.1043 0.520 Uiso 1 1 calc R . .
C5 C 0.3042(5) 0.2704(5) 0.1462(4) 0.275(11) Uani 1 1 d . . .
H5A H 0.2829 0.2941 0.1357 0.330 Uiso 1 1 calc R . .
H5B H 0.3225 0.2952 0.1466 0.330 Uiso 1 1 calc R . .
C6 C 0.3190(3) 0.3021(5) 0.2111(3) 0.155(6) Uani 1 1 d . . .
H6A H 0.3158 0.3415 0.2039 0.186 Uiso 1 1 calc R . .
C7 C 0.3278(3) 0.2858(4) 0.2466(3) 0.078(3) Uani 1 1 d . . .
C8 C 0.3302(4) 0.2279(5) 0.2593(3) 0.176(7) Uani 1 1 d . . .
H8A H 0.3323 0.2178 0.2822 0.211 Uiso 1 1 calc R . .
C9 C 0.3337(7) 0.1236(7) 0.2456(4) 0.394(17) Uani 1 1 d . . .
H9A H 0.3583 0.1129 0.2559 0.473 Uiso 1 1 calc R . .
H9B H 0.3276 0.1173 0.2649 0.473 Uiso 1 1 calc R . .
C10 C 0.3117(8) 0.0847(7) 0.2137(6) 0.54(3) Uani 1 1 d . . .
H10A H 0.2871 0.0902 0.2063 0.647 Uiso 1 1 calc R . .
H10B H 0.3179 0.0440 0.2214 0.647 Uiso 1 1 calc R . .
C11 C 0.3168(4) 0.0979(6) 0.1779(3) 0.188(7) Uani 1 1 d . . .
C12 C 0.3133(3) 0.1545(5) 0.1691(4) 0.103(4) Uani 1 1 d . . .
C13 C 0.3088(5) 0.1672(6) 0.1358(4) 0.243(10) Uani 1 1 d . . .
C14 C 0.3150(3) 0.2586(6) 0.1865(3) 0.140(5) Uani 1 1 d . . .
C15 C 0.3186(3) 0.2009(6) 0.1964(4) 0.119(5) Uani 1 1 d . . .
C16 C 0.3290(4) 0.1895(6) 0.2350(5) 0.188(7) Uani 1 1 d . . .
C17 C 0.3094(3) 0.0204(5) 0.0941(3) 0.092(4) Uani 1 1 d . . .
C18 C 0.3345(3) 0.3315(5) 0.2744(3) 0.067(3) Uani 1 1 d . . .
C19 C 0.3974(3) -0.1214(4) 0.1190(4) 0.088(5) Uani 1 1 d . . .
C20 C 0.4260(3) -0.1290(4) 0.1602(3) 0.078(3) Uani 1 1 d . . .
C21 C 0.4221(3) -0.1314(5) 0.1904(3) 0.128(5) Uani 1 1 d . . .
H21A H 0.3996 -0.1309 0.1875 0.154 Uiso 1 1 calc R . .
C22 C 0.4507(4) -0.1345(5) 0.2248(3) 0.118(4) Uani 1 1 d . . .
C23 C 0.4834(3) -0.1374(4) 0.2291(3) 0.085(3) Uani 1 1 d . . .
C24 C 0.4875(3) -0.1377(5) 0.1988(4) 0.110(4) Uani 1 1 d . . .
C25 C 0.4581(3) -0.1334(5) 0.1636(3) 0.108(4) Uani 1 1 d . . .
H25A H 0.4604 -0.1337 0.1424 0.129 Uiso 1 1 calc R . .
C26 C 0.4480(3) -0.1281(9) 0.2611(4) 0.296(12) Uani 1 1 d . . .
H26A H 0.4383 -0.0892 0.2601 0.356 Uiso 1 1 calc R . .
H26B H 0.4303 -0.1562 0.2588 0.356 Uiso 1 1 calc R . .
C27 C 0.4745(3) -0.1341(10) 0.2942(3) 0.353(15) Uani 1 1 d . . .
H27A H 0.4704 -0.1697 0.3046 0.423 Uiso 1 1 calc R . .
H27B H 0.4738 -0.1014 0.3090 0.423 Uiso 1 1 calc R . .
C28 C 0.3837(3) 0.0134(6) 0.0417(3) 0.076(4) Uani 1 1 d . . .
C29 C 0.4096(3) 0.0624(5) 0.0498(3) 0.078(3) Uani 1 1 d . . .
C30 C 0.4006(3) 0.1252(6) 0.0470(3) 0.115(4) Uani 1 1 d . . .
H30A H 0.3777 0.1382 0.0393 0.138 Uiso 1 1 calc R . .
C31 C 0.4285(5) 0.1640(5) 0.0567(4) 0.138(5) Uani 1 1 d . . .
C32 C 0.4629(3) 0.1442(8) 0.0670(3) 0.110(5) Uani 1 1 d . . .
C33 C 0.4702(4) 0.0871(6) 0.0694(4) 0.109(5) Uani 1 1 d . . .
C34 C 0.4429(3) 0.0470(5) 0.0612(3) 0.117(5) Uani 1 1 d . . .
H34A H 0.4484 0.0070 0.0639 0.140 Uiso 1 1 calc R . .
C35 C 0.5071(3) 0.0746(6) 0.0813(5) 0.213(9) Uani 1 1 d . . .
H35A H 0.5186 0.0631 0.1074 0.256 Uiso 1 1 calc R . .
H35B H 0.5073 0.0401 0.0675 0.256 Uiso 1 1 calc R . .
C36 C 0.4145(3) 0.2257(8) 0.0528(6) 0.292(12) Uani 1 1 d . . .
H36A H 0.4001 0.2357 0.0265 0.350 Uiso 1 1 calc R . .
H36B H 0.3999 0.2284 0.0643 0.350 Uiso 1 1 calc R . .
C37 C 0.4425(5) 0.2642(5) 0.0700(7) 0.361(15) Uani 1 1 d . . .
H37A H 0.4447 0.2746 0.0938 0.433 Uiso 1 1 calc R . .
H37B H 0.4355 0.2998 0.0550 0.433 Uiso 1 1 calc R . .
C38 C 0.4205(3) 0.4696(4) 0.3050(3) 0.065(3) Uani 1 1 d . . .
C39 C 0.4421(3) 0.4741(4) 0.2855(4) 0.091(4) Uani 1 1 d . . .
C40 C 0.4777(4) 0.4781(5) 0.3079(3) 0.147(5) Uani 1 1 d . . .
H40A H 0.4877 0.4789 0.3338 0.176 Uiso 1 1 calc R . .
C41 C 0.5006(4) 0.4811(7) 0.2915(6) 0.178(7) Uani 1 1 d . . .
C42 C 0.4886(3) 0.4757(5) 0.2558(3) 0.094(5) Uani 1 1 d . . .
C43 C 0.4528(4) 0.4739(6) 0.2341(4) 0.139(6) Uani 1 1 d . . .
C44 C 0.4294(3) 0.4740(6) 0.2472(3) 0.141(6) Uani 1 1 d . . .
H44A H 0.4052 0.4739 0.2304 0.169 Uiso 1 1 calc R . .
C45 C 0.4407(3) 0.4540(11) 0.1947(4) 0.366(17) Uani 1 1 d . . .
H45A H 0.4423 0.4115 0.1937 0.439 Uiso 1 1 calc R . .
H45B H 0.4163 0.4656 0.1781 0.439 Uiso 1 1 calc R . .
C46 C 0.4626(4) 0.4808(13) 0.1836(4) 0.46(2) Uani 1 1 d . . .
H46A H 0.4550 0.5215 0.1774 0.557 Uiso 1 1 calc R . .
H46B H 0.4584 0.4618 0.1607 0.557 Uiso 1 1 calc R . .
C47 C 0.4308(3) 0.3265(5) 0.3881(3) 0.076(4) Uani 1 1 d . . .
C48 C 0.4586(3) 0.2783(6) 0.4013(3) 0.074(3) Uani 1 1 d . . .
C49 C 0.4519(3) 0.2224(6) 0.4046(3) 0.092(4) Uani 1 1 d . . .
H49A H 0.4297 0.2125 0.4008 0.110 Uiso 1 1 calc R . .
C50 C 0.4767(3) 0.1784(8) 0.4135(4) 0.126(6) Uani 1 1 d . . .
C51 C 0.5071(4) 0.1932(5) 0.4210(3) 0.108(5) Uani 1 1 d . . .
C52 C 0.5176(3) 0.2483(8) 0.4214(4) 0.155(6) Uani 1 1 d . . .
C53 C 0.4925(3) 0.2970(5) 0.4102(4) 0.157(6) Uani 1 1 d . . .
H53A H 0.4984 0.3361 0.4092 0.189 Uiso 1 1 calc R . .
C54 C 0.4720(4) 0.1149(5) 0.4216(5) 0.208(8) Uani 1 1 d . . .
H54A H 0.4758 0.1130 0.4468 0.250 Uiso 1 1 calc R . .
H54B H 0.4476 0.1037 0.4046 0.250 Uiso 1 1 calc R . .
N1 N 0.3020(2) -0.1444(4) 0.11992(16) 0.070(3) Uani 1 1 d G . .
C55 C 0.32230(16) -0.1916(4) 0.1415(3) 0.137(6) Uani 1 1 d G . .
H55A H 0.3404 -0.2064 0.1382 0.165 Uiso 1 1 calc R . .
C56 C 0.3156(2) -0.2167(3) 0.1680(2) 0.154(6) Uani 1 1 d G . .
H56A H 0.3292 -0.2482 0.1824 0.184 Uiso 1 1 calc R . .
C57 C 0.2886(3) -0.1946(4) 0.17295(19) 0.147(6) Uani 1 1 d G . .
H57A H 0.2841 -0.2113 0.1907 0.176 Uiso 1 1 calc R . .
C58 C 0.26827(19) -0.1474(5) 0.1514(3) 0.161(6) Uani 1 1 d G . .
H58A H 0.2502 -0.1326 0.1547 0.193 Uiso 1 1 calc R . .
C59 C 0.2750(2) -0.1223(3) 0.1249(2) 0.103(4) Uani 1 1 d G . .
H59A H 0.2614 -0.0907 0.1104 0.123 Uiso 1 1 calc R . .
N2 N 0.40511(17) -0.1436(4) 0.0299(2) 0.103(3) Uani 1 1 d GD . .
C60 C 0.4102(2) -0.1176(3) 0.0025(3) 0.265(6) Uani 1 1 d GD . .
H60A H 0.3984 -0.0828 -0.0089 0.318 Uiso 1 1 calc R . .
C61 C 0.4328(3) -0.1436(5) -0.0078(3) 0.265(6) Uani 1 1 d GD . .
H61A H 0.4362 -0.1262 -0.0261 0.318 Uiso 1 1 calc R . .
C62 C 0.4503(3) -0.1956(5) 0.0093(4) 0.385(11) Uani 1 1 d GD . .
H62A H 0.4654 -0.2130 0.0023 0.462 Uiso 1 1 calc R . .
C63 C 0.4453(3) -0.2217(4) 0.0367(4) 0.385(11) Uani 1 1 d GD . .
H63A H 0.4570 -0.2565 0.0481 0.462 Uiso 1 1 calc R . .
C64 C 0.4226(3) -0.1957(4) 0.0470(3) 0.287(11) Uani 1 1 d GD . .
H64A H 0.4193 -0.2131 0.0653 0.344 Uiso 1 1 calc R . .
N3 N 0.2831(2) 0.0826(2) -0.00499(18) 0.086(3) Uani 1 1 d GD . .
C65 C 0.2561(2) 0.1074(4) -0.00110(19) 0.134(5) Uani 1 1 d GD . .
H65A H 0.2471 0.0873 0.0120 0.161 Uiso 1 1 calc R . .
C66 C 0.2424(2) 0.1622(4) -0.0167(3) 0.219(9) Uani 1 1 d GD . .
H66A H 0.2243 0.1789 -0.0141 0.262 Uiso 1 1 calc R . .
C67 C 0.2558(3) 0.1922(3) -0.0363(2) 0.245(11) Uani 1 1 d GD . .
H67A H 0.2467 0.2289 -0.0468 0.294 Uiso 1 1 calc R . .
C68 C 0.2828(3) 0.1674(4) -0.0402(2) 0.213(8) Uani 1 1 d GD . .
H68A H 0.2918 0.1875 -0.0533 0.256 Uiso 1 1 calc R . .
C69 C 0.29650(19) 0.1126(5) -0.0245(2) 0.167(7) Uani 1 1 d GD . .
H69A H 0.3146 0.0959 -0.0271 0.201 Uiso 1 1 calc R . .
N4 N 0.3161(2) 0.5028(3) 0.23430(14) 0.069(2) Uani 1 1 d G . .
C70 C 0.2821(2) 0.4825(3) 0.2099(3) 0.118(4) Uani 1 1 d G . .
H70A H 0.2730 0.4510 0.2169 0.142 Uiso 1 1 calc R . .
C71 C 0.26174(15) 0.5092(5) 0.1753(2) 0.149(5) Uani 1 1 d G . .
H71A H 0.2390 0.4956 0.1590 0.179 Uiso 1 1 calc R . .
C72 C 0.2754(3) 0.5562(4) 0.16492(16) 0.172(7) Uani 1 1 d G . .
H72A H 0.2618 0.5741 0.1417 0.207 Uiso 1 1 calc R . .
C73 C 0.3094(3) 0.5765(3) 0.1893(3) 0.148(6) Uani 1 1 d G . .
H73A H 0.3185 0.6080 0.1824 0.178 Uiso 1 1 calc R . .
C74 C 0.32977(16) 0.5498(4) 0.2240(2) 0.131(5) Uani 1 1 d G . .
H74A H 0.3525 0.5634 0.2402 0.157 Uiso 1 1 calc R . .
N5 N 0.3358(3) 0.2820(2) 0.3691(3) 0.075(3) Uani 1 1 d G . .
C75 C 0.35590(17) 0.2568(4) 0.4043(2) 0.130(5) Uani 1 1 d G . .
H75A H 0.3779 0.2725 0.4212 0.156 Uiso 1 1 calc R . .
C76 C 0.3431(3) 0.2082(4) 0.4143(2) 0.181(8) Uani 1 1 d G . .
H76A H 0.3565 0.1913 0.4379 0.217 Uiso 1 1 calc R . .
C77 C 0.3102(3) 0.1848(3) 0.3891(4) 0.183(8) Uani 1 1 d G . .
H77A H 0.3016 0.1523 0.3958 0.220 Uiso 1 1 calc R . .
C78 C 0.29005(19) 0.2100(4) 0.3539(3) 0.198(8) Uani 1 1 d G . .
H78A H 0.2680 0.1944 0.3370 0.238 Uiso 1 1 calc R . .
C79 C 0.3029(2) 0.2586(4) 0.34389(18) 0.128(5) Uani 1 1 d G . .
H79A H 0.2894 0.2755 0.3203 0.154 Uiso 1 1 calc R . .
N6 N 0.47131(13) 0.4951(4) 0.4137(2) 0.084(3) Uani 1 1 d G . .
C80 C 0.4854(3) 0.5403(4) 0.40253(18) 0.148(5) Uani 1 1 d G . .
H80A H 0.4720 0.5572 0.3790 0.177 Uiso 1 1 calc R . .
C81 C 0.5196(3) 0.5602(3) 0.4266(3) 0.223(9) Uani 1 1 d G . .
H81A H 0.5291 0.5905 0.4191 0.268 Uiso 1 1 calc R . .
C82 C 0.53966(15) 0.5350(5) 0.4618(3) 0.202(8) Uani 1 1 d G . .
H82A H 0.5625 0.5484 0.4779 0.242 Uiso 1 1 calc R . .
C83 C 0.5255(2) 0.4899(4) 0.47299(16) 0.157(6) Uani 1 1 d G . .
H83A H 0.5390 0.4730 0.4966 0.188 Uiso 1 1 calc R . .
C84 C 0.4914(3) 0.4699(3) 0.4490(3) 0.124(4) Uani 1 1 d G . .
H84A H 0.4819 0.4397 0.4565 0.149 Uiso 1 1 calc R . .

loop_
_atom_site_aniso_label
_atom_site_aniso_U_11
_atom_site_aniso_U_22
_atom_site_aniso_U_33
_atom_site_aniso_U_23
_atom_site_aniso_U_13
_atom_site_aniso_U_12
Fe1 0.0535(9) 0.0504(8) 0.0547(9) -0.0091(7) 0.0223(8) -0.0069(7)
Fe2 0.0475(9) 0.0636(9) 0.0554(10) -0.0130(8) 0.0238(8) -0.0113(7)
Fe3 0.0573(9) 0.0546(9) 0.0518(9) -0.0125(8) 0.0239(8) -0.0099(8)
Fe4 0.0589(9) 0.0557(9) 0.0543(9) -0.0006(8) 0.0293(8) 0.0083(8)
Fe5 0.0661(10) 0.0610(9) 0.0556(9) 0.0006(7) 0.0363(8) 0.0152(8)
Fe6 0.0616(10) 0.0726(10) 0.0580(10) -0.0101(8) 0.0269(9) 0.0094(8)
O1C 0.049(4) 0.049(3) 0.043(3) 0.001(3) 0.022(3) 0.005(3)
O2C 0.061(4) 0.067(4) 0.041(4) 0.000(3) 0.034(3) 0.013(3)
S1 0.069(2) 0.0545(19) 0.083(2) -0.0133(18) 0.040(2) -0.0049(18)
S2 0.080(2) 0.097(3) 0.059(2) -0.003(2) 0.036(2) 0.008(2)
S3 0.056(2) 0.069(2) 0.083(2) -0.0056(19) 0.029(2) -0.0012(17)
S4 0.097(3) 0.073(2) 0.103(3) -0.007(2) 0.032(2) 0.011(2)
S5 0.090(3) 0.133(3) 0.058(2) -0.001(2) 0.042(2) 0.030(2)
S6 0.062(2) 0.098(2) 0.078(2) 0.016(2) 0.039(2) 0.018(2)
O1 0.066(4) 0.046(4) 0.075(4) -0.019(3) 0.044(4) -0.006(3)
O2 0.086(5) 0.053(4) 0.085(5) -0.010(3) 0.061(4) -0.005(3)
O3 0.066(5) 0.086(5) 0.081(5) 0.011(4) 0.006(4) 0.015(4)
O4 0.099(5) 0.057(4) 0.117(6) -0.015(4) 0.068(5) -0.020(4)
O5 0.066(4) 0.078(4) 0.058(4) -0.007(4) 0.033(4) 0.005(4)
O6 0.167(7) 0.073(5) 0.053(4) 0.002(4) 0.051(5) 0.046(4)
O7 0.267(11) 0.194(8) 0.327(12) 0.143(9) 0.265(11) 0.104(8)
O8 0.111(6) 0.144(7) 0.070(5) -0.042(5) -0.034(5) -0.001(5)
O9 0.061(4) 0.077(4) 0.080(5) 0.024(4) 0.032(4) -0.007(3)
O10 0.034(4) 0.075(4) 0.076(4) 0.010(4) 0.016(3) 0.002(3)
O11 0.114(6) 0.083(5) 0.145(7) 0.015(5) 0.078(5) 0.025(4)
O12 0.056(5) 0.117(6) 0.093(5) -0.007(4) -0.006(4) -0.020(4)
O13 0.087(5) 0.043(4) 0.080(5) -0.008(4) 0.021(4) 0.003(4)
O14 0.079(5) 0.067(5) 0.071(5) -0.016(4) 0.009(4) -0.005(4)
O15 0.178(8) 0.123(7) 0.179(8) 0.024(6) 0.103(7) -0.032(6)
O16 0.221(9) 0.073(5) 0.121(7) -0.041(5) 0.004(6) 0.050(6)
O17 0.089(5) 0.096(5) 0.057(4) -0.013(4) 0.034(4) 0.022(4)
O18 0.070(4) 0.118(5) 0.028(4) -0.024(4) 0.026(4) -0.007(4)
O19 0.122(7) 0.164(7) 0.082(6) 0.022(5) 0.032(5) 0.021(6)
O20 0.125(6) 0.188(7) 0.089(6) -0.053(5) 0.055(5) 0.000(5)
O21 0.058(4) 0.095(5) 0.076(5) 0.022(4) 0.046(4) 0.026(4)
O22 0.065(4) 0.075(4) 0.087(5) 0.017(4) 0.044(4) 0.022(4)
O23 0.075(5) 0.136(6) 0.095(6) 0.001(5) 0.032(4) -0.020(5)
O24 0.104(6) 0.171(7) 0.131(6) 0.061(5) 0.081(5) 0.087(5)
O25 0.118(6) 0.065(5) 0.060(5) -0.020(4) 0.037(5) 0.003(4)
O26 0.114(5) 0.052(4) 0.076(5) -0.024(4) 0.052(4) 0.003(4)
O27 0.094(5) 0.066(4) 0.047(4) -0.018(4) 0.039(4) -0.005(3)
O28 0.099(5) 0.051(4) 0.054(4) -0.010(4) 0.044(4) 0.006(4)
O29 0.050(4) 0.065(4) 0.036(4) -0.004(3) -0.010(3) -0.009(3)
O30 0.082(6) 0.127(6) 0.049(5) -0.004(5) 0.021(5) -0.011(4)
O31 0.097(6) 0.050(4) 0.104(6) -0.009(5) 0.045(5) -0.026(5)
O32 0.054(5) 0.064(4) 0.101(5) -0.009(4) 0.027(4) -0.038(4)
O33 0.049(4) 0.104(5) 0.078(5) -0.001(4) 0.045(4) 0.008(4)
O34 0.074(5) 0.115(5) 0.037(4) -0.007(4) 0.037(4) -0.006(4)
O35 0.049(4) 0.071(5) 0.083(5) -0.003(4) 0.030(4) 0.033(4)
O36 0.050(4) 0.097(5) 0.084(5) 0.012(4) 0.034(5) 0.034(4)
C1 0.340(19) 0.032(8) 0.162(13) -0.019(9) 0.176(14) -0.016(9)
C2 0.139(10) 0.083(10) 0.038(7) -0.028(7) 0.052(8) -0.025(8)
C3 0.46(2) 0.062(10) 0.118(12) 0.070(9) 0.157(14) 0.119(13)
C4 1.02(6) 0.21(2) 0.25(2) 0.008(17) 0.45(3) 0.23(3)
C5 0.63(3) 0.098(11) 0.117(13) 0.060(10) 0.204(18) 0.167(16)
C6 0.337(18) 0.076(9) 0.049(8) -0.021(7) 0.095(11) 0.048(10)
C7 0.156(10) 0.044(7) 0.065(8) -0.032(6) 0.077(8) 0.007(7)
C8 0.39(2) 0.051(9) 0.086(10) -0.058(8) 0.119(12) -0.026(11)
C9 1.00(5) 0.130(16) 0.224(19) -0.043(14) 0.44(3) 0.02(2)
C10 1.44(8) 0.144(17) 0.41(3) 0.096(18) 0.75(5) 0.15(3)
C11 0.43(2) 0.052(9) 0.117(12) -0.026(9) 0.167(14) 0.004(12)
C12 0.200(12) 0.046(9) 0.074(10) 0.015(8) 0.077(9) 0.028(8)
C13 0.59(3) 0.035(9) 0.115(13) -0.001(9) 0.185(18) 0.092(13)
C14 0.221(14) 0.070(10) 0.053(10) -0.008(8) 0.013(9) 0.035(10)
C15 0.203(13) 0.057(9) 0.078(10) -0.019(9) 0.057(10) 0.040(9)
C16 0.40(2) 0.048(10) 0.114(13) 0.044(10) 0.125(15) 0.039(12)
C17 0.097(9) 0.078(10) 0.076(10) -0.040(9) 0.025(9) 0.001(8)
C18 0.087(8) 0.061(8) 0.065(9) -0.009(8) 0.047(8) 0.014(7)
C19 0.014(6) 0.045(7) 0.143(14) -0.009(9) -0.007(10) -0.005(5)
C20 0.039(8) 0.101(8) 0.062(9) -0.004(7) 0.002(8) -0.016(6)
C21 0.077(10) 0.247(15) 0.024(7) 0.010(9) -0.002(8) 0.028(9)
C22 0.073(10) 0.235(14) 0.047(9) 0.003(9) 0.029(9) -0.021(10)
C23 0.047(9) 0.116(8) 0.087(11) 0.014(7) 0.030(7) 0.004(6)
C24 0.042(8) 0.236(13) 0.067(9) 0.008(9) 0.037(8) 0.018(8)
C25 0.043(7) 0.207(13) 0.061(9) 0.004(8) 0.016(7) -0.001(8)
C26 0.053(10) 0.74(4) 0.067(11) 0.032(18) 0.007(9) 0.034(16)
C27 0.049(10) 0.90(5) 0.057(10) -0.138(19) -0.011(9) -0.021(18)
C28 0.023(7) 0.134(12) 0.058(7) 0.005(9) 0.012(6) -0.058(9)
C29 0.062(9) 0.076(9) 0.083(8) -0.023(7) 0.027(7) -0.023(8)
C30 0.047(7) 0.115(11) 0.163(12) 0.003(9) 0.038(8) -0.041(8)
C31 0.174(17) 0.024(8) 0.219(15) 0.004(8) 0.100(14) -0.033(10)
C32 0.046(8) 0.135(14) 0.146(11) 0.025(11) 0.047(9) -0.022(10)
C33 0.145(15) 0.045(8) 0.151(12) 0.000(8) 0.085(11) 0.004(10)
C34 0.064(9) 0.081(9) 0.168(12) -0.011(8) 0.031(9) -0.058(8)
C35 0.082(11) 0.115(13) 0.43(3) -0.024(14) 0.119(14) -0.029(10)
C36 0.069(11) 0.142(17) 0.52(3) 0.040(18) 0.046(15) -0.050(12)
C37 0.21(2) 0.053(11) 0.80(5) -0.071(17) 0.24(3) 0.023(11)
C38 0.064(8) 0.078(7) 0.082(10) -0.011(7) 0.058(9) -0.011(7)
C39 0.012(6) 0.124(9) 0.107(11) 0.000(8) 0.007(7) -0.016(6)
C40 0.146(13) 0.257(15) 0.041(8) -0.040(8) 0.050(10) -0.063(12)
C41 0.085(12) 0.320(19) 0.201(18) 0.019(16) 0.127(14) -0.016(12)
C42 0.082(14) 0.172(10) 0.036(8) -0.009(8) 0.037(8) -0.021(8)
C43 0.071(10) 0.258(15) 0.114(13) -0.043(11) 0.066(11) -0.056(10)
C44 0.042(8) 0.300(17) 0.042(8) 0.028(10) -0.007(7) 0.004(9)
C45 0.056(11) 0.97(5) 0.043(10) -0.047(18) 0.005(9) 0.036(19)
C46 0.066(12) 1.22(7) 0.169(17) 0.01(3) 0.109(13) 0.01(2)
C47 0.106(11) 0.062(8) 0.067(9) 0.021(7) 0.049(9) 0.040(10)
C48 0.046(8) 0.107(10) 0.084(8) -0.001(8) 0.044(7) 0.027(8)
C49 0.085(10) 0.083(9) 0.129(10) 0.021(8) 0.070(9) 0.015(9)
C50 0.037(8) 0.163(17) 0.195(14) 0.015(11) 0.070(10) 0.020(10)
C51 0.130(14) 0.026(7) 0.159(12) 0.035(8) 0.066(12) 0.029(9)
C52 0.043(9) 0.167(15) 0.274(17) 0.019(14) 0.092(10) 0.022(10)
C53 0.077(10) 0.077(9) 0.297(18) 0.050(9) 0.078(11) 0.050(8)
C54 0.232(18) 0.045(9) 0.45(3) 0.030(12) 0.246(19) 0.041(10)
N1 0.085(7) 0.080(6) 0.053(6) -0.007(5) 0.041(6) -0.032(5)
C55 0.183(14) 0.198(15) 0.069(10) -0.005(9) 0.091(10) -0.081(12)
C56 0.130(13) 0.194(14) 0.167(16) -0.005(12) 0.097(11) 0.027(10)
C57 0.194(17) 0.188(16) 0.083(10) 0.033(10) 0.088(12) -0.008(11)
C58 0.160(13) 0.238(18) 0.121(13) 0.024(11) 0.098(12) 0.011(13)
C59 0.146(12) 0.110(9) 0.104(10) -0.015(7) 0.102(9) 0.003(8)
N2 0.081(7) 0.110(7) 0.147(9) 0.016(6) 0.080(7) 0.009(6)
C60 0.168(13) 0.383(18) 0.330(16) 0.061(13) 0.188(11) 0.103(11)
C61 0.168(13) 0.383(18) 0.330(16) 0.061(13) 0.188(11) 0.103(11)
C62 0.381(18) 0.47(2) 0.53(3) 0.270(18) 0.398(19) 0.287(17)
C63 0.381(18) 0.47(2) 0.53(3) 0.270(18) 0.398(19) 0.287(17)
C64 0.123(13) 0.30(2) 0.52(3) 0.16(2) 0.223(18) 0.122(14)
N3 0.103(8) 0.041(5) 0.096(7) -0.012(5) 0.037(6) -0.001(5)
C65 0.183(14) 0.088(10) 0.140(11) 0.039(9) 0.088(11) 0.032(9)
C66 0.32(2) 0.114(13) 0.199(17) 0.043(11) 0.116(15) 0.168(14)
C67 0.56(3) 0.088(11) 0.230(18) 0.066(11) 0.30(2) 0.030(15)
C68 0.38(3) 0.175(18) 0.166(15) 0.012(13) 0.194(17) 0.058(15)
C69 0.180(14) 0.071(10) 0.217(15) 0.084(10) 0.075(12) 0.002(9)
N4 0.065(6) 0.082(6) 0.049(5) 0.017(5) 0.020(5) 0.038(5)
C70 0.080(10) 0.184(12) 0.087(10) 0.026(10) 0.039(8) -0.027(10)
C71 0.120(11) 0.231(17) 0.041(9) 0.012(9) -0.001(9) -0.017(11)
C72 0.182(17) 0.197(17) 0.126(13) 0.029(12) 0.070(13) -0.037(12)
C73 0.208(17) 0.127(11) 0.086(11) 0.067(10) 0.057(11) 0.010(11)
C74 0.134(11) 0.101(10) 0.153(14) 0.039(9) 0.069(11) -0.038(9)
N5 0.094(7) 0.074(6) 0.084(7) 0.026(6) 0.065(6) 0.039(6)
C75 0.190(14) 0.101(11) 0.105(12) 0.045(8) 0.078(11) 0.059(10)
C76 0.28(2) 0.097(12) 0.169(15) 0.056(12) 0.117(16) 0.010(12)
C77 0.24(2) 0.140(13) 0.22(2) 0.069(14) 0.152(17) 0.026(14)
C78 0.167(15) 0.140(14) 0.31(2) 0.108(14) 0.135(16) 0.001(12)
C79 0.110(12) 0.116(12) 0.152(13) 0.042(10) 0.061(11) 0.006(9)
N6 0.070(6) 0.114(8) 0.056(7) -0.002(6) 0.022(6) 0.018(6)
C80 0.163(15) 0.189(14) 0.089(11) -0.027(10) 0.062(12) -0.061(11)
C81 0.147(15) 0.38(2) 0.069(11) -0.055(14) 0.001(10) -0.094(16)
C82 0.140(13) 0.36(2) 0.110(14) -0.072(14) 0.066(12) -0.153(15)
C83 0.072(10) 0.280(19) 0.061(9) -0.020(11) -0.010(9) -0.018(11)
C84 0.081(10) 0.184(12) 0.098(11) -0.002(11) 0.038(8) -0.008(10)

_geom_special_details            
;
All esds (except the esd in the dihedral angle between two l.s. planes)
are estimated using the full covariance matrix. The cell esds are taken
into account individually in the estimation of esds in distances, angles
and torsion angles; correlations between esds in cell parameters are only
used when they are defined by crystal symmetry. An approximate (isotropic)
treatment of cell esds is used for estimating esds involving l.s. planes.
;

loop_
_geom_bond_atom_site_label_1
_geom_bond_atom_site_label_2
_geom_bond_distance
_geom_bond_site_symmetry_2
_geom_bond_publ_flag
Fe1 O1C 1.937(5) . ?
Fe1 O10 1.965(5) . ?
Fe1 O1 1.995(5) . ?
Fe1 O26 2.025(6) . ?
Fe1 O29 2.041(5) . ?
Fe1 N1 2.169(5) . ?
Fe2 O1C 1.911(4) . ?
Fe2 O31 1.976(6) . ?
Fe2 O2 1.979(5) . ?
Fe2 O5 1.986(5) . ?
Fe2 O30 1.978(7) . ?
Fe2 N2 2.145(5) . ?
Fe3 O1C 1.915(4) . ?
Fe3 O6 1.943(6) . ?
Fe3 O9 1.979(5) . ?
Fe3 O25 1.974(6) . ?
Fe3 O32 2.039(6) . ?
Fe3 N3 2.173(5) . ?
Fe4 O2C 1.918(5) . ?
Fe4 O13 1.953(5) . ?
Fe4 O22 1.973(5) . ?
Fe4 O33 2.003(5) . ?
Fe4 O28 2.009(6) . ?
Fe4 N4 2.253(5) . ?
Fe5 O2C 1.922(5) . ?
Fe5 O18 1.943(5) . ?
Fe5 O21 1.975(5) . ?
Fe5 O36 2.001(6) . ?
Fe5 O27 2.012(6) . ?
Fe5 N5 2.203(5) . ?
Fe6 O2C 1.920(5) . ?
Fe6 O14 1.989(6) . ?
Fe6 O34 1.997(6) . ?
Fe6 O17 1.994(6) . ?
Fe6 O35 2.024(6) . ?
Fe6 N6 2.177(5) . ?
S1 O4 1.457(5) . ?
S1 O3 1.468(5) . ?
S1 O1 1.512(5) . ?
S1 O2 1.517(5) . ?
S2 O7 1.403(7) . ?
S2 O8 1.453(6) . ?
S2 O6 1.461(5) . ?
S2 O5 1.498(5) . ?
S3 O11 1.420(6) . ?
S3 O12 1.464(6) . ?
S3 O10 1.486(5) . ?
S3 O9 1.494(5) . ?
S4 O16 1.442(7) . ?
S4 O15 1.500(7) . ?
S4 O14 1.504(6) . ?
S4 O13 1.518(5) . ?
S5 O20 1.439(6) . ?
S5 O19 1.459(7) . ?
S5 O17 1.501(6) . ?
S5 O18 1.505(5) . ?
S6 O23 1.456(6) . ?
S6 O24 1.455(6) . ?
S6 O21 1.511(5) . ?
S6 O22 1.517(5) . ?
O25 C17 1.268(11) . ?
O26 C17 1.299(11) . ?
O27 C18 1.249(9) . ?
O28 C18 1.295(9) . ?
O29 C19 1.385(12) . ?
O30 C19 1.152(14) . ?
O31 C28 1.127(12) . ?
O32 C28 1.336(11) . ?
O33 C38 1.269(10) . ?
O34 C38 1.221(10) . ?
O35 C47 1.305(10) . ?
O36 C47 1.213(11) . ?
C1 C2 1.322(11) . ?
C1 C11 1.436(12) . ?
C1 H1A 0.9300 . ?
C2 C3 1.290(11) . ?
C2 C17 1.511(13) . ?
C3 C13 1.410(14) . ?
C3 H3A 0.9300 . ?
C4 C5 1.328(15) . ?
C4 C13 1.456(16) . ?
C4 H4A 0.9700 . ?
C4 H4B 0.9700 . ?
C5 C14 1.508(13) . ?
C5 H5A 0.9700 . ?
C5 H5B 0.9700 . ?
C6 C7 1.370(11) . ?
C6 C14 1.362(12) . ?
C6 H6A 0.9300 . ?
C7 C8 1.397(12) . ?
C7 C18 1.464(11) . ?
C8 C16 1.311(14) . ?
C8 H8A 0.9300 . ?
C9 C10 1.47(3) . ?
C9 C16 1.543(16) . ?
C9 H9A 0.9700 . ?
C9 H9B 0.9700 . ?
C10 C11 1.633(16) . ?
C10 H10A 0.9700 . ?
C10 H10B 0.9700 . ?
C11 C12 1.322(12) . ?
C12 C13 1.321(13) . ?
C12 C15 1.474(12) . ?
C14 C15 1.357(12) . ?
C15 C16 1.442(14) . ?
C19 C20 1.534(14) . ?
C20 C21 1.342(11) . ?
C20 C25 1.339(11) . ?
C21 C22 1.341(12) . ?
C21 H21A 0.9300 . ?
C22 C23 1.351(12) . ?
C22 C26 1.573(14) . ?
C23 C24 1.350(12) . ?
C23 C23 1.606(18) 2_655 ?
C24 C25 1.378(11) . ?
C24 C27 1.539(14) 2_655 ?
C25 H25A 0.9300 . ?
C26 C27 1.280(13) . ?
C26 H26A 0.9700 . ?
C26 H26B 0.9700 . ?
C27 C24 1.539(14) 2_655 ?
C27 H27A 0.9700 . ?
C27 H27B 0.9700 . ?
C28 C29 1.501(12) . ?
C29 C34 1.333(11) . ?
C29 C30 1.467(12) . ?
C30 C31 1.392(13) . ?
C30 H30A 0.9300 . ?
C31 C32 1.414(15) . ?
C31 C36 1.502(16) . ?
C32 C33 1.325(13) . ?
C32 C51 1.597(15) 2_655 ?
C33 C34 1.397(13) . ?
C33 C35 1.461(14) . ?
C34 H34A 0.9300 . ?
C35 C54 1.339(13) 2_655 ?
C35 H35A 0.9700 . ?
C35 H35B 0.9700 . ?
C36 C37 1.376(16) . ?
C36 H36A 0.9700 . ?
C36 H36B 0.9700 . ?
C37 C52 1.635(16) 2_655 ?
C37 H37A 0.9700 . ?
C37 H37B 0.9700 . ?
C38 C39 1.524(13) . ?
C39 C40 1.358(12) . ?
C39 C44 1.391(12) . ?
C40 C41 1.469(13) . ?
C40 H40A 0.9300 . ?
C41 C42 1.296(17) . ?
C41 C46 1.407(17) 2_655 ?
C42 C42 1.308(19) 2_655 ?
C42 C43 1.358(15) . ?
C43 C44 1.378(12) . ?
C43 C45 1.506(15) . ?
C44 H44A 0.9300 . ?
C45 C46 1.39(2) . ?
C45 H45A 0.9700 . ?
C45 H45B 0.9700 . ?
C46 C41 1.407(17) 2_655 ?
C46 H46A 0.9700 . ?
C46 H46B 0.9700 . ?
C47 C48 1.517(13) . ?
C48 C49 1.322(11) . ?
C48 C53 1.402(12) . ?
C49 C50 1.380(13) . ?
C49 H49A 0.9300 . ?
C50 C51 1.252(14) . ?
C50 C54 1.515(15) . ?
C51 C52 1.326(14) . ?
C51 C32 1.597(15) 2_655 ?
C52 C53 1.457(14) . ?
C52 C37 1.636(16) 2_655 ?
C53 H53A 0.9300 . ?
C54 C35 1.338(13) 2_655 ?
C54 H54A 0.9700 . ?
C54 H54B 0.9700 . ?
N1 C55 1.3900 . ?
N1 C59 1.3900 . ?
C55 C56 1.3900 . ?
C55 H55A 0.9300 . ?
C56 C57 1.3900 . ?
C56 H56A 0.9300 . ?
C57 C58 1.3900 . ?
C57 H57A 0.9300 . ?
C58 C59 1.3900 . ?
C58 H58A 0.9300 . ?
C59 H59A 0.9300 . ?
N2 C60 1.3900 . ?
N2 C64 1.3900 . ?
C60 C61 1.3900 . ?
C60 H60A 0.9300 . ?
C61 C62 1.3900 . ?
C61 H61A 0.9300 . ?
C62 C63 1.3900 . ?
C62 H62A 0.9300 . ?
C63 C64 1.3900 . ?
C63 H63A 0.9300 . ?
C64 H64A 0.9300 . ?
N3 C65 1.3900 . ?
N3 C69 1.3900 . ?
C65 C66 1.3900 . ?
C65 H65A 0.9300 . ?
C66 C67 1.3900 . ?
C66 H66A 0.9300 . ?
C67 C68 1.3900 . ?
C67 H67A 0.9300 . ?
C68 C69 1.3900 . ?
C68 H68A 0.9300 . ?
C69 H69A 0.9300 . ?
N4 C70 1.3900 . ?
N4 C74 1.3900 . ?
C70 C71 1.3900 . ?
C70 H70A 0.9300 . ?
C71 C72 1.3900 . ?
C71 H71A 0.9300 . ?
C72 C73 1.3900 . ?
C72 H72A 0.9300 . ?
C73 C74 1.3900 . ?
C73 H73A 0.9300 . ?
C74 H74A 0.9300 . ?
N5 C75 1.3900 . ?
N5 C79 1.3900 . ?
C75 C76 1.3900 . ?
C75 H75A 0.9300 . ?
C76 C77 1.3900 . ?
C76 H76A 0.9300 . ?
C77 C78 1.3900 . ?
C77 H77A 0.9300 . ?
C78 C79 1.3900 . ?
C78 H78A 0.9300 . ?
C79 H79A 0.9300 . ?
N6 C80 1.3900 . ?
N6 C84 1.3900 . ?
C80 C81 1.3900 . ?
C80 H80A 0.9300 . ?
C81 C82 1.3900 . ?
C81 H81A 0.9300 . ?
C82 C83 1.3900 . ?
C82 H82A 0.9300 . ?
C83 C84 1.3900 . ?
C83 H83A 0.9300 . ?
C84 H84A 0.9300 . ?

loop_
_geom_angle_atom_site_label_1
_geom_angle_atom_site_label_2
_geom_angle_atom_site_label_3
_geom_angle
_geom_angle_site_symmetry_1
_geom_angle_site_symmetry_3
_geom_angle_publ_flag
O1C Fe1 O10 95.2(2) . . ?
O1C Fe1 O1 97.0(2) . . ?
O10 Fe1 O1 88.3(2) . . ?
O1C Fe1 O26 98.3(2) . . ?
O10 Fe1 O26 91.5(2) . . ?
O1 Fe1 O26 164.7(2) . . ?
O1C Fe1 O29 92.5(2) . . ?
O10 Fe1 O29 172.3(2) . . ?
O1 Fe1 O29 91.7(2) . . ?
O26 Fe1 O29 86.4(2) . . ?
O1C Fe1 N1 177.7(2) . . ?
O10 Fe1 N1 86.2(3) . . ?
O1 Fe1 N1 84.9(3) . . ?
O26 Fe1 N1 79.7(3) . . ?
O29 Fe1 N1 86.1(3) . . ?
O1C Fe2 O31 97.2(3) . . ?
O1C Fe2 O2 98.0(2) . . ?
O31 Fe2 O2 164.5(3) . . ?
O1C Fe2 O5 94.2(2) . . ?
O31 Fe2 O5 94.1(3) . . ?
O2 Fe2 O5 87.7(2) . . ?
O1C Fe2 O30 96.6(3) . . ?
O31 Fe2 O30 83.2(3) . . ?
O2 Fe2 O30 92.2(3) . . ?
O5 Fe2 O30 169.2(3) . . ?
O1C Fe2 N2 177.1(3) . . ?
O31 Fe2 N2 80.6(3) . . ?
O2 Fe2 N2 84.2(3) . . ?
O5 Fe2 N2 84.1(3) . . ?
O30 Fe2 N2 85.1(3) . . ?
O1C Fe3 O6 97.7(2) . . ?
O1C Fe3 O9 95.0(2) . . ?
O6 Fe3 O9 90.1(3) . . ?
O1C Fe3 O25 97.4(2) . . ?
O6 Fe3 O25 164.4(3) . . ?
O9 Fe3 O25 92.3(3) . . ?
O1C Fe3 O32 93.5(2) . . ?
O6 Fe3 O32 89.3(3) . . ?
O9 Fe3 O32 171.5(2) . . ?
O25 Fe3 O32 86.1(3) . . ?
O1C Fe3 N3 178.2(2) . . ?
O6 Fe3 N3 84.0(3) . . ?
O9 Fe3 N3 85.5(3) . . ?
O25 Fe3 N3 80.9(3) . . ?
O32 Fe3 N3 86.0(3) . . ?
O2C Fe4 O13 97.9(2) . . ?
O2C Fe4 O22 95.8(2) . . ?
O13 Fe4 O22 88.0(2) . . ?
O2C Fe4 O33 96.5(2) . . ?
O13 Fe4 O33 90.7(2) . . ?
O22 Fe4 O33 167.8(2) . . ?
O2C Fe4 O28 95.2(2) . . ?
O13 Fe4 O28 166.7(2) . . ?
O22 Fe4 O28 92.5(2) . . ?
O33 Fe4 O28 86.0(2) . . ?
O2C Fe4 N4 179.8(3) . . ?
O13 Fe4 N4 82.2(3) . . ?
O22 Fe4 N4 84.1(3) . . ?
O33 Fe4 N4 83.7(3) . . ?
O28 Fe4 N4 84.6(3) . . ?
O2C Fe5 O18 97.8(2) . . ?
O2C Fe5 O21 95.7(2) . . ?
O18 Fe5 O21 86.3(2) . . ?
O2C Fe5 O36 97.5(2) . . ?
O18 Fe5 O36 92.5(2) . . ?
O21 Fe5 O36 166.7(3) . . ?
O2C Fe5 O27 94.5(2) . . ?
O18 Fe5 O27 167.6(2) . . ?
O21 Fe5 O27 92.1(2) . . ?
O36 Fe5 O27 86.2(3) . . ?
O2C Fe5 N5 178.6(2) . . ?
O18 Fe5 N5 83.5(3) . . ?
O21 Fe5 N5 84.6(3) . . ?
O36 Fe5 N5 82.1(3) . . ?
O27 Fe5 N5 84.1(3) . . ?
O2C Fe6 O14 97.6(2) . . ?
O2C Fe6 O34 93.8(2) . . ?
O14 Fe6 O34 91.7(3) . . ?
O2C Fe6 O17 97.9(2) . . ?
O14 Fe6 O17 88.9(2) . . ?
O34 Fe6 O17 168.1(3) . . ?
O2C Fe6 O35 94.1(2) . . ?
O14 Fe6 O35 168.1(2) . . ?
O34 Fe6 O35 85.4(2) . . ?
O17 Fe6 O35 91.6(2) . . ?
O2C Fe6 N6 176.5(3) . . ?
O14 Fe6 N6 82.8(3) . . ?
O34 Fe6 N6 82.8(3) . . ?
O17 Fe6 N6 85.5(3) . . ?
O35 Fe6 N6 85.4(3) . . ?
Fe3 O1C Fe2 119.8(2) . . ?
Fe3 O1C Fe1 119.3(2) . . ?
Fe2 O1C Fe1 120.5(2) . . ?
Fe4 O2C Fe5 121.3(3) . . ?
Fe4 O2C Fe6 119.6(2) . . ?
Fe5 O2C Fe6 118.9(2) . . ?
O4 S1 O3 114.3(4) . . ?
O4 S1 O1 106.3(3) . . ?
O3 S1 O1 112.0(4) . . ?
O4 S1 O2 105.9(3) . . ?
O3 S1 O2 111.1(4) . . ?
O1 S1 O2 106.7(3) . . ?
O7 S2 O8 108.2(6) . . ?
O7 S2 O6 113.2(5) . . ?
O8 S2 O6 106.0(4) . . ?
O7 S2 O5 111.7(4) . . ?
O8 S2 O5 109.2(4) . . ?
O6 S2 O5 108.3(3) . . ?
O11 S3 O12 112.3(4) . . ?
O11 S3 O10 109.7(4) . . ?
O12 S3 O10 110.3(4) . . ?
O11 S3 O9 109.1(4) . . ?
O12 S3 O9 106.9(4) . . ?
O10 S3 O9 108.4(3) . . ?
O16 S4 O15 112.1(5) . . ?
O16 S4 O14 109.3(5) . . ?
O15 S4 O14 109.0(4) . . ?
O16 S4 O13 108.5(4) . . ?
O15 S4 O13 110.3(5) . . ?
O14 S4 O13 107.5(4) . . ?
O20 S5 O19 112.7(5) . . ?
O20 S5 O17 108.8(5) . . ?
O19 S5 O17 111.7(4) . . ?
O20 S5 O18 106.7(4) . . ?
O19 S5 O18 107.9(4) . . ?
O17 S5 O18 108.8(4) . . ?
O23 S6 O24 116.2(4) . . ?
O23 S6 O21 109.2(4) . . ?
O24 S6 O21 109.1(4) . . ?
O23 S6 O22 110.2(4) . . ?
O24 S6 O22 104.8(4) . . ?
O21 S6 O22 106.9(3) . . ?
S1 O1 Fe1 131.0(3) . . ?
S1 O2 Fe2 132.6(3) . . ?
S2 O5 Fe2 135.5(3) . . ?
S2 O6 Fe3 140.6(4) . . ?
S3 O9 Fe3 133.9(3) . . ?
S3 O10 Fe1 135.9(3) . . ?
S4 O13 Fe4 135.2(4) . . ?
S4 O14 Fe6 133.2(3) . . ?
S5 O17 Fe6 133.0(4) . . ?
S5 O18 Fe5 133.6(3) . . ?
S6 O21 Fe5 134.4(3) . . ?
S6 O22 Fe4 133.8(3) . . ?
C17 O25 Fe3 135.6(8) . . ?
C17 O26 Fe1 130.1(7) . . ?
C18 O27 Fe5 136.2(7) . . ?
C18 O28 Fe4 134.3(6) . . ?
C19 O29 Fe1 132.0(7) . . ?
C19 O30 Fe2 133.8(10) . . ?
C28 O31 Fe2 135.2(9) . . ?
C28 O32 Fe3 128.7(6) . . ?
C38 O33 Fe4 130.7(6) . . ?
C38 O34 Fe6 136.0(7) . . ?
C47 O35 Fe6 134.2(7) . . ?
C47 O36 Fe5 132.9(8) . . ?
C2 C1 C11 118.0(10) . . ?
C2 C1 H1A 121.0 . . ?
C11 C1 H1A 121.0 . . ?
C3 C2 C1 119.7(11) . . ?
C3 C2 C17 122.6(12) . . ?
C1 C2 C17 117.4(12) . . ?
C2 C3 C13 120.1(12) . . ?
C2 C3 H3A 119.9 . . ?
C13 C3 H3A 119.9 . . ?
C5 C4 C13 119.6(14) . . ?
C5 C4 H4A 107.4 . . ?
C13 C4 H4A 107.4 . . ?
C5 C4 H4B 107.4 . . ?
C13 C4 H4B 107.4 . . ?
H4A C4 H4B 107.0 . . ?
C4 C5 C14 122.2(12) . . ?
C4 C5 H5A 106.8 . . ?
C14 C5 H5A 106.8 . . ?
C4 C5 H5B 106.8 . . ?
C14 C5 H5B 106.8 . . ?
H5A C5 H5B 106.6 . . ?
C7 C6 C14 117.8(11) . . ?
C7 C6 H6A 121.1 . . ?
C14 C6 H6A 121.1 . . ?
C6 C7 C8 125.7(9) . . ?
C6 C7 C18 119.3(10) . . ?
C8 C7 C18 115.1(10) . . ?
C16 C8 C7 111.6(11) . . ?
C16 C8 H8A 124.2 . . ?
C7 C8 H8A 124.2 . . ?
C10 C9 C16 113.1(17) . . ?
C10 C9 H9A 109.0 . . ?
C16 C9 H9A 109.0 . . ?
C10 C9 H9B 109.0 . . ?
C16 C9 H9B 109.0 . . ?
H9A C9 H9B 107.8 . . ?
C9 C10 C11 112.2(18) . . ?
C9 C10 H10A 109.2 . . ?
C11 C10 H10A 109.2 . . ?
C9 C10 H10B 109.2 . . ?
C11 C10 H10B 109.2 . . ?
H10A C10 H10B 107.9 . . ?
C12 C11 C1 122.7(12) . . ?
C12 C11 C10 112.2(11) . . ?
C1 C11 C10 123.0(13) . . ?
C13 C12 C11 115.7(12) . . ?
C13 C12 C15 121.8(12) . . ?
C11 C12 C15 122.0(12) . . ?
C12 C13 C3 121.9(13) . . ?
C12 C13 C4 117.4(12) . . ?
C3 C13 C4 117.8(14) . . ?
C15 C14 C6 121.4(12) . . ?
C15 C14 C5 115.4(12) . . ?
C6 C14 C5 123.1(12) . . ?
C14 C15 C16 115.5(11) . . ?
C14 C15 C12 120.4(13) . . ?
C16 C15 C12 124.1(13) . . ?
C8 C16 C15 126.7(11) . . ?
C8 C16 C9 118.4(13) . . ?
C15 C16 C9 114.2(13) . . ?
O25 C17 O26 124.4(11) . . ?
O25 C17 C2 116.0(11) . . ?
O26 C17 C2 119.0(11) . . ?
O27 C18 O28 121.9(9) . . ?
O27 C18 C7 120.7(10) . . ?
O28 C18 C7 117.3(10) . . ?
O30 C19 O29 125.0(12) . . ?
O30 C19 C20 131.3(12) . . ?
O29 C19 C20 103.4(11) . . ?
C21 C20 C25 121.1(11) . . ?
C21 C20 C19 128.4(12) . . ?
C25 C20 C19 110.6(12) . . ?
C22 C21 C20 120.0(12) . . ?
C22 C21 H21A 120.0 . . ?
C20 C21 H21A 120.0 . . ?
C21 C22 C23 120.2(11) . . ?
C21 C22 C26 121.9(13) . . ?
C23 C22 C26 117.5(12) . . ?
C22 C23 C24 120.2(10) . . ?
C22 C23 C23 117.7(15) . 2_655 ?
C24 C23 C23 121.9(14) . 2_655 ?
C23 C24 C25 119.2(10) . . ?
C23 C24 C27 117.4(11) . 2_655 ?
C25 C24 C27 122.9(11) . 2_655 ?
C20 C25 C24 119.2(10) . . ?
C20 C25 H25A 120.4 . . ?
C24 C25 H25A 120.4 . . ?
C27 C26 C22 123.2(12) . . ?
C27 C26 H26A 106.5 . . ?
C22 C26 H26A 106.5 . . ?
C27 C26 H26B 106.5 . . ?
C22 C26 H26B 106.5 . . ?
H26A C26 H26B 106.5 . . ?
C26 C27 C24 121.3(13) . 2_655 ?
C26 C27 H27A 107.0 . . ?
C24 C27 H27A 107.0 2_655 . ?
C26 C27 H27B 107.0 . . ?
C24 C27 H27B 107.0 2_655 . ?
H27A C27 H27B 106.7 . . ?
O31 C28 O32 126.8(10) . . ?
O31 C28 C29 125.2(12) . . ?
O32 C28 C29 107.6(11) . . ?
C34 C29 C30 119.1(10) . . ?
C34 C29 C28 117.0(11) . . ?
C30 C29 C28 123.9(11) . . ?
C31 C30 C29 115.3(11) . . ?
C31 C30 H30A 122.4 . . ?
C29 C30 H30A 122.4 . . ?
C30 C31 C32 122.2(12) . . ?
C30 C31 C36 107.8(16) . . ?
C32 C31 C36 130.0(14) . . ?
C33 C32 C31 120.8(13) . . ?
C33 C32 C51 121.9(13) . 2_655 ?
C31 C32 C51 117.1(15) . 2_655 ?
C32 C33 C34 118.3(13) . . ?
C32 C33 C35 113.4(13) . . ?
C34 C33 C35 128.3(12) . . ?
C29 C34 C33 124.3(12) . . ?
C29 C34 H34A 117.9 . . ?
C33 C34 H34A 117.9 . . ?
C54 C35 C33 121.8(14) 2_655 . ?
C54 C35 H35A 106.9 2_655 . ?
C33 C35 H35A 106.9 . . ?
C54 C35 H35B 106.9 2_655 . ?
C33 C35 H35B 106.9 . . ?
H35A C35 H35B 106.7 . . ?
C37 C36 C31 109.0(13) . . ?
C37 C36 H36A 109.9 . . ?
C31 C36 H36A 109.9 . . ?
C37 C36 H36B 109.9 . . ?
C31 C36 H36B 109.9 . . ?
H36A C36 H36B 108.3 . . ?
C36 C37 C52 123.3(13) . 2_655 ?
C36 C37 H37A 106.5 . . ?
C52 C37 H37A 106.5 2_655 . ?
C36 C37 H37B 106.5 . . ?
C52 C37 H37B 106.5 2_655 . ?
H37A C37 H37B 106.5 . . ?
O34 C38 O33 125.0(10) . . ?
O34 C38 C39 121.5(11) . . ?
O33 C38 C39 113.3(10) . . ?
C40 C39 C44 116.2(11) . . ?
C40 C39 C38 116.6(12) . . ?
C44 C39 C38 127.2(11) . . ?
C39 C40 C41 120.2(12) . . ?
C39 C40 H40A 119.9 . . ?
C41 C40 H40A 119.9 . . ?
C42 C41 C46 119.5(14) . 2_655 ?
C42 C41 C40 122.7(14) . . ?
C46 C41 C40 117.1(17) 2_655 . ?
C41 C42 C42 118.0(17) . 2_655 ?
C41 C42 C43 115.5(12) . . ?
C42 C42 C43 126.4(16) 2_655 . ?
C42 C43 C44 125.2(13) . . ?
C42 C43 C45 112.9(12) . . ?
C44 C43 C45 119.8(14) . . ?
C43 C44 C39 119.8(11) . . ?
C43 C44 H44A 120.1 . . ?
C39 C44 H44A 120.1 . . ?
C46 C45 C43 107.3(16) . . ?
C46 C45 H45A 110.3 . . ?
C43 C45 H45A 110.3 . . ?
C46 C45 H45B 110.3 . . ?
C43 C45 H45B 110.3 . . ?
H45A C45 H45B 108.5 . . ?
C45 C46 C41 119.0(17) . 2_655 ?
C45 C46 H46A 107.6 . . ?
C41 C46 H46A 107.6 2_655 . ?
C45 C46 H46B 107.6 . . ?
C41 C46 H46B 107.6 2_655 . ?
H46A C46 H46B 107.0 . . ?
O36 C47 O35 124.1(11) . . ?
O36 C47 C48 119.8(11) . . ?
O35 C47 C48 116.0(11) . . ?
C49 C48 C53 121.5(10) . . ?
C49 C48 C47 123.2(12) . . ?
C53 C48 C47 115.3(12) . . ?
C48 C49 C50 122.5(12) . . ?
C48 C49 H49A 118.8 . . ?
C50 C49 H49A 118.8 . . ?
C51 C50 C49 117.7(15) . . ?
C51 C50 C54 116.5(13) . . ?
C49 C50 C54 124.9(12) . . ?
C50 C51 C52 125.0(14) . . ?
C50 C51 C32 119.6(13) . 2_655 ?
C52 C51 C32 115.3(16) . 2_655 ?
C51 C52 C53 120.6(11) . . ?
C51 C52 C37 122.2(15) . 2_655 ?
C53 C52 C37 116.8(15) . 2_655 ?
C48 C53 C52 112.4(11) . . ?
C48 C53 H53A 123.8 . . ?
C52 C53 H53A 123.8 . . ?
C35 C54 C50 117.0(13) 2_655 . ?
C35 C54 H54A 108.0 2_655 . ?
C50 C54 H54A 108.0 . . ?
C35 C54 H54B 108.0 2_655 . ?
C50 C54 H54B 108.0 . . ?
H54A C54 H54B 107.3 . . ?
C55 N1 C59 120.0 . . ?
C55 N1 Fe1 116.7(7) . . ?
C59 N1 Fe1 123.3(7) . . ?
N1 C55 C56 120.0 . . ?
N1 C55 H55A 120.0 . . ?
C56 C55 H55A 120.0 . . ?
C57 C56 C55 120.0 . . ?
C57 C56 H56A 120.0 . . ?
C55 C56 H56A 120.0 . . ?
C56 C57 C58 120.0 . . ?
C56 C57 H57A 120.0 . . ?
C58 C57 H57A 120.0 . . ?
C57 C58 C59 120.0 . . ?
C57 C58 H58A 120.0 . . ?
C59 C58 H58A 120.0 . . ?
C58 C59 N1 120.0 . . ?
C58 C59 H59A 120.0 . . ?
N1 C59 H59A 120.0 . . ?
C60 N2 C64 120.0 . . ?
C60 N2 Fe2 118.0(6) . . ?
C64 N2 Fe2 121.3(6) . . ?
C61 C60 N2 120.0 . . ?
C61 C60 H60A 120.0 . . ?
N2 C60 H60A 120.0 . . ?
C60 C61 C62 120.0 . . ?
C60 C61 H61A 120.0 . . ?
C62 C61 H61A 120.0 . . ?
C61 C62 C63 120.0 . . ?
C61 C62 H62A 120.0 . . ?
C63 C62 H62A 120.0 . . ?
C64 C63 C62 120.0 . . ?
C64 C63 H63A 120.0 . . ?
C62 C63 H63A 120.0 . . ?
C63 C64 N2 120.0 . . ?
C63 C64 H64A 120.0 . . ?
N2 C64 H64A 120.0 . . ?
C65 N3 C69 120.0 . . ?
C65 N3 Fe3 121.1(7) . . ?
C69 N3 Fe3 118.9(7) . . ?
C66 C65 N3 120.0 . . ?
C66 C65 H65A 120.0 . . ?
N3 C65 H65A 120.0 . . ?
C67 C66 C65 120.0 . . ?
C67 C66 H66A 120.0 . . ?
C65 C66 H66A 120.0 . . ?
C66 C67 C68 120.0 . . ?
C66 C67 H67A 120.0 . . ?
C68 C67 H67A 120.0 . . ?
C69 C68 C67 120.0 . . ?
C69 C68 H68A 120.0 . . ?
C67 C68 H68A 120.0 . . ?
C68 C69 N3 120.0 . . ?
C68 C69 H69A 120.0 . . ?
N3 C69 H69A 120.0 . . ?
C70 N4 C74 120.0 . . ?
C70 N4 Fe4 119.1(7) . . ?
C74 N4 Fe4 120.7(7) . . ?
N4 C70 C71 120.0 . . ?
N4 C70 H70A 120.0 . . ?
C71 C70 H70A 120.0 . . ?
C72 C71 C70 120.0 . . ?
C72 C71 H71A 120.0 . . ?
C70 C71 H71A 120.0 . . ?
C71 C72 C73 120.0 . . ?
C71 C72 H72A 120.0 . . ?
C73 C72 H72A 120.0 . . ?
C72 C73 C74 120.0 . . ?
C72 C73 H73A 120.0 . . ?
C74 C73 H73A 120.0 . . ?
C73 C74 N4 120.0 . . ?
C73 C74 H74A 120.0 . . ?
N4 C74 H74A 120.0 . . ?
C75 N5 C79 120.0 . . ?
C75 N5 Fe5 119.4(8) . . ?
C79 N5 Fe5 120.6(8) . . ?
C76 C75 N5 120.0 . . ?
C76 C75 H75A 120.0 . . ?
N5 C75 H75A 120.0 . . ?
C75 C76 C77 120.0 . . ?
C75 C76 H76A 120.0 . . ?
C77 C76 H76A 120.0 . . ?
C78 C77 C76 120.0 . . ?
C78 C77 H77A 120.0 . . ?
C76 C77 H77A 120.0 . . ?
C77 C78 C79 120.0 . . ?
C77 C78 H78A 120.0 . . ?
C79 C78 H78A 120.0 . . ?
C78 C79 N5 120.0 . . ?
C78 C79 H79A 120.0 . . ?
N5 C79 H79A 120.0 . . ?
C80 N6 C84 120.0 . . ?
C80 N6 Fe6 121.3(7) . . ?
C84 N6 Fe6 118.7(7) . . ?
N6 C80 C81 120.0 . . ?
N6 C80 H80A 120.0 . . ?
C81 C80 H80A 120.0 . . ?
C82 C81 C80 120.0 . . ?
C82 C81 H81A 120.0 . . ?
C80 C81 H81A 120.0 . . ?
C81 C82 C83 120.0 . . ?
C81 C82 H82A 120.0 . . ?
C83 C82 H82A 120.0 . . ?
C84 C83 C82 120.0 . . ?
C84 C83 H83A 120.0 . . ?
C82 C83 H83A 120.0 . . ?
C83 C84 N6 120.0 . . ?
C83 C84 H84A 120.0 . . ?
N6 C84 H84A 120.0 . . ?

loop_
_geom_torsion_atom_site_label_1
_geom_torsion_atom_site_label_2
_geom_torsion_atom_site_label_3
_geom_torsion_atom_site_label_4
_geom_torsion
_geom_torsion_site_symmetry_1
_geom_torsion_site_symmetry_2
_geom_torsion_site_symmetry_3
_geom_torsion_site_symmetry_4
_geom_torsion_publ_flag
O6 Fe3 O1C Fe2 42.9(3) . . . . ?
O9 Fe3 O1C Fe2 133.7(3) . . . . ?
O25 Fe3 O1C Fe2 -133.3(3) . . . . ?
O32 Fe3 O1C Fe2 -46.9(3) . . . . ?
O6 Fe3 O1C Fe1 -144.0(3) . . . . ?
O9 Fe3 O1C Fe1 -53.3(3) . . . . ?
O25 Fe3 O1C Fe1 39.7(3) . . . . ?
O32 Fe3 O1C Fe1 126.2(3) . . . . ?
O31 Fe2 O1C Fe3 41.0(3) . . . . ?
O2 Fe2 O1C Fe3 -142.0(3) . . . . ?
O5 Fe2 O1C Fe3 -53.7(3) . . . . ?
O30 Fe2 O1C Fe3 124.9(3) . . . . ?
O31 Fe2 O1C Fe1 -132.0(3) . . . . ?
O2 Fe2 O1C Fe1 45.1(3) . . . . ?
O5 Fe2 O1C Fe1 133.3(3) . . . . ?
O30 Fe2 O1C Fe1 -48.1(3) . . . . ?
O10 Fe1 O1C Fe3 51.5(3) . . . . ?
O1 Fe1 O1C Fe3 140.4(3) . . . . ?
O26 Fe1 O1C Fe3 -40.8(3) . . . . ?
O29 Fe1 O1C Fe3 -127.6(3) . . . . ?
O10 Fe1 O1C Fe2 -135.5(3) . . . . ?
O1 Fe1 O1C Fe2 -46.6(3) . . . . ?
O26 Fe1 O1C Fe2 132.2(3) . . . . ?
O29 Fe1 O1C Fe2 45.4(3) . . . . ?
O13 Fe4 O2C Fe5 138.2(3) . . . . ?
O22 Fe4 O2C Fe5 49.5(3) . . . . ?
O33 Fe4 O2C Fe5 -130.2(3) . . . . ?
O28 Fe4 O2C Fe5 -43.6(3) . . . . ?
O13 Fe4 O2C Fe6 -46.4(3) . . . . ?
O22 Fe4 O2C Fe6 -135.1(3) . . . . ?
O33 Fe4 O2C Fe6 45.2(3) . . . . ?
O28 Fe4 O2C Fe6 131.8(3) . . . . ?
O18 Fe5 O2C Fe4 -136.0(3) . . . . ?
O21 Fe5 O2C Fe4 -48.9(3) . . . . ?
O36 Fe5 O2C Fe4 130.5(3) . . . . ?
O27 Fe5 O2C Fe4 43.7(3) . . . . ?
O18 Fe5 O2C Fe6 48.6(3) . . . . ?
O21 Fe5 O2C Fe6 135.7(3) . . . . ?
O36 Fe5 O2C Fe6 -45.0(3) . . . . ?
O27 Fe5 O2C Fe6 -131.7(3) . . . . ?
O14 Fe6 O2C Fe4 47.6(3) . . . . ?
O34 Fe6 O2C Fe4 -44.7(3) . . . . ?
O17 Fe6 O2C Fe4 137.5(3) . . . . ?
O35 Fe6 O2C Fe4 -130.3(3) . . . . ?
O14 Fe6 O2C Fe5 -136.9(3) . . . . ?
O34 Fe6 O2C Fe5 130.9(3) . . . . ?
O17 Fe6 O2C Fe5 -47.0(3) . . . . ?
O35 Fe6 O2C Fe5 45.2(3) . . . . ?
O4 S1 O1 Fe1 -160.6(4) . . . . ?
O3 S1 O1 Fe1 73.8(5) . . . . ?
O2 S1 O1 Fe1 -47.9(5) . . . . ?
O1C Fe1 O1 S1 50.1(4) . . . . ?
O10 Fe1 O1 S1 145.1(4) . . . . ?
O26 Fe1 O1 S1 -125.3(8) . . . . ?
O29 Fe1 O1 S1 -42.6(4) . . . . ?
N1 Fe1 O1 S1 -128.6(5) . . . . ?
O4 S1 O2 Fe2 158.3(4) . . . . ?
O3 S1 O2 Fe2 -77.0(5) . . . . ?
O1 S1 O2 Fe2 45.3(5) . . . . ?
O1C Fe2 O2 S1 -45.7(5) . . . . ?
O31 Fe2 O2 S1 123.4(10) . . . . ?
O5 Fe2 O2 S1 -139.6(5) . . . . ?
O30 Fe2 O2 S1 51.3(5) . . . . ?
N2 Fe2 O2 S1 136.1(5) . . . . ?
O7 S2 O5 Fe2 107.6(6) . . . . ?
O8 S2 O5 Fe2 -132.7(5) . . . . ?
O6 S2 O5 Fe2 -17.7(6) . . . . ?
O1C Fe2 O5 S2 44.3(5) . . . . ?
O31 Fe2 O5 S2 -53.3(5) . . . . ?
O2 Fe2 O5 S2 142.1(5) . . . . ?
O30 Fe2 O5 S2 -128.3(15) . . . . ?
N2 Fe2 O5 S2 -133.5(5) . . . . ?
O7 S2 O6 Fe3 -129.7(7) . . . . ?
O8 S2 O6 Fe3 111.7(7) . . . . ?
O5 S2 O6 Fe3 -5.3(8) . . . . ?
O1C Fe3 O6 S2 -7.7(7) . . . . ?
O9 Fe3 O6 S2 -102.8(7) . . . . ?
O25 Fe3 O6 S2 158.3(8) . . . . ?
O32 Fe3 O6 S2 85.7(7) . . . . ?
N3 Fe3 O6 S2 171.7(7) . . . . ?
O11 S3 O9 Fe3 83.9(6) . . . . ?
O12 S3 O9 Fe3 -154.4(4) . . . . ?
O10 S3 O9 Fe3 -35.5(6) . . . . ?
O1C Fe3 O9 S3 46.6(5) . . . . ?
O6 Fe3 O9 S3 144.3(5) . . . . ?
O25 Fe3 O9 S3 -51.1(5) . . . . ?
N3 Fe3 O9 S3 -131.7(5) . . . . ?
O11 S3 O10 Fe1 -86.1(6) . . . . ?
O12 S3 O10 Fe1 149.6(5) . . . . ?
O9 S3 O10 Fe1 32.9(6) . . . . ?
O1C Fe1 O10 S3 -41.5(5) . . . . ?
O1 Fe1 O10 S3 -138.4(5) . . . . ?
O26 Fe1 O10 S3 57.0(5) . . . . ?
N1 Fe1 O10 S3 136.6(5) . . . . ?
O16 S4 O13 Fe4 -154.1(5) . . . . ?
O15 S4 O13 Fe4 82.8(6) . . . . ?
O14 S4 O13 Fe4 -36.0(7) . . . . ?
O2C Fe4 O13 S4 41.8(6) . . . . ?
O22 Fe4 O13 S4 137.4(5) . . . . ?
O33 Fe4 O13 S4 -54.8(5) . . . . ?
O28 Fe4 O13 S4 -130.3(9) . . . . ?
N4 Fe4 O13 S4 -138.3(6) . . . . ?
O16 S4 O14 Fe6 155.0(5) . . . . ?
O15 S4 O14 Fe6 -82.2(6) . . . . ?
O13 S4 O14 Fe6 37.4(6) . . . . ?
O2C Fe6 O14 S4 -45.0(5) . . . . ?
O34 Fe6 O14 S4 49.1(5) . . . . ?
O17 Fe6 O14 S4 -142.8(5) . . . . ?
O35 Fe6 O14 S4 124.5(11) . . . . ?
N6 Fe6 O14 S4 131.6(6) . . . . ?
O20 S5 O17 Fe6 -151.2(5) . . . . ?
O19 S5 O17 Fe6 83.8(6) . . . . ?
O18 S5 O17 Fe6 -35.3(6) . . . . ?
O2C Fe6 O17 S5 41.3(5) . . . . ?
O14 Fe6 O17 S5 138.8(5) . . . . ?
O34 Fe6 O17 S5 -128.3(12) . . . . ?
O35 Fe6 O17 S5 -53.1(5) . . . . ?
N6 Fe6 O17 S5 -138.3(5) . . . . ?
O20 S5 O18 Fe5 155.9(5) . . . . ?
O19 S5 O18 Fe5 -82.8(6) . . . . ?
O17 S5 O18 Fe5 38.6(6) . . . . ?
O2C Fe5 O18 S5 -46.1(5) . . . . ?
O21 Fe5 O18 S5 -141.4(5) . . . . ?
O36 Fe5 O18 S5 51.8(5) . . . . ?
O27 Fe5 O18 S5 135.5(10) . . . . ?
N5 Fe5 O18 S5 133.6(6) . . . . ?
O23 S6 O21 Fe5 79.7(6) . . . . ?
O24 S6 O21 Fe5 -152.4(5) . . . . ?
O22 S6 O21 Fe5 -39.6(6) . . . . ?
O2C Fe5 O21 S6 44.9(5) . . . . ?
O18 Fe5 O21 S6 142.4(5) . . . . ?
O36 Fe5 O21 S6 -132.5(10) . . . . ?
O27 Fe5 O21 S6 -49.9(5) . . . . ?
N5 Fe5 O21 S6 -133.8(5) . . . . ?
O23 S6 O22 Fe4 -78.2(6) . . . . ?
O24 S6 O22 Fe4 156.1(5) . . . . ?
O21 S6 O22 Fe4 40.3(6) . . . . ?
O2C Fe4 O22 S6 -46.2(5) . . . . ?
O13 Fe4 O22 S6 -144.0(5) . . . . ?
O33 Fe4 O22 S6 132.1(10) . . . . ?
O28 Fe4 O22 S6 49.3(5) . . . . ?
N4 Fe4 O22 S6 133.6(5) . . . . ?
O1C Fe3 O25 C17 -23.1(11) . . . . ?
O6 Fe3 O25 C17 170.8(10) . . . . ?
O9 Fe3 O25 C17 72.2(11) . . . . ?
O32 Fe3 O25 C17 -116.1(11) . . . . ?
N3 Fe3 O25 C17 157.3(11) . . . . ?
O1C Fe1 O26 C17 24.6(9) . . . . ?
O10 Fe1 O26 C17 -70.8(9) . . . . ?
O1 Fe1 O26 C17 -159.9(9) . . . . ?
O29 Fe1 O26 C17 116.7(9) . . . . ?
N1 Fe1 O26 C17 -156.6(10) . . . . ?
O2C Fe5 O27 C18 -19.6(9) . . . . ?
O18 Fe5 O27 C18 158.8(10) . . . . ?
O21 Fe5 O27 C18 76.4(9) . . . . ?
O36 Fe5 O27 C18 -116.8(10) . . . . ?
N5 Fe5 O27 C18 160.7(10) . . . . ?
O2C Fe4 O28 C18 18.7(8) . . . . ?
O13 Fe4 O28 C18 -169.1(10) . . . . ?
O22 Fe4 O28 C18 -77.3(8) . . . . ?
O33 Fe4 O28 C18 114.8(9) . . . . ?
N4 Fe4 O28 C18 -161.2(9) . . . . ?
O1C Fe1 O29 C19 -23.7(7) . . . . ?
O1 Fe1 O29 C19 73.4(7) . . . . ?
O26 Fe1 O29 C19 -121.8(7) . . . . ?
N1 Fe1 O29 C19 158.2(8) . . . . ?
O1C Fe2 O30 C19 28.4(14) . . . . ?
O31 Fe2 O30 C19 124.9(14) . . . . ?
O2 Fe2 O30 C19 -70.0(13) . . . . ?
O5 Fe2 O30 C19 -159.1(11) . . . . ?
N2 Fe2 O30 C19 -154.0(14) . . . . ?
O1C Fe2 O31 C28 -13.6(13) . . . . ?
O2 Fe2 O31 C28 177.3(10) . . . . ?
O5 Fe2 O31 C28 81.1(13) . . . . ?
O30 Fe2 O31 C28 -109.4(13) . . . . ?
N2 Fe2 O31 C28 164.4(14) . . . . ?
O1C Fe3 O32 C28 34.6(8) . . . . ?
O6 Fe3 O32 C28 -63.1(8) . . . . ?
O25 Fe3 O32 C28 131.8(8) . . . . ?
N3 Fe3 O32 C28 -147.1(8) . . . . ?
O2C Fe4 O33 C38 -25.1(8) . . . . ?
O13 Fe4 O33 C38 73.0(8) . . . . ?
O22 Fe4 O33 C38 156.5(10) . . . . ?
O28 Fe4 O33 C38 -119.9(8) . . . . ?
N4 Fe4 O33 C38 155.1(8) . . . . ?
O2C Fe6 O34 C38 27.1(10) . . . . ?
O14 Fe6 O34 C38 -70.7(10) . . . . ?
O17 Fe6 O34 C38 -163.3(11) . . . . ?
O35 Fe6 O34 C38 120.9(10) . . . . ?
N6 Fe6 O34 C38 -153.2(10) . . . . ?
O2C Fe6 O35 C47 -24.0(9) . . . . ?
O14 Fe6 O35 C47 166.4(11) . . . . ?
O34 Fe6 O35 C47 -117.5(9) . . . . ?
O17 Fe6 O35 C47 74.1(9) . . . . ?
N6 Fe6 O35 C47 159.4(9) . . . . ?
O2C Fe5 O36 C47 19.1(11) . . . . ?
O18 Fe5 O36 C47 -79.1(10) . . . . ?
O21 Fe5 O36 C47 -163.6(10) . . . . ?
O27 Fe5 O36 C47 113.2(11) . . . . ?
N5 Fe5 O36 C47 -162.3(11) . . . . ?
C11 C1 C2 C3 -8(2) . . . . ?
C11 C1 C2 C17 179.0(12) . . . . ?
C1 C2 C3 C13 15(2) . . . . ?
C17 C2 C3 C13 -171.6(15) . . . . ?
C13 C4 C5 C14 -12(4) . . . . ?
C14 C6 C7 C8 -6(2) . . . . ?
C14 C6 C7 C18 176.3(11) . . . . ?
C6 C7 C8 C16 11(2) . . . . ?
C18 C7 C8 C16 -170.9(13) . . . . ?
C16 C9 C10 C11 52(3) . . . . ?
C2 C1 C11 C12 0(2) . . . . ?
C2 C1 C11 C10 162.3(18) . . . . ?
C9 C10 C11 C12 -51(3) . . . . ?
C9 C10 C11 C1 145.7(18) . . . . ?
C1 C11 C12 C13 -1(2) . . . . ?
C10 C11 C12 C13 -164.7(19) . . . . ?
C1 C11 C12 C15 -173.6(13) . . . . ?
C10 C11 C12 C15 23(2) . . . . ?
C11 C12 C13 C3 9(3) . . . . ?
C15 C12 C13 C3 -178.7(15) . . . . ?
C11 C12 C13 C4 168.6(19) . . . . ?
C15 C12 C13 C4 -19(3) . . . . ?
C2 C3 C13 C12 -17(3) . . . . ?
C2 C3 C13 C4 -176.4(18) . . . . ?
C5 C4 C13 C12 21(4) . . . . ?
C5 C4 C13 C3 -178(2) . . . . ?
C7 C6 C14 C15 2(2) . . . . ?
C7 C6 C14 C5 178.0(14) . . . . ?
C4 C5 C14 C15 1(3) . . . . ?
C4 C5 C14 C6 -175(2) . . . . ?
C6 C14 C15 C16 -4(2) . . . . ?
C5 C14 C15 C16 179.8(14) . . . . ?
C6 C14 C15 C12 178.5(13) . . . . ?
C5 C14 C15 C12 2(2) . . . . ?
C13 C12 C15 C14 7(2) . . . . ?
C11 C12 C15 C14 179.6(14) . . . . ?
C13 C12 C15 C16 -170.0(17) . . . . ?
C11 C12 C15 C16 2(2) . . . . ?
C7 C8 C16 C15 -14(3) . . . . ?
C7 C8 C16 C9 176.2(16) . . . . ?
C14 C15 C16 C8 11(3) . . . . ?
C12 C15 C16 C8 -171.6(16) . . . . ?
C14 C15 C16 C9 -178.7(16) . . . . ?
C12 C15 C16 C9 -1(2) . . . . ?
C10 C9 C16 C8 144(2) . . . . ?
C10 C9 C16 C15 -27(3) . . . . ?
Fe3 O25 C17 O26 8.1(19) . . . . ?
Fe3 O25 C17 C2 179.7(6) . . . . ?
Fe1 O26 C17 O25 -8.9(17) . . . . ?
Fe1 O26 C17 C2 179.7(6) . . . . ?
C3 C2 C17 O25 13.3(18) . . . . ?
C1 C2 C17 O25 -173.6(12) . . . . ?
C3 C2 C17 O26 -174.6(13) . . . . ?
C1 C2 C17 O26 -1.6(17) . . . . ?
Fe5 O27 C18 O28 -2.7(16) . . . . ?
Fe5 O27 C18 C7 173.7(6) . . . . ?
Fe4 O28 C18 O27 3.3(15) . . . . ?
Fe4 O28 C18 C7 -173.2(6) . . . . ?
C6 C7 C18 O27 176.9(11) . . . . ?
C8 C7 C18 O27 -1.1(16) . . . . ?
C6 C7 C18 O28 -6.6(15) . . . . ?
C8 C7 C18 O28 175.5(10) . . . . ?
Fe2 O30 C19 O29 -9(2) . . . . ?
Fe2 O30 C19 C20 177.0(6) . . . . ?
Fe1 O29 C19 O30 6.9(17) . . . . ?
Fe1 O29 C19 C20 -178.1(5) . . . . ?
O30 C19 C20 C21 174.8(14) . . . . ?
O29 C19 C20 C21 0.3(15) . . . . ?
O30 C19 C20 C25 -5.3(18) . . . . ?
O29 C19 C20 C25 -179.9(8) . . . . ?
C25 C20 C21 C22 4.3(19) . . . . ?
C19 C20 C21 C22 -175.8(11) . . . . ?
C20 C21 C22 C23 -2(2) . . . . ?
C20 C21 C22 C26 170.9(13) . . . . ?
C21 C22 C23 C24 -0.5(19) . . . . ?
C26 C22 C23 C24 -174.2(13) . . . . ?
C21 C22 C23 C23 176.7(9) . . . 2_655 ?
C26 C22 C23 C23 3.0(15) . . . 2_655 ?
C22 C23 C24 C25 1.6(19) . . . . ?
C23 C23 C24 C25 -175.4(8) 2_655 . . . ?
C22 C23 C24 C27 173.3(14) . . . 2_655 ?
C23 C23 C24 C27 -3.7(16) 2_655 . . 2_655 ?
C21 C20 C25 C24 -3.2(18) . . . . ?
C19 C20 C25 C24 177.0(10) . . . . ?
C23 C24 C25 C20 0.2(18) . . . . ?
C27 C24 C25 C20 -171.0(14) 2_655 . . . ?
C21 C22 C26 C27 176(2) . . . . ?
C23 C22 C26 C27 -10(3) . . . . ?
C22 C26 C27 C24 11(4) . . . 2_655 ?
Fe2 O31 C28 O32 0(2) . . . . ?
Fe2 O31 C28 C29 172.9(6) . . . . ?
Fe3 O32 C28 O31 -13.7(18) . . . . ?
Fe3 O32 C28 C29 172.8(5) . . . . ?
O31 C28 C29 C34 -4.7(18) . . . . ?
O32 C28 C29 C34 169.0(10) . . . . ?
O31 C28 C29 C30 177.6(12) . . . . ?
O32 C28 C29 C30 -8.7(14) . . . . ?
C34 C29 C30 C31 0.4(17) . . . . ?
C28 C29 C30 C31 178.1(10) . . . . ?
C29 C30 C31 C32 2.3(19) . . . . ?
C29 C30 C31 C36 -179.2(12) . . . . ?
C30 C31 C32 C33 -3(2) . . . . ?
C36 C31 C32 C33 179.0(16) . . . . ?
C30 C31 C32 C51 -177.7(11) . . . 2_655 ?
C36 C31 C32 C51 4(2) . . . 2_655 ?
C31 C32 C33 C34 0(2) . . . . ?
C51 C32 C33 C34 175.0(11) 2_655 . . . ?
C31 C32 C33 C35 -178.6(13) . . . . ?
C51 C32 C33 C35 -4.1(19) 2_655 . . . ?
C30 C29 C34 C33 -2.9(18) . . . . ?
C28 C29 C34 C33 179.3(10) . . . . ?
C32 C33 C34 C29 2(2) . . . . ?
C35 C33 C34 C29 -178.6(14) . . . . ?
C32 C33 C35 C54 -20(2) . . . 2_655 ?
C34 C33 C35 C54 161.2(15) . . . 2_655 ?
C30 C31 C36 C37 166.5(17) . . . . ?
C32 C31 C36 C37 -15(3) . . . . ?
C31 C36 C37 C52 21(3) . . . 2_655 ?
Fe6 O34 C38 O33 -9.9(17) . . . . ?
Fe6 O34 C38 C39 176.5(6) . . . . ?
Fe4 O33 C38 O34 8.3(15) . . . . ?
Fe4 O33 C38 C39 -177.7(5) . . . . ?
O34 C38 C39 C40 -6.6(15) . . . . ?
O33 C38 C39 C40 179.1(10) . . . . ?
O34 C38 C39 C44 172.5(11) . . . . ?
O33 C38 C39 C44 -1.8(16) . . . . ?
C44 C39 C40 C41 -0.8(19) . . . . ?
C38 C39 C40 C41 178.4(11) . . . . ?
C39 C40 C41 C42 -5(2) . . . . ?
C39 C40 C41 C46 -175.6(18) . . . 2_655 ?
C46 C41 C42 C42 -6(2) 2_655 . . 2_655 ?
C40 C41 C42 C42 -176.2(10) . . . 2_655 ?
C46 C41 C42 C43 177.3(18) 2_655 . . . ?
C40 C41 C42 C43 7(2) . . . . ?
C41 C42 C43 C44 -4(2) . . . . ?
C42 C42 C43 C44 -180.0(10) 2_655 . . . ?
C41 C42 C43 C45 -167.0(16) . . . . ?
C42 C42 C43 C45 16.9(18) 2_655 . . . ?
C42 C43 C44 C39 -2(2) . . . . ?
C45 C43 C44 C39 160.1(15) . . . . ?
C40 C39 C44 C43 4.1(19) . . . . ?
C38 C39 C44 C43 -175.0(11) . . . . ?
C42 C43 C45 C46 -41(2) . . . . ?
C44 C43 C45 C46 155.0(17) . . . . ?
C43 C45 C46 C41 45(3) . . . 2_655 ?
Fe5 O36 C47 O35 2.4(18) . . . . ?
Fe5 O36 C47 C48 -176.8(6) . . . . ?
Fe6 O35 C47 O36 0.8(17) . . . . ?
Fe6 O35 C47 C48 179.9(5) . . . . ?
O36 C47 C48 C49 -7.1(17) . . . . ?
O35 C47 C48 C49 173.7(10) . . . . ?
O36 C47 C48 C53 173.4(11) . . . . ?
O35 C47 C48 C53 -5.8(14) . . . . ?
C53 C48 C49 C50 -6.3(19) . . . . ?
C47 C48 C49 C50 174.2(11) . . . . ?
C48 C49 C50 C51 5(2) . . . . ?
C48 C49 C50 C54 173.4(13) . . . . ?
C49 C50 C51 C52 1(2) . . . . ?
C54 C50 C51 C52 -168.9(14) . . . . ?
C49 C50 C51 C32 177.7(10) . . . 2_655 ?
C54 C50 C51 C32 8(2) . . . 2_655 ?
C50 C51 C52 C53 -4(2) . . . . ?
C32 C51 C52 C53 178.7(11) 2_655 . . . ?
C50 C51 C52 C37 -177.9(17) . . . 2_655 ?
C32 C51 C52 C37 5(2) 2_655 . . 2_655 ?
C49 C48 C53 C52 2.6(18) . . . . ?
C47 C48 C53 C52 -177.8(10) . . . . ?
C51 C52 C53 C48 2(2) . . . . ?
C37 C52 C53 C48 176.4(13) 2_655 . . . ?
C51 C50 C54 C35 -31(2) . . . 2_655 ?
C49 C50 C54 C35 160.5(16) . . . 2_655 ?
O10 Fe1 N1 C55 138.2(3) . . . . ?
O1 Fe1 N1 C55 49.6(3) . . . . ?
O26 Fe1 N1 C55 -129.5(4) . . . . ?
O29 Fe1 N1 C55 -42.4(3) . . . . ?
O10 Fe1 N1 C59 -41.7(4) . . . . ?
O1 Fe1 N1 C59 -130.3(4) . . . . ?
O26 Fe1 N1 C59 50.6(4) . . . . ?
O29 Fe1 N1 C59 137.7(4) . . . . ?
C59 N1 C55 C56 0.0 . . . . ?
Fe1 N1 C55 C56 -179.9(4) . . . . ?
N1 C55 C56 C57 0.0 . . . . ?
C55 C56 C57 C58 0.0 . . . . ?
C56 C57 C58 C59 0.0 . . . . ?
C57 C58 C59 N1 0.0 . . . . ?
C55 N1 C59 C58 0.0 . . . . ?
Fe1 N1 C59 C58 179.9(4) . . . . ?
O31 Fe2 N2 C60 -52.5(5) . . . . ?
O2 Fe2 N2 C60 131.0(5) . . . . ?
O5 Fe2 N2 C60 42.7(5) . . . . ?
O30 Fe2 N2 C60 -136.3(5) . . . . ?
O31 Fe2 N2 C64 136.9(6) . . . . ?
O2 Fe2 N2 C64 -39.6(6) . . . . ?
O5 Fe2 N2 C64 -127.9(6) . . . . ?
O30 Fe2 N2 C64 53.1(6) . . . . ?
C64 N2 C60 C61 0.0 . . . . ?
Fe2 N2 C60 C61 -170.7(5) . . . . ?
N2 C60 C61 C62 0.0 . . . . ?
C60 C61 C62 C63 0.0 . . . . ?
C61 C62 C63 C64 0.0 . . . . ?
C62 C63 C64 N2 0.0 . . . . ?
C60 N2 C64 C63 0.0 . . . . ?
Fe2 N2 C64 C63 170.4(6) . . . . ?
O6 Fe3 N3 C65 135.3(4) . . . . ?
O9 Fe3 N3 C65 44.8(4) . . . . ?
O25 Fe3 N3 C65 -48.3(4) . . . . ?
O32 Fe3 N3 C65 -134.9(4) . . . . ?
O6 Fe3 N3 C69 -46.6(4) . . . . ?
O9 Fe3 N3 C69 -137.2(4) . . . . ?
O25 Fe3 N3 C69 129.7(4) . . . . ?
O32 Fe3 N3 C69 43.1(4) . . . . ?
C69 N3 C65 C66 0.0 . . . . ?
Fe3 N3 C65 C66 178.0(4) . . . . ?
N3 C65 C66 C67 0.0 . . . . ?
C65 C66 C67 C68 0.0 . . . . ?
C66 C67 C68 C69 0.0 . . . . ?
C67 C68 C69 N3 0.0 . . . . ?
C65 N3 C69 C68 0.0 . . . . ?
Fe3 N3 C69 C68 -178.0(4) . . . . ?
O13 Fe4 N4 C70 -129.4(4) . . . . ?
O22 Fe4 N4 C70 -40.7(4) . . . . ?
O33 Fe4 N4 C70 139.0(4) . . . . ?
O28 Fe4 N4 C70 52.4(4) . . . . ?
O13 Fe4 N4 C74 45.7(4) . . . . ?
O22 Fe4 N4 C74 134.5(4) . . . . ?
O33 Fe4 N4 C74 -45.8(4) . . . . ?
O28 Fe4 N4 C74 -132.4(4) . . . . ?
C74 N4 C70 C71 0.0 . . . . ?
Fe4 N4 C70 C71 175.2(4) . . . . ?
N4 C70 C71 C72 0.0 . . . . ?
C70 C71 C72 C73 0.0 . . . . ?
C71 C72 C73 C74 0.0 . . . . ?
C72 C73 C74 N4 0.0 . . . . ?
C70 N4 C74 C73 0.0 . . . . ?
Fe4 N4 C74 C73 -175.1(4) . . . . ?
O18 Fe5 N5 C75 -46.3(4) . . . . ?
O21 Fe5 N5 C75 -133.1(4) . . . . ?
O36 Fe5 N5 C75 47.2(4) . . . . ?
O27 Fe5 N5 C75 134.2(4) . . . . ?
O18 Fe5 N5 C79 131.2(4) . . . . ?
O21 Fe5 N5 C79 44.3(4) . . . . ?
O36 Fe5 N5 C79 -135.4(4) . . . . ?
O27 Fe5 N5 C79 -48.4(4) . . . . ?
C79 N5 C75 C76 0.0 . . . . ?
Fe5 N5 C75 C76 177.4(4) . . . . ?
N5 C75 C76 C77 0.0 . . . . ?
C75 C76 C77 C78 0.0 . . . . ?
C76 C77 C78 C79 0.0 . . . . ?
C77 C78 C79 N5 0.0 . . . . ?
C75 N5 C79 C78 0.0 . . . . ?
Fe5 N5 C79 C78 -177.4(4) . . . . ?
O14 Fe6 N6 C80 -48.9(4) . . . . ?
O34 Fe6 N6 C80 43.7(4) . . . . ?
O17 Fe6 N6 C80 -138.4(4) . . . . ?
O35 Fe6 N6 C80 129.6(4) . . . . ?
O14 Fe6 N6 C84 133.1(4) . . . . ?
O34 Fe6 N6 C84 -134.2(4) . . . . ?
O17 Fe6 N6 C84 43.7(4) . . . . ?
O35 Fe6 N6 C84 -48.3(4) . . . . ?
C84 N6 C80 C81 0.0 . . . . ?
Fe6 N6 C80 C81 -177.9(4) . . . . ?
N6 C80 C81 C82 0.0 . . . . ?
C80 C81 C82 C83 0.0 . . . . ?
C81 C82 C83 C84 0.0 . . . . ?
C82 C83 C84 N6 0.0 . . . . ?
C80 N6 C84 C83 0.0 . . . . ?
Fe6 N6 C84 C83 178.0(4) . . . . ?

_diffrn_measured_fraction_theta_max 0.993
_diffrn_reflns_theta_full        24.71
_diffrn_measured_fraction_theta_full 0.993
_refine_diff_density_max         0.398
_refine_diff_density_min         -0.442
_refine_diff_density_rms         0.075
