####################################################################### 
# 
# This file contains crystal structure data downloaded from the 
# Cambridge Structural Database (CSD) hosted by the Cambridge 
# Crystallographic Data Centre (CCDC).
# 
# Full information about CCDC data access policies and citation 
# guidelines are available at http://www.ccdc.cam.ac.uk/access/V1 
# 
# Audit and citation data items may have been added by the CCDC. 
# Please retain this information to preserve the provenance of 
# this file and to allow appropriate attribution of the data. 
# 
#######################################################################

data_IRMOP-51c
_audit_block_doi                 10.5517/cc95qcj
_database_code_depnum_ccdc_archive 'CCDC 273617'
loop_
_citation_id
_citation_doi
_citation_year
1 10.1021/ja042802q 2005
_audit_update_record             
;
2005-06-01 deposited with the CCDC.	2019-02-14 downloaded from the CCDC.
;

_audit_creation_method           SHELXL-97
_chemical_name_systematic        
;
?
;
_chemical_name_common            IRMOF-51c
_chemical_melting_point          ?
_chemical_formula_moiety         'C150 H108 Fe12 N18 O76 S12'
_chemical_formula_sum            'C150 H108 Fe12 N18 O76 S12'
_chemical_formula_weight         4433.46

loop_
_atom_type_symbol
_atom_type_description
_atom_type_scat_dispersion_real
_atom_type_scat_dispersion_imag
_atom_type_scat_source
C C 0.0033 0.0016 'International Tables Vol C Tables 4.2.6.8 and 6.1.1.4'
H H 0.0000 0.0000 'International Tables Vol C Tables 4.2.6.8 and 6.1.1.4'
N N 0.0061 0.0033 'International Tables Vol C Tables 4.2.6.8 and 6.1.1.4'
O O 0.0106 0.0060 'International Tables Vol C Tables 4.2.6.8 and 6.1.1.4'
S S 0.1246 0.1234 'International Tables Vol C Tables 4.2.6.8 and 6.1.1.4'
Fe Fe 0.3463 0.8444 'International Tables Vol C Tables 4.2.6.8 and 6.1.1.4'

_symmetry_cell_setting           cubic
_symmetry_space_group_name_H-M   F-43m

loop_
_symmetry_equiv_pos_as_xyz
'x, y, z'
'-x, -y, z'
'-x, y, -z'
'x, -y, -z'
'z, x, y'
'z, -x, -y'
'-z, -x, y'
'-z, x, -y'
'y, z, x'
'-y, z, -x'
'y, -z, -x'
'-y, -z, x'
'y, x, z'
'-y, -x, z'
'y, -x, -z'
'-y, x, -z'
'x, z, y'
'-x, z, -y'
'-x, -z, y'
'x, -z, -y'
'z, y, x'
'z, -y, -x'
'-z, y, -x'
'-z, -y, x'
'x, y+1/2, z+1/2'
'-x, -y+1/2, z+1/2'
'-x, y+1/2, -z+1/2'
'x, -y+1/2, -z+1/2'
'z, x+1/2, y+1/2'
'z, -x+1/2, -y+1/2'
'-z, -x+1/2, y+1/2'
'-z, x+1/2, -y+1/2'
'y, z+1/2, x+1/2'
'-y, z+1/2, -x+1/2'
'y, -z+1/2, -x+1/2'
'-y, -z+1/2, x+1/2'
'y, x+1/2, z+1/2'
'-y, -x+1/2, z+1/2'
'y, -x+1/2, -z+1/2'
'-y, x+1/2, -z+1/2'
'x, z+1/2, y+1/2'
'-x, z+1/2, -y+1/2'
'-x, -z+1/2, y+1/2'
'x, -z+1/2, -y+1/2'
'z, y+1/2, x+1/2'
'z, -y+1/2, -x+1/2'
'-z, y+1/2, -x+1/2'
'-z, -y+1/2, x+1/2'
'x+1/2, y, z+1/2'
'-x+1/2, -y, z+1/2'
'-x+1/2, y, -z+1/2'
'x+1/2, -y, -z+1/2'
'z+1/2, x, y+1/2'
'z+1/2, -x, -y+1/2'
'-z+1/2, -x, y+1/2'
'-z+1/2, x, -y+1/2'
'y+1/2, z, x+1/2'
'-y+1/2, z, -x+1/2'
'y+1/2, -z, -x+1/2'
'-y+1/2, -z, x+1/2'
'y+1/2, x, z+1/2'
'-y+1/2, -x, z+1/2'
'y+1/2, -x, -z+1/2'
'-y+1/2, x, -z+1/2'
'x+1/2, z, y+1/2'
'-x+1/2, z, -y+1/2'
'-x+1/2, -z, y+1/2'
'x+1/2, -z, -y+1/2'
'z+1/2, y, x+1/2'
'z+1/2, -y, -x+1/2'
'-z+1/2, y, -x+1/2'
'-z+1/2, -y, x+1/2'
'x+1/2, y+1/2, z'
'-x+1/2, -y+1/2, z'
'-x+1/2, y+1/2, -z'
'x+1/2, -y+1/2, -z'
'z+1/2, x+1/2, y'
'z+1/2, -x+1/2, -y'
'-z+1/2, -x+1/2, y'
'-z+1/2, x+1/2, -y'
'y+1/2, z+1/2, x'
'-y+1/2, z+1/2, -x'
'y+1/2, -z+1/2, -x'
'-y+1/2, -z+1/2, x'
'y+1/2, x+1/2, z'
'-y+1/2, -x+1/2, z'
'y+1/2, -x+1/2, -z'
'-y+1/2, x+1/2, -z'
'x+1/2, z+1/2, y'
'-x+1/2, z+1/2, -y'
'-x+1/2, -z+1/2, y'
'x+1/2, -z+1/2, -y'
'z+1/2, y+1/2, x'
'z+1/2, -y+1/2, -x'
'-z+1/2, y+1/2, -x'
'-z+1/2, -y+1/2, x'

_cell_length_a                   38.508(9)
_cell_length_b                   38.508(9)
_cell_length_c                   38.508(9)
_cell_angle_alpha                90.00
_cell_angle_beta                 90.00
_cell_angle_gamma                90.00
_cell_volume                     57102(24)
_cell_formula_units_Z            4
_cell_measurement_temperature    153(2)
_cell_measurement_reflns_used    999
_cell_measurement_theta_min      1.5
_cell_measurement_theta_max      23.29

_exptl_crystal_description       cube
_exptl_crystal_colour            orange
_exptl_crystal_size_max          0.2
_exptl_crystal_size_mid          0.2
_exptl_crystal_size_min          0.2
_exptl_crystal_density_meas      ?
_exptl_crystal_density_diffrn    0.516
_exptl_crystal_density_method    'not measured'
_exptl_crystal_F_000             8984
_exptl_absorpt_coefficient_mu    0.370
_exptl_absorpt_correction_type   multi-scan
_exptl_absorpt_correction_T_min  0.929
_exptl_absorpt_correction_T_max  0.929
_exptl_absorpt_process_details   'Blessing, Acta Cryst. (1995) A51 33-58'

_exptl_special_details           
;
The only optimal crystals suitable for analysis were small and weakly
diffracting. Optimization of synthetic conditions could yield larger
crystals, however these specimens had only a very low degree of
crystallinity and presented little coherent scattering compared to
that of smaller crystals. Owing to these challenges observed strong
(high intensity) scattering was limited to 1.0 angstrom, with higher
resolution data present but weak (low intensity). Increasing the exposure
time of the crystal to X-rays did not ameliorate the quality of the data
as this woulThe only optimal crystals suitable for analysis were small
and weakly diffracting. Optimization of synthetic conditions could yield larger
crystals, however these specimens had only a very low degree of
crystallinity and presented little coherent scattering compared to
that of smaller crystals. Additionally, diffuse scattering from the highly
disordered solvent in the large void spaces within the crystal and from
the capillary used mount the crystal contributes to the background
noise and the 'washing out' of high angle data.


This was a twinned data set. Two components; twin law = -1 0 0, 0 -1 0,
0 0 -1 was used to refine both components in HKLF4 format.

;

_diffrn_ambient_temperature      153(2)
_diffrn_radiation_wavelength     0.71073
_diffrn_radiation_type           MoK\a
_diffrn_radiation_source         'fine-focus sealed tube'
_diffrn_radiation_monochromator  graphite
_diffrn_measurement_device_type  ?
_diffrn_measurement_method       ?
_diffrn_detector_area_resol_mean ?
_diffrn_standards_number         ?
_diffrn_standards_interval_count ?
_diffrn_standards_interval_time  ?
_diffrn_standards_decay_%        ?
_diffrn_reflns_number            29975
_diffrn_reflns_av_R_equivalents  0.1770
_diffrn_reflns_av_sigmaI/netI    0.0917
_diffrn_reflns_limit_h_min       -31
_diffrn_reflns_limit_h_max       25
_diffrn_reflns_limit_k_min       -7
_diffrn_reflns_limit_k_max       42
_diffrn_reflns_limit_l_min       -42
_diffrn_reflns_limit_l_max       42
_diffrn_reflns_theta_min         1.50
_diffrn_reflns_theta_max         23.29
_reflns_number_total             3927
_reflns_number_gt                1921
_reflns_threshold_expression     >2sigma(I)

_computing_data_collection       'Bruker SMART'
_computing_cell_refinement       'Bruker SMART'
_computing_data_reduction        'Bruker SAINT'
_computing_structure_solution    'SHELXS-97 (Sheldrick, 1990)'
_computing_structure_refinement  'SHELXL-97 (Sheldrick, 1997)'
_computing_molecular_graphics    crystalmaker
_computing_publication_material  wingx

_refine_special_details          
;
Refinement of F^2^ against ALL reflections. The weighted R-factor wR and
goodness of fit S are based on F^2^, conventional R-factors R are based
on F, with F set to zero for negative F^2^. The threshold expression of
F^2^ > 2sigma(F^2^) is used only for calculating R-factors(gt) etc. and is
not relevant to the choice of reflections for refinement. R-factors based
on F^2^ are statistically about twice as large as those based on F, and R-
factors based on ALL data will be even larger.

Refinement of the data as a racemic twin was required to obtain proper
model, thus the larger residuals for the structure. Additionally,
testing of other synthesized crystals also led to racemically twinned data.
In no attempt could 'untwinned' material be prepared/found.

Due to the large void space in the structure, solvent in the structure
is highly disordered. Complete assignment of
scattering factors to all residual electron density was therfore not possible
Assigment of the largest peaks in the Fourier difference map to carbon
and nitrogen was made; these were refined anisotropically if possible.
All other electron density in the void space was treated as separated
oxygen atoms with large thermal parameters. Cations in the structure could
not be resolved as they are components of the highly disordered
portion of the structure.


;

_refine_ls_structure_factor_coef Fsqd
_refine_ls_matrix_type           full
_refine_ls_weighting_scheme      calc
_refine_ls_weighting_details     
'calc w=1/[\s^2^(Fo^2^)+(0.1590P)^2^+2.5000P] where P=(Fo^2^+2Fc^2^)/3'
_atom_sites_solution_primary     direct
_atom_sites_solution_secondary   difmap
_atom_sites_solution_hydrogens   geom
_refine_ls_hydrogen_treatment    constr
_refine_ls_extinction_method     SHELXL
_refine_ls_extinction_coef       0.00042(5)
_refine_ls_extinction_expression Fc^*^=kFc[1+0.001xFc^2^\l^3^/sin(2\q)]^-1/4^
_refine_ls_abs_structure_details 'Flack H D (1983), Acta Cryst. A39, 876-881'
_refine_ls_abs_structure_Flack   0.67(6)
_refine_ls_number_reflns         3927
_refine_ls_number_parameters     122
_refine_ls_number_restraints     4
_refine_ls_R_factor_all          0.1732
_refine_ls_R_factor_gt           0.0865
_refine_ls_wR_factor_ref         0.2778
_refine_ls_wR_factor_gt          0.2164
_refine_ls_goodness_of_fit_ref   1.005
_refine_ls_restrained_S_all      1.007
_refine_ls_shift/su_max          0.001
_refine_ls_shift/su_mean         0.000

loop_
_atom_site_label
_atom_site_type_symbol
_atom_site_fract_x
_atom_site_fract_y
_atom_site_fract_z
_atom_site_U_iso_or_equiv
_atom_site_adp_type
_atom_site_occupancy
_atom_site_symmetry_multiplicity
_atom_site_calc_flag
_atom_site_refinement_flags
_atom_site_disorder_assembly
_atom_site_disorder_group
Fe1 Fe 0.83141(3) 0.16859(3) 0.89241(4) 0.0823(7) Uani 1 2 d S . .
S1 S 0.76059(10) 0.14157(8) 0.85844(8) 0.1064(13) Uani 1 2 d S . .
O1 O 0.85054(16) 0.14946(16) 0.85054(16) 0.071(3) Uani 1 6 d S . .
O2 O 0.82650(17) 0.12274(19) 0.91756(16) 0.106(2) Uani 1 1 d . . .
O3 O 0.78266(14) 0.16741(16) 0.87679(15) 0.0983(18) Uani 1 1 d . . .
O4 O 0.7341(2) 0.1609(2) 0.8391(2) 0.140(4) Uani 1 2 d S . .
O5 O 0.7466(3) 0.1166(2) 0.8834(2) 0.148(4) Uani 1 2 d S . .
N1 N 0.8104(2) 0.1896(2) 0.9394(3) 0.112(4) Uani 1 2 d SD . .
C1 C 0.8250(4) 0.0906(3) 0.9094(3) 0.101(4) Uani 1 2 d S . .
C2 C 0.8235(4) 0.0662(3) 0.9338(3) 0.101(4) Uani 1 2 d S . .
C3 C 0.8251(5) 0.0727(3) 0.9668(4) 0.187(7) Uani 1 1 d . . .
H3 H 0.8285 0.0963 0.9731 0.224 Uiso 1 1 calc R . .
C4 C 0.8221(6) 0.0482(3) 0.9949(3) 0.227(9) Uani 1 1 d . . .
H4 H 0.8207 0.0556 1.0184 0.273 Uiso 1 1 calc R . .
C5 C 0.8214(6) 0.0138(2) 0.9862(2) 0.160(7) Uani 1 2 d S . .
C6 C 0.8239(4) 0.2166(4) 0.9556(3) 0.162(5) Uani 1 1 d D . .
H6 H 0.8442 0.2264 0.9456 0.194 Uiso 1 1 calc R . .
C7 C 0.8110(4) 0.2332(4) 0.9876(4) 0.205(9) Uani 1 1 d D . .
H7 H 0.8223 0.2523 0.9984 0.246 Uiso 1 1 calc R . .
C8 C 0.7814(5) 0.2186(5) 1.0004(6) 0.213(14) Uani 1 2 d SD . .
H8 H 0.7702 0.2298 1.0193 0.255 Uiso 1 2 calc SR . .
N1G N 0.7500 0.1609(10) 0.7500 0.254(14) Uani 1 4 d S . .
C1G C 0.7500 0.1096(10) 0.7500 0.29(2) Uani 1 4 d S . .

loop_
_atom_site_aniso_label
_atom_site_aniso_U_11
_atom_site_aniso_U_22
_atom_site_aniso_U_33
_atom_site_aniso_U_23
_atom_site_aniso_U_13
_atom_site_aniso_U_12
Fe1 0.0843(9) 0.0843(9) 0.0784(12) 0.0150(6) -0.0150(6) 0.0168(10)
S1 0.084(2) 0.1176(19) 0.1176(19) 0.002(3) -0.0119(17) 0.0119(17)
O1 0.071(3) 0.071(3) 0.071(3) 0.011(3) -0.011(3) 0.011(3)
O2 0.111(5) 0.119(5) 0.089(4) 0.044(4) -0.002(4) 0.014(4)
O3 0.078(4) 0.110(4) 0.107(4) 0.000(4) -0.021(3) 0.027(4)
O4 0.107(7) 0.156(5) 0.156(5) 0.000(7) -0.053(5) 0.053(5)
O5 0.147(9) 0.148(6) 0.148(6) 0.031(7) 0.039(5) -0.039(5)
N1 0.121(6) 0.121(6) 0.093(9) 0.009(5) -0.009(5) 0.003(8)
C1 0.125(12) 0.089(5) 0.089(5) 0.016(10) -0.007(6) 0.007(6)
C2 0.142(13) 0.081(5) 0.081(5) 0.027(9) -0.007(6) 0.007(6)
C3 0.31(2) 0.094(8) 0.153(12) 0.048(9) 0.009(14) -0.004(10)
C4 0.48(3) 0.096(8) 0.105(9) 0.036(8) 0.035(14) 0.049(15)
C5 0.28(2) 0.098(7) 0.098(7) 0.043(9) -0.002(8) 0.002(8)
C6 0.194(14) 0.165(13) 0.126(11) 0.014(9) -0.029(10) 0.037(12)
C7 0.28(2) 0.222(19) 0.115(11) -0.063(12) -0.018(14) 0.092(18)
C8 0.22(2) 0.22(2) 0.21(3) -0.043(14) 0.043(14) 0.06(2)
N1G 0.219(18) 0.32(5) 0.219(18) 0.000 -0.05(2) 0.000
C1G 0.31(4) 0.23(4) 0.31(4) 0.000 -0.28(4) 0.000

_geom_special_details            
;
All esds (except the esd in the dihedral angle between two l.s. planes)
are estimated using the full covariance matrix. The cell esds are taken
into account individually in the estimation of esds in distances, angles
and torsion angles; correlations between esds in cell parameters are only
used when they are defined by crystal symmetry. An approximate (isotropic)
treatment of cell esds is used for estimating esds involving l.s. planes.
;

loop_
_geom_bond_atom_site_label_1
_geom_bond_atom_site_label_2
_geom_bond_distance
_geom_bond_site_symmetry_2
_geom_bond_publ_flag
Fe1 O1 1.9194(18) . ?
Fe1 O3 1.972(6) . ?
Fe1 O3 1.972(6) 14_665 ?
Fe1 O2 2.022(6) 14_665 ?
Fe1 O2 2.023(6) . ?
Fe1 N1 2.141(14) . ?
S1 O5 1.460(10) . ?
S1 O4 1.464(9) . ?
S1 O3 1.487(6) . ?
S1 O3 1.487(6) 20_566 ?
O1 Fe1 1.9195(18) 6_566 ?
O1 Fe1 1.9196(18) 12_665 ?
O2 C1 1.279(9) . ?
N1 C6 1.321(15) 14_665 ?
N1 C6 1.321(15) . ?
C1 O2 1.279(9) 20_566 ?
C1 C2 1.327(19) . ?
C2 C3 1.296(15) 20_566 ?
C2 C3 1.296(15) . ?
C3 C4 1.442(16) . ?
C3 H3 0.9500 . ?
C4 C5 1.367(13) . ?
C4 H4 0.9500 . ?
C5 C4 1.367(13) 20_566 ?
C5 C5 1.50(3) 4_557 ?
C6 C7 1.473(14) . ?
C6 H6 0.9500 . ?
C7 C8 1.363(15) . ?
C7 H7 0.9500 . ?
C8 C7 1.363(15) 14_665 ?
C8 H8 0.9500 . ?

loop_
_geom_angle_atom_site_label_1
_geom_angle_atom_site_label_2
_geom_angle_atom_site_label_3
_geom_angle
_geom_angle_site_symmetry_1
_geom_angle_site_symmetry_3
_geom_angle_publ_flag
O1 Fe1 O3 95.8(3) . . ?
O1 Fe1 O3 95.8(3) . 14_665 ?
O3 Fe1 O3 87.2(4) . 14_665 ?
O1 Fe1 O2 95.9(3) . 14_665 ?
O3 Fe1 O2 168.3(3) . 14_665 ?
O3 Fe1 O2 92.1(3) 14_665 14_665 ?
O1 Fe1 O2 95.9(3) . . ?
O3 Fe1 O2 92.1(3) . . ?
O3 Fe1 O2 168.3(3) 14_665 . ?
O2 Fe1 O2 86.2(4) 14_665 . ?
O1 Fe1 N1 179.4(5) . . ?
O3 Fe1 N1 84.6(3) . . ?
O3 Fe1 N1 84.6(3) 14_665 . ?
O2 Fe1 N1 83.7(3) 14_665 . ?
O2 Fe1 N1 83.7(3) . . ?
O5 S1 O4 114.3(7) . . ?
O5 S1 O3 109.7(4) . . ?
O4 S1 O3 107.4(4) . . ?
O5 S1 O3 109.7(4) . 20_566 ?
O4 S1 O3 107.4(4) . 20_566 ?
O3 S1 O3 108.0(5) . 20_566 ?
Fe1 O1 Fe1 119.83(5) . 6_566 ?
Fe1 O1 Fe1 119.83(5) . 12_665 ?
Fe1 O1 Fe1 119.82(5) 6_566 12_665 ?
C1 O2 Fe1 137.1(8) . . ?
S1 O3 Fe1 134.8(4) . . ?
C6 N1 C6 113.4(18) 14_665 . ?
C6 N1 Fe1 123.3(9) 14_665 . ?
C6 N1 Fe1 123.3(9) . . ?
O2 C1 O2 118.1(14) . 20_566 ?
O2 C1 C2 120.9(7) . . ?
O2 C1 C2 120.9(7) 20_566 . ?
C3 C2 C3 112.1(16) 20_566 . ?
C3 C2 C1 123.6(8) 20_566 . ?
C3 C2 C1 123.6(8) . . ?
C2 C3 C4 127.2(15) . . ?
C2 C3 H3 116.4 . . ?
C4 C3 H3 116.4 . . ?
C5 C4 C3 117.0(13) . . ?
C5 C4 H4 121.5 . . ?
C3 C4 H4 121.5 . . ?
C4 C5 C4 118.2(14) 20_566 . ?
C4 C5 C5 120.9(7) 20_566 4_557 ?
C4 C5 C5 120.9(7) . 4_557 ?
N1 C6 C7 127.1(18) . . ?
N1 C6 H6 116.5 . . ?
C7 C6 H6 116.5 . . ?
C8 C7 C6 114.0(19) . . ?
C8 C7 H7 123.0 . . ?
C6 C7 H7 123.0 . . ?
C7 C8 C7 124(2) 14_665 . ?
C7 C8 H8 118.1 14_665 . ?
C7 C8 H8 118.1 . . ?

_diffrn_measured_fraction_theta_max 0.986
_diffrn_reflns_theta_full        23.29
_diffrn_measured_fraction_theta_full 0.986
_refine_diff_density_max         0.454
_refine_diff_density_min         -0.498
_refine_diff_density_rms         0.074
