####################################################################### 
# 
# This file contains crystal structure data downloaded from the 
# Cambridge Structural Database (CSD) hosted by the Cambridge 
# Crystallographic Data Centre (CCDC).
# 
# Full information about CCDC data access policies and citation 
# guidelines are available at http://www.ccdc.cam.ac.uk/access/V1 
# 
# Audit and citation data items may have been added by the CCDC. 
# Please retain this information to preserve the provenance of 
# this file and to allow appropriate attribution of the data. 
# 
#######################################################################

data_IRMOP-50
_audit_block_doi                 10.5517/cc95q7d
_database_code_depnum_ccdc_archive 'CCDC 273613'
loop_
_citation_id
_citation_doi
_citation_year
1 10.1021/ja042802q 2005
_audit_update_record             
;
2005-06-01 deposited with the CCDC.	2019-02-14 downloaded from the CCDC.
;

_audit_creation_method           SHELXL-97
_chemical_name_systematic        
;
?
;
_chemical_name_common            IRMOP-50
_chemical_melting_point          ?
_chemical_formula_moiety         'C108 H84 Fe12 N12 O76 S12, O8'
_chemical_formula_sum            'C108 H84 Fe12 N12 O84 S12'
_chemical_formula_weight         3948.91

loop_
_atom_type_symbol
_atom_type_description
_atom_type_scat_dispersion_real
_atom_type_scat_dispersion_imag
_atom_type_scat_source
C C 0.0033 0.0016 'International Tables Vol C Tables 4.2.6.8 and 6.1.1.4'
H H 0.0000 0.0000 'International Tables Vol C Tables 4.2.6.8 and 6.1.1.4'
N N 0.0061 0.0033 'International Tables Vol C Tables 4.2.6.8 and 6.1.1.4'
O O 0.0106 0.0060 'International Tables Vol C Tables 4.2.6.8 and 6.1.1.4'
S S 0.1246 0.1234 'International Tables Vol C Tables 4.2.6.8 and 6.1.1.4'
Fe Fe 0.3463 0.8444 'International Tables Vol C Tables 4.2.6.8 and 6.1.1.4'

_symmetry_cell_setting           Cubic
_symmetry_space_group_name_H-M   F-43m
_symmetry_space_group_name_Hall  F-423

loop_
_symmetry_equiv_pos_as_xyz
'x, y, z'
'-x, -y, z'
'-x, y, -z'
'x, -y, -z'
'z, x, y'
'z, -x, -y'
'-z, -x, y'
'-z, x, -y'
'y, z, x'
'-y, z, -x'
'y, -z, -x'
'-y, -z, x'
'y, x, z'
'-y, -x, z'
'y, -x, -z'
'-y, x, -z'
'x, z, y'
'-x, z, -y'
'-x, -z, y'
'x, -z, -y'
'z, y, x'
'z, -y, -x'
'-z, y, -x'
'-z, -y, x'
'x, y+1/2, z+1/2'
'-x, -y+1/2, z+1/2'
'-x, y+1/2, -z+1/2'
'x, -y+1/2, -z+1/2'
'z, x+1/2, y+1/2'
'z, -x+1/2, -y+1/2'
'-z, -x+1/2, y+1/2'
'-z, x+1/2, -y+1/2'
'y, z+1/2, x+1/2'
'-y, z+1/2, -x+1/2'
'y, -z+1/2, -x+1/2'
'-y, -z+1/2, x+1/2'
'y, x+1/2, z+1/2'
'-y, -x+1/2, z+1/2'
'y, -x+1/2, -z+1/2'
'-y, x+1/2, -z+1/2'
'x, z+1/2, y+1/2'
'-x, z+1/2, -y+1/2'
'-x, -z+1/2, y+1/2'
'x, -z+1/2, -y+1/2'
'z, y+1/2, x+1/2'
'z, -y+1/2, -x+1/2'
'-z, y+1/2, -x+1/2'
'-z, -y+1/2, x+1/2'
'x+1/2, y, z+1/2'
'-x+1/2, -y, z+1/2'
'-x+1/2, y, -z+1/2'
'x+1/2, -y, -z+1/2'
'z+1/2, x, y+1/2'
'z+1/2, -x, -y+1/2'
'-z+1/2, -x, y+1/2'
'-z+1/2, x, -y+1/2'
'y+1/2, z, x+1/2'
'-y+1/2, z, -x+1/2'
'y+1/2, -z, -x+1/2'
'-y+1/2, -z, x+1/2'
'y+1/2, x, z+1/2'
'-y+1/2, -x, z+1/2'
'y+1/2, -x, -z+1/2'
'-y+1/2, x, -z+1/2'
'x+1/2, z, y+1/2'
'-x+1/2, z, -y+1/2'
'-x+1/2, -z, y+1/2'
'x+1/2, -z, -y+1/2'
'z+1/2, y, x+1/2'
'z+1/2, -y, -x+1/2'
'-z+1/2, y, -x+1/2'
'-z+1/2, -y, x+1/2'
'x+1/2, y+1/2, z'
'-x+1/2, -y+1/2, z'
'-x+1/2, y+1/2, -z'
'x+1/2, -y+1/2, -z'
'z+1/2, x+1/2, y'
'z+1/2, -x+1/2, -y'
'-z+1/2, -x+1/2, y'
'-z+1/2, x+1/2, -y'
'y+1/2, z+1/2, x'
'-y+1/2, z+1/2, -x'
'y+1/2, -z+1/2, -x'
'-y+1/2, -z+1/2, x'
'y+1/2, x+1/2, z'
'-y+1/2, -x+1/2, z'
'y+1/2, -x+1/2, -z'
'-y+1/2, x+1/2, -z'
'x+1/2, z+1/2, y'
'-x+1/2, z+1/2, -y'
'-x+1/2, -z+1/2, y'
'x+1/2, -z+1/2, -y'
'z+1/2, y+1/2, x'
'z+1/2, -y+1/2, -x'
'-z+1/2, y+1/2, -x'
'-z+1/2, -y+1/2, x'

_cell_length_a                   32.6504(13)
_cell_length_b                   32.6504(13)
_cell_length_c                   32.6504(13)
_cell_angle_alpha                90.00
_cell_angle_beta                 90.00
_cell_angle_gamma                90.00
_cell_volume                     34807(2)
_cell_formula_units_Z            4
_cell_measurement_temperature    258(2)
_cell_measurement_reflns_used    6209
_cell_measurement_theta_min      2.16
_cell_measurement_theta_max      20.75

_exptl_crystal_description       cube
_exptl_crystal_colour            orange
_exptl_crystal_size_max          0.21
_exptl_crystal_size_mid          0.18
_exptl_crystal_size_min          0.17
_exptl_crystal_density_meas      ?
_exptl_crystal_density_diffrn    0.766
_exptl_crystal_density_method    'not measured'
_exptl_crystal_F_000             8096
_exptl_absorpt_coefficient_mu    0.605
_exptl_absorpt_correction_type   multi-scan
_exptl_absorpt_correction_T_min  0.884
_exptl_absorpt_correction_T_max  0.904
_exptl_absorpt_process_details   'Blessing, Acta Cryst. (1995) A51 33-58'
_exptl_special_details           
;
The only optimal crystals suitable for analysis were small and weakly
diffracting. Optimization of synthetic conditions could yield larger
crystals, however these specimens had only a very low degree of
crystallinity and presented little coherent scattering compared to
that of smaller crystals. Owing to these challenges observed strong
(high intensity) scattering was limited to 1.0 angstrom, with higher
resolution data present but weak (low intensity). Increasing the exposure
time of the crystal to X-rays did not ameliorate the quality of the data
as this woulThe only optimal crystals suitable for analysis were small
and weakly diffracting. Optimization of synthetic conditions could yield larger
crystals, however these specimens had only a very low degree of
crystallinity and presented little coherent scattering compared to
that of smaller crystals. Additionally, diffuse scattering from the highly
disordered solvent in the large void spaces within the crystal and from
the capillary used mount the crystal contributes to the background
noise and the 'washing out' of high angle data.
;

_diffrn_ambient_temperature      258(2)
_diffrn_radiation_wavelength     0.71073
_diffrn_radiation_type           MoK\a
_diffrn_radiation_source         'fine-focus sealed tube'
_diffrn_radiation_monochromator  graphite
_diffrn_measurement_device_type  'CCD area detector'
_diffrn_measurement_method       'phi and omega scans'
_diffrn_detector_area_resol_mean ?
_diffrn_standards_number         ?
_diffrn_standards_interval_count ?
_diffrn_standards_interval_time  ?
_diffrn_standards_decay_%        ?
_diffrn_reflns_number            59634
_diffrn_reflns_av_R_equivalents  0.1738
_diffrn_reflns_av_sigmaI/netI    0.0597
_diffrn_reflns_limit_h_min       -42
_diffrn_reflns_limit_h_max       38
_diffrn_reflns_limit_k_min       -24
_diffrn_reflns_limit_k_max       42
_diffrn_reflns_limit_l_min       -42
_diffrn_reflns_limit_l_max       34
_diffrn_reflns_theta_min         1.08
_diffrn_reflns_theta_max         27.50
_reflns_number_total             3845
_reflns_number_gt                2380
_reflns_threshold_expression     >2sigma(I)

_computing_data_collection       'Bruker SMART'
_computing_cell_refinement       'Bruker SMART'
_computing_data_reduction        'Bruker SAINT'
_computing_structure_solution    'SHELXS-97 (Sheldrick, 1990)'
_computing_structure_refinement  'SHELXL-97 (Sheldrick, 1997)'
_computing_molecular_graphics    'Bruker SHELXTL'
_computing_publication_material  'Bruker SHELXTL'

_refine_special_details          
;
Refinement of F^2^ against ALL reflections. The weighted R-factor wR and
goodness of fit S are based on F^2^, conventional R-factors R are based
on F, with F set to zero for negative F^2^. The threshold expression of
F^2^ > 2sigma(F^2^) is used only for calculating R-factors(gt) etc. and is
not relevant to the choice of reflections for refinement. R-factors based
on F^2^ are statistically about twice as large as those based on F, and R-
factors based on ALL data will be even larger.
;

_refine_ls_structure_factor_coef Fsqd
_refine_ls_matrix_type           full
_refine_ls_weighting_scheme      calc
_refine_ls_weighting_details     
'calc w=1/[\s^2^(Fo^2^)+(0.1785P)^2^+0.0000P] where P=(Fo^2^+2Fc^2^)/3'
_atom_sites_solution_primary     direct
_atom_sites_solution_secondary   difmap
_atom_sites_solution_hydrogens   geom
_refine_ls_hydrogen_treatment    constr
_refine_ls_extinction_method     SHELXL
_refine_ls_extinction_coef       0.00078(10)
_refine_ls_extinction_expression Fc^*^=kFc[1+0.001xFc^2^\l^3^/sin(2\q)]^-1/4^
_refine_ls_abs_structure_details 'Flack H D (1983), 1830 Friedel pairs'
_refine_ls_abs_structure_Flack   0.0(3)
_refine_ls_number_reflns         3845
_refine_ls_number_parameters     100
_refine_ls_number_restraints     4
_refine_ls_R_factor_all          0.1522
_refine_ls_R_factor_gt           0.0979
_refine_ls_wR_factor_ref         0.3060
_refine_ls_wR_factor_gt          0.2675
_refine_ls_goodness_of_fit_ref   1.168
_refine_ls_restrained_S_all      1.169
_refine_ls_shift/su_max          0.000
_refine_ls_shift/su_mean         0.000

loop_
_atom_site_label
_atom_site_type_symbol
_atom_site_fract_x
_atom_site_fract_y
_atom_site_fract_z
_atom_site_U_iso_or_equiv
_atom_site_adp_type
_atom_site_occupancy
_atom_site_symmetry_multiplicity
_atom_site_calc_flag
_atom_site_refinement_flags
_atom_site_disorder_assembly
_atom_site_disorder_group
Fe1 Fe 0.41933(4) 0.34726(3) 0.15274(3) 0.0434(4) Uani 1 2 d SD . .
S2 S 0.37989(7) 0.37989(7) 0.23674(8) 0.0551(7) Uani 1 2 d S . .
O2 O 0.37031(18) 0.37031(18) 0.12969(18) 0.045(3) Uani 1 6 d S . .
O3 O 0.40096(17) 0.34869(18) 0.21094(15) 0.0555(13) Uani 1 1 d . . .
O1 O 0.44953(17) 0.40085(15) 0.15772(19) 0.0595(14) Uani 1 1 d . . .
N1 N 0.4766(3) 0.3222(2) 0.1778(2) 0.061(2) Uani 1 2 d SD . .
O4 O 0.3574(2) 0.3574(2) 0.2676(3) 0.082(3) Uani 1 2 d S . .
C1 C 0.4701(2) 0.4701(2) 0.1589(4) 0.059(3) Uani 1 2 d S . .
C2 C 0.4377(2) 0.4377(2) 0.1583(4) 0.054(3) Uani 1 2 d S . .
C3 C 0.4594(2) 0.5105(3) 0.1595(5) 0.086(3) Uani 1 1 d . . .
H3 H 0.4319 0.5179 0.1599 0.104 Uiso 1 1 calc R . .
O5 O 0.4091(2) 0.4091(2) 0.2534(3) 0.093(3) Uani 1 2 d S . .
C4 C 0.4946(3) 0.3388(4) 0.2106(3) 0.089(3) Uani 1 1 d D . .
H4 H 0.4828 0.3617 0.2228 0.107 Uiso 1 1 calc R . .
C5 C 0.5313(4) 0.3225(5) 0.2274(5) 0.128(6) Uani 1 1 d D . .
H5 H 0.5418 0.3340 0.2512 0.153 Uiso 1 1 calc R . .
C6 C 0.5520(6) 0.2903(5) 0.2097(5) 0.161(12) Uani 1 2 d SD . .
H6 H 0.5775 0.2813 0.2187 0.193 Uiso 1 2 calc SR . .
O1W O 0.3730(6) 0.2500(5) 0.2500(5) 0.43(4) Uiso 1 4 d SR . .
O2W O 0.2544(6) 0.3419(5) 0.2500(5) 0.46(4) Uiso 0.25 1 d PR . .

loop_
_atom_site_aniso_label
_atom_site_aniso_U_11
_atom_site_aniso_U_22
_atom_site_aniso_U_33
_atom_site_aniso_U_23
_atom_site_aniso_U_13
_atom_site_aniso_U_12
Fe1 0.0429(7) 0.0437(5) 0.0437(5) 0.0079(6) 0.0051(4) -0.0051(4)
S2 0.0629(11) 0.0629(11) 0.0397(13) 0.0040(9) 0.0040(9) 0.0014(14)
O2 0.045(3) 0.045(3) 0.045(3) 0.010(3) 0.010(3) -0.010(3)
O3 0.062(3) 0.063(3) 0.042(3) 0.009(3) 0.002(2) 0.005(3)
O1 0.054(3) 0.046(3) 0.079(4) 0.008(3) -0.001(3) -0.017(2)
N1 0.050(5) 0.066(4) 0.066(4) 0.013(5) 0.003(3) -0.003(3)
O4 0.093(4) 0.093(4) 0.061(5) 0.027(3) 0.027(3) 0.004(5)
C1 0.051(4) 0.051(4) 0.074(8) 0.004(4) 0.004(4) -0.016(5)
C2 0.054(4) 0.054(4) 0.054(6) 0.001(3) 0.001(3) -0.011(5)
C3 0.038(4) 0.057(5) 0.164(11) 0.001(6) 0.005(6) -0.005(4)
O5 0.093(5) 0.093(5) 0.094(7) -0.026(4) -0.026(4) -0.013(6)
C4 0.071(6) 0.094(8) 0.103(8) 0.017(6) -0.025(6) -0.003(6)
C5 0.084(9) 0.187(17) 0.113(11) 0.011(11) -0.036(8) 0.008(10)
C6 0.075(14) 0.20(2) 0.20(2) 0.08(2) -0.014(9) 0.014(9)

_geom_special_details            
;
All esds (except the esd in the dihedral angle between two l.s. planes)
are estimated using the full covariance matrix. The cell esds are taken
into account individually in the estimation of esds in distances, angles
and torsion angles; correlations between esds in cell parameters are only
used when they are defined by crystal symmetry. An approximate (isotropic)
treatment of cell esds is used for estimating esds involving l.s. planes.
;

loop_
_geom_bond_atom_site_label_1
_geom_bond_atom_site_label_2
_geom_bond_distance
_geom_bond_site_symmetry_2
_geom_bond_publ_flag
Fe1 O2 1.9221(15) . ?
Fe1 O3 1.993(5) . ?
Fe1 O3 1.994(5) 44 ?
Fe1 O1 2.015(5) . ?
Fe1 O1 2.015(5) 44 ?
Fe1 N1 2.198(10) . ?
S2 O4 1.446(9) . ?
S2 O5 1.455(10) . ?
S2 O3 1.490(6) . ?
S2 O3 1.490(6) 13 ?
O2 Fe1 1.9221(15) 56 ?
O2 Fe1 1.9222(14) 35 ?
O1 C2 1.264(7) . ?
N1 C4 1.339(10) 44 ?
N1 C4 1.339(10) . ?
C1 C3 1.366(11) 13 ?
C1 C3 1.366(10) . ?
C1 C2 1.494(15) . ?
C2 O1 1.264(7) 13 ?
C3 C3 1.389(16) 14_665 ?
C3 H3 0.9300 . ?
C4 C5 1.421(13) . ?
C4 H4 0.9300 . ?
C5 C6 1.375(14) . ?
C5 H5 0.9300 . ?
C6 C5 1.375(14) 44 ?
C6 H6 0.9300 . ?
O1W O2W 1.03(3) 13 ?
O1W O2W 1.03(3) 35 ?
O1W O2W 1.03(3) 9 ?
O1W O2W 1.03(3) 39 ?
O2W O1W 1.03(3) 5 ?

loop_
_geom_angle_atom_site_label_1
_geom_angle_atom_site_label_2
_geom_angle_atom_site_label_3
_geom_angle
_geom_angle_site_symmetry_1
_geom_angle_site_symmetry_3
_geom_angle_publ_flag
O2 Fe1 O3 96.5(3) . . ?
O2 Fe1 O3 96.5(3) . 44 ?
O3 Fe1 O3 87.4(3) . 44 ?
O2 Fe1 O1 95.7(3) . . ?
O3 Fe1 O1 92.9(2) . . ?
O3 Fe1 O1 167.7(2) 44 . ?
O2 Fe1 O1 95.7(3) . 44 ?
O3 Fe1 O1 167.7(2) . 44 ?
O3 Fe1 O1 92.9(2) 44 44 ?
O1 Fe1 O1 84.3(4) . 44 ?
O2 Fe1 N1 178.1(4) . . ?
O3 Fe1 N1 84.8(2) . . ?
O3 Fe1 N1 84.8(2) 44 . ?
O1 Fe1 N1 82.9(2) . . ?
O1 Fe1 N1 82.9(2) 44 . ?
O4 S2 O5 113.8(7) . . ?
O4 S2 O3 106.3(3) . . ?
O5 S2 O3 110.9(3) . . ?
O4 S2 O3 106.3(3) . 13 ?
O5 S2 O3 110.9(3) . 13 ?
O3 S2 O3 108.2(4) . 13 ?
Fe1 O2 Fe1 119.92(3) . 56 ?
Fe1 O2 Fe1 119.92(3) . 35 ?
Fe1 O2 Fe1 119.92(3) 56 35 ?
S2 O3 Fe1 133.9(3) . . ?
C2 O1 Fe1 132.7(6) . . ?
C4 N1 C4 117.1(12) 44 . ?
C4 N1 Fe1 121.5(6) 44 . ?
C4 N1 Fe1 121.5(6) . . ?
C3 C1 C3 119.5(10) 13 . ?
C3 C1 C2 120.2(5) 13 . ?
C3 C1 C2 120.2(5) . . ?
O1 C2 O1 125.5(10) 13 . ?
O1 C2 C1 117.2(5) 13 . ?
O1 C2 C1 117.2(5) . . ?
C1 C3 C3 120.2(5) . 14_665 ?
C1 C3 H3 119.9 . . ?
C3 C3 H3 119.9 14_665 . ?
N1 C4 C5 121.8(12) . . ?
N1 C4 H4 119.1 . . ?
C5 C4 H4 119.1 . . ?
C6 C5 C4 122.6(16) . . ?
C6 C5 H5 118.7 . . ?
C4 C5 H5 118.7 . . ?
C5 C6 C5 113.6(19) . 44 ?
C5 C6 H6 123.2 . . ?
C5 C6 H6 123.2 44 . ?

loop_
_geom_torsion_atom_site_label_1
_geom_torsion_atom_site_label_2
_geom_torsion_atom_site_label_3
_geom_torsion_atom_site_label_4
_geom_torsion
_geom_torsion_site_symmetry_1
_geom_torsion_site_symmetry_2
_geom_torsion_site_symmetry_3
_geom_torsion_site_symmetry_4
_geom_torsion_publ_flag
O3 Fe1 O2 Fe1 48.8(6) . . . 56 ?
O3 Fe1 O2 Fe1 136.9(5) 44 . . 56 ?
O1 Fe1 O2 Fe1 -44.7(6) . . . 56 ?
O1 Fe1 O2 Fe1 -129.6(5) 44 . . 56 ?
O3 Fe1 O2 Fe1 -136.9(5) . . . 35 ?
O3 Fe1 O2 Fe1 -48.8(6) 44 . . 35 ?
O1 Fe1 O2 Fe1 129.6(5) . . . 35 ?
O1 Fe1 O2 Fe1 44.7(6) 44 . . 35 ?
O4 S2 O3 Fe1 151.9(6) . . . . ?
O5 S2 O3 Fe1 -83.8(6) . . . . ?
O3 S2 O3 Fe1 38.1(7) 13 . . . ?
O2 Fe1 O3 S2 -44.6(5) . . . . ?
O3 Fe1 O3 S2 -140.9(4) 44 . . . ?
O1 Fe1 O3 S2 51.5(5) . . . . ?
O1 Fe1 O3 S2 127.8(11) 44 . . . ?
N1 Fe1 O3 S2 134.1(5) . . . . ?
O2 Fe1 O1 C2 19.5(10) . . . . ?
O3 Fe1 O1 C2 -77.3(10) . . . . ?
O3 Fe1 O1 C2 -168.1(11) 44 . . . ?
O1 Fe1 O1 C2 114.7(9) 44 . . . ?
N1 Fe1 O1 C2 -161.7(10) . . . . ?
O3 Fe1 N1 C4 133.5(9) . . . 44 ?
O3 Fe1 N1 C4 45.7(8) 44 . . 44 ?
O1 Fe1 N1 C4 -132.9(9) . . . 44 ?
O1 Fe1 N1 C4 -47.8(8) 44 . . 44 ?
O3 Fe1 N1 C4 -45.7(8) . . . . ?
O3 Fe1 N1 C4 -133.5(9) 44 . . . ?
O1 Fe1 N1 C4 47.8(8) . . . . ?
O1 Fe1 N1 C4 132.9(9) 44 . . . ?
Fe1 O1 C2 O1 4(2) . . . 13 ?
Fe1 O1 C2 C1 -175.0(7) . . . . ?
C3 C1 C2 O1 180.0(12) 13 . . 13 ?
C3 C1 C2 O1 0.9(19) . . . 13 ?
C3 C1 C2 O1 -0.9(19) 13 . . . ?
C3 C1 C2 O1 180.0(12) . . . . ?
C3 C1 C3 C3 1.9(19) 13 . . 14_665 ?
C2 C1 C3 C3 -179.0(8) . . . 14_665 ?
C4 N1 C4 C5 0(2) 44 . . . ?
Fe1 N1 C4 C5 179.1(11) . . . . ?
N1 C4 C5 C6 4(3) . . . . ?
C4 C5 C6 C5 -7(3) . . . 44 ?

_diffrn_measured_fraction_theta_max 1.000
_diffrn_reflns_theta_full        27.50
_diffrn_measured_fraction_theta_full 1.000
_refine_diff_density_max         0.945
_refine_diff_density_min         -1.268
_refine_diff_density_rms         0.235
