####################################################################### 
# 
# This file contains crystal structure data downloaded from the 
# Cambridge Structural Database (CSD) hosted by the Cambridge 
# Crystallographic Data Centre (CCDC).
# 
# Full information about CCDC data access policies and citation 
# guidelines are available at http://www.ccdc.cam.ac.uk/access/V1 
# 
# Audit and citation data items may have been added by the CCDC. 
# Please retain this information to preserve the provenance of 
# this file and to allow appropriate attribution of the data. 
# 
#######################################################################

data_PCN-88
_audit_block_doi                 10.5517/ccy427c
_database_code_depnum_ccdc_archive 'CCDC 867852'
loop_
_citation_id
_citation_doi
_citation_year
1 10.1038/ncomms2552 2013
_audit_update_record             
;
2012-02-20 deposited with the CCDC.	2019-02-14 downloaded from the CCDC.
;
#TrackingRef '4-PCN-88.cif'


_audit_creation_method           SHELXL-97
_chemical_name_systematic        
;
?
;
_chemical_name_common            ?
_chemical_melting_point          ?
_chemical_formula_moiety         'C78 H36 Cu6 N0 O30'
_chemical_formula_sum            'C78 H36 Cu6 N0 O30'
_chemical_formula_weight         1834.3

loop_
_atom_type_symbol
_atom_type_description
_atom_type_scat_dispersion_real
_atom_type_scat_dispersion_imag
_atom_type_scat_source
C C 0.0033 0.0016 'International Tables Vol C Tables 4.2.6.8 and 6.1.1.4'
H H 0.0000 0.0000 'International Tables Vol C Tables 4.2.6.8 and 6.1.1.4'
Cu Cu 0.3201 1.2651 'International Tables Vol C Tables 4.2.6.8 and 6.1.1.4'
N N 0.0061 0.0033 'International Tables Vol C Tables 4.2.6.8 and 6.1.1.4'
O O 0.0106 0.0060 'International Tables Vol C Tables 4.2.6.8 and 6.1.1.4'

_symmetry_cell_setting           Orthorhombic
_symmetry_space_group_name_H-M   Imm2
_symmetry_Hall_group_name_H-M    'I 2 -2'


loop_
_symmetry_equiv_pos_as_xyz
'x, y, z'
'-x, -y, z'
'-x, y, z'
'x, -y, z'
'x+1/2, y+1/2, z+1/2'
'-x+1/2, -y+1/2, z+1/2'
'-x+1/2, y+1/2, z+1/2'
'x+1/2, -y+1/2, z+1/2'

_cell_length_a                   27.547(4)
_cell_length_b                   36.559(5)
_cell_length_c                   18.413(2)
_cell_angle_alpha                90.00
_cell_angle_beta                 90.00
_cell_angle_gamma                90.00
_cell_volume                     18544(4)
_cell_formula_units_Z            4
_cell_measurement_temperature    110(2)
_cell_measurement_reflns_used    9959
_cell_measurement_theta_min      2.21
_cell_measurement_theta_max      21.29

_exptl_crystal_description       Plate
_exptl_crystal_colour            Blue
_exptl_crystal_size_max          0.34
_exptl_crystal_size_mid          0.20
_exptl_crystal_size_min          0.18
_exptl_crystal_density_meas      ?
_exptl_crystal_density_diffrn    0.657
_exptl_crystal_density_method    'not measured'
_exptl_crystal_F_000             3672
_exptl_absorpt_coefficient_mu    0.711
_exptl_absorpt_correction_type   Multi-Scan
_exptl_absorpt_correction_T_min  0.7940
_exptl_absorpt_correction_T_max  0.8826
_exptl_absorpt_process_details   SADABS

_exptl_special_details           
;
?
;

_diffrn_ambient_temperature      110(2)
_diffrn_radiation_wavelength     0.71073
_diffrn_radiation_type           MoK\a
_diffrn_radiation_source         'fine-focus sealed tube'
_diffrn_radiation_monochromator  graphite
_diffrn_measurement_device_type  'BRUKER APEX-II CCD'
_diffrn_measurement_method       'phi and omega scans'
_diffrn_detector_area_resol_mean ?
_diffrn_reflns_number            99582
_diffrn_reflns_av_R_equivalents  0.0803
_diffrn_reflns_av_sigmaI/netI    0.0783
_diffrn_reflns_limit_h_min       -35
_diffrn_reflns_limit_h_max       35
_diffrn_reflns_limit_k_min       -46
_diffrn_reflns_limit_k_max       46
_diffrn_reflns_limit_l_min       -23
_diffrn_reflns_limit_l_max       23
_diffrn_reflns_theta_min         1.74
_diffrn_reflns_theta_max         27.23
_reflns_number_total             21359
_reflns_number_gt                14841
_reflns_threshold_expression     I>2sigma(I)

_computing_data_collection       'Bruker APEX-II'
_computing_cell_refinement       'Bruker SAINT'
_computing_data_reduction        'Bruker SAINT'
_computing_structure_solution    'SHELXS-97 (Sheldrick, 2008)'
_computing_structure_refinement  'SHELXL-97 (Sheldrick, 2008)'
_computing_molecular_graphics    'Bruker SHELXTL'
_computing_publication_material  'Bruker SHELXTL'

_refine_special_details          
;
Refinement of F^2^ against ALL reflections. The weighted R-factor wR and
goodness of fit S are based on F^2^, conventional R-factors R are based
on F, with F set to zero for negative F^2^. The threshold expression of
F^2^ > 2sigma(F^2^) is used only for calculating R-factors(gt) etc. and is
not relevant to the choice of reflections for refinement. R-factors based
on F^2^ are statistically about twice as large as those based on F, and R-
factors based on ALL data will be even larger.
;

_refine_ls_structure_factor_coef Fsqd
_refine_ls_matrix_type           full
_refine_ls_weighting_scheme      calc
_refine_ls_weighting_details     
'calc w=1/[\s^2^(Fo^2^)+(0.0422P)^2^+0.0000P] where P=(Fo^2^+2Fc^2^)/3'
_atom_sites_solution_primary     direct
_atom_sites_solution_secondary   difmap
_atom_sites_solution_hydrogens   geom
_refine_ls_hydrogen_treatment    constr
_refine_ls_extinction_method     none
_refine_ls_extinction_coef       ?

_refine_ls_number_reflns         21359
_refine_ls_number_parameters     529
_refine_ls_number_restraints     1
_refine_ls_R_factor_all          0.0662
_refine_ls_R_factor_gt           0.0436
_refine_ls_wR_factor_ref         0.0921
_refine_ls_wR_factor_gt          0.0866
_refine_ls_goodness_of_fit_ref   0.886
_refine_ls_restrained_S_all      0.886
_refine_ls_shift/su_max          0.001
_refine_ls_shift/su_mean         0.000

loop_
_atom_site_label
_atom_site_type_symbol
_atom_site_fract_x
_atom_site_fract_y
_atom_site_fract_z
_atom_site_U_iso_or_equiv
_atom_site_adp_type
_atom_site_occupancy
_atom_site_symmetry_multiplicity
_atom_site_calc_flag
_atom_site_refinement_flags
_atom_site_disorder_assembly
_atom_site_disorder_group
Cu1 Cu 0.0000 0.100735(10) 0.19256(3) 0.02787(10) Uani 1 2 d S . .
Cu2 Cu 0.0000 0.173286(11) 0.19163(3) 0.03203(11) Uani 1 2 d S . .
Cu3 Cu 0.229477(13) 0.273309(9) 0.377001(19) 0.03635(9) Uani 1 1 d . . .
Cu4 Cu 0.290773(13) 0.231443(9) 0.45306(2) 0.03688(9) Uani 1 1 d . . .
O1 O 0.21732(8) 0.19082(6) -0.11413(13) 0.0520(6) Uani 1 1 d . . .
O2 O 0.16708(7) 0.22625(5) -0.05042(14) 0.0516(5) Uani 1 1 d . . .
O3 O 0.04978(8) 0.10725(5) 0.11581(12) 0.0463(6) Uani 1 1 d . . .
O4 O 0.04926(8) 0.16792(6) 0.11284(12) 0.0490(6) Uani 1 1 d . . .
O5 O 0.04945(8) 0.10516(5) 0.26612(11) 0.0447(5) Uani 1 1 d . . .
O6 O 0.05024(7) 0.16699(5) 0.26420(11) 0.0396(5) Uani 1 1 d . . .
O7 O 0.24057(8) 0.19424(6) 0.44934(15) 0.0564(6) Uani 1 1 d . . .
O8 O 0.18998(7) 0.22798(6) 0.38234(14) 0.0542(6) Uani 1 1 d . . .
O9 O 0.20423(8) 0.28920(6) 0.46997(12) 0.0553(6) Uani 1 1 d . . .
O10 O 0.25618(8) 0.25470(7) 0.53346(11) 0.0517(6) Uani 1 1 d . . .
O11 O 0.18785(8) 0.28345(6) 0.85393(11) 0.0525(6) Uani 1 1 d . . .
O12 O 0.23933(8) 0.24698(6) 0.79184(11) 0.0514(6) Uani 1 1 d . . .
O13 O 0.0000 0.04343(8) 0.1834(3) 0.1051(15) Uani 1 2 d S . .
O14 O 0.0000 0.23178(7) 0.2011(2) 0.0662(10) Uani 1 2 d S . .
O15 O 0.17728(10) 0.30549(8) 0.32189(17) 0.0914(10) Uani 1 1 d . . .
O16 O 0.34111(9) 0.19697(9) 0.50525(16) 0.0886(9) Uani 1 1 d . . .
C1 C 0.06089(11) 0.13673(9) 0.08875(17) 0.0376(7) Uani 1 1 d . . .
C2 C 0.09233(12) 0.13572(8) 0.02343(17) 0.0445(8) Uani 1 1 d . . .
C3 C 0.09533(11) 0.10376(9) -0.01627(18) 0.0475(8) Uani 1 1 d . . .
H3 H 0.0775 0.0829 -0.0012 0.057 Uiso 1 1 calc R . .
C4 C 0.12380(11) 0.10181(9) -0.07727(17) 0.0461(8) Uani 1 1 d . . .
C5 C 0.15159(12) 0.13266(9) -0.09851(18) 0.0507(9) Uani 1 1 d . . .
H5 H 0.1728 0.1311 -0.1391 0.061 Uiso 1 1 calc R . .
C6 C 0.14784(11) 0.16459(8) -0.06048(17) 0.0453(8) Uani 1 1 d . . .
C7 C 0.11707(11) 0.16598(9) -0.00035(18) 0.0466(8) Uani 1 1 d . . .
H7 H 0.1131 0.1885 0.0248 0.056 Uiso 1 1 calc R . .
C8 C 0.18043(12) 0.19612(9) -0.07764(17) 0.0429(8) Uani 1 1 d . . .
C9 C 0.12864(12) 0.06656(8) -0.1206(2) 0.0552(9) Uani 1 1 d . . .
C10 C 0.12703(11) 0.03329(8) -0.08413(17) 0.0470(8) Uani 1 1 d . . .
H10 H 0.1240 0.0334 -0.0327 0.056 Uiso 1 1 calc R . .
C11 C 0.12960(16) 0.0000 -0.1198(3) 0.0482(11) Uani 1 2 d S . .
C12 C 0.13144(18) 0.0000 -0.1977(2) 0.0557(13) Uani 1 2 d S . .
C13 C 0.13554(14) 0.03434(9) -0.23285(19) 0.0645(10) Uani 1 1 d . . .
H13 H 0.1405 0.0352 -0.2839 0.077 Uiso 1 1 calc R . .
C14 C 0.13245(13) 0.06610(9) -0.19464(19) 0.0589(10) Uani 1 1 d . . .
H14 H 0.1329 0.0887 -0.2202 0.071 Uiso 1 1 calc R . .
C15 C 0.06525(11) 0.13639(8) 0.28568(17) 0.0361(7) Uani 1 1 d . . .
C16 C 0.10547(11) 0.13582(8) 0.34219(16) 0.0395(7) Uani 1 1 d . . .
C17 C 0.11754(10) 0.10346(8) 0.37811(18) 0.0422(7) Uani 1 1 d . . .
H17 H 0.0991 0.0820 0.3686 0.051 Uiso 1 1 calc R . .
C18 C 0.15565(12) 0.10166(8) 0.42739(17) 0.0445(8) Uani 1 1 d . . .
C19 C 0.18145(12) 0.13324(9) 0.43926(19) 0.0549(9) Uani 1 1 d . . .
H19 H 0.2077 0.1327 0.4727 0.066 Uiso 1 1 calc R . .
C20 C 0.17085(10) 0.16560(8) 0.40472(16) 0.0399(7) Uani 1 1 d . . .
C21 C 0.13211(11) 0.16684(8) 0.35579(16) 0.0439(8) Uani 1 1 d . . .
H21 H 0.1242 0.1891 0.3320 0.053 Uiso 1 1 calc R . .
C22 C 0.20280(12) 0.19907(9) 0.41299(18) 0.0434(8) Uani 1 1 d . . .
C23 C 0.16817(11) 0.06627(9) 0.46469(18) 0.0477(8) Uani 1 1 d . . .
C24 C 0.18714(12) 0.06535(9) 0.53555(18) 0.0546(9) Uani 1 1 d . . .
H24 H 0.1933 0.0878 0.5597 0.066 Uiso 1 1 calc R . .
C25 C 0.19699(13) 0.03340(9) 0.57093(18) 0.0560(9) Uani 1 1 d . . .
H25 H 0.2101 0.0340 0.6186 0.067 Uiso 1 1 calc R . .
C26 C 0.18797(16) 0.0000 0.5375(3) 0.0472(11) Uani 1 2 d S . .
C27 C 0.16859(16) 0.0000 0.4651(2) 0.0467(11) Uani 1 2 d S . .
C28 C 0.16049(12) 0.03401(8) 0.43126(17) 0.0463(8) Uani 1 1 d . . .
H28 H 0.1491 0.0342 0.3826 0.056 Uiso 1 1 calc R . .
C29 C 0.22164(13) 0.27744(9) 0.52723(18) 0.0433(8) Uani 1 1 d . . .
C30 C 0.19724(12) 0.28999(9) 0.59601(16) 0.0429(8) Uani 1 1 d . . .
C31 C 0.15896(12) 0.31404(9) 0.59258(16) 0.0449(8) Uani 1 1 d . . .
H31 H 0.1500 0.3243 0.5471 0.054 Uiso 1 1 calc R . .
C32 C 0.13311(12) 0.32369(8) 0.65473(17) 0.0446(8) Uani 1 1 d . . .
C33 C 0.14899(11) 0.30924(9) 0.72163(17) 0.0467(8) Uani 1 1 d . . .
H33 H 0.1320 0.3157 0.7647 0.056 Uiso 1 1 calc R . .
C34 C 0.18920(11) 0.28547(8) 0.72691(17) 0.0418(8) Uani 1 1 d . . .
C35 C 0.21320(12) 0.27617(7) 0.66345(19) 0.0411(7) Uani 1 1 d . . .
H35 H 0.2406 0.2604 0.6653 0.049 Uiso 1 1 calc R . .
C36 C 0.20655(12) 0.27119(8) 0.79584(18) 0.0399(8) Uani 1 1 d . . .
C37 C 0.08807(12) 0.34496(9) 0.64944(18) 0.0463(8) Uani 1 1 d . . .
C38 C 0.04514(13) 0.33078(9) 0.66883(19) 0.0546(9) Uani 1 1 d . . .
H38 H 0.0450 0.3077 0.6924 0.066 Uiso 1 1 calc R . .
C39 C 0.0000 0.34821(13) 0.6562(2) 0.0459(11) Uani 1 2 d S . .
C40 C 0.0000 0.38122(14) 0.6207(3) 0.0654(15) Uani 1 2 d S . .
C41 C 0.04544(16) 0.39596(11) 0.6014(2) 0.0811(13) Uani 1 1 d . . .
H41 H 0.0461 0.4191 0.5779 0.097 Uiso 1 1 calc R . .
C42 C 0.08692(15) 0.37958(10) 0.6143(2) 0.0693(11) Uani 1 1 d . . .
H42 H 0.1164 0.3909 0.6000 0.083 Uiso 1 1 calc R . .

loop_
_atom_site_aniso_label
_atom_site_aniso_U_11
_atom_site_aniso_U_22
_atom_site_aniso_U_33
_atom_site_aniso_U_23
_atom_site_aniso_U_13
_atom_site_aniso_U_12
Cu1 0.0258(2) 0.0178(2) 0.0400(3) -0.0001(2) 0.000 0.000
Cu2 0.0325(3) 0.0188(2) 0.0447(3) 0.0005(2) 0.000 0.000
Cu3 0.03639(19) 0.03630(18) 0.03636(19) -0.00282(17) -0.00993(18) -0.00161(16)
Cu4 0.0364(2) 0.03736(19) 0.03692(19) -0.00030(18) -0.00954(19) -0.00203(16)
O1 0.0515(14) 0.0488(13) 0.0557(15) -0.0030(11) 0.0215(13) -0.0077(10)
O2 0.0489(13) 0.0350(12) 0.0710(15) 0.0045(13) 0.0180(13) -0.0089(10)
O3 0.0506(14) 0.0280(12) 0.0604(15) 0.0002(10) 0.0211(12) -0.0005(10)
O4 0.0489(14) 0.0432(14) 0.0550(14) -0.0005(11) 0.0097(11) -0.0056(11)
O5 0.0431(13) 0.0321(12) 0.0589(15) -0.0036(10) -0.0081(11) -0.0017(10)
O6 0.0443(13) 0.0244(11) 0.0500(13) 0.0005(9) -0.0032(10) 0.0010(9)
O7 0.0440(13) 0.0494(13) 0.0759(16) 0.0065(13) -0.0135(14) -0.0106(10)
O8 0.0427(12) 0.0510(14) 0.0689(16) 0.0003(13) -0.0104(13) -0.0091(11)
O9 0.0691(16) 0.0562(14) 0.0406(15) -0.0019(11) -0.0004(12) 0.0003(12)
O10 0.0414(13) 0.0694(16) 0.0444(14) -0.0019(11) -0.0052(11) 0.0141(12)
O11 0.0631(15) 0.0495(13) 0.0448(15) 0.0070(10) 0.0088(11) 0.0120(12)
O12 0.0529(14) 0.0601(14) 0.0413(13) 0.0005(11) 0.0134(11) 0.0137(12)
O13 0.077(3) 0.0255(16) 0.213(5) -0.014(3) 0.000 0.000
O14 0.081(2) 0.0227(15) 0.095(3) -0.0056(18) 0.000 0.000
O15 0.087(2) 0.084(2) 0.104(2) 0.0052(17) -0.0440(18) 0.0278(17)
O16 0.0522(16) 0.115(2) 0.099(2) 0.0361(18) -0.0095(15) 0.0235(16)
C1 0.0296(17) 0.041(2) 0.0427(19) -0.0056(15) 0.0011(14) -0.0049(14)
C2 0.049(2) 0.0412(19) 0.0431(19) 0.0060(15) 0.0072(16) -0.0115(16)
C3 0.0442(19) 0.0424(19) 0.056(2) 0.0019(15) 0.0143(17) -0.0059(15)
C4 0.0439(19) 0.0463(19) 0.048(2) 0.0023(15) 0.0107(16) -0.0114(16)
C5 0.056(2) 0.044(2) 0.052(2) 0.0022(15) 0.0124(17) 0.0007(16)
C6 0.0430(19) 0.0472(19) 0.046(2) -0.0005(16) 0.0022(16) -0.0092(15)
C7 0.045(2) 0.0415(19) 0.054(2) -0.0026(16) 0.0056(17) 0.0039(15)
C8 0.042(2) 0.050(2) 0.0368(18) 0.0121(15) -0.0013(15) -0.0075(16)
C9 0.068(2) 0.0418(18) 0.056(2) -0.0079(18) 0.027(2) -0.0074(16)
C10 0.060(2) 0.0436(19) 0.0372(18) -0.0006(14) 0.0115(16) -0.0093(16)
C11 0.052(3) 0.055(3) 0.038(2) 0.000 0.005(2) 0.000
C12 0.070(3) 0.057(3) 0.041(3) 0.000 0.024(3) 0.000
C13 0.098(3) 0.048(2) 0.048(2) -0.0009(18) 0.019(2) -0.001(2)
C14 0.074(3) 0.048(2) 0.055(2) 0.0091(17) 0.022(2) 0.0051(19)
C15 0.0295(16) 0.0333(18) 0.0454(19) 0.0064(15) 0.0091(14) -0.0069(14)
C16 0.0311(17) 0.0430(18) 0.0443(18) 0.0001(14) -0.0056(14) -0.0064(14)
C17 0.0351(17) 0.0354(16) 0.056(2) -0.0054(16) -0.0147(17) -0.0077(13)
C18 0.051(2) 0.0360(17) 0.0467(19) 0.0011(14) -0.0104(15) -0.0098(15)
C19 0.045(2) 0.061(2) 0.058(2) -0.0089(18) -0.0202(18) -0.0045(16)
C20 0.0329(16) 0.0337(17) 0.053(2) -0.0074(14) -0.0113(15) -0.0019(13)
C21 0.0451(19) 0.0383(18) 0.048(2) -0.0046(14) -0.0056(16) -0.0006(15)
C22 0.042(2) 0.0380(18) 0.051(2) -0.0073(15) -0.0145(16) -0.0067(15)
C23 0.0419(18) 0.051(2) 0.050(2) -0.0044(16) -0.0096(16) -0.0006(15)
C24 0.067(2) 0.049(2) 0.049(2) -0.0065(16) -0.0236(18) -0.0081(18)
C25 0.069(2) 0.059(2) 0.0396(19) -0.0142(17) -0.0210(17) 0.0062(19)
C26 0.035(3) 0.057(3) 0.050(3) 0.000 -0.010(2) 0.000
C27 0.049(3) 0.045(3) 0.047(3) 0.000 -0.016(2) 0.000
C28 0.054(2) 0.0409(18) 0.0435(19) 0.0008(15) -0.0164(15) 0.0010(15)
C29 0.049(2) 0.0477(19) 0.0335(19) -0.0032(15) -0.0039(16) -0.0208(17)
C30 0.047(2) 0.0451(19) 0.0368(18) 0.0025(14) -0.0036(15) -0.0076(16)
C31 0.055(2) 0.050(2) 0.0296(17) 0.0064(14) -0.0046(16) -0.0059(17)
C32 0.043(2) 0.0463(19) 0.044(2) 0.0036(15) -0.0044(15) -0.0120(16)
C33 0.045(2) 0.055(2) 0.0405(18) -0.0010(15) 0.0126(16) -0.0031(16)
C34 0.0403(18) 0.0446(19) 0.0406(18) 0.0050(14) 0.0033(15) -0.0098(15)
C35 0.039(2) 0.0368(16) 0.0473(17) -0.0038(14) 0.0076(14) -0.0026(15)
C36 0.0366(19) 0.0406(18) 0.043(2) -0.0019(15) 0.0050(16) -0.0095(16)
C37 0.036(2) 0.0474(19) 0.056(2) 0.0045(16) 0.0006(16) -0.0006(16)
C38 0.052(2) 0.0477(19) 0.064(2) 0.0108(17) -0.0001(17) -0.0004(18)
C39 0.038(3) 0.064(3) 0.036(3) 0.012(2) 0.000 0.000
C40 0.070(4) 0.043(3) 0.084(4) 0.010(3) 0.000 0.000
C41 0.068(3) 0.061(3) 0.114(4) 0.023(2) 0.003(3) -0.018(2)
C42 0.059(3) 0.053(2) 0.096(3) 0.020(2) 0.018(2) -0.004(2)

_geom_special_details            
;
All esds (except the esd in the dihedral angle between two l.s. planes)
are estimated using the full covariance matrix. The cell esds are taken
into account individually in the estimation of esds in distances, angles
and torsion angles; correlations between esds in cell parameters are only
used when they are defined by crystal symmetry. An approximate (isotropic)
treatment of cell esds is used for estimating esds involving l.s. planes.
;

loop_
_geom_bond_atom_site_label_1
_geom_bond_atom_site_label_2
_geom_bond_distance
_geom_bond_site_symmetry_2
_geom_bond_publ_flag
Cu1 O5 1.928(2) . ?
Cu1 O5 1.928(2) 3 ?
Cu1 O3 1.983(2) . ?
Cu1 O3 1.983(2) 3 ?
Cu1 O13 2.102(3) . ?
Cu1 Cu2 2.6524(6) . ?
Cu2 O6 1.937(2) 3 ?
Cu2 O6 1.937(2) . ?
Cu2 O4 1.996(2) . ?
Cu2 O4 1.996(2) 3 ?
Cu2 O14 2.146(3) . ?
Cu3 O12 1.936(2) 6_554 ?
Cu3 O9 1.937(2) . ?
Cu3 O1 1.973(2) 6 ?
Cu3 O8 1.985(2) . ?
Cu3 O15 2.117(2) . ?
Cu3 Cu4 2.6749(5) . ?
Cu4 O2 1.9349(19) 6 ?
Cu4 O7 1.941(2) . ?
Cu4 O10 1.955(2) . ?
Cu4 O11 1.994(2) 6_554 ?
Cu4 O16 2.106(2) . ?
O1 C8 1.234(3) . ?
O1 Cu3 1.973(2) 6_554 ?
O2 C8 1.265(4) . ?
O2 Cu4 1.9349(19) 6_554 ?
O3 C1 1.226(3) . ?
O4 C1 1.265(3) . ?
O5 C15 1.274(3) . ?
O6 C15 1.256(3) . ?
O7 C22 1.250(4) . ?
O8 C22 1.249(4) . ?
O9 C29 1.235(4) . ?
O10 C29 1.269(4) . ?
O11 C36 1.269(4) . ?
O11 Cu4 1.994(2) 6 ?
O12 C36 1.266(4) . ?
O12 Cu3 1.936(2) 6 ?
C1 C2 1.483(4) . ?
C2 C7 1.371(4) . ?
C2 C3 1.381(4) . ?
C3 C4 1.372(4) . ?
C3 H3 0.9500 . ?
C4 C5 1.418(4) . ?
C4 C9 1.521(4) . ?
C5 C6 1.365(4) . ?
C5 H5 0.9500 . ?
C6 C7 1.395(4) . ?
C6 C8 1.495(4) . ?
C7 H7 0.9500 . ?
C9 C14 1.368(4) . ?
C9 C10 1.390(4) . ?
C10 C11 1.385(4) . ?
C10 H10 0.9500 . ?
C11 C10 1.384(4) 4 ?
C11 C12 1.435(6) . ?
C12 C13 1.417(4) . ?
C12 C13 1.417(4) 4 ?
C13 C14 1.360(4) . ?
C13 H13 0.9500 . ?
C14 H14 0.9500 . ?
C15 C16 1.520(4) . ?
C16 C21 1.374(4) . ?
C16 C17 1.396(4) . ?
C17 C18 1.389(4) . ?
C17 H17 0.9500 . ?
C18 C19 1.374(4) . ?
C18 C23 1.505(4) . ?
C19 C20 1.375(4) . ?
C19 H19 0.9500 . ?
C20 C21 1.397(4) . ?
C20 C22 1.515(4) . ?
C21 H21 0.9500 . ?
C23 C28 1.347(4) . ?
C23 C24 1.406(4) . ?
C24 C25 1.365(4) . ?
C24 H24 0.9500 . ?
C25 C26 1.389(4) . ?
C25 H25 0.9500 . ?
C26 C25 1.390(4) 4 ?
C26 C27 1.437(6) . ?
C27 C28 1.408(4) . ?
C27 C28 1.408(4) 4 ?
C28 H28 0.9500 . ?
C29 C30 1.505(5) . ?
C30 C31 1.375(4) . ?
C30 C35 1.411(4) . ?
C31 C32 1.393(4) . ?
C31 H31 0.9500 . ?
C32 C33 1.410(4) . ?
C32 C37 1.467(4) . ?
C33 C34 1.411(4) . ?
C33 H33 0.9500 . ?
C34 C35 1.385(4) . ?
C34 C36 1.453(4) . ?
C35 H35 0.9500 . ?
C37 C38 1.340(4) . ?
C37 C42 1.422(5) . ?
C38 C39 1.416(4) . ?
C38 H38 0.9500 . ?
C39 C40 1.373(6) . ?
C39 C38 1.416(4) 3 ?
C40 C41 1.408(4) 3 ?
C40 C41 1.408(4) . ?
C41 C42 1.312(5) . ?
C41 H41 0.9500 . ?
C42 H42 0.9500 . ?

loop_
_geom_angle_atom_site_label_1
_geom_angle_atom_site_label_2
_geom_angle_atom_site_label_3
_geom_angle
_geom_angle_site_symmetry_1
_geom_angle_site_symmetry_3
_geom_angle_publ_flag
O5 Cu1 O5 89.92(13) . 3 ?
O5 Cu1 O3 90.12(9) . . ?
O5 Cu1 O3 168.24(8) 3 . ?
O5 Cu1 O3 168.24(8) . 3 ?
O5 Cu1 O3 90.11(9) 3 3 ?
O3 Cu1 O3 87.47(13) . 3 ?
O5 Cu1 O13 98.05(13) . . ?
O5 Cu1 O13 98.05(13) 3 . ?
O3 Cu1 O13 93.58(13) . . ?
O3 Cu1 O13 93.59(13) 3 . ?
O5 Cu1 Cu2 85.45(6) . . ?
O5 Cu1 Cu2 85.44(6) 3 . ?
O3 Cu1 Cu2 82.84(6) . . ?
O3 Cu1 Cu2 82.84(6) 3 . ?
O13 Cu1 Cu2 175.03(16) . . ?
O6 Cu2 O6 91.17(12) 3 . ?
O6 Cu2 O4 167.21(8) 3 . ?
O6 Cu2 O4 90.23(8) . . ?
O6 Cu2 O4 90.23(8) 3 3 ?
O6 Cu2 O4 167.21(8) . 3 ?
O4 Cu2 O4 85.66(13) . 3 ?
O6 Cu2 O14 93.59(9) 3 . ?
O6 Cu2 O14 93.59(9) . . ?
O4 Cu2 O14 99.01(9) . . ?
O4 Cu2 O14 99.01(9) 3 . ?
O6 Cu2 Cu1 82.92(6) 3 . ?
O6 Cu2 Cu1 82.92(6) . . ?
O4 Cu2 Cu1 84.64(6) . . ?
O4 Cu2 Cu1 84.64(6) 3 . ?
O14 Cu2 Cu1 174.99(10) . . ?
O12 Cu3 O9 171.98(10) 6_554 . ?
O12 Cu3 O1 89.54(10) 6_554 6 ?
O9 Cu3 O1 89.66(10) . 6 ?
O12 Cu3 O8 87.92(10) 6_554 . ?
O9 Cu3 O8 90.56(10) . . ?
O1 Cu3 O8 163.31(9) 6 . ?
O12 Cu3 O15 97.25(11) 6_554 . ?
O9 Cu3 O15 90.75(12) . . ?
O1 Cu3 O15 100.06(11) 6 . ?
O8 Cu3 O15 96.63(11) . . ?
O12 Cu3 Cu4 85.68(6) 6_554 . ?
O9 Cu3 Cu4 86.30(7) . . ?
O1 Cu3 Cu4 82.42(6) 6 . ?
O8 Cu3 Cu4 80.93(7) . . ?
O15 Cu3 Cu4 176.15(9) . . ?
O2 Cu4 O7 170.56(9) 6 . ?
O2 Cu4 O10 88.27(10) 6 . ?
O7 Cu4 O10 89.10(10) . . ?
O2 Cu4 O11 90.62(10) 6 6_554 ?
O7 Cu4 O11 89.24(10) . 6_554 ?
O10 Cu4 O11 162.93(9) . 6_554 ?
O2 Cu4 O16 95.65(11) 6 . ?
O7 Cu4 O16 93.78(11) . . ?
O10 Cu4 O16 103.63(11) . . ?
O11 Cu4 O16 93.43(11) 6_554 . ?
O2 Cu4 Cu3 84.49(7) 6 . ?
O7 Cu4 Cu3 86.14(7) . . ?
O10 Cu4 Cu3 80.79(7) . . ?
O11 Cu4 Cu3 82.15(6) 6_554 . ?
O16 Cu4 Cu3 175.58(9) . . ?
C8 O1 Cu3 123.5(2) . 6_554 ?
C8 O2 Cu4 122.3(2) . 6_554 ?
C1 O3 Cu1 124.6(2) . . ?
C1 O4 Cu2 121.0(2) . . ?
C15 O5 Cu1 121.01(19) . . ?
C15 O6 Cu2 123.91(19) . . ?
C22 O7 Cu4 120.9(2) . . ?
C22 O8 Cu3 125.0(2) . . ?
C29 O9 Cu3 120.7(2) . . ?
C29 O10 Cu4 125.6(2) . . ?
C36 O11 Cu4 123.7(2) . 6 ?
C36 O12 Cu3 122.5(2) . 6 ?
O3 C1 O4 125.9(3) . . ?
O3 C1 C2 117.0(3) . . ?
O4 C1 C2 117.1(3) . . ?
C7 C2 C3 118.9(3) . . ?
C7 C2 C1 122.0(3) . . ?
C3 C2 C1 119.0(3) . . ?
C4 C3 C2 120.8(3) . . ?
C4 C3 H3 119.6 . . ?
C2 C3 H3 119.6 . . ?
C3 C4 C5 119.5(3) . . ?
C3 C4 C9 121.5(3) . . ?
C5 C4 C9 118.8(3) . . ?
C6 C5 C4 119.9(3) . . ?
C6 C5 H5 120.1 . . ?
C4 C5 H5 120.1 . . ?
C5 C6 C7 119.0(3) . . ?
C5 C6 C8 120.4(3) . . ?
C7 C6 C8 120.3(3) . . ?
C2 C7 C6 121.7(3) . . ?
C2 C7 H7 119.1 . . ?
C6 C7 H7 119.1 . . ?
O1 C8 O2 126.3(3) . . ?
O1 C8 C6 119.3(3) . . ?
O2 C8 C6 114.4(3) . . ?
C14 C9 C10 118.2(3) . . ?
C14 C9 C4 122.7(3) . . ?
C10 C9 C4 119.1(3) . . ?
C11 C10 C9 122.6(3) . . ?
C11 C10 H10 118.7 . . ?
C9 C10 H10 118.7 . . ?
C10 C11 C10 123.0(4) 4 . ?
C10 C11 C12 118.4(2) 4 . ?
C10 C11 C12 118.4(2) . . ?
C13 C12 C13 124.7(4) . 4 ?
C13 C12 C11 117.4(2) . . ?
C13 C12 C11 117.4(2) 4 . ?
C14 C13 C12 121.0(3) . . ?
C14 C13 H13 119.5 . . ?
C12 C13 H13 119.5 . . ?
C13 C14 C9 122.1(3) . . ?
C13 C14 H14 119.0 . . ?
C9 C14 H14 119.0 . . ?
O6 C15 O5 126.6(3) . . ?
O6 C15 C16 117.9(3) . . ?
O5 C15 C16 115.5(3) . . ?
C21 C16 C17 119.1(3) . . ?
C21 C16 C15 120.2(3) . . ?
C17 C16 C15 120.6(3) . . ?
C18 C17 C16 122.0(3) . . ?
C18 C17 H17 119.0 . . ?
C16 C17 H17 119.0 . . ?
C19 C18 C17 117.1(3) . . ?
C19 C18 C23 122.1(3) . . ?
C17 C18 C23 120.8(3) . . ?
C18 C19 C20 122.7(3) . . ?
C18 C19 H19 118.7 . . ?
C20 C19 H19 118.7 . . ?
C19 C20 C21 119.2(3) . . ?
C19 C20 C22 121.7(3) . . ?
C21 C20 C22 118.8(3) . . ?
C16 C21 C20 119.9(3) . . ?
C16 C21 H21 120.0 . . ?
C20 C21 H21 120.0 . . ?
O8 C22 O7 126.7(3) . . ?
O8 C22 C20 118.3(3) . . ?
O7 C22 C20 115.1(3) . . ?
C28 C23 C24 117.5(3) . . ?
C28 C23 C18 120.5(3) . . ?
C24 C23 C18 122.0(3) . . ?
C25 C24 C23 122.5(3) . . ?
C25 C24 H24 118.7 . . ?
C23 C24 H24 118.7 . . ?
C24 C25 C26 120.4(3) . . ?
C24 C25 H25 119.8 . . ?
C26 C25 H25 119.8 . . ?
C25 C26 C25 123.0(4) . 4 ?
C25 C26 C27 118.5(2) . . ?
C25 C26 C27 118.5(2) 4 . ?
C28 C27 C28 124.0(4) . 4 ?
C28 C27 C26 118.0(2) . . ?
C28 C27 C26 118.0(2) 4 . ?
C23 C28 C27 123.1(3) . . ?
C23 C28 H28 118.5 . . ?
C27 C28 H28 118.5 . . ?
O9 C29 O10 126.6(3) . . ?
O9 C29 C30 116.0(3) . . ?
O10 C29 C30 117.3(3) . . ?
C31 C30 C35 120.6(3) . . ?
C31 C30 C29 119.9(3) . . ?
C35 C30 C29 119.5(3) . . ?
C30 C31 C32 121.1(3) . . ?
C30 C31 H31 119.5 . . ?
C32 C31 H31 119.5 . . ?
C31 C32 C33 117.6(3) . . ?
C31 C32 C37 120.8(3) . . ?
C33 C32 C37 121.3(3) . . ?
C32 C33 C34 122.3(3) . . ?
C32 C33 H33 118.8 . . ?
C34 C33 H33 118.8 . . ?
C35 C34 C33 117.9(3) . . ?
C35 C34 C36 119.4(3) . . ?
C33 C34 C36 122.6(3) . . ?
C34 C35 C30 120.4(3) . . ?
C34 C35 H35 119.8 . . ?
C30 C35 H35 119.8 . . ?
O12 C36 O11 125.8(3) . . ?
O12 C36 C34 115.8(3) . . ?
O11 C36 C34 118.4(3) . . ?
C38 C37 C42 116.5(3) . . ?
C38 C37 C32 121.6(3) . . ?
C42 C37 C32 121.4(3) . . ?
C37 C38 C39 123.9(3) . . ?
C37 C38 H38 118.1 . . ?
C39 C38 H38 118.1 . . ?
C40 C39 C38 118.3(2) . . ?
C40 C39 C38 118.3(2) . 3 ?
C38 C39 C38 122.8(4) . 3 ?
C39 C40 C41 117.1(3) . 3 ?
C39 C40 C41 117.1(3) . . ?
C41 C40 C41 125.5(5) 3 . ?
C42 C41 C40 123.7(4) . . ?
C42 C41 H41 118.2 . . ?
C40 C41 H41 118.2 . . ?
C41 C42 C37 120.5(4) . . ?
C41 C42 H42 119.7 . . ?
C37 C42 H42 119.7 . . ?

loop_
_geom_torsion_atom_site_label_1
_geom_torsion_atom_site_label_2
_geom_torsion_atom_site_label_3
_geom_torsion_atom_site_label_4
_geom_torsion
_geom_torsion_site_symmetry_1
_geom_torsion_site_symmetry_2
_geom_torsion_site_symmetry_3
_geom_torsion_site_symmetry_4
_geom_torsion_publ_flag
O5 Cu1 Cu2 O6 -91.18(9) . . . 3 ?
O5 Cu1 Cu2 O6 -0.89(9) 3 . . 3 ?
O3 Cu1 Cu2 O6 178.13(10) . . . 3 ?
O3 Cu1 Cu2 O6 89.79(9) 3 . . 3 ?
O13 Cu1 Cu2 O6 133.96(6) . . . 3 ?
O5 Cu1 Cu2 O6 0.89(9) . . . . ?
O5 Cu1 Cu2 O6 91.18(9) 3 . . . ?
O3 Cu1 Cu2 O6 -89.80(9) . . . . ?
O3 Cu1 Cu2 O6 -178.14(10) 3 . . . ?
O13 Cu1 Cu2 O6 -133.96(6) . . . . ?
O5 Cu1 Cu2 O4 91.80(9) . . . . ?
O5 Cu1 Cu2 O4 -177.92(10) 3 . . . ?
O3 Cu1 Cu2 O4 1.11(9) . . . . ?
O3 Cu1 Cu2 O4 -87.23(10) 3 . . . ?
O13 Cu1 Cu2 O4 -43.06(7) . . . . ?
O5 Cu1 Cu2 O4 177.92(10) . . . 3 ?
O5 Cu1 Cu2 O4 -91.79(9) 3 . . 3 ?
O3 Cu1 Cu2 O4 87.23(10) . . . 3 ?
O3 Cu1 Cu2 O4 -1.11(9) 3 . . 3 ?
O13 Cu1 Cu2 O4 43.06(7) . . . 3 ?
O5 Cu1 Cu2 O14 -45.14(6) . . . . ?
O5 Cu1 Cu2 O14 45.14(7) 3 . . . ?
O3 Cu1 Cu2 O14 -135.83(7) . . . . ?
O3 Cu1 Cu2 O14 135.83(7) 3 . . . ?
O13 Cu1 Cu2 O14 180.000(3) . . . . ?
O12 Cu3 Cu4 O2 90.34(10) 6_554 . . 6 ?
O9 Cu3 Cu4 O2 -89.92(10) . . . 6 ?
O1 Cu3 Cu4 O2 0.23(10) 6 . . 6 ?
O8 Cu3 Cu4 O2 178.91(11) . . . 6 ?
O15 Cu3 Cu4 O2 -130.1(13) . . . 6 ?
O12 Cu3 Cu4 O7 -90.81(10) 6_554 . . . ?
O9 Cu3 Cu4 O7 88.92(10) . . . . ?
O1 Cu3 Cu4 O7 179.07(11) 6 . . . ?
O8 Cu3 Cu4 O7 -2.24(11) . . . . ?
O15 Cu3 Cu4 O7 48.7(13) . . . . ?
O12 Cu3 Cu4 O10 179.48(10) 6_554 . . . ?
O9 Cu3 Cu4 O10 -0.79(10) . . . . ?
O1 Cu3 Cu4 O10 89.36(10) 6 . . . ?
O8 Cu3 Cu4 O10 -91.95(10) . . . . ?
O15 Cu3 Cu4 O10 -41.0(13) . . . . ?
O12 Cu3 Cu4 O11 -1.05(9) 6_554 . . 6_554 ?
O9 Cu3 Cu4 O11 178.68(10) . . . 6_554 ?
O1 Cu3 Cu4 O11 -91.16(10) 6 . . 6_554 ?
O8 Cu3 Cu4 O11 87.52(10) . . . 6_554 ?
O15 Cu3 Cu4 O11 138.5(13) . . . 6_554 ?
O12 Cu3 Cu4 O16 -1.7(11) 6_554 . . . ?
O9 Cu3 Cu4 O16 178(100) . . . . ?
O1 Cu3 Cu4 O16 -91.8(11) 6 . . . ?
O8 Cu3 Cu4 O16 86.9(11) . . . . ?
O15 Cu3 Cu4 O16 137.9(18) . . . . ?
O5 Cu1 O3 C1 -92.4(3) . . . . ?
O5 Cu1 O3 C1 -2.2(7) 3 . . . ?
O3 Cu1 O3 C1 76.1(3) 3 . . . ?
O13 Cu1 O3 C1 169.5(3) . . . . ?
Cu2 Cu1 O3 C1 -7.0(2) . . . . ?
O6 Cu2 O4 C1 -9.5(6) 3 . . . ?
O6 Cu2 O4 C1 86.8(2) . . . . ?
O4 Cu2 O4 C1 -81.1(2) 3 . . . ?
O14 Cu2 O4 C1 -179.6(2) . . . . ?
Cu1 Cu2 O4 C1 3.9(2) . . . . ?
O5 Cu1 O5 C15 -87.9(2) 3 . . . ?
O3 Cu1 O5 C15 80.4(2) . . . . ?
O3 Cu1 O5 C15 2.3(6) 3 . . . ?
O13 Cu1 O5 C15 174.0(2) . . . . ?
Cu2 Cu1 O5 C15 -2.4(2) . . . . ?
O6 Cu2 O6 C15 83.1(2) 3 . . . ?
O4 Cu2 O6 C15 -84.1(2) . . . . ?
O4 Cu2 O6 C15 -13.1(6) 3 . . . ?
O14 Cu2 O6 C15 176.8(2) . . . . ?
Cu1 Cu2 O6 C15 0.4(2) . . . . ?
O2 Cu4 O7 C22 12.6(8) 6 . . . ?
O10 Cu4 O7 C22 86.4(3) . . . . ?
O11 Cu4 O7 C22 -76.6(3) 6_554 . . . ?
O16 Cu4 O7 C22 -170.0(3) . . . . ?
Cu3 Cu4 O7 C22 5.6(3) . . . . ?
O12 Cu3 O8 C22 85.6(3) 6_554 . . . ?
O9 Cu3 O8 C22 -86.5(3) . . . . ?
O1 Cu3 O8 C22 4.2(5) 6 . . . ?
O15 Cu3 O8 C22 -177.4(3) . . . . ?
Cu4 Cu3 O8 C22 -0.4(3) . . . . ?
O12 Cu3 O9 C29 2.6(8) 6_554 . . . ?
O1 Cu3 O9 C29 -81.7(2) 6 . . . ?
O8 Cu3 O9 C29 81.6(2) . . . . ?
O15 Cu3 O9 C29 178.3(2) . . . . ?
Cu4 Cu3 O9 C29 0.8(2) . . . . ?
O2 Cu4 O10 C29 85.8(3) 6 . . . ?
O7 Cu4 O10 C29 -85.1(3) . . . . ?
O11 Cu4 O10 C29 -0.7(5) 6_554 . . . ?
O16 Cu4 O10 C29 -178.8(3) . . . . ?
Cu3 Cu4 O10 C29 1.1(2) . . . . ?
Cu1 O3 C1 O4 12.9(5) . . . . ?
Cu1 O3 C1 C2 -169.5(2) . . . . ?
Cu2 O4 C1 O3 -10.9(4) . . . . ?
Cu2 O4 C1 C2 171.5(2) . . . . ?
O3 C1 C2 C7 -163.0(3) . . . . ?
O4 C1 C2 C7 14.8(5) . . . . ?
O3 C1 C2 C3 19.6(5) . . . . ?
O4 C1 C2 C3 -162.6(3) . . . . ?
C7 C2 C3 C4 2.1(5) . . . . ?
C1 C2 C3 C4 179.6(3) . . . . ?
C2 C3 C4 C5 1.9(5) . . . . ?
C2 C3 C4 C9 178.3(3) . . . . ?
C3 C4 C5 C6 -3.5(5) . . . . ?
C9 C4 C5 C6 180.0(3) . . . . ?
C4 C5 C6 C7 1.0(5) . . . . ?
C4 C5 C6 C8 174.0(3) . . . . ?
C3 C2 C7 C6 -4.7(5) . . . . ?
C1 C2 C7 C6 177.9(3) . . . . ?
C5 C6 C7 C2 3.1(5) . . . . ?
C8 C6 C7 C2 -169.8(3) . . . . ?
Cu3 O1 C8 O2 11.9(5) 6_554 . . . ?
Cu3 O1 C8 C6 -166.1(2) 6_554 . . . ?
Cu4 O2 C8 O1 -11.4(5) 6_554 . . . ?
Cu4 O2 C8 C6 166.7(2) 6_554 . . . ?
C5 C6 C8 O1 -16.2(5) . . . . ?
C7 C6 C8 O1 156.7(3) . . . . ?
C5 C6 C8 O2 165.6(3) . . . . ?
C7 C6 C8 O2 -21.5(4) . . . . ?
C3 C4 C9 C14 143.7(3) . . . . ?
C5 C4 C9 C14 -39.8(5) . . . . ?
C3 C4 C9 C10 -33.4(5) . . . . ?
C5 C4 C9 C10 143.1(3) . . . . ?
C14 C9 C10 C11 0.6(6) . . . . ?
C4 C9 C10 C11 177.9(3) . . . . ?
C9 C10 C11 C10 -178.6(3) . . . 4 ?
C9 C10 C11 C12 -3.4(6) . . . . ?
C10 C11 C12 C13 -178.1(4) 4 . . . ?
C10 C11 C12 C13 6.4(7) . . . . ?
C10 C11 C12 C13 -6.4(7) 4 . . 4 ?
C10 C11 C12 C13 178.1(4) . . . 4 ?
C13 C12 C13 C14 -178.2(3) 4 . . . ?
C11 C12 C13 C14 -7.1(7) . . . . ?
C12 C13 C14 C9 4.6(6) . . . . ?
C10 C9 C14 C13 -1.2(6) . . . . ?
C4 C9 C14 C13 -178.3(3) . . . . ?
Cu2 O6 C15 O5 -2.6(4) . . . . ?
Cu2 O6 C15 C16 179.08(18) . . . . ?
Cu1 O5 C15 O6 3.8(4) . . . . ?
Cu1 O5 C15 C16 -177.89(18) . . . . ?
O6 C15 C16 C21 -15.3(4) . . . . ?
O5 C15 C16 C21 166.2(3) . . . . ?
O6 C15 C16 C17 168.0(3) . . . . ?
O5 C15 C16 C17 -10.5(4) . . . . ?
C21 C16 C17 C18 0.1(5) . . . . ?
C15 C16 C17 C18 176.8(3) . . . . ?
C16 C17 C18 C19 -0.3(5) . . . . ?
C16 C17 C18 C23 -179.3(3) . . . . ?
C17 C18 C19 C20 0.0(5) . . . . ?
C23 C18 C19 C20 179.0(3) . . . . ?
C18 C19 C20 C21 0.5(5) . . . . ?
C18 C19 C20 C22 -173.8(3) . . . . ?
C17 C16 C21 C20 0.4(5) . . . . ?
C15 C16 C21 C20 -176.3(3) . . . . ?
C19 C20 C21 C16 -0.7(5) . . . . ?
C22 C20 C21 C16 173.8(3) . . . . ?
Cu3 O8 C22 O7 5.1(5) . . . . ?
Cu3 O8 C22 C20 -173.1(2) . . . . ?
Cu4 O7 C22 O8 -8.1(5) . . . . ?
Cu4 O7 C22 C20 170.2(2) . . . . ?
C19 C20 C22 O8 -177.2(3) . . . . ?
C21 C20 C22 O8 8.4(4) . . . . ?
C19 C20 C22 O7 4.4(5) . . . . ?
C21 C20 C22 O7 -170.0(3) . . . . ?
C19 C18 C23 C28 -148.2(3) . . . . ?
C17 C18 C23 C28 30.7(5) . . . . ?
C19 C18 C23 C24 33.2(5) . . . . ?
C17 C18 C23 C24 -147.9(3) . . . . ?
C28 C23 C24 C25 -1.1(5) . . . . ?
C18 C23 C24 C25 177.6(3) . . . . ?
C23 C24 C25 C26 -0.6(6) . . . . ?
C24 C25 C26 C25 -179.6(3) . . . 4 ?
C24 C25 C26 C27 0.6(6) . . . . ?
C25 C26 C27 C28 1.0(6) . . . . ?
C25 C26 C27 C28 -178.8(4) 4 . . . ?
C25 C26 C27 C28 178.8(4) . . . 4 ?
C25 C26 C27 C28 -1.0(6) 4 . . 4 ?
C24 C23 C28 C27 2.8(5) . . . . ?
C18 C23 C28 C27 -175.9(3) . . . . ?
C28 C27 C28 C23 179.6(3) 4 . . . ?
C26 C27 C28 C23 -2.8(6) . . . . ?
Cu3 O9 C29 O10 -0.2(4) . . . . ?
Cu3 O9 C29 C30 -176.54(19) . . . . ?
Cu4 O10 C29 O9 -1.0(5) . . . . ?
Cu4 O10 C29 C30 175.37(19) . . . . ?
O9 C29 C30 C31 -2.0(4) . . . . ?
O10 C29 C30 C31 -178.7(3) . . . . ?
O9 C29 C30 C35 176.4(3) . . . . ?
O10 C29 C30 C35 -0.3(4) . . . . ?
C35 C30 C31 C32 -3.9(5) . . . . ?
C29 C30 C31 C32 174.5(3) . . . . ?
C30 C31 C32 C33 2.9(5) . . . . ?
C30 C31 C32 C37 -170.9(3) . . . . ?
C31 C32 C33 C34 -0.7(5) . . . . ?
C37 C32 C33 C34 173.0(3) . . . . ?
C32 C33 C34 C35 -0.4(5) . . . . ?
C32 C33 C34 C36 178.4(3) . . . . ?
C33 C34 C35 C30 -0.6(4) . . . . ?
C36 C34 C35 C30 -179.4(3) . . . . ?
C31 C30 C35 C34 2.7(4) . . . . ?
C29 C30 C35 C34 -175.7(3) . . . . ?
Cu3 O12 C36 O11 -4.8(4) 6 . . . ?
Cu3 O12 C36 C34 175.80(19) 6 . . . ?
Cu4 O11 C36 O12 3.3(4) 6 . . . ?
Cu4 O11 C36 C34 -177.25(19) 6 . . . ?
C35 C34 C36 O12 -8.9(4) . . . . ?
C33 C34 C36 O12 172.3(3) . . . . ?
C35 C34 C36 O11 171.6(3) . . . . ?
C33 C34 C36 O11 -7.2(4) . . . . ?
C31 C32 C37 C38 114.6(4) . . . . ?
C33 C32 C37 C38 -58.9(5) . . . . ?
C31 C32 C37 C42 -56.6(5) . . . . ?
C33 C32 C37 C42 129.9(4) . . . . ?
C42 C37 C38 C39 0.0(5) . . . . ?
C32 C37 C38 C39 -171.5(4) . . . . ?
C37 C38 C39 C40 1.4(6) . . . . ?
C37 C38 C39 C38 171.8(3) . . . 3 ?
C38 C39 C40 C41 172.9(4) . . . 3 ?
C38 C39 C40 C41 2.1(7) 3 . . 3 ?
C38 C39 C40 C41 -2.1(7) . . . . ?
C38 C39 C40 C41 -172.9(4) 3 . . . ?
C39 C40 C41 C42 1.5(8) . . . . ?
C41 C40 C41 C42 -173.1(4) 3 . . . ?
C40 C41 C42 C37 0.0(7) . . . . ?
C38 C37 C42 C41 -0.7(6) . . . . ?
C32 C37 C42 C41 170.8(4) . . . . ?

_diffrn_measured_fraction_theta_max 0.995
_diffrn_reflns_theta_full        27.23
_diffrn_measured_fraction_theta_full 0.995
_refine_diff_density_max         0.385
_refine_diff_density_min         -0.448
_refine_diff_density_rms         0.045



# start Validation Reply Form

_vrf_PLAT602_I                   
;
PROBLEM: VERY LARGE Solvent Accessible VOID(S) in Structure !
RESPONSE: Diffraction peaks from guest molecules in the pores of the structure have been
removed by SQUEEZE function of PLATON.
;
