####################################################################### 
# 
# This file contains crystal structure data downloaded from the 
# Cambridge Structural Database (CSD) hosted by the Cambridge 
# Crystallographic Data Centre (CCDC).
# 
# Full information about CCDC data access policies and citation 
# guidelines are available at http://www.ccdc.cam.ac.uk/access/V1 
# 
# Audit and citation data items may have been added by the CCDC. 
# Please retain this information to preserve the provenance of 
# this file and to allow appropriate attribution of the data. 
# 
#######################################################################

data_SMT-1
_audit_block_doi                 10.5517/ccy4248
_database_code_depnum_ccdc_archive 'CCDC 867849'
loop_
_citation_id
_citation_doi
_citation_year
1 10.1038/ncomms2552 2013
_audit_update_record             
;
2012-02-20 deposited with the CCDC.	2019-02-14 downloaded from the CCDC.
;
#TrackingRef '1-SMT-1.cif'


_audit_creation_method           SHELXL-97
_chemical_name_systematic        
;
?
;
_chemical_name_common            ?
_chemical_melting_point          ?
_chemical_formula_moiety         'C112 H92 Cu4 N4 O20'
_chemical_formula_sum            'C112 H92 Cu4 N4 O20'
_chemical_formula_weight         2068.06

loop_
_atom_type_symbol
_atom_type_description
_atom_type_scat_dispersion_real
_atom_type_scat_dispersion_imag
_atom_type_scat_source
C C 0.0033 0.0016 'International Tables Vol C Tables 4.2.6.8 and 6.1.1.4'
H H 0.0000 0.0000 'International Tables Vol C Tables 4.2.6.8 and 6.1.1.4'
Cu Cu 0.3201 1.2651 'International Tables Vol C Tables 4.2.6.8 and 6.1.1.4'
N N 0.0061 0.0033 'International Tables Vol C Tables 4.2.6.8 and 6.1.1.4'
O O 0.0106 0.0060 'International Tables Vol C Tables 4.2.6.8 and 6.1.1.4'

_symmetry_cell_setting           Monoclinic
_symmetry_space_group_name_H-M   C2/c
_symmetry_Hall_group_name_H-M    '-C 2yc'

loop_
_symmetry_equiv_pos_as_xyz
'x, y, z'
'-x, y, -z+1/2'
'x+1/2, y+1/2, z'
'-x+1/2, y+1/2, -z+1/2'
'-x, -y, -z'
'x, -y, z-1/2'
'-x+1/2, -y+1/2, -z'
'x+1/2, -y+1/2, z-1/2'

_cell_length_a                   22.203(2)
_cell_length_b                   20.1224(19)
_cell_length_c                   30.441(2)
_cell_angle_alpha                90.00
_cell_angle_beta                 116.012(5)
_cell_angle_gamma                90.00
_cell_volume                     12222.7(18)
_cell_formula_units_Z            4
_cell_measurement_temperature    110(2)
_cell_measurement_reflns_used    9938
_cell_measurement_theta_min      2.248
_cell_measurement_theta_max      23.586

_exptl_crystal_description       Block
_exptl_crystal_colour            'Blue green'
_exptl_crystal_size_max          0.32
_exptl_crystal_size_mid          0.24
_exptl_crystal_size_min          0.22
_exptl_crystal_density_meas      ?
_exptl_crystal_density_diffrn    1.124
_exptl_crystal_density_method    'not measured'
_exptl_crystal_F_000             4272
_exptl_absorpt_coefficient_mu    0.746
_exptl_absorpt_correction_type   Multi-scan
_exptl_absorpt_correction_T_min  0.7963
_exptl_absorpt_correction_T_max  0.8531
_exptl_absorpt_process_details   SADABS

_exptl_special_details           
;
?
;

_diffrn_ambient_temperature      110(2)
_diffrn_radiation_wavelength     0.71073
_diffrn_radiation_type           MoK\a
_diffrn_radiation_source         'fine-focus sealed tube'
_diffrn_radiation_monochromator  graphite
_diffrn_measurement_device_type  'BRUKER APEX-II CCD'
_diffrn_measurement_method       'phi and omega scans'
_diffrn_detector_area_resol_mean ?
_diffrn_reflns_number            60530
_diffrn_reflns_av_R_equivalents  0.0582
_diffrn_reflns_av_sigmaI/netI    0.0491
_diffrn_reflns_limit_h_min       -26
_diffrn_reflns_limit_h_max       26
_diffrn_reflns_limit_k_min       -24
_diffrn_reflns_limit_k_max       24
_diffrn_reflns_limit_l_min       -36
_diffrn_reflns_limit_l_max       36
_diffrn_reflns_theta_min         1.72
_diffrn_reflns_theta_max         25.50
_reflns_number_total             11375
_reflns_number_gt                8160
_reflns_threshold_expression     I>2sigma(I)

_computing_data_collection       'Bruker APEX-II'
_computing_cell_refinement       'Bruker SAINT'
_computing_data_reduction        'Bruker SAINT'
_computing_structure_solution    'SHELXS-97 (Sheldrick, 2008)'
_computing_structure_refinement  'SHELXL-97 (Sheldrick, 2008)'
_computing_molecular_graphics    'Bruker SHELXTL'
_computing_publication_material  'Bruker SHELXTL'

_refine_special_details          
;
Refinement of F^2^ against ALL reflections. The weighted R-factor wR and
goodness of fit S are based on F^2^, conventional R-factors R are based
on F, with F set to zero for negative F^2^. The threshold expression of
F^2^ > 2sigma(F^2^) is used only for calculating R-factors(gt) etc. and is
not relevant to the choice of reflections for refinement. R-factors based
on F^2^ are statistically about twice as large as those based on F, and R-
factors based on ALL data will be even larger.
;

_refine_ls_structure_factor_coef Fsqd
_refine_ls_matrix_type           full
_refine_ls_weighting_scheme      calc
_refine_ls_weighting_details     
'calc w=1/[\s^2^(Fo^2^)+(0.1159P)^2^+28.6255P] where P=(Fo^2^+2Fc^2^)/3'
_atom_sites_solution_primary     direct
_atom_sites_solution_secondary   difmap
_atom_sites_solution_hydrogens   geom
_refine_ls_hydrogen_treatment    constr
_refine_ls_extinction_method     none
_refine_ls_extinction_coef       ?
_refine_ls_number_reflns         11375
_refine_ls_number_parameters     652
_refine_ls_number_restraints     1
_refine_ls_R_factor_all          0.0912
_refine_ls_R_factor_gt           0.0704
_refine_ls_wR_factor_ref         0.2097
_refine_ls_wR_factor_gt          0.1988
_refine_ls_goodness_of_fit_ref   1.075
_refine_ls_restrained_S_all      1.076
_refine_ls_shift/su_max          0.000
_refine_ls_shift/su_mean         0.000

loop_
_atom_site_label
_atom_site_type_symbol
_atom_site_fract_x
_atom_site_fract_y
_atom_site_fract_z
_atom_site_U_iso_or_equiv
_atom_site_adp_type
_atom_site_occupancy
_atom_site_symmetry_multiplicity
_atom_site_calc_flag
_atom_site_refinement_flags
_atom_site_disorder_assembly
_atom_site_disorder_group
Cu1 Cu 0.05433(3) 0.20869(2) 0.086233(19) 0.03277(17) Uani 1 1 d . . .
Cu2 Cu 0.03122(3) 0.33063(2) 0.054065(19) 0.03126(17) Uani 1 1 d . . .
O1 O 0.02129(15) 0.19080(14) 0.01551(11) 0.0370(7) Uani 1 1 d . . .
O2 O -0.01556(15) 0.29354(15) -0.01238(11) 0.0376(7) Uani 1 1 d . . .
O3 O -0.08527(15) 0.75319(14) -0.15199(11) 0.0371(7) Uani 1 1 d . . .
O4 O -0.08160(15) 0.64953(14) -0.12348(11) 0.0352(7) Uani 1 1 d . . .
O5 O 0.03874(14) 0.79059(14) -0.07685(11) 0.0363(7) Uani 1 1 d . . .
O6 O 0.05023(14) 0.68104(14) -0.06226(11) 0.0348(7) Uani 1 1 d . . .
O7 O 0.14471(15) 0.22458(15) 0.09158(12) 0.0404(8) Uani 1 1 d . . .
O8 O 0.11655(16) 0.32033(15) 0.04955(12) 0.0408(8) Uani 1 1 d . . .
O9 O 0.06698(15) 0.10654(14) 0.11058(11) 0.0343(7) Uani 1 1 d . . .
O10 O 0.0224(3) 0.4334(2) 0.0375(2) 0.0902(17) Uani 1 1 d . . .
N2 N 0.0975(3) 0.5261(4) 0.0494(3) 0.103(2) Uani 1 1 d . . .
C1 C -0.0087(2) 0.2325(2) -0.01855(15) 0.0314(9) Uani 1 1 d . . .
C2 C -0.0363(2) 0.2074(2) -0.07007(16) 0.0323(9) Uani 1 1 d . . .
C3 C -0.0261(2) 0.1425(2) -0.07988(18) 0.0404(11) Uani 1 1 d . . .
H3 H -0.0013 0.1133 -0.0537 0.049 Uiso 1 1 calc R . .
C4 C -0.0515(3) 0.1200(3) -0.12708(19) 0.0497(13) Uani 1 1 d . . .
H4 H -0.0433 0.0754 -0.1333 0.060 Uiso 1 1 calc R . .
C5 C -0.0889(2) 0.1613(2) -0.16555(19) 0.0457(12) Uani 1 1 d . . .
H5 H -0.1072 0.1446 -0.1980 0.055 Uiso 1 1 calc R . .
C6 C -0.1003(2) 0.2277(2) -0.15741(16) 0.0364(10) Uani 1 1 d . . .
C7 C -0.0732(2) 0.2495(2) -0.10943(16) 0.0343(10) Uani 1 1 d . . .
H7 H -0.0798 0.2944 -0.1030 0.041 Uiso 1 1 calc R . .
C8 C -0.1394(2) 0.2728(2) -0.19857(17) 0.0430(12) Uani 1 1 d . . .
C9 C -0.1947(3) 0.2480(3) -0.24129(18) 0.0516(13) Uani 1 1 d . . .
H9 H -0.2044 0.2017 -0.2439 0.062 Uiso 1 1 calc R . .
C10 C -0.2340(3) 0.2897(3) -0.27851(18) 0.0528(14) Uani 1 1 d . . .
H10 H -0.2700 0.2717 -0.3067 0.063 Uiso 1 1 calc R . .
C11 C -0.2219(3) 0.3585(3) -0.27568(18) 0.0474(12) Uani 1 1 d . . .
C12 C -0.2637(3) 0.4041(3) -0.31255(19) 0.0591(15) Uani 1 1 d . . .
H12 H -0.3004 0.3878 -0.3409 0.071 Uiso 1 1 calc R . .
C13 C -0.2514(3) 0.4706(3) -0.3074(2) 0.0692(18) Uani 1 1 d . . .
H13 H -0.2813 0.5003 -0.3312 0.083 Uiso 1 1 calc R . .
C14 C -0.1931(3) 0.4965(3) -0.26606(18) 0.0559(15) Uani 1 1 d . . .
C15 C -0.1531(3) 0.4533(3) -0.23126(17) 0.0505(14) Uani 1 1 d . . .
H15 H -0.1152 0.4703 -0.2039 0.061 Uiso 1 1 calc R . .
C16 C -0.1653(2) 0.3836(2) -0.23381(16) 0.0425(11) Uani 1 1 d . . .
C17 C -0.1255(2) 0.3397(2) -0.19650(17) 0.0408(11) Uani 1 1 d . . .
H17 H -0.0878 0.3567 -0.1690 0.049 Uiso 1 1 calc R . .
C18 C -0.1793(3) 0.5690(3) -0.26074(19) 0.0601(16) Uani 1 1 d . . .
C19 C -0.1983(4) 0.6114(3) -0.3019(2) 0.083(2) Uani 1 1 d . . .
H19 H -0.2213 0.5936 -0.3339 0.099 Uiso 1 1 calc R . .
C20 C -0.1834(4) 0.6793(3) -0.2956(2) 0.081(2) Uani 1 1 d . . .
H20 H -0.1955 0.7072 -0.3234 0.097 Uiso 1 1 calc R . .
C21 C -0.1508(3) 0.7065(3) -0.2487(2) 0.0565(15) Uani 1 1 d . . .
H21 H -0.1420 0.7529 -0.2443 0.068 Uiso 1 1 calc R . .
C22 C -0.1316(2) 0.6651(2) -0.20888(17) 0.0426(12) Uani 1 1 d . . .
C23 C -0.1471(2) 0.5975(2) -0.21547(18) 0.0473(13) Uani 1 1 d . . .
H23 H -0.1348 0.5702 -0.1874 0.057 Uiso 1 1 calc R . .
C24 C -0.0966(2) 0.6921(2) -0.15732(17) 0.0357(10) Uani 1 1 d . . .
C25 C 0.0714(2) 0.7371(2) -0.06842(14) 0.0320(10) Uani 1 1 d . . .
C26 C 0.1403(2) 0.7388(2) -0.06595(15) 0.0329(10) Uani 1 1 d . . .
C27 C 0.1680(2) 0.7981(2) -0.07290(16) 0.0390(11) Uani 1 1 d . . .
H27 H 0.1431 0.8383 -0.0794 0.047 Uiso 1 1 calc R . .
C28 C 0.2315(2) 0.7979(2) -0.07032(18) 0.0419(11) Uani 1 1 d . . .
H28 H 0.2509 0.8383 -0.0742 0.050 Uiso 1 1 calc R . .
C29 C 0.2675(2) 0.7387(2) -0.06201(17) 0.0392(11) Uani 1 1 d . . .
H29 H 0.3109 0.7389 -0.0610 0.047 Uiso 1 1 calc R . .
C30 C 0.2406(2) 0.6792(2) -0.05522(15) 0.0321(9) Uani 1 1 d . . .
C31 C 0.1766(2) 0.6808(2) -0.05768(15) 0.0331(10) Uani 1 1 d . . .
H31 H 0.1573 0.6405 -0.0535 0.040 Uiso 1 1 calc R . .
C32 C 0.2763(2) 0.6151(2) -0.04731(15) 0.0299(9) Uani 1 1 d . . .
C33 C 0.3175(2) 0.6001(2) -0.07113(16) 0.0336(10) Uani 1 1 d . . .
H33 H 0.3258 0.6337 -0.0898 0.040 Uiso 1 1 calc R . .
C34 C 0.3449(2) 0.5398(2) -0.06786(16) 0.0367(10) Uani 1 1 d . . .
H34 H 0.3723 0.5317 -0.0841 0.044 Uiso 1 1 calc R . .
C35 C 0.3339(2) 0.4878(2) -0.04083(15) 0.0315(9) Uani 1 1 d . . .
C36 C 0.3612(2) 0.4243(2) -0.03698(18) 0.0411(11) Uani 1 1 d . . .
H36 H 0.3879 0.4145 -0.0535 0.049 Uiso 1 1 calc R . .
C37 C 0.3500(2) 0.3758(2) -0.00968(18) 0.0411(11) Uani 1 1 d . . .
H37 H 0.3691 0.3330 -0.0076 0.049 Uiso 1 1 calc R . .
C38 C 0.3111(2) 0.3882(2) 0.01506(17) 0.0358(10) Uani 1 1 d . . .
C39 C 0.2841(2) 0.4504(2) 0.01222(16) 0.0327(10) Uani 1 1 d . . .
H39 H 0.2581 0.4590 0.0294 0.039 Uiso 1 1 calc R . .
C40 C 0.2941(2) 0.5022(2) -0.01546(16) 0.0312(9) Uani 1 1 d . . .
C41 C 0.2674(2) 0.5655(2) -0.01929(16) 0.0326(10) Uani 1 1 d . . .
H41 H 0.2418 0.5752 -0.0019 0.039 Uiso 1 1 calc R . .
C42 C 0.2980(2) 0.3330(2) 0.04277(18) 0.0389(11) Uani 1 1 d . . .
C43 C 0.3457(3) 0.2841(2) 0.0664(2) 0.0535(14) Uani 1 1 d . . .
H43 H 0.3883 0.2867 0.0661 0.064 Uiso 1 1 calc R . .
C44 C 0.3323(3) 0.2314(3) 0.0906(2) 0.0572(15) Uani 1 1 d . . .
H44 H 0.3652 0.1981 0.1059 0.069 Uiso 1 1 calc R . .
C45 C 0.2712(3) 0.2275(2) 0.0922(2) 0.0505(13) Uani 1 1 d . . .
H45 H 0.2623 0.1916 0.1088 0.061 Uiso 1 1 calc R . .
C46 C 0.2228(2) 0.2762(2) 0.06958(18) 0.0391(11) Uani 1 1 d . . .
C47 C 0.2368(2) 0.3287(2) 0.04536(18) 0.0402(11) Uani 1 1 d . . .
H47 H 0.2039 0.3622 0.0303 0.048 Uiso 1 1 calc R . .
C48 C 0.1559(2) 0.2737(2) 0.07040(17) 0.0388(11) Uani 1 1 d . . .
C49 C -0.0379(3) 0.0523(3) 0.0524(2) 0.075(2) Uani 1 1 d . . .
H49A H -0.0798 0.0294 0.0356 0.113 Uiso 1 1 d R . .
H49B H -0.0424 0.0970 0.0404 0.113 Uiso 1 1 d R . .
H49C H -0.0039 0.0298 0.0467 0.113 Uiso 1 1 d R . .
C51 C -0.0643(4) 0.0220(4) 0.1294(4) 0.115(3) Uani 1 1 d . . .
H51A H -0.0873 0.0092 0.0956 0.173 Uiso 1 1 d R . .
H51B H -0.0565 -0.0166 0.1497 0.173 Uiso 1 1 d R . .
H51C H -0.0911 0.0533 0.1368 0.173 Uiso 1 1 d R . .
C52 C 0.0533(6) 0.0793(6) 0.1871(3) 0.146(5) Uani 1 1 d . . .
H52A H 0.0901 0.0962 0.1819 0.218 Uiso 1 1 d R . .
H52B H 0.0344 0.1145 0.1983 0.218 Uiso 1 1 d R . .
H52C H 0.0690 0.0446 0.2112 0.218 Uiso 1 1 d R . .
C53 C 0.0696(7) 0.4502(7) -0.0230(5) 0.193(7) Uani 1 1 d D . .
H53A H 0.0588 0.4031 -0.0308 0.289 Uiso 1 1 calc R . .
H53B H 0.1142 0.4594 -0.0209 0.289 Uiso 1 1 calc R . .
H53C H 0.0362 0.4777 -0.0488 0.289 Uiso 1 1 calc R . .
C54 C 0.0691(4) 0.4662(4) 0.0254(3) 0.098(3) Uani 1 1 d D . .
C55 C 0.0957(5) 0.5403(5) 0.0939(3) 0.119(3) Uani 1 1 d . . .
H55A H 0.0682 0.5070 0.1002 0.178 Uiso 1 1 calc R . .
H55B H 0.0763 0.5845 0.0922 0.178 Uiso 1 1 calc R . .
H55C H 0.1413 0.5393 0.1204 0.178 Uiso 1 1 calc R . .
C56 C 0.1241(4) 0.5663(5) 0.0231(4) 0.124(4) Uani 1 1 d . . .
H56A H 0.1731 0.5662 0.0403 0.185 Uiso 1 1 calc R . .
H56B H 0.1076 0.6119 0.0209 0.185 Uiso 1 1 calc R . .
H56C H 0.1096 0.5482 -0.0099 0.185 Uiso 1 1 calc R . .
N1A N -0.0012(8) 0.0521(7) 0.1384(4) 0.046(3) Uani 0.50 1 d P . .
C50A C 0.0115(6) 0.0731(5) 0.1004(4) 0.026(2) Uani 0.50 1 d P . .
N1B N -0.0157(7) 0.0540(8) 0.1105(7) 0.073(5) Uani 0.50 1 d P . .
C50B C 0.0383(8) 0.0837(6) 0.1317(7) 0.061(3) Uani 0.50 1 d P . .

loop_
_atom_site_aniso_label
_atom_site_aniso_U_11
_atom_site_aniso_U_22
_atom_site_aniso_U_33
_atom_site_aniso_U_23
_atom_site_aniso_U_13
_atom_site_aniso_U_12
Cu1 0.0284(3) 0.0250(3) 0.0383(3) 0.0033(2) 0.0085(2) 0.0008(2)
Cu2 0.0298(3) 0.0244(3) 0.0333(3) 0.0029(2) 0.0081(2) 0.0003(2)
O1 0.0338(16) 0.0282(15) 0.0436(18) 0.0017(13) 0.0121(14) 0.0049(13)
O2 0.0368(17) 0.0328(17) 0.0376(17) 0.0066(13) 0.0113(14) 0.0042(14)
O3 0.0370(17) 0.0255(16) 0.0409(17) 0.0037(13) 0.0098(14) -0.0021(13)
O4 0.0353(16) 0.0293(15) 0.0329(16) 0.0022(13) 0.0075(13) -0.0048(13)
O5 0.0295(15) 0.0285(16) 0.0442(18) 0.0027(13) 0.0100(14) 0.0049(13)
O6 0.0306(16) 0.0293(16) 0.0380(17) 0.0027(13) 0.0089(13) 0.0037(13)
O7 0.0355(17) 0.0302(17) 0.053(2) 0.0045(14) 0.0172(15) -0.0014(13)
O8 0.0377(17) 0.0341(17) 0.0496(19) 0.0049(15) 0.0182(15) -0.0018(14)
O9 0.0281(16) 0.0270(15) 0.0410(18) 0.0048(13) 0.0088(14) 0.0030(13)
O10 0.172(5) 0.036(2) 0.112(4) 0.012(2) 0.107(4) 0.008(3)
N2 0.082(4) 0.110(5) 0.085(5) 0.015(4) 0.008(3) -0.042(4)
C1 0.026(2) 0.028(2) 0.036(2) 0.0053(18) 0.0098(18) 0.0024(17)
C2 0.026(2) 0.030(2) 0.038(2) 0.0020(18) 0.0117(18) -0.0009(17)
C3 0.031(2) 0.035(2) 0.052(3) 0.000(2) 0.015(2) 0.001(2)
C4 0.050(3) 0.037(3) 0.054(3) -0.011(2) 0.016(3) 0.001(2)
C5 0.042(3) 0.041(3) 0.046(3) -0.008(2) 0.012(2) -0.003(2)
C6 0.023(2) 0.035(2) 0.040(2) -0.006(2) 0.0037(19) -0.0044(18)
C7 0.026(2) 0.028(2) 0.045(3) -0.0024(19) 0.0113(19) -0.0018(17)
C8 0.045(3) 0.036(3) 0.037(3) -0.005(2) 0.008(2) -0.009(2)
C9 0.047(3) 0.042(3) 0.046(3) -0.011(2) 0.002(2) -0.007(2)
C10 0.043(3) 0.049(3) 0.041(3) -0.010(2) -0.005(2) -0.014(2)
C11 0.042(3) 0.047(3) 0.037(3) -0.005(2) 0.002(2) -0.009(2)
C12 0.051(3) 0.063(4) 0.036(3) -0.005(2) -0.006(2) -0.020(3)
C13 0.063(4) 0.066(4) 0.036(3) 0.002(3) -0.017(3) -0.006(3)
C14 0.064(4) 0.047(3) 0.029(2) -0.002(2) -0.005(2) -0.017(3)
C15 0.046(3) 0.049(3) 0.032(3) -0.002(2) -0.005(2) -0.015(2)
C16 0.041(3) 0.043(3) 0.029(2) -0.004(2) 0.003(2) -0.009(2)
C17 0.035(2) 0.042(3) 0.031(2) -0.007(2) 0.001(2) -0.011(2)
C18 0.058(3) 0.050(3) 0.041(3) 0.007(2) -0.007(2) -0.009(3)
C19 0.095(5) 0.065(4) 0.040(3) 0.011(3) -0.014(3) -0.018(4)
C20 0.088(5) 0.063(4) 0.046(3) 0.021(3) -0.012(3) -0.019(3)
C21 0.055(3) 0.043(3) 0.051(3) 0.011(2) 0.004(3) -0.003(3)
C22 0.035(2) 0.035(2) 0.040(3) 0.004(2) -0.001(2) 0.000(2)
C23 0.044(3) 0.037(3) 0.039(3) 0.010(2) -0.002(2) -0.002(2)
C24 0.023(2) 0.033(2) 0.041(3) 0.004(2) 0.0040(19) 0.0013(18)
C25 0.031(2) 0.031(2) 0.024(2) 0.0014(17) 0.0029(18) 0.0030(19)
C26 0.030(2) 0.030(2) 0.031(2) -0.0021(18) 0.0066(18) 0.0001(18)
C27 0.035(2) 0.035(2) 0.037(2) 0.0027(19) 0.006(2) 0.010(2)
C28 0.039(3) 0.033(2) 0.045(3) 0.001(2) 0.010(2) -0.004(2)
C29 0.027(2) 0.042(3) 0.040(3) 0.001(2) 0.0076(19) -0.002(2)
C30 0.026(2) 0.033(2) 0.031(2) 0.0054(18) 0.0077(18) 0.0034(18)
C31 0.031(2) 0.031(2) 0.028(2) 0.0029(17) 0.0041(18) 0.0013(18)
C32 0.022(2) 0.032(2) 0.027(2) -0.0002(17) 0.0032(17) -0.0024(17)
C33 0.023(2) 0.037(2) 0.034(2) 0.0005(19) 0.0061(18) -0.0036(18)
C34 0.025(2) 0.044(3) 0.036(2) -0.005(2) 0.0089(19) -0.0067(19)
C35 0.020(2) 0.035(2) 0.033(2) -0.0051(18) 0.0058(17) -0.0024(17)
C36 0.028(2) 0.041(3) 0.055(3) -0.011(2) 0.018(2) -0.004(2)
C37 0.031(2) 0.029(2) 0.059(3) -0.003(2) 0.016(2) 0.0010(19)
C38 0.023(2) 0.034(2) 0.044(3) -0.003(2) 0.0096(19) -0.0035(18)
C39 0.023(2) 0.032(2) 0.038(2) -0.0025(18) 0.0083(18) -0.0031(17)
C40 0.021(2) 0.031(2) 0.038(2) -0.0026(18) 0.0104(18) -0.0032(17)
C41 0.024(2) 0.035(2) 0.036(2) -0.0006(19) 0.0103(18) 0.0023(18)
C42 0.030(2) 0.028(2) 0.054(3) -0.002(2) 0.014(2) -0.0029(18)
C43 0.035(3) 0.039(3) 0.083(4) 0.007(3) 0.024(3) -0.003(2)
C44 0.043(3) 0.036(3) 0.088(4) 0.013(3) 0.024(3) 0.006(2)
C45 0.046(3) 0.029(2) 0.078(4) 0.008(2) 0.028(3) -0.003(2)
C46 0.032(2) 0.029(2) 0.051(3) -0.004(2) 0.013(2) -0.0052(19)
C47 0.035(2) 0.029(2) 0.050(3) 0.000(2) 0.013(2) -0.0013(19)
C48 0.038(3) 0.028(2) 0.047(3) -0.007(2) 0.015(2) -0.005(2)
C49 0.051(3) 0.053(4) 0.080(5) -0.020(3) -0.010(3) 0.005(3)
C51 0.095(6) 0.107(7) 0.175(9) 0.054(6) 0.088(7) 0.018(5)
C52 0.191(11) 0.169(10) 0.061(5) 0.029(6) 0.042(6) 0.074(9)
C53 0.207(13) 0.223(14) 0.246(15) -0.146(12) 0.189(13) -0.126(11)
C54 0.075(5) 0.091(6) 0.103(6) 0.029(5) 0.015(4) -0.009(4)
C55 0.148(9) 0.129(8) 0.060(5) -0.013(5) 0.028(5) -0.017(7)
C56 0.078(6) 0.150(9) 0.138(8) 0.041(7) 0.043(6) -0.025(6)
N1A 0.042(7) 0.050(6) 0.039(6) 0.017(6) 0.010(6) 0.004(5)
C50A 0.009(5) 0.019(4) 0.035(6) -0.006(4) -0.004(5) -0.009(3)
N1B 0.026(7) 0.053(7) 0.116(15) 0.005(10) 0.010(10) -0.007(5)
C50B 0.055(8) 0.039(7) 0.094(13) 0.006(8) 0.037(10) 0.010(6)

_geom_special_details            
;
All esds (except the esd in the dihedral angle between two l.s. planes)
are estimated using the full covariance matrix. The cell esds are taken
into account individually in the estimation of esds in distances, angles
and torsion angles; correlations between esds in cell parameters are only
used when they are defined by crystal symmetry. An approximate (isotropic)
treatment of cell esds is used for estimating esds involving l.s. planes.
;

loop_
_geom_bond_atom_site_label_1
_geom_bond_atom_site_label_2
_geom_bond_distance
_geom_bond_site_symmetry_2
_geom_bond_publ_flag
Cu1 O5 1.958(3) 5_565 ?
Cu1 O3 1.965(3) 5_565 ?
Cu1 O7 1.967(3) . ?
Cu1 O1 1.979(3) . ?
Cu1 O9 2.161(3) . ?
Cu1 Cu2 2.6081(7) . ?
Cu2 O6 1.945(3) 5_565 ?
Cu2 O4 1.950(3) 5_565 ?
Cu2 O8 1.970(3) . ?
Cu2 O2 1.971(3) . ?
Cu2 O10 2.118(4) . ?
O1 C1 1.272(5) . ?
O2 C1 1.261(5) . ?
O3 C24 1.252(5) . ?
O3 Cu1 1.965(3) 5_565 ?
O4 C24 1.266(5) . ?
O4 Cu2 1.950(3) 5_565 ?
O5 C25 1.259(5) . ?
O5 Cu1 1.958(3) 5_565 ?
O6 C25 1.269(5) . ?
O6 Cu2 1.945(3) 5_565 ?
O7 C48 1.262(5) . ?
O8 C48 1.249(5) . ?
O9 C50B 1.179(16) . ?
O9 C50A 1.317(13) . ?
O10 C54 1.406(9) . ?
N2 C55 1.400(10) . ?
N2 C54 1.407(10) . ?
N2 C56 1.435(10) . ?
C1 C2 1.500(6) . ?
C2 C3 1.378(6) . ?
C2 C7 1.401(6) . ?
C3 C4 1.371(7) . ?
C3 H3 0.9500 . ?
C4 C5 1.378(7) . ?
C4 H4 0.9500 . ?
C5 C6 1.402(7) . ?
C5 H5 0.9500 . ?
C6 C7 1.384(6) . ?
C6 C8 1.481(6) . ?
C7 H7 0.9500 . ?
C8 C17 1.377(7) . ?
C8 C9 1.431(6) . ?
C9 C10 1.372(7) . ?
C9 H9 0.9500 . ?
C10 C11 1.406(7) . ?
C10 H10 0.9500 . ?
C11 C12 1.432(7) . ?
C11 C16 1.433(6) . ?
C12 C13 1.360(8) . ?
C12 H12 0.9500 . ?
C13 C14 1.450(7) . ?
C13 H13 0.9500 . ?
C14 C15 1.357(7) . ?
C14 C18 1.486(8) . ?
C15 C16 1.425(7) . ?
C15 H15 0.9500 . ?
C16 C17 1.404(7) . ?
C17 H17 0.9500 . ?
C18 C23 1.369(7) . ?
C18 C19 1.418(8) . ?
C19 C20 1.400(9) . ?
C19 H19 0.9500 . ?
C20 C21 1.399(8) . ?
C20 H20 0.9500 . ?
C21 C22 1.375(7) . ?
C21 H21 0.9500 . ?
C22 C23 1.395(7) . ?
C22 C24 1.514(6) . ?
C23 H23 0.9500 . ?
C25 C26 1.498(6) . ?
C26 C31 1.379(6) . ?
C26 C27 1.400(6) . ?
C27 C28 1.378(7) . ?
C27 H27 0.9500 . ?
C28 C29 1.394(7) . ?
C28 H28 0.9500 . ?
C29 C30 1.393(6) . ?
C29 H29 0.9500 . ?
C30 C31 1.388(6) . ?
C30 C32 1.478(6) . ?
C31 H31 0.9500 . ?
C32 C41 1.382(6) . ?
C32 C33 1.428(6) . ?
C33 C34 1.341(6) . ?
C33 H33 0.9500 . ?
C34 C35 1.416(6) . ?
C34 H34 0.9500 . ?
C35 C36 1.398(6) . ?
C35 C40 1.436(6) . ?
C36 C37 1.373(7) . ?
C36 H36 0.9500 . ?
C37 C38 1.395(7) . ?
C37 H37 0.9500 . ?
C38 C39 1.374(6) . ?
C38 C42 1.498(6) . ?
C39 C40 1.416(6) . ?
C39 H39 0.9500 . ?
C40 C41 1.390(6) . ?
C41 H41 0.9500 . ?
C42 C43 1.392(7) . ?
C42 C47 1.399(7) . ?
C43 C44 1.395(7) . ?
C43 H43 0.9500 . ?
C44 C45 1.380(7) . ?
C44 H44 0.9500 . ?
C45 C46 1.394(7) . ?
C45 H45 0.9500 . ?
C46 C47 1.399(6) . ?
C46 C48 1.497(6) . ?
C47 H47 0.9500 . ?
C49 C50A 1.452(13) . ?
C49 N1B 1.61(2) . ?
C49 H49A 0.9598 . ?
C49 H49B 0.9600 . ?
C49 H49C 0.9601 . ?
C51 N1A 1.438(18) . ?
C51 N1B 1.57(2) . ?
C51 H51A 0.9600 . ?
C51 H51B 0.9602 . ?
C51 H51C 0.9601 . ?
C52 N1A 1.545(16) . ?
C52 C50B 1.57(2) . ?
C52 H52A 0.9596 . ?
C52 H52B 0.9601 . ?
C52 H52C 0.9599 . ?
C53 C54 1.515(8) . ?
C53 H53A 0.9800 . ?
C53 H53B 0.9800 . ?
C53 H53C 0.9800 . ?
C55 H55A 0.9800 . ?
C55 H55B 0.9800 . ?
C55 H55C 0.9800 . ?
C56 H56A 0.9800 . ?
C56 H56B 0.9800 . ?
C56 H56C 0.9800 . ?
N1A N1B 0.767(18) . ?
N1A C50B 1.172(18) . ?
N1A C50A 1.37(2) . ?
C50A N1B 0.875(17) . ?
C50A C50B 0.901(17) . ?
N1B C50B 1.24(2) . ?
C50B H52A 1.4752 . ?

loop_
_geom_angle_atom_site_label_1
_geom_angle_atom_site_label_2
_geom_angle_atom_site_label_3
_geom_angle
_geom_angle_site_symmetry_1
_geom_angle_site_symmetry_3
_geom_angle_publ_flag
O5 Cu1 O3 91.19(13) 5_565 5_565 ?
O5 Cu1 O7 169.72(13) 5_565 . ?
O3 Cu1 O7 87.95(13) 5_565 . ?
O5 Cu1 O1 88.77(13) 5_565 . ?
O3 Cu1 O1 167.50(12) 5_565 . ?
O7 Cu1 O1 89.86(13) . . ?
O5 Cu1 O9 91.55(12) 5_565 . ?
O3 Cu1 O9 95.00(12) 5_565 . ?
O7 Cu1 O9 98.73(12) . . ?
O1 Cu1 O9 97.49(12) . . ?
O5 Cu1 Cu2 85.24(9) 5_565 . ?
O3 Cu1 Cu2 86.48(9) 5_565 . ?
O7 Cu1 Cu2 84.48(9) . . ?
O1 Cu1 Cu2 81.07(9) . . ?
O9 Cu1 Cu2 176.50(8) . . ?
O6 Cu2 O4 90.55(13) 5_565 5_565 ?
O6 Cu2 O8 166.66(13) 5_565 . ?
O4 Cu2 O8 89.13(13) 5_565 . ?
O6 Cu2 O2 89.13(13) 5_565 . ?
O4 Cu2 O2 169.51(12) 5_565 . ?
O8 Cu2 O2 88.77(13) . . ?
O6 Cu2 O10 98.91(17) 5_565 . ?
O4 Cu2 O10 90.41(17) 5_565 . ?
O8 Cu2 O10 94.42(17) . . ?
O2 Cu2 O10 100.00(17) . . ?
O6 Cu2 Cu1 83.06(9) 5_565 . ?
O4 Cu2 Cu1 82.00(9) 5_565 . ?
O8 Cu2 Cu1 83.70(9) . . ?
O2 Cu2 Cu1 87.56(9) . . ?
O10 Cu2 Cu1 172.19(17) . . ?
C1 O1 Cu1 125.3(3) . . ?
C1 O2 Cu2 118.5(3) . . ?
C24 O3 Cu1 118.4(3) . 5_565 ?
C24 O4 Cu2 124.4(3) . 5_565 ?
C25 O5 Cu1 120.9(3) . 5_565 ?
C25 O6 Cu2 123.6(3) . 5_565 ?
C48 O7 Cu1 120.4(3) . . ?
C48 O8 Cu2 121.5(3) . . ?
C50B O9 C50A 41.9(9) . . ?
C50B O9 Cu1 122.5(6) . . ?
C50A O9 Cu1 116.0(4) . . ?
C54 O10 Cu2 121.3(5) . . ?
C55 N2 C54 118.7(7) . . ?
C55 N2 C56 128.2(8) . . ?
C54 N2 C56 113.1(8) . . ?
O2 C1 O1 125.1(4) . . ?
O2 C1 C2 117.6(4) . . ?
O1 C1 C2 117.2(4) . . ?
C3 C2 C7 118.5(4) . . ?
C3 C2 C1 121.0(4) . . ?
C7 C2 C1 120.5(4) . . ?
C4 C3 C2 120.6(5) . . ?
C4 C3 H3 119.7 . . ?
C2 C3 H3 119.7 . . ?
C3 C4 C5 120.6(5) . . ?
C3 C4 H4 119.7 . . ?
C5 C4 H4 119.7 . . ?
C4 C5 C6 120.8(5) . . ?
C4 C5 H5 119.6 . . ?
C6 C5 H5 119.6 . . ?
C7 C6 C5 117.4(4) . . ?
C7 C6 C8 121.4(4) . . ?
C5 C6 C8 121.2(4) . . ?
C6 C7 C2 122.0(4) . . ?
C6 C7 H7 119.0 . . ?
C2 C7 H7 119.0 . . ?
C17 C8 C9 118.0(4) . . ?
C17 C8 C6 121.6(4) . . ?
C9 C8 C6 120.4(4) . . ?
C10 C9 C8 121.3(5) . . ?
C10 C9 H9 119.4 . . ?
C8 C9 H9 119.4 . . ?
C9 C10 C11 121.1(4) . . ?
C9 C10 H10 119.5 . . ?
C11 C10 H10 119.5 . . ?
C10 C11 C12 122.9(4) . . ?
C10 C11 C16 118.1(4) . . ?
C12 C11 C16 119.0(5) . . ?
C13 C12 C11 120.8(5) . . ?
C13 C12 H12 119.6 . . ?
C11 C12 H12 119.6 . . ?
C12 C13 C14 120.7(5) . . ?
C12 C13 H13 119.6 . . ?
C14 C13 H13 119.6 . . ?
C15 C14 C13 118.5(5) . . ?
C15 C14 C18 120.7(4) . . ?
C13 C14 C18 120.7(5) . . ?
C14 C15 C16 123.0(4) . . ?
C14 C15 H15 118.5 . . ?
C16 C15 H15 118.5 . . ?
C17 C16 C15 122.6(4) . . ?
C17 C16 C11 119.5(4) . . ?
C15 C16 C11 117.9(4) . . ?
C8 C17 C16 122.0(4) . . ?
C8 C17 H17 119.0 . . ?
C16 C17 H17 119.0 . . ?
C23 C18 C19 117.4(5) . . ?
C23 C18 C14 120.8(5) . . ?
C19 C18 C14 121.8(5) . . ?
C20 C19 C18 120.3(6) . . ?
C20 C19 H19 119.9 . . ?
C18 C19 H19 119.9 . . ?
C21 C20 C19 120.5(5) . . ?
C21 C20 H20 119.8 . . ?
C19 C20 H20 119.8 . . ?
C22 C21 C20 118.9(5) . . ?
C22 C21 H21 120.5 . . ?
C20 C21 H21 120.5 . . ?
C21 C22 C23 120.2(5) . . ?
C21 C22 C24 121.0(4) . . ?
C23 C22 C24 118.7(4) . . ?
C18 C23 C22 122.7(5) . . ?
C18 C23 H23 118.7 . . ?
C22 C23 H23 118.7 . . ?
O3 C24 O4 126.3(4) . . ?
O3 C24 C22 118.0(4) . . ?
O4 C24 C22 115.6(4) . . ?
O5 C25 O6 124.9(4) . . ?
O5 C25 C26 118.4(4) . . ?
O6 C25 C26 116.7(4) . . ?
C31 C26 C27 119.3(4) . . ?
C31 C26 C25 119.5(4) . . ?
C27 C26 C25 121.2(4) . . ?
C28 C27 C26 119.7(4) . . ?
C28 C27 H27 120.1 . . ?
C26 C27 H27 120.1 . . ?
C27 C28 C29 120.2(4) . . ?
C27 C28 H28 119.9 . . ?
C29 C28 H28 119.9 . . ?
C30 C29 C28 120.8(4) . . ?
C30 C29 H29 119.6 . . ?
C28 C29 H29 119.6 . . ?
C31 C30 C29 117.9(4) . . ?
C31 C30 C32 119.4(4) . . ?
C29 C30 C32 122.6(4) . . ?
C26 C31 C30 122.1(4) . . ?
C26 C31 H31 119.0 . . ?
C30 C31 H31 119.0 . . ?
C41 C32 C33 117.3(4) . . ?
C41 C32 C30 121.2(4) . . ?
C33 C32 C30 121.3(4) . . ?
C34 C33 C32 121.6(4) . . ?
C34 C33 H33 119.2 . . ?
C32 C33 H33 119.2 . . ?
C33 C34 C35 121.6(4) . . ?
C33 C34 H34 119.2 . . ?
C35 C34 H34 119.2 . . ?
C36 C35 C34 123.1(4) . . ?
C36 C35 C40 119.1(4) . . ?
C34 C35 C40 117.9(4) . . ?
C37 C36 C35 120.9(4) . . ?
C37 C36 H36 119.6 . . ?
C35 C36 H36 119.6 . . ?
C36 C37 C38 121.3(4) . . ?
C36 C37 H37 119.4 . . ?
C38 C37 H37 119.4 . . ?
C39 C38 C37 119.0(4) . . ?
C39 C38 C42 121.7(4) . . ?
C37 C38 C42 119.3(4) . . ?
C38 C39 C40 122.0(4) . . ?
C38 C39 H39 119.0 . . ?
C40 C39 H39 119.0 . . ?
C41 C40 C39 123.6(4) . . ?
C41 C40 C35 118.7(4) . . ?
C39 C40 C35 117.8(4) . . ?
C32 C41 C40 122.9(4) . . ?
C32 C41 H41 118.6 . . ?
C40 C41 H41 118.6 . . ?
C43 C42 C47 117.7(4) . . ?
C43 C42 C38 121.6(4) . . ?
C47 C42 C38 120.7(4) . . ?
C42 C43 C44 121.3(5) . . ?
C42 C43 H43 119.4 . . ?
C44 C43 H43 119.4 . . ?
C45 C44 C43 120.2(5) . . ?
C45 C44 H44 119.9 . . ?
C43 C44 H44 119.9 . . ?
C44 C45 C46 119.9(5) . . ?
C44 C45 H45 120.0 . . ?
C46 C45 H45 120.0 . . ?
C45 C46 C47 119.3(4) . . ?
C45 C46 C48 121.7(4) . . ?
C47 C46 C48 119.0(4) . . ?
C46 C47 C42 121.5(4) . . ?
C46 C47 H47 119.2 . . ?
C42 C47 H47 119.2 . . ?
O8 C48 O7 126.7(4) . . ?
O8 C48 C46 116.3(4) . . ?
O7 C48 C46 116.9(4) . . ?
C50A C49 N1B 32.6(5) . . ?
C50A C49 H49A 143.3 . . ?
N1B C49 H49A 110.6 . . ?
C50A C49 H49B 91.1 . . ?
N1B C49 H49B 109.0 . . ?
H49A C49 H49B 109.5 . . ?
C50A C49 H49C 90.6 . . ?
N1B C49 H49C 108.7 . . ?
H49A C49 H49C 109.5 . . ?
H49B C49 H49C 109.5 . . ?
N1A C51 N1B 29.2(6) . . ?
N1A C51 H51A 109.6 . . ?
N1B C51 H51A 81.2 . . ?
N1A C51 H51B 109.4 . . ?
N1B C51 H51B 127.7 . . ?
H51A C51 H51B 109.5 . . ?
N1A C51 H51C 109.4 . . ?
N1B C51 H51C 114.6 . . ?
H51A C51 H51C 109.5 . . ?
H51B C51 H51C 109.4 . . ?
N1A C52 C50B 44.2(8) . . ?
N1A C52 H52A 109.4 . . ?
C50B C52 H52A 66.3 . . ?
N1A C52 H52B 108.9 . . ?
C50B C52 H52B 114.9 . . ?
H52A C52 H52B 109.5 . . ?
N1A C52 H52C 110.1 . . ?
C50B C52 H52C 134.1 . . ?
H52A C52 H52C 109.5 . . ?
H52B C52 H52C 109.4 . . ?
C54 C53 H53A 109.5 . . ?
C54 C53 H53B 109.5 . . ?
H53A C53 H53B 109.5 . . ?
C54 C53 H53C 109.5 . . ?
H53A C53 H53C 109.5 . . ?
H53B C53 H53C 109.5 . . ?
O10 C54 N2 118.7(8) . . ?
O10 C54 C53 118.5(7) . . ?
N2 C54 C53 119.6(8) . . ?
N2 C55 H55A 109.5 . . ?
N2 C55 H55B 109.5 . . ?
H55A C55 H55B 109.5 . . ?
N2 C55 H55C 109.5 . . ?
H55A C55 H55C 109.5 . . ?
H55B C55 H55C 109.5 . . ?
N2 C56 H56A 109.5 . . ?
N2 C56 H56B 109.5 . . ?
H56A C56 H56B 109.5 . . ?
N2 C56 H56C 109.5 . . ?
H56A C56 H56C 109.5 . . ?
H56B C56 H56C 109.5 . . ?
N1B N1A C50B 76(2) . . ?
N1B N1A C50A 36.0(18) . . ?
C50B N1A C50A 40.6(8) . . ?
N1B N1A C51 85(2) . . ?
C50B N1A C51 159.5(15) . . ?
C50A N1A C51 120.7(12) . . ?
N1B N1A C52 145(3) . . ?
C50B N1A C52 69.1(15) . . ?
C50A N1A C52 109.7(14) . . ?
C51 N1A C52 128.3(11) . . ?
N1B C50A C50B 88(2) . . ?
N1B C50A O9 149(2) . . ?
C50B C50A O9 60.8(13) . . ?
N1B C50A N1A 31.0(14) . . ?
C50B C50A N1A 57.7(13) . . ?
O9 C50A N1A 118.4(11) . . ?
N1B C50A C49 83.9(18) . . ?
C50B C50A C49 172.3(19) . . ?
O9 C50A C49 126.9(10) . . ?
N1A C50A C49 114.7(13) . . ?
N1A N1B C50A 113(3) . . ?
N1A N1B C50B 66.8(19) . . ?
C50A N1B C50B 46.7(14) . . ?
N1A N1B C51 66(3) . . ?
C50A N1B C51 178(2) . . ?
C50B N1B C51 132(2) . . ?
N1A N1B C49 172(2) . . ?
C50A N1B C49 63.4(18) . . ?
C50B N1B C49 110(2) . . ?
C51 N1B C49 117.7(10) . . ?
C50A C50B N1A 81.7(15) . . ?
C50A C50B O9 77.3(19) . . ?
N1A C50B O9 159(2) . . ?
C50A C50B N1B 44.9(14) . . ?
N1A C50B N1B 37.0(9) . . ?
O9 C50B N1B 122(2) . . ?
C50A C50B C52 148.4(19) . . ?
N1A C50B C52 66.7(13) . . ?
O9 C50B C52 134.2(15) . . ?
N1B C50B C52 103.5(18) . . ?
C50A C50B H52A 171.7 . . ?
N1A C50B H52A 102.4 . . ?
O9 C50B H52A 97.9 . . ?
N1B C50B H52A 139.4 . . ?
C52 C50B H52A 36.6 . . ?

loop_
_geom_torsion_atom_site_label_1
_geom_torsion_atom_site_label_2
_geom_torsion_atom_site_label_3
_geom_torsion_atom_site_label_4
_geom_torsion
_geom_torsion_site_symmetry_1
_geom_torsion_site_symmetry_2
_geom_torsion_site_symmetry_3
_geom_torsion_site_symmetry_4
_geom_torsion_publ_flag
O5 Cu1 Cu2 O6 10.89(13) 5_565 . . 5_565 ?
O3 Cu1 Cu2 O6 -80.61(13) 5_565 . . 5_565 ?
O7 Cu1 Cu2 O6 -168.88(13) . . . 5_565 ?
O1 Cu1 Cu2 O6 100.39(13) . . . 5_565 ?
O9 Cu1 Cu2 O6 34.5(15) . . . 5_565 ?
O5 Cu1 Cu2 O4 102.42(13) 5_565 . . 5_565 ?
O3 Cu1 Cu2 O4 10.93(13) 5_565 . . 5_565 ?
O7 Cu1 Cu2 O4 -77.35(14) . . . 5_565 ?
O1 Cu1 Cu2 O4 -168.07(13) . . . 5_565 ?
O9 Cu1 Cu2 O4 126.1(15) . . . 5_565 ?
O5 Cu1 Cu2 O8 -167.57(13) 5_565 . . . ?
O3 Cu1 Cu2 O8 100.94(13) 5_565 . . . ?
O7 Cu1 Cu2 O8 12.66(14) . . . . ?
O1 Cu1 Cu2 O8 -78.06(13) . . . . ?
O9 Cu1 Cu2 O8 -143.9(15) . . . . ?
O5 Cu1 Cu2 O2 -78.54(13) 5_565 . . . ?
O3 Cu1 Cu2 O2 -170.03(13) 5_565 . . . ?
O7 Cu1 Cu2 O2 101.69(13) . . . . ?
O1 Cu1 Cu2 O2 10.97(12) . . . . ?
O9 Cu1 Cu2 O2 -54.9(15) . . . . ?
O5 Cu1 Cu2 O10 116.0(10) 5_565 . . . ?
O3 Cu1 Cu2 O10 24.5(10) 5_565 . . . ?
O7 Cu1 Cu2 O10 -63.8(10) . . . . ?
O1 Cu1 Cu2 O10 -154.5(10) . . . . ?
O9 Cu1 Cu2 O10 139.6(18) . . . . ?
O5 Cu1 O1 C1 71.9(3) 5_565 . . . ?
O3 Cu1 O1 C1 -18.1(8) 5_565 . . . ?
O7 Cu1 O1 C1 -97.9(3) . . . . ?
O9 Cu1 O1 C1 163.3(3) . . . . ?
Cu2 Cu1 O1 C1 -13.5(3) . . . . ?
O6 Cu2 O2 C1 -95.8(3) 5_565 . . . ?
O4 Cu2 O2 C1 -7.4(9) 5_565 . . . ?
O8 Cu2 O2 C1 71.1(3) . . . . ?
O10 Cu2 O2 C1 165.4(3) . . . . ?
Cu1 Cu2 O2 C1 -12.7(3) . . . . ?
O5 Cu1 O7 C48 -16.3(9) 5_565 . . . ?
O3 Cu1 O7 C48 -101.6(3) 5_565 . . . ?
O1 Cu1 O7 C48 66.1(3) . . . . ?
O9 Cu1 O7 C48 163.6(3) . . . . ?
Cu2 Cu1 O7 C48 -15.0(3) . . . . ?
O6 Cu2 O8 C48 -21.5(8) 5_565 . . . ?
O4 Cu2 O8 C48 67.2(4) 5_565 . . . ?
O2 Cu2 O8 C48 -102.5(4) . . . . ?
O10 Cu2 O8 C48 157.6(4) . . . . ?
Cu1 Cu2 O8 C48 -14.8(3) . . . . ?
O5 Cu1 O9 C50B -31.3(12) 5_565 . . . ?
O3 Cu1 O9 C50B 60.0(12) 5_565 . . . ?
O7 Cu1 O9 C50B 148.7(12) . . . . ?
O1 Cu1 O9 C50B -120.3(12) . . . . ?
Cu2 Cu1 O9 C50B -55(2) . . . . ?
O5 Cu1 O9 C50A 16.5(6) 5_565 . . . ?
O3 Cu1 O9 C50A 107.8(6) 5_565 . . . ?
O7 Cu1 O9 C50A -163.5(6) . . . . ?
O1 Cu1 O9 C50A -72.5(6) . . . . ?
Cu2 Cu1 O9 C50A -7.1(18) . . . . ?
O6 Cu2 O10 C54 -176.3(5) 5_565 . . . ?
O4 Cu2 O10 C54 93.1(5) 5_565 . . . ?
O8 Cu2 O10 C54 3.9(5) . . . . ?
O2 Cu2 O10 C54 -85.6(5) . . . . ?
Cu1 Cu2 O10 C54 79.6(11) . . . . ?
Cu2 O2 C1 O1 6.8(6) . . . . ?
Cu2 O2 C1 C2 -171.3(3) . . . . ?
Cu1 O1 C1 O2 8.2(6) . . . . ?
Cu1 O1 C1 C2 -173.7(3) . . . . ?
O2 C1 C2 C3 174.7(4) . . . . ?
O1 C1 C2 C3 -3.5(6) . . . . ?
O2 C1 C2 C7 -5.2(6) . . . . ?
O1 C1 C2 C7 176.5(4) . . . . ?
C7 C2 C3 C4 0.0(7) . . . . ?
C1 C2 C3 C4 -180.0(4) . . . . ?
C2 C3 C4 C5 -1.3(8) . . . . ?
C3 C4 C5 C6 1.7(8) . . . . ?
C4 C5 C6 C7 -0.7(7) . . . . ?
C4 C5 C6 C8 179.0(5) . . . . ?
C5 C6 C7 C2 -0.6(7) . . . . ?
C8 C6 C7 C2 179.7(4) . . . . ?
C3 C2 C7 C6 1.0(6) . . . . ?
C1 C2 C7 C6 -179.0(4) . . . . ?
C7 C6 C8 C17 32.2(7) . . . . ?
C5 C6 C8 C17 -147.5(5) . . . . ?
C7 C6 C8 C9 -145.7(5) . . . . ?
C5 C6 C8 C9 34.6(7) . . . . ?
C17 C8 C9 C10 -1.9(8) . . . . ?
C6 C8 C9 C10 176.0(5) . . . . ?
C8 C9 C10 C11 -0.9(9) . . . . ?
C9 C10 C11 C12 -176.8(6) . . . . ?
C9 C10 C11 C16 2.9(9) . . . . ?
C10 C11 C12 C13 177.7(6) . . . . ?
C16 C11 C12 C13 -2.0(9) . . . . ?
C11 C12 C13 C14 4.1(10) . . . . ?
C12 C13 C14 C15 -3.5(10) . . . . ?
C12 C13 C14 C18 179.4(6) . . . . ?
C13 C14 C15 C16 0.8(10) . . . . ?
C18 C14 C15 C16 177.9(6) . . . . ?
C14 C15 C16 C17 -176.9(5) . . . . ?
C14 C15 C16 C11 1.2(9) . . . . ?
C10 C11 C16 C17 -2.2(8) . . . . ?
C12 C11 C16 C17 177.6(5) . . . . ?
C10 C11 C16 C15 179.7(5) . . . . ?
C12 C11 C16 C15 -0.6(8) . . . . ?
C9 C8 C17 C16 2.6(8) . . . . ?
C6 C8 C17 C16 -175.3(5) . . . . ?
C15 C16 C17 C8 177.5(5) . . . . ?
C11 C16 C17 C8 -0.6(8) . . . . ?
C15 C14 C18 C23 -27.6(10) . . . . ?
C13 C14 C18 C23 149.5(6) . . . . ?
C15 C14 C18 C19 152.0(7) . . . . ?
C13 C14 C18 C19 -30.9(10) . . . . ?
C23 C18 C19 C20 0.8(11) . . . . ?
C14 C18 C19 C20 -178.7(7) . . . . ?
C18 C19 C20 C21 -1.3(12) . . . . ?
C19 C20 C21 C22 2.2(11) . . . . ?
C20 C21 C22 C23 -2.6(9) . . . . ?
C20 C21 C22 C24 -179.6(6) . . . . ?
C19 C18 C23 C22 -1.3(9) . . . . ?
C14 C18 C23 C22 178.2(6) . . . . ?
C21 C22 C23 C18 2.3(9) . . . . ?
C24 C22 C23 C18 179.3(5) . . . . ?
Cu1 O3 C24 O4 -10.3(6) 5_565 . . . ?
Cu1 O3 C24 C22 169.6(3) 5_565 . . . ?
Cu2 O4 C24 O3 -4.3(6) 5_565 . . . ?
Cu2 O4 C24 C22 175.7(3) 5_565 . . . ?
C21 C22 C24 O3 -0.4(7) . . . . ?
C23 C22 C24 O3 -177.4(4) . . . . ?
C21 C22 C24 O4 179.5(5) . . . . ?
C23 C22 C24 O4 2.6(7) . . . . ?
Cu1 O5 C25 O6 -4.5(6) 5_565 . . . ?
Cu1 O5 C25 C26 174.7(3) 5_565 . . . ?
Cu2 O6 C25 O5 -10.5(6) 5_565 . . . ?
Cu2 O6 C25 C26 170.3(3) 5_565 . . . ?
O5 C25 C26 C31 -178.8(4) . . . . ?
O6 C25 C26 C31 0.5(6) . . . . ?
O5 C25 C26 C27 -0.1(6) . . . . ?
O6 C25 C26 C27 179.1(4) . . . . ?
C31 C26 C27 C28 -1.4(7) . . . . ?
C25 C26 C27 C28 179.9(4) . . . . ?
C26 C27 C28 C29 1.6(7) . . . . ?
C27 C28 C29 C30 -1.3(7) . . . . ?
C28 C29 C30 C31 0.9(7) . . . . ?
C28 C29 C30 C32 178.7(4) . . . . ?
C27 C26 C31 C30 1.1(6) . . . . ?
C25 C26 C31 C30 179.7(4) . . . . ?
C29 C30 C31 C26 -0.8(6) . . . . ?
C32 C30 C31 C26 -178.7(4) . . . . ?
C31 C30 C32 C41 -32.9(6) . . . . ?
C29 C30 C32 C41 149.3(4) . . . . ?
C31 C30 C32 C33 142.5(4) . . . . ?
C29 C30 C32 C33 -35.3(6) . . . . ?
C41 C32 C33 C34 2.1(6) . . . . ?
C30 C32 C33 C34 -173.5(4) . . . . ?
C32 C33 C34 C35 0.4(6) . . . . ?
C33 C34 C35 C36 179.5(4) . . . . ?
C33 C34 C35 C40 -2.0(6) . . . . ?
C34 C35 C36 C37 179.0(4) . . . . ?
C40 C35 C36 C37 0.4(7) . . . . ?
C35 C36 C37 C38 0.0(7) . . . . ?
C36 C37 C38 C39 -0.6(7) . . . . ?
C36 C37 C38 C42 177.6(4) . . . . ?
C37 C38 C39 C40 0.7(6) . . . . ?
C42 C38 C39 C40 -177.5(4) . . . . ?
C38 C39 C40 C41 179.7(4) . . . . ?
C38 C39 C40 C35 -0.2(6) . . . . ?
C36 C35 C40 C41 179.7(4) . . . . ?
C34 C35 C40 C41 1.1(6) . . . . ?
C36 C35 C40 C39 -0.3(6) . . . . ?
C34 C35 C40 C39 -178.9(4) . . . . ?
C33 C32 C41 C40 -2.9(6) . . . . ?
C30 C32 C41 C40 172.6(4) . . . . ?
C39 C40 C41 C32 -178.6(4) . . . . ?
C35 C40 C41 C32 1.4(6) . . . . ?
C39 C38 C42 C43 -147.7(5) . . . . ?
C37 C38 C42 C43 34.2(7) . . . . ?
C39 C38 C42 C47 32.8(7) . . . . ?
C37 C38 C42 C47 -145.3(5) . . . . ?
C47 C42 C43 C44 2.0(8) . . . . ?
C38 C42 C43 C44 -177.5(5) . . . . ?
C42 C43 C44 C45 -1.2(9) . . . . ?
C43 C44 C45 C46 0.2(9) . . . . ?
C44 C45 C46 C47 0.0(8) . . . . ?
C44 C45 C46 C48 179.9(5) . . . . ?
C45 C46 C47 C42 0.9(7) . . . . ?
C48 C46 C47 C42 -179.0(4) . . . . ?
C43 C42 C47 C46 -1.8(7) . . . . ?
C38 C42 C47 C46 177.7(4) . . . . ?
Cu2 O8 C48 O7 8.3(7) . . . . ?
Cu2 O8 C48 C46 -172.4(3) . . . . ?
Cu1 O7 C48 O8 8.8(6) . . . . ?
Cu1 O7 C48 C46 -170.5(3) . . . . ?
C45 C46 C48 O8 179.0(5) . . . . ?
C47 C46 C48 O8 -1.1(6) . . . . ?
C45 C46 C48 O7 -1.6(7) . . . . ?
C47 C46 C48 O7 178.2(4) . . . . ?
Cu2 O10 C54 N2 -130.8(6) . . . . ?
Cu2 O10 C54 C53 69.6(10) . . . . ?
C55 N2 C54 O10 19.9(11) . . . . ?
C56 N2 C54 O10 -158.8(7) . . . . ?
C55 N2 C54 C53 179.2(10) . . . . ?
C56 N2 C54 C53 0.5(13) . . . . ?
N1B C51 N1A C50B 22(3) . . . . ?
N1B C51 N1A C50A 1.2(12) . . . . ?
N1B C51 N1A C52 167(3) . . . . ?
C50B C52 N1A N1B -11(4) . . . . ?
C50B C52 N1A C50A -0.5(8) . . . . ?
C50B C52 N1A C51 -167.4(17) . . . . ?
C50B O9 C50A N1B 1(2) . . . . ?
Cu1 O9 C50A N1B -110(3) . . . . ?
Cu1 O9 C50A C50B -110.6(10) . . . . ?
C50B O9 C50A N1A -4.1(10) . . . . ?
Cu1 O9 C50A N1A -114.7(8) . . . . ?
C50B O9 C50A C49 179.3(15) . . . . ?
Cu1 O9 C50A C49 68.7(9) . . . . ?
C50B N1A C50A N1B -171(3) . . . . ?
C51 N1A C50A N1B -2(2) . . . . ?
C52 N1A C50A N1B -170(3) . . . . ?
N1B N1A C50A C50B 171(3) . . . . ?
C51 N1A C50A C50B 168.7(16) . . . . ?
C52 N1A C50A C50B 0.7(12) . . . . ?
N1B N1A C50A O9 175(3) . . . . ?
C50B N1A C50A O9 4.2(11) . . . . ?
C51 N1A C50A O9 173.0(9) . . . . ?
C52 N1A C50A O9 4.9(13) . . . . ?
N1B N1A C50A C49 -8(3) . . . . ?
C50B N1A C50A C49 -178.7(14) . . . . ?
C51 N1A C50A C49 -10.0(15) . . . . ?
C52 N1A C50A C49 -178.0(8) . . . . ?
N1B C49 C50A C50B -4(9) . . . . ?
N1B C49 C50A O9 -179.1(17) . . . . ?
N1B C49 C50A N1A 4.2(13) . . . . ?
C50B N1A N1B C50A 6(2) . . . . ?
C51 N1A N1B C50A 178.3(18) . . . . ?
C52 N1A N1B C50A 17(5) . . . . ?
C50A N1A N1B C50B -6(2) . . . . ?
C51 N1A N1B C50B 172.1(10) . . . . ?
C52 N1A N1B C50B 10(3) . . . . ?
C50B N1A N1B C51 -172.1(10) . . . . ?
C50A N1A N1B C51 -178.3(18) . . . . ?
C52 N1A N1B C51 -162(4) . . . . ?
C50B N1A N1B C49 67(23) . . . . ?
C50A N1A N1B C49 61(22) . . . . ?
C51 N1A N1B C49 -121(23) . . . . ?
C52 N1A N1B C49 77(23) . . . . ?
C50B C50A N1B N1A -8(3) . . . . ?
O9 C50A N1B N1A -9(4) . . . . ?
C49 C50A N1B N1A 173(2) . . . . ?
O9 C50A N1B C50B -1(2) . . . . ?
N1A C50A N1B C50B 8(3) . . . . ?
C49 C50A N1B C50B -179.5(12) . . . . ?
C50B C50A N1B C51 51(75) . . . . ?
O9 C50A N1B C51 50(76) . . . . ?
N1A C50A N1B C51 59(75) . . . . ?
C49 C50A N1B C51 -128(75) . . . . ?
C50B C50A N1B C49 179.5(12) . . . . ?
O9 C50A N1B C49 179(3) . . . . ?
N1A C50A N1B C49 -173(2) . . . . ?
N1A C51 N1B C50A -60(75) . . . . ?
N1A C51 N1B C50B -9.8(13) . . . . ?
N1A C51 N1B C49 173(2) . . . . ?
C50A C49 N1B N1A -64(22) . . . . ?
C50A C49 N1B C50B 0.4(9) . . . . ?
C50A C49 N1B C51 178.4(18) . . . . ?
N1B C50A C50B N1A 4.8(16) . . . . ?
O9 C50A C50B N1A -175.7(11) . . . . ?
C49 C50A C50B N1A 9(10) . . . . ?
N1B C50A C50B O9 -179.5(12) . . . . ?
N1A C50A C50B O9 175.7(11) . . . . ?
C49 C50A C50B O9 -176(9) . . . . ?
O9 C50A C50B N1B 179.5(12) . . . . ?
N1A C50A C50B N1B -4.8(16) . . . . ?
C49 C50A C50B N1B 4(9) . . . . ?
N1B C50A C50B C52 3(3) . . . . ?
O9 C50A C50B C52 -177(3) . . . . ?
N1A C50A C50B C52 -1(2) . . . . ?
C49 C50A C50B C52 7(12) . . . . ?
N1B N1A C50B C50A -5.6(19) . . . . ?
C51 N1A C50B C50A -29(4) . . . . ?
C52 N1A C50B C50A -179.3(12) . . . . ?
N1B N1A C50B O9 -17(4) . . . . ?
C50A N1A C50B O9 -11(3) . . . . ?
C51 N1A C50B O9 -40(6) . . . . ?
C52 N1A C50B O9 169(4) . . . . ?
C50A N1A C50B N1B 5.6(19) . . . . ?
C51 N1A C50B N1B -23(3) . . . . ?
C52 N1A C50B N1B -174(2) . . . . ?
N1B N1A C50B C52 174(2) . . . . ?
C50A N1A C50B C52 179.3(12) . . . . ?
C51 N1A C50B C52 151(4) . . . . ?
Cu1 O9 C50B C50A 93.9(11) . . . . ?
C50A O9 C50B N1A 12(3) . . . . ?
Cu1 O9 C50B N1A 105(3) . . . . ?
C50A O9 C50B N1B -0.4(10) . . . . ?
Cu1 O9 C50B N1B 93.5(13) . . . . ?
C50A O9 C50B C52 178(2) . . . . ?
Cu1 O9 C50B C52 -88.3(14) . . . . ?
N1A N1B C50B C50A 172(3) . . . . ?
C51 N1B C50B C50A -178(2) . . . . ?
C49 N1B C50B C50A -0.5(11) . . . . ?
C50A N1B C50B N1A -172(3) . . . . ?
C51 N1B C50B N1A 9.8(13) . . . . ?
C49 N1B C50B N1A -173(2) . . . . ?
N1A N1B C50B O9 172.7(19) . . . . ?
C50A N1B C50B O9 0.6(14) . . . . ?
C51 N1B C50B O9 -177.5(11) . . . . ?
C49 N1B C50B O9 0.1(17) . . . . ?
N1A N1B C50B C52 -6.0(19) . . . . ?
C50A N1B C50B C52 -178.1(16) . . . . ?
C51 N1B C50B C52 3.8(18) . . . . ?
C49 N1B C50B C52 -178.6(8) . . . . ?
N1A C52 C50B C50A 1(2) . . . . ?
N1A C52 C50B O9 -174.6(18) . . . . ?
N1A C52 C50B N1B 3.9(12) . . . . ?

_diffrn_measured_fraction_theta_max 0.999
_diffrn_reflns_theta_full        25.50
_diffrn_measured_fraction_theta_full 0.999
_refine_diff_density_max         1.232
_refine_diff_density_min         -0.810
_refine_diff_density_rms         0.097


# start Validation Reply Form

_vrf_PLAT241_I                   
;
PROBLEM: Check High Ueq as Compared to Neighbors for C51
RESPONSE: the coordinated solvent molecule is disordered.
;
_vrf_PLAT601_I                   
;
PROBLEM: Structure Contains Solvent Accessible VOIDS of . 912 A**3
RESPONSE: Diffraction peaks from uncoordinated solvent molecules have been removed
by SQUEEZE function of PLATON.
;
_vrf_PLAT770_I                   
;
PROBLEM: Suspect C-H Bond in CIF: C50B -- H52A .. 1.48 Ang.
RESPONSE: due to the disorder of the coordinated solvent molecule.
;
